*SPEF "ieee 1481-1999"
*DESIGN "all_nand_inv"
*DATE "14:54:17 Sunday September 06, 2026"
*VENDOR "The OpenROAD Project"
*PROGRAM "OpenROAD"
*VERSION "dcf36133a369abc8f3c5e5738cd4d82e4903c0e0"
*DESIGN_FLOW "NAME_SCOPE LOCAL" "PIN_CAP NONE"
*DIVIDER /
*DELIMITER :
*BUS_DELIMITER []
*T_UNIT 1 NS
*C_UNIT 1 PF
*R_UNIT 1 OHM
*L_UNIT 1 HENRY

*NAME_MAP
*3 a[0]
*4 a[1]
*5 a[2]
*6 a[3]
*7 b[0]
*8 b[1]
*9 b[2]
*10 b[3]
*11 p[0]
*12 p[1]
*13 p[2]
*14 p[3]
*15 p[4]
*16 p[5]
*17 p[6]
*18 p[7]
*19 n10
*20 n100
*21 n101
*22 n102
*23 n104
*24 n105
*25 n106
*26 n107
*27 n108
*28 n109
*29 n11
*30 n110
*31 n111
*32 n113
*33 n114
*34 n115
*35 n116
*36 n117
*37 n118
*38 n119
*39 n12
*40 n120
*41 n122
*42 n123
*43 n124
*44 n125
*45 n126
*46 n127
*47 n128
*48 n129
*49 n13
*50 n14
*51 n15
*52 n16
*53 n17
*54 n18
*55 n19
*56 n20
*57 n21
*58 n22
*59 n23
*60 n24
*61 n25
*62 n26
*63 n27
*64 n28
*65 n29
*66 n30
*67 n31
*68 n32
*69 n33
*70 n34
*71 n35
*72 n36
*73 n37
*74 n38
*75 n39
*76 n40
*77 n41
*78 n42
*79 n44
*80 n45
*81 n46
*82 n47
*83 n48
*84 n49
*85 n50
*86 n51
*87 n52
*88 n53
*89 n54
*90 n55
*91 n56
*92 n57
*93 n58
*94 n59
*95 n60
*96 n61
*97 n62
*98 n63
*99 n64
*100 n65
*101 n66
*102 n67
*103 n68
*104 n69
*105 n70
*106 n72
*107 n73
*108 n74
*109 n75
*110 n76
*111 n77
*112 n78
*113 n79
*114 n8
*115 n80
*116 n81
*117 n82
*118 n83
*119 n84
*120 n85
*121 n86
*122 n87
*123 n88
*124 n89
*125 n90
*126 n91
*127 n92
*128 n93
*129 n94
*130 n95
*131 n96
*132 n97
*133 n98
*134 n99
*135 net1
*136 net10
*137 net11
*138 net12
*139 net13
*140 net14
*141 net15
*142 net16
*143 net17
*144 net18
*145 net19
*146 net2
*147 net20
*148 net21
*149 net22
*150 net23
*151 net24
*152 net25
*153 net3
*154 net4
*155 net5
*156 net6
*157 net7
*158 net8
*159 net9
*160 PHY_EDGE_ROW_0_Left_12
*161 PHY_EDGE_ROW_0_Right_0
*162 PHY_EDGE_ROW_10_Left_22
*163 PHY_EDGE_ROW_10_Right_10
*164 PHY_EDGE_ROW_11_Left_23
*165 PHY_EDGE_ROW_11_Right_11
*166 PHY_EDGE_ROW_1_Left_13
*167 PHY_EDGE_ROW_1_Right_1
*168 PHY_EDGE_ROW_2_Left_14
*169 PHY_EDGE_ROW_2_Right_2
*170 PHY_EDGE_ROW_3_Left_15
*171 PHY_EDGE_ROW_3_Right_3
*172 PHY_EDGE_ROW_4_Left_16
*173 PHY_EDGE_ROW_4_Right_4
*174 PHY_EDGE_ROW_5_Left_17
*175 PHY_EDGE_ROW_5_Right_5
*176 PHY_EDGE_ROW_6_Left_18
*177 PHY_EDGE_ROW_6_Right_6
*178 PHY_EDGE_ROW_7_Left_19
*179 PHY_EDGE_ROW_7_Right_7
*180 PHY_EDGE_ROW_8_Left_20
*181 PHY_EDGE_ROW_8_Right_8
*182 PHY_EDGE_ROW_9_Left_21
*183 PHY_EDGE_ROW_9_Right_9
*184 TAP_TAPCELL_ROW_0_24
*185 TAP_TAPCELL_ROW_0_25
*186 TAP_TAPCELL_ROW_10_35
*187 TAP_TAPCELL_ROW_11_36
*188 TAP_TAPCELL_ROW_11_37
*189 TAP_TAPCELL_ROW_1_26
*190 TAP_TAPCELL_ROW_2_27
*191 TAP_TAPCELL_ROW_3_28
*192 TAP_TAPCELL_ROW_4_29
*193 TAP_TAPCELL_ROW_5_30
*194 TAP_TAPCELL_ROW_6_31
*195 TAP_TAPCELL_ROW_7_32
*196 TAP_TAPCELL_ROW_8_33
*197 TAP_TAPCELL_ROW_9_34
*198 g10
*199 g100
*200 g101
*201 g102
*202 g103
*203 g104
*204 g105
*205 g106
*206 g107
*207 g108
*208 g109
*209 g11
*210 g110
*211 g111
*212 g112
*213 g113
*214 g114
*215 g115
*216 g116
*217 g117
*218 g118
*219 g119
*220 g12
*221 g120
*222 g121
*223 g122
*224 g123
*225 g124
*226 g125
*227 g126
*228 g127
*229 g128
*230 g129
*231 g13
*232 g130
*233 g131
*234 g14
*235 g15
*236 g16
*237 g17
*238 g18
*239 g19
*240 g20
*241 g21
*242 g22
*243 g23
*244 g24
*245 g25
*246 g26
*247 g27
*248 g28
*249 g29
*250 g30
*251 g31
*252 g32
*253 g33
*254 g34
*255 g35
*256 g36
*257 g37
*258 g38
*259 g39
*260 g40
*261 g41
*262 g42
*263 g43
*264 g44
*265 g45
*266 g46
*267 g47
*268 g48
*269 g49
*270 g50
*271 g51
*272 g52
*273 g53
*274 g54
*275 g55
*276 g56
*277 g57
*278 g58
*279 g59
*280 g60
*281 g61
*282 g62
*283 g63
*284 g64
*285 g65
*286 g66
*287 g67
*288 g68
*289 g69
*290 g70
*291 g71
*292 g72
*293 g73
*294 g74
*295 g75
*296 g76
*297 g77
*298 g78
*299 g79
*300 g8
*301 g80
*302 g81
*303 g82
*304 g83
*305 g84
*306 g85
*307 g86
*308 g87
*309 g88
*310 g89
*311 g9
*312 g90
*313 g91
*314 g92
*315 g93
*316 g94
*317 g95
*318 g96
*319 g97
*320 g98
*321 g99
*322 input1
*323 input2
*324 input3
*325 input4
*326 input5
*327 input6
*328 input7
*329 input8
*330 output10
*331 output11
*332 output12
*333 output13
*334 output14
*335 output15
*336 output16
*337 output9
*338 rebuffer17
*339 rebuffer18
*340 rebuffer19
*341 rebuffer20
*342 rebuffer21
*343 rebuffer22
*344 rebuffer23
*345 rebuffer24
*346 rebuffer25

*PORTS
a[0] I
a[1] I
a[2] I
a[3] I
b[0] I
b[1] I
b[2] I
b[3] I
p[0] O
p[1] O
p[2] O
p[3] O
p[4] O
p[5] O
p[6] O
p[7] O

*D_NET *3 0.00134336
*CONN
*P a[0] I
*I *322:A I *D sky130_fd_sc_hd__buf_6
*CAP
1 a[0] 0.000440371
2 *322:A 0.000440371
3 *322:A p[0] 0.00040766
4 *322:A *231:A 5.49544e-05
*RES
1 a[0] *322:A 25.7107 
*END

*D_NET *4 0.00138339
*CONN
*P a[1] I
*I *323:A I *D sky130_fd_sc_hd__buf_6
*CAP
1 a[1] 0.000630605
2 *323:A 0.000630605
3 *323:A p[0] 1.11993e-05
4 *323:A *266:A 4.18895e-05
5 *323:A *55:6 5.71472e-05
6 *323:A *146:23 1.19402e-05
*RES
1 a[1] *323:A 27.1393 
*END

*D_NET *5 0.00087163
*CONN
*P a[2] I
*I *324:A I *D sky130_fd_sc_hd__clkdlybuf4s25_1
*CAP
1 a[2] 0.000388159
2 *324:A 0.000388159
3 *324:A *315:A 9.53123e-05
4 *324:A *329:A 0
*RES
1 a[2] *324:A 19.502 
*END

*D_NET *6 0.000831563
*CONN
*P a[3] I
*I *325:A I *D sky130_fd_sc_hd__clkdlybuf4s25_1
*CAP
1 a[3] 0.000389417
2 *325:A 0.000389417
3 *325:A p[7] 0
4 *325:A *227:B 8.08608e-06
5 *325:A *315:A 4.46431e-05
*RES
1 a[3] *325:A 19.1984 
*END

*D_NET *7 0.00103742
*CONN
*P b[0] I
*I *326:A I *D sky130_fd_sc_hd__clkbuf_2
*CAP
1 b[0] 0.000463856
2 *326:A 0.000463856
3 *326:A p[3] 0
4 *326:A *327:A 0.000109709
*RES
1 b[0] *326:A 23.6817 
*END

*D_NET *8 0.00093632
*CONN
*P b[1] I
*I *327:A I *D sky130_fd_sc_hd__buf_6
*CAP
1 b[1] 0.000413306
2 *327:A 0.000413306
3 *327:A p[2] 0
4 *326:A *327:A 0.000109709
*RES
1 b[1] *327:A 23.7519 
*END

*D_NET *9 0.00132277
*CONN
*P b[2] I
*I *328:A I *D sky130_fd_sc_hd__buf_6
*CAP
1 b[2] 0.000317855
2 *328:A 0.000317855
3 *328:A *251:A 0.000142315
4 *328:A *329:A 0.000404365
5 *328:A *67:14 0.000140379
*RES
1 b[2] *328:A 20.1812 
*END

*D_NET *10 0.0012082
*CONN
*P b[3] I
*I *329:A I *D sky130_fd_sc_hd__dlymetal6s2s_1
*CAP
1 b[3] 0.000318561
2 *329:A 0.000318561
3 *329:A *315:A 0.000166716
4 *324:A *329:A 0
5 *328:A *329:A 0.000404365
*RES
1 b[3] *329:A 20.4127 
*END

*D_NET *11 0.00235471
*CONN
*P p[0] O
*I *337:X O *D sky130_fd_sc_hd__clkdlybuf4s25_1
*CAP
1 p[0] 0.000763206
2 *337:X 0.000763206
3 p[0] *220:A 9.65701e-06
4 p[0] *265:A 0
5 p[0] *265:B 9.31595e-05
6 p[0] *268:B 0
7 p[0] *280:A 2.8266e-06
8 p[0] *135:24 4.11173e-05
9 p[0] *146:23 0
10 p[0] *146:34 0.000262679
11 *322:A p[0] 0.00040766
12 *323:A p[0] 1.11993e-05
*RES
1 *337:X p[0] 30.9071 
*END

*D_NET *12 0.00094092
*CONN
*P p[1] O
*I *330:X O *D sky130_fd_sc_hd__clkdlybuf4s25_1
*CAP
1 p[1] 0.00047046
2 *330:X 0.00047046
3 p[1] p[2] 0
*RES
1 *330:X p[1] 24.322 
*END

*D_NET *13 0.00115669
*CONN
*P p[2] O
*I *331:X O *D sky130_fd_sc_hd__clkbuf_2
*CAP
1 p[2] 0.000564085
2 *331:X 0.000564085
3 p[2] *289:A 2.85234e-05
4 p[2] *289:B 0
5 p[1] p[2] 0
6 *327:A p[2] 0
*RES
1 *331:X p[2] 24.2366 
*END

*D_NET *14 0.0010062
*CONN
*P p[3] O
*I *332:X O *D sky130_fd_sc_hd__clkbuf_2
*CAP
1 p[3] 0.000503099
2 *332:X 0.000503099
3 *326:A p[3] 0
*RES
1 *332:X p[3] 23.0223 
*END

*D_NET *15 0.00114324
*CONN
*P p[4] O
*I *333:X O *D sky130_fd_sc_hd__clkbuf_2
*CAP
1 p[4] 0.00057162
2 *333:X 0.00057162
*RES
1 *333:X p[4] 25.2196 
*END

*D_NET *16 0.00146611
*CONN
*P p[5] O
*I *334:X O *D sky130_fd_sc_hd__clkbuf_2
*CAP
1 p[5] 0.000712121
2 *334:X 0.000712121
3 p[5] *221:B 1.34548e-05
4 p[5] *334:A 2.84109e-05
*RES
1 *334:X p[5] 27.2375 
*END

*D_NET *17 0.000864817
*CONN
*P p[6] O
*I *335:X O *D sky130_fd_sc_hd__buf_6
*CAP
1 p[6] 0.000327647
2 *335:X 0.000327647
3 p[6] p[7] 0.000209523
4 p[6] *232:A 0
*RES
1 *335:X p[6] 19.2705 
*END

*D_NET *18 0.000930271
*CONN
*P p[7] O
*I *336:X O *D sky130_fd_sc_hd__clkbuf_2
*CAP
1 p[7] 0.000337682
2 *336:X 0.000337682
3 p[7] *336:A 4.53834e-05
4 p[6] p[7] 0.000209523
5 *325:A p[7] 0
*RES
1 *336:X p[7] 19.039 
*END

*D_NET *19 0.000305697
*CONN
*I *209:A I *D sky130_fd_sc_hd__inv_1
*I *198:Y O *D sky130_fd_sc_hd__nand2_1
*CAP
1 *209:A 0.000112808
2 *198:Y 0.000112808
3 *209:A *236:B 0
4 *209:A *29:10 8.00806e-05
*RES
1 *198:Y *209:A 29.8277 
*END

*D_NET *20 0.00103769
*CONN
*I *203:A I *D sky130_fd_sc_hd__inv_1
*I *201:B I *D sky130_fd_sc_hd__nand2_1
*I *200:B I *D sky130_fd_sc_hd__nand2_1
*I *199:Y O *D sky130_fd_sc_hd__nand2_2
*CAP
1 *203:A 0.000147545
2 *201:B 0
3 *200:B 0.000109469
4 *199:Y 4.65883e-05
5 *20:10 0.000147516
6 *20:8 0.00023218
7 *200:B *199:A 0.000114861
8 *200:B *252:B 5.49995e-05
9 *200:B *115:8 9.15842e-06
10 *200:B *155:16 1.6806e-05
11 *200:B *156:6 5.66971e-05
12 *203:A *206:B 0
13 *203:A *212:B 2.8266e-06
14 *203:A *332:A 0
15 *203:A *71:10 0
16 *20:8 *253:A 9.90431e-05
17 *20:10 *253:A 0
18 *20:10 *332:A 0
*RES
1 *199:Y *20:8 14.7464 
2 *20:8 *20:10 0.732143 
3 *20:10 *200:B 16.5857 
4 *20:10 *201:B 13.8 
5 *20:8 *203:A 16.3312 
*END

*D_NET *21 0.000653056
*CONN
*I *202:A I *D sky130_fd_sc_hd__nand2_1
*I *200:Y O *D sky130_fd_sc_hd__nand2_1
*CAP
1 *202:A 0.000185692
2 *200:Y 0.000185692
3 *202:A *202:B 4.04224e-05
4 *202:A *332:A 7.89362e-05
5 *202:A *155:12 9.45048e-06
6 *202:A *155:16 7.80092e-05
7 *202:A *156:6 7.4854e-05
*RES
1 *200:Y *202:A 31.3143 
*END

*D_NET *22 0.00108134
*CONN
*I *202:B I *D sky130_fd_sc_hd__nand2_1
*I *201:Y O *D sky130_fd_sc_hd__nand2_1
*CAP
1 *202:B 0.000286084
2 *201:Y 0.000286084
3 *202:B *253:A 2.21758e-05
4 *202:B *332:A 0.000266363
5 *202:B *69:6 7.84309e-05
6 *202:B *155:12 0.000101777
7 *202:A *202:B 4.04224e-05
*RES
1 *201:Y *202:B 33.7429 
*END

*D_NET *23 0.000623316
*CONN
*I *211:A I *D sky130_fd_sc_hd__nand2_1
*I *208:B I *D sky130_fd_sc_hd__nand2_2
*I *203:Y O *D sky130_fd_sc_hd__inv_1
*CAP
1 *211:A 0
2 *208:B 0.000113271
3 *203:Y 0.000133178
4 *23:12 0.000246449
5 *208:B *208:A 3.99614e-06
6 *208:B *211:B 4.80569e-05
7 *23:12 *212:B 7.83659e-05
8 *23:12 *333:A 0
*RES
1 *203:Y *23:12 20.2732 
2 *23:12 *208:B 11.5143 
3 *23:12 *211:A 9.3 
*END

*D_NET *24 0.00160346
*CONN
*I *339:A I *D sky130_fd_sc_hd__buf_2
*I *205:B I *D sky130_fd_sc_hd__nand2_1
*I *206:B I *D sky130_fd_sc_hd__nand2_1
*I *204:Y O *D sky130_fd_sc_hd__nand2_2
*CAP
1 *339:A 0.000110331
2 *205:B 7.91787e-05
3 *206:B 0.000361081
4 *204:Y 0
5 *24:4 0.00055059
6 *205:B *204:B 7.23273e-05
7 *205:B *207:A 3.69697e-05
8 *205:B *255:A 4.27842e-06
9 *205:B *124:10 5.54817e-06
10 *206:B *204:A 0.000272371
11 *206:B *206:A 2.49484e-05
12 *206:B *212:A 4.43256e-05
13 *206:B *212:B 4.1331e-06
14 *206:B *71:10 1.76135e-05
15 *339:A *204:A 1.97695e-05
16 *203:A *206:B 0
*RES
1 *204:Y *24:4 9.3 
2 *24:4 *206:B 23.5679 
3 *24:4 *205:B 20.2464 
4 *24:4 *339:A 11.4071 
*END

*D_NET *25 0.000911267
*CONN
*I *207:A I *D sky130_fd_sc_hd__nand2_2
*I *205:Y O *D sky130_fd_sc_hd__nand2_1
*CAP
1 *207:A 0.000379801
2 *205:Y 0.000379801
3 *207:A *204:B 0
4 *207:A *206:A 0
5 *207:A *207:B 0
6 *207:A *210:B 5.5782e-05
7 *207:A *213:A 0
8 *207:A *213:B 5.52238e-05
9 *207:A *255:A 3.69047e-06
10 *205:B *207:A 3.69697e-05
*RES
1 *205:Y *207:A 33.5643 
*END

*D_NET *26 0.000628434
*CONN
*I *207:B I *D sky130_fd_sc_hd__nand2_2
*I *206:Y O *D sky130_fd_sc_hd__nand2_1
*CAP
1 *207:B 0.000109007
2 *206:Y 0.000109007
3 *207:B *210:A 0.000150632
4 *207:B *210:B 0.000126446
5 *207:B *212:A 7.61932e-05
6 *207:B *333:A 5.71472e-05
7 *207:A *207:B 0
*RES
1 *206:Y *207:B 30.9036 
*END

*D_NET *27 0.000789239
*CONN
*I *210:A I *D sky130_fd_sc_hd__nand2_1
*I *208:A I *D sky130_fd_sc_hd__nand2_2
*I *207:Y O *D sky130_fd_sc_hd__nand2_2
*CAP
1 *210:A 7.10742e-05
2 *208:A 5.74417e-05
3 *207:Y 7.26083e-05
4 *27:8 0.000201124
5 *208:A *211:B 5.7661e-06
6 *208:A *28:22 6.05161e-06
7 *210:A *206:A 1.02504e-05
8 *210:A *210:B 1.3142e-05
9 *210:A *212:B 0
10 *210:A *333:A 0.000151333
11 *27:8 *211:B 0
12 *27:8 *213:B 6.05161e-06
13 *27:8 *28:22 3.97677e-05
14 *207:B *210:A 0.000150632
15 *208:B *208:A 3.99614e-06
*RES
1 *207:Y *27:8 10.675 
2 *27:8 *208:A 10.2643 
3 *27:8 *210:A 20.8536 
*END

*D_NET *28 0.00107047
*CONN
*I *213:B I *D sky130_fd_sc_hd__nand2_2
*I *210:B I *D sky130_fd_sc_hd__nand2_1
*I *211:B I *D sky130_fd_sc_hd__nand2_1
*I *208:Y O *D sky130_fd_sc_hd__nand2_2
*CAP
1 *213:B 0.000157686
2 *210:B 5.5383e-05
3 *211:B 7.88311e-05
4 *208:Y 0.000144021
5 *28:22 0.000278259
6 *207:A *210:B 5.5782e-05
7 *207:A *213:B 5.52238e-05
8 *207:B *210:B 0.000126446
9 *208:A *211:B 5.7661e-06
10 *208:A *28:22 6.05161e-06
11 *208:B *211:B 4.80569e-05
12 *210:A *210:B 1.3142e-05
13 *27:8 *211:B 0
14 *27:8 *213:B 6.05161e-06
15 *27:8 *28:22 3.97677e-05
*RES
1 *208:Y *211:B 20.4036 
2 *208:Y *28:22 10.2464 
3 *28:22 *210:B 20.2464 
4 *28:22 *213:B 11.9071 
*END

*D_NET *29 0.00121479
*CONN
*I *260:B I *D sky130_fd_sc_hd__nand2_2
*I *262:A I *D sky130_fd_sc_hd__nand2_1
*I *209:Y O *D sky130_fd_sc_hd__inv_1
*CAP
1 *260:B 3.3228e-05
2 *262:A 0.000240596
3 *209:Y 0.000111353
4 *29:10 0.000385176
5 *262:A *261:A 8.2395e-05
6 *262:A *262:B 5.52302e-05
7 *262:A *263:A 2.71346e-05
8 *262:A *263:B 5.30637e-06
9 *262:A *330:A 7.2754e-05
10 *262:A *53:10 5.80706e-06
11 *262:A *76:16 2.54619e-05
12 *262:A *155:20 7.79781e-06
13 *29:10 *263:A 4.1331e-06
14 *29:10 *53:10 7.83366e-05
15 *209:A *29:10 8.00806e-05
*RES
1 *209:Y *29:10 16.0768 
2 *29:10 *262:A 18.55 
3 *29:10 *260:B 14.3357 
*END

*D_NET *30 0.000425731
*CONN
*I *212:A I *D sky130_fd_sc_hd__nand2_1
*I *210:Y O *D sky130_fd_sc_hd__nand2_1
*CAP
1 *212:A 8.82981e-05
2 *210:Y 8.82981e-05
3 *212:A *204:A 9.90431e-05
4 *212:A *333:A 2.95726e-05
5 *206:B *212:A 4.43256e-05
6 *207:B *212:A 7.61932e-05
*RES
1 *210:Y *212:A 21.2071 
*END

*D_NET *31 0.00023369
*CONN
*I *212:B I *D sky130_fd_sc_hd__nand2_1
*I *211:Y O *D sky130_fd_sc_hd__nand2_1
*CAP
1 *212:B 7.41821e-05
2 *211:Y 7.41821e-05
3 *212:B *333:A 0
4 *203:A *212:B 2.8266e-06
5 *206:B *212:B 4.1331e-06
6 *210:A *212:B 0
7 *23:12 *212:B 7.83659e-05
*RES
1 *211:Y *212:B 29.2429 
*END

*D_NET *32 0.000970571
*CONN
*I *218:A I *D sky130_fd_sc_hd__nand2_4
*I *221:A I *D sky130_fd_sc_hd__nand2_1
*I *213:Y O *D sky130_fd_sc_hd__nand2_2
*CAP
1 *218:A 0
2 *221:A 0.000138847
3 *213:Y 0.00016554
4 *32:6 0.000304387
5 *221:A *222:B 0.000153054
6 *221:A *334:A 0.000208743
*RES
1 *213:Y *32:6 11.8893 
2 *32:6 *221:A 22.3536 
3 *32:6 *218:A 9.3 
*END

*D_NET *33 0.0018883
*CONN
*I *215:B I *D sky130_fd_sc_hd__nand2_1
*I *340:A I *D sky130_fd_sc_hd__buf_2
*I *216:B I *D sky130_fd_sc_hd__nand2_1
*I *214:Y O *D sky130_fd_sc_hd__nand2_2
*CAP
1 *215:B 0.000114177
2 *340:A 0
3 *216:B 0.000402017
4 *214:Y 0
5 *33:17 0.000256895
6 *33:4 0.000544735
7 *215:B *215:A 0.000117135
8 *215:B *228:A 0
9 *215:B *232:B 0
10 *216:B *216:A 0.000205703
11 *216:B *217:A 1.13883e-05
12 *216:B *334:A 1.28935e-06
13 *216:B *73:6 2.14658e-05
14 *33:17 *215:A 7.83366e-05
15 *33:17 *228:A 0
16 *33:17 *257:A 8.08022e-05
17 *33:17 *133:10 5.43587e-05
*RES
1 *214:Y *33:4 9.3 
2 *33:4 *216:B 14.9786 
3 *33:4 *33:17 7.66071 
4 *33:17 *340:A 13.8 
5 *33:17 *215:B 16.6571 
*END

*D_NET *34 0.00105027
*CONN
*I *217:B I *D sky130_fd_sc_hd__nand2_2
*I *215:Y O *D sky130_fd_sc_hd__nand2_1
*CAP
1 *217:B 0.000210759
2 *215:Y 0.000210759
3 *217:B *215:A 0.000287301
4 *217:B *216:A 5.52302e-05
5 *217:B *219:B 0.000177948
6 *217:B *345:A 7.48356e-05
7 *217:B *133:10 3.34366e-05
*RES
1 *215:Y *217:B 33.1536 
*END

*D_NET *35 0.000247856
*CONN
*I *217:A I *D sky130_fd_sc_hd__nand2_2
*I *216:Y O *D sky130_fd_sc_hd__nand2_1
*CAP
1 *217:A 8.82763e-05
2 *216:Y 8.82763e-05
3 *217:A *216:A 5.99152e-05
4 *216:B *217:A 1.13883e-05
*RES
1 *216:Y *217:A 20.3857 
*END

*D_NET *36 0.00137559
*CONN
*I *345:A I *D sky130_fd_sc_hd__buf_2
*I *218:B I *D sky130_fd_sc_hd__nand2_4
*I *217:Y O *D sky130_fd_sc_hd__nand2_2
*CAP
1 *345:A 0.000174778
2 *218:B 7.02474e-05
3 *217:Y 5.42175e-05
4 *36:8 0.000299243
5 *218:B *223:A 1.3701e-05
6 *218:B *37:25 2.12007e-05
7 *345:A *215:A 2.47093e-05
8 *345:A *219:A 0.000234205
9 *345:A *219:B 5.7616e-05
10 *36:8 *219:A 0.000173601
11 *36:8 *219:B 0.000177234
12 *217:B *345:A 7.48356e-05
*RES
1 *217:Y *36:8 16.05 
2 *36:8 *218:B 15.1929 
3 *36:8 *345:A 18.2107 
*END

*D_NET *37 0.00213661
*CONN
*I *223:B I *D sky130_fd_sc_hd__nand2_2
*I *219:B I *D sky130_fd_sc_hd__nand2_1
*I *221:B I *D sky130_fd_sc_hd__nand2_1
*I *218:Y O *D sky130_fd_sc_hd__nand2_4
*CAP
1 *223:B 0
2 *219:B 0.000241503
3 *221:B 0.000256042
4 *218:Y 0
5 *37:25 0.000375329
6 *37:4 0.000389868
7 *219:B *219:A 6.70435e-05
8 *219:B *222:A 3.08664e-05
9 *219:B *257:A 6.05161e-06
10 *219:B *308:A 5.45307e-05
11 *219:B *133:10 9.32406e-05
12 *221:B *219:A 3.85226e-05
13 *221:B *334:A 0.000130393
14 *37:25 *223:A 5.7661e-06
15 p[5] *221:B 1.34548e-05
16 *217:B *219:B 0.000177948
17 *218:B *37:25 2.12007e-05
18 *345:A *219:B 5.7616e-05
19 *36:8 *219:B 0.000177234
*RES
1 *218:Y *37:4 9.3 
2 *37:4 *221:B 22.9786 
3 *37:4 *37:25 2.08929 
4 *37:25 *219:B 25.175 
5 *37:25 *223:B 9.3 
*END

*D_NET *38 0.000652247
*CONN
*I *222:A I *D sky130_fd_sc_hd__nand2_1
*I *219:Y O *D sky130_fd_sc_hd__nand2_1
*CAP
1 *222:A 0.0002832
2 *219:Y 0.0002832
3 *222:A *204:B 0
4 *222:A *219:A 0
5 *222:A *222:B 9.25014e-06
6 *222:A *308:A 4.57302e-05
7 *219:B *222:A 3.08664e-05
*RES
1 *219:Y *222:A 31.725 
*END

*D_NET *39 0.00131956
*CONN
*I *231:A I *D sky130_fd_sc_hd__inv_2
*I *220:Y O *D sky130_fd_sc_hd__nand2_2
*CAP
1 *231:A 0.000223492
2 *220:Y 0.000223492
3 *231:A *220:A 4.52652e-05
4 *231:A *265:B 0.00012316
5 *231:A *266:B 1.8461e-05
6 *231:A *49:10 7.6644e-05
7 *231:A *80:14 0.000543254
8 *231:A *135:8 1.08359e-05
9 *322:A *231:A 5.49544e-05
*RES
1 *220:Y *231:A 34.5821 
*END

*D_NET *40 0.000642987
*CONN
*I *222:B I *D sky130_fd_sc_hd__nand2_1
*I *221:Y O *D sky130_fd_sc_hd__nand2_1
*CAP
1 *222:B 0.000208827
2 *221:Y 0.000208827
3 *222:B *204:B 0
4 *222:B *219:A 0
5 *222:B *334:A 6.30292e-05
6 *221:A *222:B 0.000153054
7 *222:A *222:B 9.25014e-06
*RES
1 *221:Y *222:B 32.2071 
*END

*D_NET *41 0.000627048
*CONN
*I *228:B I *D sky130_fd_sc_hd__nand2_2
*I *230:A I *D sky130_fd_sc_hd__nand2_1
*I *223:Y O *D sky130_fd_sc_hd__nand2_2
*CAP
1 *228:B 6.64865e-05
2 *230:A 1.60352e-05
3 *223:Y 0.000164883
4 *41:6 0.000247405
5 *228:B *230:B 4.22908e-05
6 *228:B *232:B 3.18676e-05
7 *230:A *230:B 5.7661e-06
8 *41:6 *223:A 5.23142e-05
*RES
1 *223:Y *41:6 12.3 
2 *41:6 *230:A 9.72857 
3 *41:6 *228:B 11.0857 
*END

*D_NET *42 0.00260919
*CONN
*I *233:A I *D sky130_fd_sc_hd__nand2_1
*I *225:B I *D sky130_fd_sc_hd__nand2_1
*I *226:B I *D sky130_fd_sc_hd__nand2_1
*I *224:Y O *D sky130_fd_sc_hd__nand2_1
*CAP
1 *233:A 0.00019365
2 *225:B 0
3 *226:B 0.000400537
4 *224:Y 0.00014124
5 *42:10 0.000480695
6 *42:6 0.000415049
7 *226:B *224:B 1.85815e-05
8 *226:B *226:A 4.4154e-05
9 *226:B *259:A 2.79827e-05
10 *226:B *315:B 1.73789e-05
11 *226:B *316:B 0.000168496
12 *226:B *317:B 1.87331e-05
13 *226:B *321:B 5.33005e-05
14 *226:B *129:12 5.90911e-05
15 *226:B *134:10 0.000136693
16 *233:A *227:B 0.000227532
17 *233:A *229:A 0
18 *42:6 *224:B 7.16452e-05
19 *42:6 *229:A 7.48301e-06
20 *42:10 *224:A 1.93174e-05
21 *42:10 *224:B 3.75052e-05
22 *42:10 *227:A 3.69697e-05
23 *42:10 *315:B 3.31535e-05
*RES
1 *224:Y *42:6 11.0679 
2 *42:6 *42:10 6.44643 
3 *42:10 *226:B 21.8714 
4 *42:10 *225:B 13.8 
5 *42:6 *233:A 13.05 
*END

*D_NET *43 0.000482627
*CONN
*I *227:A I *D sky130_fd_sc_hd__nand2_1
*I *225:Y O *D sky130_fd_sc_hd__nand2_1
*CAP
1 *227:A 0.000108808
2 *225:Y 0.000108808
3 *227:A *224:A 0.000149911
4 *227:A *224:B 2.09826e-05
5 *227:A *46:21 0
6 *227:A *154:30 5.71472e-05
7 *42:10 *227:A 3.69697e-05
*RES
1 *225:Y *227:A 30.0821 
*END

*D_NET *44 0.00122951
*CONN
*I *227:B I *D sky130_fd_sc_hd__nand2_1
*I *226:Y O *D sky130_fd_sc_hd__nand2_1
*CAP
1 *227:B 0.000297682
2 *226:Y 0.000297682
3 *227:B *224:B 0.000118052
4 *227:B *226:A 5.66971e-05
5 *227:B *229:A 4.22908e-05
6 *227:B *233:B 5.52302e-05
7 *227:B *258:A 7.74068e-05
8 *227:B *315:A 4.88537e-05
9 *233:A *227:B 0.000227532
10 *325:A *227:B 8.08608e-06
*RES
1 *226:Y *227:B 34.8143 
*END

*D_NET *45 0.000550614
*CONN
*I *228:A I *D sky130_fd_sc_hd__nand2_2
*I *229:A I *D sky130_fd_sc_hd__nand2_1
*I *227:Y O *D sky130_fd_sc_hd__nand2_1
*CAP
1 *228:A 0.000112178
2 *229:A 8.63156e-05
3 *227:Y 0
4 *45:4 0.000198493
5 *228:A *230:B 5.52302e-05
6 *228:A *232:A 4.25716e-05
7 *229:A *224:B 6.05161e-06
8 *215:B *228:A 0
9 *227:B *229:A 4.22908e-05
10 *233:A *229:A 0
11 *33:17 *228:A 0
12 *42:6 *229:A 7.48301e-06
*RES
1 *227:Y *45:4 9.3 
2 *45:4 *229:A 11.1036 
3 *45:4 *228:A 20.4786 
*END

*D_NET *46 0.000897497
*CONN
*I *233:B I *D sky130_fd_sc_hd__nand2_1
*I *229:B I *D sky130_fd_sc_hd__nand2_1
*I *230:B I *D sky130_fd_sc_hd__nand2_1
*I *228:Y O *D sky130_fd_sc_hd__nand2_2
*CAP
1 *233:B 2.52056e-05
2 *229:B 0
3 *230:B 0.000151332
4 *228:Y 0
5 *46:21 0.000139834
6 *46:4 0.00026596
7 *46:21 *232:A 0.00010326
8 *46:21 *336:A 5.33882e-05
9 *227:A *46:21 0
10 *227:B *233:B 5.52302e-05
11 *228:A *230:B 5.52302e-05
12 *228:B *230:B 4.22908e-05
13 *230:A *230:B 5.7661e-06
*RES
1 *228:Y *46:4 9.3 
2 *46:4 *230:B 11.9071 
3 *46:4 *46:21 11.4821 
4 *46:21 *229:B 9.3 
5 *46:21 *233:B 9.83571 
*END

*D_NET *47 0.00077156
*CONN
*I *232:A I *D sky130_fd_sc_hd__nand2_1
*I *229:Y O *D sky130_fd_sc_hd__nand2_1
*CAP
1 *232:A 0.000281831
2 *229:Y 0.000281831
3 *232:A *232:B 0
4 *232:A *335:A 6.20656e-05
5 p[6] *232:A 0
6 *228:A *232:A 4.25716e-05
7 *46:21 *232:A 0.00010326
*RES
1 *229:Y *232:A 33.4571 
*END

*D_NET *48 0.000328523
*CONN
*I *232:B I *D sky130_fd_sc_hd__nand2_1
*I *230:Y O *D sky130_fd_sc_hd__nand2_1
*CAP
1 *232:B 0.000148328
2 *230:Y 0.000148328
3 *215:B *232:B 0
4 *228:B *232:B 3.18676e-05
5 *232:A *232:B 0
*RES
1 *230:Y *232:B 30.0821 
*END

*D_NET *49 0.0033345
*CONN
*I *265:B I *D sky130_fd_sc_hd__nand2_2
*I *267:A I *D sky130_fd_sc_hd__nand2_1
*I *231:Y O *D sky130_fd_sc_hd__inv_2
*CAP
1 *265:B 0.000340657
2 *267:A 0.000338142
3 *231:Y 0.000196598
4 *49:10 0.000875397
5 *265:B *220:A 0.00012353
6 *265:B *280:A 4.25716e-05
7 *267:A *238:A 1.28326e-05
8 *267:A *300:A 0
9 *267:A *311:A 0
10 *267:A *337:A 2.77143e-05
11 *267:A *135:24 0.000350124
12 *267:A *146:23 5.33005e-05
13 *267:A *146:34 0.000450243
14 *49:10 *80:14 0.000230432
15 p[0] *265:B 9.31595e-05
16 *231:A *265:B 0.00012316
17 *231:A *49:10 7.6644e-05
*RES
1 *231:Y *49:10 17.0143 
2 *49:10 *267:A 21.3714 
3 *49:10 *265:B 28.3893 
*END

*D_NET *50 0.00088399
*CONN
*I *235:A I *D sky130_fd_sc_hd__inv_2
*I *234:Y O *D sky130_fd_sc_hd__nand2_2
*CAP
1 *235:A 0.000202153
2 *234:Y 0.000202153
3 *235:A *234:B 0.000138893
4 *235:A *240:A 0
5 *235:A *51:8 0.000100823
6 *235:A *89:10 0.00014285
7 *235:A *146:34 9.71197e-05
*RES
1 *234:Y *235:A 32.4393 
*END

*D_NET *51 0.00104411
*CONN
*I *276:A I *D sky130_fd_sc_hd__nand2_1
*I *274:B I *D sky130_fd_sc_hd__nand2_4
*I *235:Y O *D sky130_fd_sc_hd__inv_2
*CAP
1 *276:A 0.000140669
2 *274:B 1.645e-05
3 *235:Y 7.79816e-05
4 *51:8 0.0002351
5 *274:B *234:B 9.90367e-05
6 *274:B *242:A 9.90367e-05
7 *276:A *89:10 0.000173097
8 *51:8 *57:10 2.28335e-05
9 *51:8 *89:10 7.90803e-05
10 *235:A *51:8 0.000100823
*RES
1 *235:Y *51:8 15.7464 
2 *51:8 *274:B 14.7464 
3 *51:8 *276:A 16.5857 
*END

*D_NET *52 0.000186532
*CONN
*I *237:A I *D sky130_fd_sc_hd__inv_1
*I *236:Y O *D sky130_fd_sc_hd__nand2_1
*CAP
1 *237:A 9.12681e-05
2 *236:Y 9.12681e-05
3 *237:A *236:A 3.99614e-06
*RES
1 *236:Y *237:A 20.2563 
*END

*D_NET *53 0.000955781
*CONN
*I *261:A I *D sky130_fd_sc_hd__nand2_1
*I *260:A I *D sky130_fd_sc_hd__nand2_2
*I *237:Y O *D sky130_fd_sc_hd__inv_1
*CAP
1 *261:A 8.33707e-05
2 *260:A 1.77691e-05
3 *237:Y 9.85746e-05
4 *53:10 0.000199714
5 *260:A *198:A 5.52302e-05
6 *260:A *198:B 2.59355e-05
7 *261:A *61:10 1.92789e-05
8 *261:A *76:16 5.52238e-05
9 *261:A *155:20 0.000171375
10 *53:10 *236:B 5.35191e-05
11 *53:10 *155:20 9.25014e-06
12 *262:A *261:A 8.2395e-05
13 *262:A *53:10 5.80706e-06
14 *29:10 *53:10 7.83366e-05
*RES
1 *237:Y *53:10 16.0768 
2 *53:10 *260:A 14.3357 
3 *53:10 *261:A 16.5857 
*END

*D_NET *54 0.00106769
*CONN
*I *239:A I *D sky130_fd_sc_hd__inv_2
*I *238:Y O *D sky130_fd_sc_hd__nand2_2
*CAP
1 *239:A 0.000129054
2 *238:Y 0.000129054
3 *239:A *236:A 0.000188586
4 *239:A *267:B 5.26184e-05
5 *239:A *55:6 0.000274288
6 *239:A *146:23 0.000294085
*RES
1 *238:Y *239:A 32.7429 
*END

*D_NET *55 0.00284085
*CONN
*I *266:A I *D sky130_fd_sc_hd__nand2_1
*I *265:A I *D sky130_fd_sc_hd__nand2_2
*I *239:Y O *D sky130_fd_sc_hd__inv_2
*CAP
1 *266:A 4.26196e-05
2 *265:A 0.000519434
3 *239:Y 0.000117498
4 *55:6 0.000679552
5 *265:A *238:B 4.34472e-05
6 *265:A *267:B 0
7 *265:A *268:A 3.48235e-05
8 *265:A *268:B 0.000260512
9 *265:A *270:A 9.60939e-05
10 *265:A *279:A 5.17019e-05
11 *265:A *93:16 3.16805e-05
12 *265:A *146:23 0.000163125
13 *266:A *266:B 1.3701e-05
14 *266:A *267:B 9.90431e-05
15 *55:6 *236:A 2.44318e-05
16 *55:6 *267:B 0.000268396
17 *55:6 *146:23 2.14658e-05
18 p[0] *265:A 0
19 *239:A *55:6 0.000274288
20 *323:A *266:A 4.18895e-05
21 *323:A *55:6 5.71472e-05
*RES
1 *239:Y *55:6 13.5321 
2 *55:6 *265:A 27.175 
3 *55:6 *266:A 10.675 
*END

*D_NET *56 0.000688799
*CONN
*I *241:A I *D sky130_fd_sc_hd__inv_1
*I *240:Y O *D sky130_fd_sc_hd__nand2_1
*CAP
1 *241:A 0.000315389
2 *240:Y 0.000315389
3 *241:A *57:10 5.80205e-05
*RES
1 *240:Y *241:A 24.3188 
*END

*D_NET *57 0.000852247
*CONN
*I *275:A I *D sky130_fd_sc_hd__nand2_1
*I *274:A I *D sky130_fd_sc_hd__nand2_4
*I *241:Y O *D sky130_fd_sc_hd__inv_1
*CAP
1 *275:A 0.000133088
2 *274:A 0
3 *241:Y 0.000175027
4 *57:10 0.000308115
5 *275:A *277:A 0
6 *275:A *277:B 1.33343e-05
7 *275:A *59:10 0
8 *275:A *89:10 7.48356e-05
9 *275:A *157:10 2.44318e-05
10 *275:A *158:12 0
11 *57:10 *89:10 4.25619e-05
12 *57:10 *158:12 0
13 *241:A *57:10 5.80205e-05
14 *51:8 *57:10 2.28335e-05
*RES
1 *241:Y *57:10 16.8982 
2 *57:10 *274:A 13.8 
3 *57:10 *275:A 16.7107 
*END

*D_NET *58 0.000354414
*CONN
*I *243:A I *D sky130_fd_sc_hd__inv_1
*I *242:Y O *D sky130_fd_sc_hd__nand2_1
*CAP
1 *243:A 3.48734e-05
2 *242:Y 3.48734e-05
3 *243:A *234:B 0.000163324
4 *243:A *242:A 0.000103908
5 *243:A *59:10 1.74352e-05
*RES
1 *242:Y *243:A 20.6223 
*END

*D_NET *59 0.00206142
*CONN
*I *284:A I *D sky130_fd_sc_hd__nand2_2
*I *283:A I *D sky130_fd_sc_hd__nand2_4
*I *243:Y O *D sky130_fd_sc_hd__inv_1
*CAP
1 *284:A 0.00015557
2 *283:A 3.04135e-05
3 *243:Y 0.0002334
4 *59:10 0.000419383
5 *283:A *313:A 5.33005e-05
6 *284:A *314:A 0.000206451
7 *284:A *153:8 4.97967e-05
8 *284:A *158:12 0.000177948
9 *284:A *158:38 0.000215088
10 *59:10 *242:A 7.90536e-05
11 *59:10 *287:A 0
12 *59:10 *314:A 1.76135e-05
13 *59:10 *89:10 0
14 *59:10 *102:10 6.5185e-05
15 *59:10 *158:12 0.000340781
16 *243:A *59:10 1.74352e-05
17 *275:A *59:10 0
*RES
1 *243:Y *59:10 19.3268 
2 *59:10 *283:A 14.3357 
3 *59:10 *284:A 19.7286 
*END

*D_NET *60 0.00151596
*CONN
*I *245:A I *D sky130_fd_sc_hd__inv_1
*I *244:Y O *D sky130_fd_sc_hd__nand2_1
*CAP
1 *245:A 0.000278248
2 *244:Y 0.000278248
3 *245:A *244:A 1.81805e-05
4 *245:A *244:B 1.21258e-05
5 *245:A *269:B 0
6 *245:A *272:A 6.07626e-05
7 *245:A *290:B 0.000175512
8 *245:A *297:B 2.59355e-05
9 *245:A *76:10 9.25014e-06
10 *245:A *76:16 2.99125e-05
11 *245:A *106:10 9.99979e-05
12 *245:A *155:20 0.000527789
*RES
1 *244:Y *245:A 35.6312 
*END

*D_NET *61 0.000966444
*CONN
*I *288:B I *D sky130_fd_sc_hd__nand2_2
*I *290:A I *D sky130_fd_sc_hd__nand2_1
*I *245:Y O *D sky130_fd_sc_hd__inv_1
*CAP
1 *288:B 5.91399e-05
2 *290:A 7.59882e-05
3 *245:Y 0.000138969
4 *61:10 0.000274097
5 *288:B *289:A 5.80706e-06
6 *288:B *87:10 7.48356e-05
7 *288:B *155:20 7.83462e-05
8 *290:A *330:A 5.52302e-05
9 *290:A *87:10 2.14658e-05
10 *61:10 *330:A 4.38511e-05
11 *61:10 *76:16 4.12921e-06
12 *61:10 *87:10 2.84494e-05
13 *61:10 *155:20 8.68569e-05
14 *261:A *61:10 1.92789e-05
*RES
1 *245:Y *61:10 16.7911 
2 *61:10 *290:A 15.175 
3 *61:10 *288:B 15.7464 
*END

*D_NET *62 0.000230895
*CONN
*I *247:A I *D sky130_fd_sc_hd__inv_1
*I *246:Y O *D sky130_fd_sc_hd__nand2_1
*CAP
1 *247:A 6.70849e-05
2 *246:Y 6.70849e-05
3 *247:A *244:A 3.18676e-05
4 *247:A *246:A 1.04232e-05
5 *247:A *291:A 0
6 *247:A *153:33 5.44341e-05
*RES
1 *246:Y *247:A 20.2563 
*END

*D_NET *63 0.00102006
*CONN
*I *293:A I *D sky130_fd_sc_hd__nand2_2
*I *295:A I *D sky130_fd_sc_hd__nand2_1
*I *247:Y O *D sky130_fd_sc_hd__inv_1
*CAP
1 *293:A 0.000168142
2 *295:A 5.98108e-05
3 *247:Y 0.000165475
4 *63:12 0.000393427
5 *293:A *294:A 7.91368e-05
6 *293:A *295:B 3.11088e-05
7 *293:A *296:A 6.93704e-06
8 *293:A *96:12 3.14003e-05
9 *293:A *107:8 2.74737e-05
10 *295:A *296:A 7.25873e-06
11 *295:A *296:B 7.25873e-06
12 *295:A *107:8 5.46383e-06
13 *63:12 *153:33 3.71723e-05
*RES
1 *247:Y *63:12 20.7911 
2 *63:12 *295:A 10.5679 
3 *63:12 *293:A 21.6214 
*END

*D_NET *64 0.000768181
*CONN
*I *249:A I *D sky130_fd_sc_hd__inv_1
*I *248:Y O *D sky130_fd_sc_hd__nand2_1
*CAP
1 *249:A 0.000153951
2 *248:Y 0.000153951
3 *249:A *306:B 0.000149959
4 *249:A *344:A 0.000212854
5 *249:A *153:33 9.74665e-05
*RES
1 *248:Y *249:A 31.1402 
*END

*D_NET *65 0.00101016
*CONN
*I *305:A I *D sky130_fd_sc_hd__nand2_2
*I *303:A I *D sky130_fd_sc_hd__nand2_4
*I *249:Y O *D sky130_fd_sc_hd__inv_1
*CAP
1 *305:A 0.000164961
2 *303:A 0
3 *249:Y 0.000161887
4 *65:8 0.000326848
5 *305:A *256:B 0.000147725
6 *305:A *306:A 6.05161e-06
7 *305:A *312:A 6.67143e-05
8 *305:A *117:19 4.49141e-05
9 *305:A *125:10 1.4796e-05
10 *65:8 *344:A 7.62658e-05
*RES
1 *249:Y *65:8 11.5946 
2 *65:8 *303:A 9.3 
3 *65:8 *305:A 22.1571 
*END

*D_NET *66 0.00309077
*CONN
*I *251:A I *D sky130_fd_sc_hd__inv_1
*I *250:Y O *D sky130_fd_sc_hd__nand2_1
*CAP
1 *251:A 0.000675472
2 *250:Y 0.000675472
3 *251:A *250:B 9.45048e-06
4 *251:A *258:B 1.21258e-05
5 *251:A *314:B 0.000268842
6 *251:A *315:A 0.000501774
7 *251:A *67:14 0.000141414
8 *251:A *126:12 0.000663909
9 *251:A *158:12 0
10 *328:A *251:A 0.000142315
*RES
1 *250:Y *251:A 43.8366 
*END

*D_NET *67 0.00368651
*CONN
*I *315:A I *D sky130_fd_sc_hd__nand2_1
*I *313:B I *D sky130_fd_sc_hd__nand2_1
*I *251:Y O *D sky130_fd_sc_hd__inv_1
*CAP
1 *315:A 0.000671326
2 *313:B 4.26984e-05
3 *251:Y 0.000309179
4 *67:14 0.0010232
5 *315:A *258:A 0.000172931
6 *315:A *259:A 7.48554e-05
7 *315:A *315:B 9.76163e-05
8 *315:A *316:B 0.000136727
9 *315:A *126:12 1.03904e-05
10 *315:A *154:30 8.48678e-06
11 *227:B *315:A 4.88537e-05
12 *251:A *315:A 0.000501774
13 *251:A *67:14 0.000141414
14 *324:A *315:A 9.53123e-05
15 *325:A *315:A 4.46431e-05
16 *328:A *67:14 0.000140379
17 *329:A *315:A 0.000166716
*RES
1 *251:Y *67:14 19.9875 
2 *67:14 *313:B 14.3357 
3 *67:14 *315:A 30.1214 
*END

*D_NET *68 0.000906658
*CONN
*I *253:A I *D sky130_fd_sc_hd__inv_1
*I *252:Y O *D sky130_fd_sc_hd__nand2_1
*CAP
1 *253:A 0.00029382
2 *252:Y 0.00029382
3 *253:A *199:A 5.39016e-05
4 *253:A *199:B 7.4854e-05
5 *253:A *201:A 1.02301e-05
6 *253:A *69:6 5.88133e-05
7 *202:B *253:A 2.21758e-05
8 *20:8 *253:A 9.90431e-05
9 *20:10 *253:A 0
*RES
1 *252:Y *253:A 33.6937 
*END

*D_NET *69 0.000443633
*CONN
*I *199:B I *D sky130_fd_sc_hd__nand2_2
*I *201:A I *D sky130_fd_sc_hd__nand2_1
*I *253:Y O *D sky130_fd_sc_hd__inv_1
*CAP
1 *199:B 7.3601e-05
2 *201:A 1.12273e-05
3 *253:Y 1.02392e-05
4 *69:6 9.50675e-05
5 *199:B *199:A 3.11699e-05
6 *202:B *69:6 7.84309e-05
7 *253:A *199:B 7.4854e-05
8 *253:A *201:A 1.02301e-05
9 *253:A *69:6 5.88133e-05
*RES
1 *253:Y *69:6 10.0411 
2 *69:6 *201:A 9.72857 
3 *69:6 *199:B 11.0857 
*END

*D_NET *70 0.000233091
*CONN
*I *255:A I *D sky130_fd_sc_hd__inv_1
*I *254:Y O *D sky130_fd_sc_hd__nand2_1
*CAP
1 *255:A 0.000112561
2 *254:Y 0.000112561
3 *205:B *255:A 4.27842e-06
4 *207:A *255:A 3.69047e-06
*RES
1 *254:Y *255:A 29.5241 
*END

*D_NET *71 0.00121718
*CONN
*I *206:A I *D sky130_fd_sc_hd__nand2_1
*I *204:A I *D sky130_fd_sc_hd__nand2_2
*I *255:Y O *D sky130_fd_sc_hd__inv_1
*CAP
1 *206:A 3.01267e-05
2 *204:A 0.000106798
3 *255:Y 0.000249666
4 *71:10 0.00038659
5 *203:A *71:10 0
6 *206:B *204:A 0.000272371
7 *206:B *206:A 2.49484e-05
8 *206:B *71:10 1.76135e-05
9 *207:A *206:A 0
10 *210:A *206:A 1.02504e-05
11 *212:A *204:A 9.90431e-05
12 *339:A *204:A 1.97695e-05
*RES
1 *255:Y *71:10 17.1125 
2 *71:10 *204:A 17.1214 
3 *71:10 *206:A 14.5321 
*END

*D_NET *72 0.000910822
*CONN
*I *257:A I *D sky130_fd_sc_hd__inv_1
*I *256:Y O *D sky130_fd_sc_hd__nand2_1
*CAP
1 *257:A 0.000316835
2 *256:Y 0.000316835
3 *257:A *224:A 0
4 *257:A *256:A 1.47936e-05
5 *257:A *73:6 7.71367e-05
6 *257:A *133:10 9.83689e-05
7 *219:B *257:A 6.05161e-06
8 *33:17 *257:A 8.08022e-05
*RES
1 *256:Y *257:A 32.8545 
*END

*D_NET *73 0.00093944
*CONN
*I *214:A I *D sky130_fd_sc_hd__nand2_2
*I *216:A I *D sky130_fd_sc_hd__nand2_1
*I *257:Y O *D sky130_fd_sc_hd__inv_1
*CAP
1 *214:A 1.9971e-05
2 *216:A 0.000136162
3 *257:Y 6.9744e-05
4 *73:6 0.000225877
5 *214:A *214:B 1.04232e-05
6 *214:A *224:B 0
7 *216:A *214:B 2.89114e-05
8 *73:6 *214:B 2.89016e-05
9 *216:B *216:A 0.000205703
10 *216:B *73:6 2.14658e-05
11 *217:A *216:A 5.99152e-05
12 *217:B *216:A 5.52302e-05
13 *257:A *73:6 7.71367e-05
*RES
1 *257:Y *73:6 10.8625 
2 *73:6 *216:A 13.1393 
3 *73:6 *214:A 9.72857 
*END

*D_NET *74 0.00040705
*CONN
*I *259:A I *D sky130_fd_sc_hd__inv_1
*I *258:Y O *D sky130_fd_sc_hd__nand2_1
*CAP
1 *259:A 6.3093e-05
2 *258:Y 6.3093e-05
3 *259:A *226:A 2.79827e-05
4 *259:A *258:A 0.000150043
5 *226:B *259:A 2.79827e-05
6 *315:A *259:A 7.48554e-05
*RES
1 *258:Y *259:A 29.8277 
*END

*D_NET *75 0.00160071
*CONN
*I *226:A I *D sky130_fd_sc_hd__nand2_1
*I *224:B I *D sky130_fd_sc_hd__nand2_1
*I *259:Y O *D sky130_fd_sc_hd__inv_1
*CAP
1 *226:A 6.7733e-05
2 *224:B 0.000440415
3 *259:Y 0
4 *75:4 0.000508148
5 *224:B *214:B 0
6 *224:B *258:A 0.000100248
7 *224:B *315:B 8.25181e-05
8 *214:A *224:B 0
9 *226:B *224:B 1.85815e-05
10 *226:B *226:A 4.4154e-05
11 *227:A *224:B 2.09826e-05
12 *227:B *224:B 0.000118052
13 *227:B *226:A 5.66971e-05
14 *229:A *224:B 6.05161e-06
15 *259:A *226:A 2.79827e-05
16 *42:6 *224:B 7.16452e-05
17 *42:10 *224:B 3.75052e-05
*RES
1 *259:Y *75:4 9.3 
2 *75:4 *224:B 27.0946 
3 *75:4 *226:A 10.8804 
*END

*D_NET *76 0.000927402
*CONN
*I *264:A I *D sky130_fd_sc_hd__inv_2
*I *261:B I *D sky130_fd_sc_hd__nand2_1
*I *262:B I *D sky130_fd_sc_hd__nand2_1
*I *260:Y O *D sky130_fd_sc_hd__nand2_2
*CAP
1 *264:A 0
2 *261:B 0
3 *262:B 1.298e-05
4 *260:Y 0.000101148
5 *76:16 0.000196749
6 *76:10 0.000284917
7 *262:B *263:A 2.14757e-05
8 *76:10 *238:B 0
9 *76:10 *269:B 4.1331e-06
10 *76:10 *155:20 7.15687e-05
11 *76:10 *156:16 0
12 *76:16 *263:A 5.52238e-05
13 *76:16 *148:14 0
14 *245:A *76:10 9.25014e-06
15 *245:A *76:16 2.99125e-05
16 *261:A *76:16 5.52238e-05
17 *262:A *262:B 5.52302e-05
18 *262:A *76:16 2.54619e-05
19 *61:10 *76:16 4.12921e-06
*RES
1 *260:Y *76:10 20.2464 
2 *76:10 *76:16 3.44643 
3 *76:16 *262:B 9.83571 
4 *76:16 *261:B 9.3 
5 *76:10 *264:A 9.3 
*END

*D_NET *77 0.000569272
*CONN
*I *263:A I *D sky130_fd_sc_hd__nand2_1
*I *261:Y O *D sky130_fd_sc_hd__nand2_1
*CAP
1 *263:A 0.00015859
2 *261:Y 0.00015859
3 *263:A *263:B 6.74815e-05
4 *263:A *330:A 7.6644e-05
5 *262:A *263:A 2.71346e-05
6 *262:B *263:A 2.14757e-05
7 *29:10 *263:A 4.1331e-06
8 *76:16 *263:A 5.52238e-05
*RES
1 *261:Y *263:A 30.6 
*END

*D_NET *78 0.000316774
*CONN
*I *263:B I *D sky130_fd_sc_hd__nand2_1
*I *262:Y O *D sky130_fd_sc_hd__nand2_1
*CAP
1 *263:B 0.000121993
2 *262:Y 0.000121993
3 *262:A *263:B 5.30637e-06
4 *263:A *263:B 6.74815e-05
*RES
1 *262:Y *263:B 29.7786 
*END

*D_NET *79 0.000835642
*CONN
*I *271:A I *D sky130_fd_sc_hd__nand2_1
*I *269:B I *D sky130_fd_sc_hd__nand2_4
*I *264:Y O *D sky130_fd_sc_hd__inv_2
*CAP
1 *271:A 0
2 *269:B 0.000184844
3 *264:Y 4.95697e-05
4 *79:6 0.000234414
5 *269:B *272:A 0.000153054
6 *269:B *272:B 0.000128154
7 *269:B *291:B 1.58163e-05
8 *269:B *346:A 0
9 *269:B *156:16 3.67548e-05
10 *79:6 *272:A 2.89016e-05
11 *245:A *269:B 0
12 *76:10 *269:B 4.1331e-06
*RES
1 *264:Y *79:6 10.2464 
2 *79:6 *269:B 22.6393 
3 *79:6 *271:A 9.3 
*END

*D_NET *80 0.00539219
*CONN
*I *344:A I *D sky130_fd_sc_hd__buf_2
*I *266:B I *D sky130_fd_sc_hd__nand2_1
*I *267:B I *D sky130_fd_sc_hd__nand2_1
*I *265:Y O *D sky130_fd_sc_hd__nand2_2
*CAP
1 *344:A 0.000578931
2 *266:B 5.05329e-05
3 *267:B 0.000326082
4 *265:Y 0.000212002
5 *80:14 0.000696909
6 *80:8 0.00111123
7 *267:B *236:B 0
8 *267:B *268:B 0.000142856
9 *344:A *256:B 6.93428e-05
10 *344:A *273:A 8.00858e-05
11 *344:A *278:A 4.70271e-05
12 *344:A *280:A 0
13 *344:A *281:B 0
14 *344:A *293:B 5.38444e-06
15 *344:A *306:B 3.09595e-05
16 *344:A *93:16 3.48235e-05
17 *344:A *157:32 1.00477e-05
18 *80:8 *279:A 4.58976e-05
19 *80:8 *93:16 0.000228508
20 *80:14 *220:A 6.55528e-06
21 *80:14 *234:A 3.22595e-05
22 *80:14 *278:A 1.6603e-05
23 *80:14 *280:A 0
24 *80:14 *93:16 1.52978e-05
25 *80:14 *135:8 0.000135832
26 *231:A *266:B 1.8461e-05
27 *231:A *80:14 0.000543254
28 *239:A *267:B 5.26184e-05
29 *249:A *344:A 0.000212854
30 *265:A *267:B 0
31 *266:A *266:B 1.3701e-05
32 *266:A *267:B 9.90431e-05
33 *49:10 *80:14 0.000230432
34 *55:6 *267:B 0.000268396
35 *65:8 *344:A 7.62658e-05
*RES
1 *265:Y *80:8 16.8 
2 *80:8 *80:14 13.1964 
3 *80:14 *267:B 25.1929 
4 *80:14 *266:B 10.5679 
5 *80:8 *344:A 25.4071 
*END

*D_NET *81 0.00105741
*CONN
*I *268:B I *D sky130_fd_sc_hd__nand2_2
*I *266:Y O *D sky130_fd_sc_hd__nand2_1
*CAP
1 *268:B 0.000254457
2 *266:Y 0.000254457
3 *268:B *238:B 5.58941e-05
4 *268:B *268:A 1.69115e-05
5 *268:B *270:A 3.34366e-05
6 *268:B *280:B 3.88819e-05
7 p[0] *268:B 0
8 *265:A *268:B 0.000260512
9 *267:B *268:B 0.000142856
*RES
1 *266:Y *268:B 33.0286 
*END

*D_NET *82 0.000371908
*CONN
*I *268:A I *D sky130_fd_sc_hd__nand2_2
*I *267:Y O *D sky130_fd_sc_hd__nand2_1
*CAP
1 *268:A 0.000124657
2 *267:Y 0.000124657
3 *268:A *238:B 1.3712e-05
4 *268:A *337:A 5.71472e-05
5 *268:A *156:16 0
6 *265:A *268:A 3.48235e-05
7 *268:B *268:A 1.69115e-05
*RES
1 *267:Y *268:A 29.7786 
*END

*D_NET *83 0.00110497
*CONN
*I *346:A I *D sky130_fd_sc_hd__buf_2
*I *269:A I *D sky130_fd_sc_hd__nand2_4
*I *268:Y O *D sky130_fd_sc_hd__nand2_2
*CAP
1 *346:A 0.00027711
2 *269:A 0
3 *268:Y 5.00711e-05
4 *83:10 0.000327181
5 *346:A *273:A 0
6 *346:A *273:B 3.17016e-05
7 *346:A *280:A 6.05161e-06
8 *346:A *281:A 1.41029e-05
9 *346:A *281:B 0.00012401
10 *346:A *84:6 2.59355e-05
11 *83:10 *270:A 6.30292e-05
12 *83:10 *342:A 3.34366e-05
13 *83:10 *148:14 0.00015234
14 *269:B *346:A 0
*RES
1 *268:Y *83:10 20.2464 
2 *83:10 *269:A 9.3 
3 *83:10 *346:A 22.8536 
*END

*D_NET *84 0.000819108
*CONN
*I *273:B I *D sky130_fd_sc_hd__nand2_4
*I *342:A I *D sky130_fd_sc_hd__buf_2
*I *269:Y O *D sky130_fd_sc_hd__nand2_4
*CAP
1 *273:B 4.77812e-05
2 *342:A 7.89526e-05
3 *269:Y 0.000115869
4 *84:6 0.000242603
5 *342:A *270:A 0.000150632
6 *342:A *281:A 2.82057e-05
7 *342:A *148:14 6.39901e-05
8 *342:A *156:12 0
9 *342:A *156:16 0
10 *346:A *273:B 3.17016e-05
11 *346:A *84:6 2.59355e-05
12 *83:10 *342:A 3.34366e-05
*RES
1 *269:Y *84:6 11.0679 
2 *84:6 *342:A 20.8536 
3 *84:6 *273:B 10.2643 
*END

*D_NET *85 0.000781967
*CONN
*I *272:A I *D sky130_fd_sc_hd__nand2_2
*I *270:Y O *D sky130_fd_sc_hd__nand2_1
*CAP
1 *272:A 0.000208142
2 *270:Y 0.000208142
3 *272:A *271:B 4.59075e-05
4 *272:A *272:B 1.41029e-05
5 *272:A *290:B 5.80706e-06
6 *272:A *148:14 5.71472e-05
7 *245:A *272:A 6.07626e-05
8 *269:B *272:A 0.000153054
9 *79:6 *272:A 2.89016e-05
*RES
1 *270:Y *272:A 32.4393 
*END

*D_NET *86 0.000377598
*CONN
*I *272:B I *D sky130_fd_sc_hd__nand2_2
*I *271:Y O *D sky130_fd_sc_hd__nand2_1
*CAP
1 *272:B 4.15006e-05
2 *271:Y 4.15006e-05
3 *272:B *156:16 0.00015234
4 *269:B *272:B 0.000128154
5 *272:A *272:B 1.41029e-05
*RES
1 *271:Y *272:B 29.5464 
*END

*D_NET *87 0.00131195
*CONN
*I *289:A I *D sky130_fd_sc_hd__nand2_1
*I *288:A I *D sky130_fd_sc_hd__nand2_2
*I *272:Y O *D sky130_fd_sc_hd__nand2_2
*CAP
1 *289:A 0.000125278
2 *288:A 0
3 *272:Y 0.000255106
4 *87:10 0.000380383
5 *289:A *289:B 2.98464e-05
6 *289:A *291:A 6.54574e-05
7 *289:A *331:A 7.47852e-05
8 *289:A *155:20 0
9 *87:10 *289:B 1.19402e-05
10 *87:10 *291:B 3.67257e-05
11 *87:10 *330:A 0.000173343
12 p[2] *289:A 2.85234e-05
13 *288:B *289:A 5.80706e-06
14 *288:B *87:10 7.48356e-05
15 *290:A *87:10 2.14658e-05
16 *61:10 *87:10 2.84494e-05
*RES
1 *272:Y *87:10 19.3536 
2 *87:10 *288:A 13.8 
3 *87:10 *289:A 17.1929 
*END

*D_NET *88 0.00133703
*CONN
*I *278:B I *D sky130_fd_sc_hd__nand2_4
*I *280:A I *D sky130_fd_sc_hd__nand2_1
*I *273:Y O *D sky130_fd_sc_hd__nand2_4
*CAP
1 *278:B 0.000154159
2 *280:A 0.000244487
3 *273:Y 0
4 *88:4 0.000398646
5 *278:B *273:A 4.10796e-05
6 *280:A *280:B 2.26424e-05
7 *280:A *281:B 0.000312743
8 *280:A *337:A 5.49544e-05
9 *280:A *93:16 0
10 *280:A *146:34 5.68713e-05
11 p[0] *280:A 2.8266e-06
12 *265:B *280:A 4.25716e-05
13 *344:A *280:A 0
14 *346:A *280:A 6.05161e-06
15 *80:14 *280:A 0
*RES
1 *273:Y *88:4 9.3 
2 *88:4 *280:A 24.05 
3 *88:4 *278:B 11.9071 
*END

*D_NET *89 0.00156447
*CONN
*I *282:A I *D sky130_fd_sc_hd__nand2_4
*I *275:B I *D sky130_fd_sc_hd__nand2_1
*I *276:B I *D sky130_fd_sc_hd__nand2_1
*I *274:Y O *D sky130_fd_sc_hd__nand2_4
*CAP
1 *282:A 0.000175811
2 *275:B 2.52056e-05
3 *276:B 0
4 *274:Y 0.000260788
5 *89:12 2.52056e-05
6 *89:10 0.0004366
7 *275:B *277:B 5.52302e-05
8 *282:A *285:A 3.34366e-05
9 *282:A *287:A 0
10 *282:A *98:25 0
11 *89:10 *234:B 3.97677e-05
12 *235:A *89:10 0.00014285
13 *275:A *89:10 7.48356e-05
14 *276:A *89:10 0.000173097
15 *51:8 *89:10 7.90803e-05
16 *57:10 *89:10 4.25619e-05
17 *59:10 *89:10 0
*RES
1 *274:Y *89:10 19.1393 
2 *89:10 *89:12 4.5 
3 *89:12 *276:B 9.3 
4 *89:12 *275:B 9.83571 
5 *89:10 *282:A 16.6571 
*END

*D_NET *90 0.000509277
*CONN
*I *277:B I *D sky130_fd_sc_hd__nand2_2
*I *275:Y O *D sky130_fd_sc_hd__nand2_1
*CAP
1 *277:B 7.60783e-05
2 *275:Y 7.60783e-05
3 *277:B *277:A 5.90995e-05
4 *277:B *157:10 0.000229456
5 *275:A *277:B 1.33343e-05
6 *275:B *277:B 5.52302e-05
*RES
1 *275:Y *277:B 21.2071 
*END

*D_NET *91 0.000314489
*CONN
*I *277:A I *D sky130_fd_sc_hd__nand2_2
*I *276:Y O *D sky130_fd_sc_hd__nand2_1
*CAP
1 *277:A 0.000110259
2 *276:Y 0.000110259
3 *277:A *157:10 3.48705e-05
4 *275:A *277:A 0
5 *277:B *277:A 5.90995e-05
*RES
1 *276:Y *277:A 20.7964 
*END

*D_NET *92 0.00162304
*CONN
*I *278:A I *D sky130_fd_sc_hd__nand2_4
*I *279:A I *D sky130_fd_sc_hd__nand2_1
*I *277:Y O *D sky130_fd_sc_hd__nand2_2
*CAP
1 *278:A 9.47878e-05
2 *279:A 0.000185583
3 *277:Y 5.6698e-05
4 *92:6 0.000337069
5 *278:A *157:12 1.6271e-05
6 *278:A *157:32 8.22008e-05
7 *279:A *220:A 0.000140933
8 *279:A *220:B 5.65955e-05
9 *279:A *93:16 0.000351307
10 *92:6 *220:B 8.51331e-05
11 *92:6 *157:10 5.52302e-05
12 *265:A *279:A 5.17019e-05
13 *344:A *278:A 4.70271e-05
14 *80:8 *279:A 4.58976e-05
15 *80:14 *278:A 1.6603e-05
*RES
1 *277:Y *92:6 10.6571 
2 *92:6 *279:A 14.7821 
3 *92:6 *278:A 20.8536 
*END

*D_NET *93 0.00206266
*CONN
*I *282:B I *D sky130_fd_sc_hd__nand2_4
*I *279:B I *D sky130_fd_sc_hd__nand2_1
*I *280:B I *D sky130_fd_sc_hd__nand2_1
*I *278:Y O *D sky130_fd_sc_hd__nand2_4
*CAP
1 *282:B 0.000193184
2 *279:B 0
3 *280:B 7.98841e-05
4 *278:Y 0.000413876
5 *93:16 0.000300576
6 *280:B *238:B 5.58941e-05
7 *280:B *270:A 3.34366e-05
8 *280:B *281:B 0.000125724
9 *280:B *337:A 5.52302e-05
10 *280:B *146:34 5.71472e-05
11 *93:16 *281:A 2.45626e-05
12 *265:A *93:16 3.16805e-05
13 *268:B *280:B 3.88819e-05
14 *279:A *93:16 0.000351307
15 *280:A *280:B 2.26424e-05
16 *280:A *93:16 0
17 *344:A *93:16 3.48235e-05
18 *80:8 *93:16 0.000228508
19 *80:14 *93:16 1.52978e-05
*RES
1 *278:Y *93:16 24.3179 
2 *93:16 *280:B 21.0857 
3 *93:16 *279:B 9.3 
4 *278:Y *282:B 21.6179 
*END

*D_NET *94 0.00183665
*CONN
*I *281:A I *D sky130_fd_sc_hd__nand2_2
*I *279:Y O *D sky130_fd_sc_hd__nand2_1
*CAP
1 *281:A 0.000288534
2 *279:Y 0.000288534
3 *281:A *248:A 3.99614e-06
4 *281:A *270:A 0.00027994
5 *281:A *273:A 0
6 *281:A *281:B 0.000464708
7 *281:A *153:33 0.000444066
8 *281:A *156:12 0
9 *342:A *281:A 2.82057e-05
10 *346:A *281:A 1.41029e-05
11 *93:16 *281:A 2.45626e-05
*RES
1 *279:Y *281:A 37.1714 
*END

*D_NET *95 0.00199509
*CONN
*I *281:B I *D sky130_fd_sc_hd__nand2_2
*I *280:Y O *D sky130_fd_sc_hd__nand2_1
*CAP
1 *281:B 0.000368484
2 *280:Y 0.000368484
3 *281:B *270:A 0.000175709
4 *281:B *337:A 5.52238e-05
5 *280:A *281:B 0.000312743
6 *280:B *281:B 0.000125724
7 *281:A *281:B 0.000464708
8 *344:A *281:B 0
9 *346:A *281:B 0.00012401
*RES
1 *280:Y *281:B 37.7607 
*END

*D_NET *96 0.00126092
*CONN
*I *293:B I *D sky130_fd_sc_hd__nand2_2
*I *294:A I *D sky130_fd_sc_hd__nand2_1
*I *281:Y O *D sky130_fd_sc_hd__nand2_2
*CAP
1 *293:B 4.47899e-05
2 *294:A 5.79439e-05
3 *281:Y 0.000279366
4 *96:12 0.0003821
5 *293:B *338:A 6.05161e-06
6 *294:A *338:A 4.11486e-05
7 *294:A *107:8 6.16996e-05
8 *96:12 *153:33 0.000271898
9 *293:A *294:A 7.91368e-05
10 *293:A *96:12 3.14003e-05
11 *344:A *293:B 5.38444e-06
*RES
1 *281:Y *96:12 22.5321 
2 *96:12 *294:A 11.3357 
3 *96:12 *293:B 10.2643 
*END

*D_NET *97 0.00106513
*CONN
*I *283:B I *D sky130_fd_sc_hd__nand2_4
*I *285:A I *D sky130_fd_sc_hd__nand2_2
*I *282:Y O *D sky130_fd_sc_hd__nand2_4
*CAP
1 *283:B 0.000159246
2 *285:A 0.000225049
3 *282:Y 3.47624e-05
4 *97:6 0.000419057
5 *285:A *286:B 7.85994e-05
6 *285:A *303:B 0.00010588
7 *285:A *304:B 9.10431e-06
8 *285:A *98:25 0
9 *285:A *153:16 0
10 *282:A *285:A 3.34366e-05
*RES
1 *282:Y *97:6 9.83571 
2 *97:6 *285:A 23.5857 
3 *97:6 *283:B 11.9071 
*END

*D_NET *98 0.00150789
*CONN
*I *284:B I *D sky130_fd_sc_hd__nand2_2
*I *285:B I *D sky130_fd_sc_hd__nand2_2
*I *287:A I *D sky130_fd_sc_hd__inv_1
*I *283:Y O *D sky130_fd_sc_hd__nand2_4
*CAP
1 *284:B 0
2 *285:B 6.72535e-05
3 *287:A 0.000142878
4 *283:Y 0
5 *98:25 0.000291733
6 *98:6 0.000367357
7 *285:B *153:8 6.05161e-06
8 *287:A *102:10 4.15914e-05
9 *287:A *157:10 3.82062e-05
10 *98:25 *286:A 0.000153502
11 *98:25 *314:A 0.000116778
12 *98:25 *102:10 3.40128e-05
13 *98:25 *153:16 0.000248525
14 *282:A *287:A 0
15 *282:A *98:25 0
16 *285:A *98:25 0
17 *59:10 *287:A 0
*RES
1 *283:Y *98:6 13.8 
2 *98:6 *287:A 16.4384 
3 *98:6 *98:25 11.0536 
4 *98:25 *285:B 10.2464 
5 *98:25 *284:B 9.3 
*END

*D_NET *99 0.000321853
*CONN
*I *286:A I *D sky130_fd_sc_hd__nand2_4
*I *284:Y O *D sky130_fd_sc_hd__nand2_2
*CAP
1 *286:A 4.32469e-05
2 *284:Y 4.32469e-05
3 *286:A *314:A 8.18567e-05
4 *98:25 *286:A 0.000153502
*RES
1 *284:Y *286:A 29.5464 
*END

*D_NET *100 0.000268602
*CONN
*I *286:B I *D sky130_fd_sc_hd__nand2_4
*I *285:Y O *D sky130_fd_sc_hd__nand2_2
*CAP
1 *286:B 5.40729e-05
2 *285:Y 5.40729e-05
3 *286:B *153:16 8.18567e-05
4 *285:A *286:B 7.85994e-05
*RES
1 *285:Y *286:B 29.5464 
*END

*D_NET *101 0.00093822
*CONN
*I *303:B I *D sky130_fd_sc_hd__nand2_4
*I *304:A I *D sky130_fd_sc_hd__nand2_2
*I *286:Y O *D sky130_fd_sc_hd__nand2_4
*CAP
1 *303:B 5.91432e-05
2 *304:A 7.47919e-05
3 *286:Y 8.4376e-05
4 *101:8 0.000218311
5 *303:B *304:B 0.000126901
6 *303:B *117:19 8.35922e-05
7 *304:A *153:16 8.07313e-05
8 *304:A *153:33 3.57366e-05
9 *101:8 *153:16 6.87574e-05
10 *101:8 *153:33 0
11 *285:A *303:B 0.00010588
*RES
1 *286:Y *101:8 11.0857 
2 *101:8 *304:A 11.0857 
3 *101:8 *303:B 20.8536 
*END

*D_NET *102 0.00171315
*CONN
*I *314:A I *D sky130_fd_sc_hd__nand2_1
*I *313:A I *D sky130_fd_sc_hd__nand2_1
*I *287:Y O *D sky130_fd_sc_hd__inv_1
*CAP
1 *314:A 0.000227475
2 *313:A 0.000186144
3 *287:Y 7.31671e-05
4 *102:10 0.000486786
5 *314:A *250:A 3.79779e-05
6 *314:A *316:B 5.54817e-06
7 *314:A *158:38 4.40237e-05
8 *102:10 *157:10 3.52408e-05
9 *283:A *313:A 5.33005e-05
10 *284:A *314:A 0.000206451
11 *286:A *314:A 8.18567e-05
12 *287:A *102:10 4.15914e-05
13 *59:10 *314:A 1.76135e-05
14 *59:10 *102:10 6.5185e-05
15 *98:25 *314:A 0.000116778
16 *98:25 *102:10 3.40128e-05
*RES
1 *287:Y *102:10 15.7732 
2 *102:10 *313:A 16.8179 
3 *102:10 *314:A 21.2107 
*END

*D_NET *103 0.00155373
*CONN
*I *290:B I *D sky130_fd_sc_hd__nand2_1
*I *292:A I *D sky130_fd_sc_hd__inv_1
*I *289:B I *D sky130_fd_sc_hd__nand2_1
*I *288:Y O *D sky130_fd_sc_hd__nand2_2
*CAP
1 *290:B 0.000121516
2 *292:A 0
3 *289:B 0.000160554
4 *288:Y 0
5 *103:23 0.000288786
6 *103:4 0.000327824
7 *289:B *291:A 0.000136044
8 *290:B *244:A 3.34295e-05
9 *290:B *291:A 7.86182e-05
10 *290:B *291:B 0
11 *290:B *156:16 0
12 *103:23 *291:A 0.000183853
13 p[2] *289:B 0
14 *245:A *290:B 0.000175512
15 *272:A *290:B 5.80706e-06
16 *289:A *289:B 2.98464e-05
17 *87:10 *289:B 1.19402e-05
*RES
1 *288:Y *103:4 9.3 
2 *103:4 *289:B 21.9964 
3 *103:4 *103:23 3.29911 
4 *103:23 *292:A 9.3 
5 *103:23 *290:B 21.3402 
*END

*D_NET *104 0.00110613
*CONN
*I *291:A I *D sky130_fd_sc_hd__nand2_1
*I *289:Y O *D sky130_fd_sc_hd__nand2_1
*CAP
1 *291:A 0.000228508
2 *289:Y 0.000228508
3 *291:A *244:A 2.89114e-05
4 *291:A *246:A 0
5 *291:A *331:A 0.000121433
6 *291:A *106:10 3.47984e-05
7 *247:A *291:A 0
8 *289:A *291:A 6.54574e-05
9 *289:B *291:A 0.000136044
10 *290:B *291:A 7.86182e-05
11 *103:23 *291:A 0.000183853
*RES
1 *289:Y *291:A 33.9036 
*END

*D_NET *105 0.000699803
*CONN
*I *291:B I *D sky130_fd_sc_hd__nand2_1
*I *290:Y O *D sky130_fd_sc_hd__nand2_1
*CAP
1 *291:B 0.000254795
2 *290:Y 0.000254795
3 *291:B *244:A 1.19402e-05
4 *291:B *156:16 0.000125731
5 *269:B *291:B 1.58163e-05
6 *290:B *291:B 0
7 *87:10 *291:B 3.67257e-05
*RES
1 *290:Y *291:B 31.4214 
*END

*D_NET *106 0.00146805
*CONN
*I *299:A I *D sky130_fd_sc_hd__nand2_1
*I *297:B I *D sky130_fd_sc_hd__nand2_2
*I *292:Y O *D sky130_fd_sc_hd__inv_1
*CAP
1 *299:A 0.000162749
2 *297:B 0.000160905
3 *292:Y 5.76086e-05
4 *106:10 0.000381263
5 *297:B *244:A 5.50052e-05
6 *297:B *244:B 1.24368e-05
7 *297:B *297:A 4.42174e-05
8 *297:B *298:B 5.66971e-05
9 *299:A *244:A 5.51649e-05
10 *299:A *301:A 3.98645e-05
11 *299:A *155:16 8.82684e-05
12 *299:A *155:20 2.47319e-05
13 *106:10 *244:A 0.000122062
14 *106:10 *331:A 3.28686e-05
15 *106:10 *155:20 1.34741e-05
16 *245:A *297:B 2.59355e-05
17 *245:A *106:10 9.99979e-05
18 *291:A *106:10 3.47984e-05
*RES
1 *292:Y *106:10 15.7732 
2 *106:10 *297:B 17.2464 
3 *106:10 *299:A 17.1929 
*END

*D_NET *107 0.000753168
*CONN
*I *338:A I *D sky130_fd_sc_hd__buf_2
*I *294:B I *D sky130_fd_sc_hd__nand2_1
*I *295:B I *D sky130_fd_sc_hd__nand2_1
*I *293:Y O *D sky130_fd_sc_hd__nand2_2
*CAP
1 *338:A 0.000177459
2 *294:B 0
3 *295:B 8.81397e-06
4 *293:Y 0
5 *107:8 7.23782e-05
6 *107:4 0.000241023
7 *295:B *296:A 2.38501e-05
8 *107:8 *296:A 5.66971e-05
9 *293:A *295:B 3.11088e-05
10 *293:A *107:8 2.74737e-05
11 *293:B *338:A 6.05161e-06
12 *294:A *338:A 4.11486e-05
13 *294:A *107:8 6.16996e-05
14 *295:A *107:8 5.46383e-06
*RES
1 *293:Y *107:4 9.3 
2 *107:4 *107:8 1.78571 
3 *107:8 *295:B 9.83571 
4 *107:8 *294:B 9.3 
5 *107:4 *338:A 21.1929 
*END

*D_NET *108 0.000867305
*CONN
*I *296:A I *D sky130_fd_sc_hd__nand2_2
*I *294:Y O *D sky130_fd_sc_hd__nand2_1
*CAP
1 *296:A 0.000361854
2 *294:Y 0.000361854
3 *296:A *111:8 4.88537e-05
4 *293:A *296:A 6.93704e-06
5 *295:A *296:A 7.25873e-06
6 *295:B *296:A 2.38501e-05
7 *107:8 *296:A 5.66971e-05
*RES
1 *294:Y *296:A 32.9036 
*END

*D_NET *109 0.000435655
*CONN
*I *296:B I *D sky130_fd_sc_hd__nand2_2
*I *295:Y O *D sky130_fd_sc_hd__nand2_1
*CAP
1 *296:B 0.000130848
2 *295:Y 0.000130848
3 *296:B *111:8 0.000124019
4 *296:B *156:12 4.26814e-05
5 *295:A *296:B 7.25873e-06
*RES
1 *295:Y *296:B 30.1893 
*END

*D_NET *110 0.000718038
*CONN
*I *297:A I *D sky130_fd_sc_hd__nand2_2
*I *298:A I *D sky130_fd_sc_hd__nand2_1
*I *296:Y O *D sky130_fd_sc_hd__nand2_2
*CAP
1 *297:A 0.000115789
2 *298:A 0
3 *296:Y 6.80943e-05
4 *110:10 0.000183883
5 *110:10 *298:B 0.000146853
6 *110:10 *149:10 9.15842e-06
7 *110:10 *156:12 0.000150043
8 *297:B *297:A 4.42174e-05
*RES
1 *296:Y *110:10 20.2464 
2 *110:10 *298:A 9.3 
3 *110:10 *297:A 11.5143 
*END

*D_NET *111 0.000798843
*CONN
*I *343:A I *D sky130_fd_sc_hd__buf_2
*I *302:B I *D sky130_fd_sc_hd__nand2_2
*I *297:Y O *D sky130_fd_sc_hd__nand2_2
*CAP
1 *343:A 0.000180214
2 *302:B 0
3 *297:Y 7.7772e-05
4 *111:8 0.000257986
5 *343:A *252:A 5.49995e-05
6 *343:A *254:B 5.49995e-05
7 *296:A *111:8 4.88537e-05
8 *296:B *111:8 0.000124019
*RES
1 *297:Y *111:8 15.7464 
2 *111:8 *302:B 13.8 
3 *111:8 *343:A 17.1929 
*END

*D_NET *112 0.000386019
*CONN
*I *301:A I *D sky130_fd_sc_hd__nand2_2
*I *298:Y O *D sky130_fd_sc_hd__nand2_1
*CAP
1 *301:A 9.68058e-05
2 *298:Y 9.68058e-05
3 *301:A *298:B 0.000128771
4 *301:A *149:10 2.37713e-05
5 *299:A *301:A 3.98645e-05
*RES
1 *298:Y *301:A 29.7786 
*END

*D_NET *113 0.000195789
*CONN
*I *301:B I *D sky130_fd_sc_hd__nand2_2
*I *299:Y O *D sky130_fd_sc_hd__nand2_1
*CAP
1 *301:B 7.12487e-05
2 *299:Y 7.12487e-05
3 *301:B *299:B 5.32913e-05
*RES
1 *299:Y *301:B 19.975 
*END

*D_NET *114 0.000250515
*CONN
*I *311:A I *D sky130_fd_sc_hd__inv_1
*I *300:Y O *D sky130_fd_sc_hd__nand2_1
*CAP
1 *311:A 3.84045e-05
2 *300:Y 3.84045e-05
3 *311:A *198:A 3.18676e-05
4 *311:A *198:B 0.00010096
5 *311:A *238:B 9.29472e-06
6 *311:A *300:A 1.04232e-05
7 *311:A *135:24 2.11604e-05
8 *267:A *311:A 0
*RES
1 *300:Y *311:A 20.2563 
*END

*D_NET *115 0.000770703
*CONN
*I *199:A I *D sky130_fd_sc_hd__nand2_2
*I *200:A I *D sky130_fd_sc_hd__nand2_1
*I *301:Y O *D sky130_fd_sc_hd__nand2_2
*CAP
1 *199:A 0.000161939
2 *200:A 0
3 *301:Y 8.52762e-05
4 *115:8 0.000247216
5 *115:8 *149:10 2.48421e-05
6 *115:8 *155:16 4.23387e-05
7 *199:B *199:A 3.11699e-05
8 *200:B *199:A 0.000114861
9 *200:B *115:8 9.15842e-06
10 *253:A *199:A 5.39016e-05
*RES
1 *301:Y *115:8 15.7464 
2 *115:8 *200:A 13.8 
3 *115:8 *199:A 17.1214 
*END

*D_NET *116 0.00118552
*CONN
*I *307:A I *D sky130_fd_sc_hd__nand2_4
*I *309:A I *D sky130_fd_sc_hd__nand2_1
*I *302:Y O *D sky130_fd_sc_hd__nand2_2
*CAP
1 *307:A 0.000120499
2 *309:A 1.9105e-05
3 *302:Y 0.000189834
4 *116:12 0.000329437
5 *307:A *310:B 7.1959e-05
6 *307:A *121:27 0.000116162
7 *307:A *124:10 0.000139208
8 *307:A *154:40 9.49152e-05
9 *309:A *254:A 1.02301e-05
10 *116:12 *252:A 2.12733e-05
11 *116:12 *254:A 5.66971e-05
12 *116:12 *154:40 1.62025e-05
*RES
1 *302:Y *116:12 21.9071 
2 *116:12 *309:A 9.72857 
3 *116:12 *307:A 13.55 
*END

*D_NET *117 0.000880754
*CONN
*I *341:A I *D sky130_fd_sc_hd__buf_2
*I *305:B I *D sky130_fd_sc_hd__nand2_2
*I *304:B I *D sky130_fd_sc_hd__nand2_2
*I *303:Y O *D sky130_fd_sc_hd__nand2_4
*CAP
1 *341:A 3.14856e-05
2 *305:B 0
3 *304:B 9.33354e-05
4 *303:Y 0
5 *117:19 0.000174329
6 *117:6 0.000236179
7 *341:A *312:A 5.23822e-05
8 *341:A *125:10 2.85321e-05
9 *285:A *304:B 9.10431e-06
10 *303:B *304:B 0.000126901
11 *303:B *117:19 8.35922e-05
12 *305:A *117:19 4.49141e-05
*RES
1 *303:Y *117:6 13.8 
2 *117:6 *304:B 15.7464 
3 *117:6 *117:19 7.66071 
4 *117:19 *305:B 9.3 
5 *117:19 *341:A 10.2464 
*END

*D_NET *118 0.00112998
*CONN
*I *306:B I *D sky130_fd_sc_hd__nand2_2
*I *304:Y O *D sky130_fd_sc_hd__nand2_2
*CAP
1 *306:B 0.000295475
2 *304:Y 0.000295475
3 *306:B *248:A 7.32756e-05
4 *306:B *273:A 5.70002e-05
5 *306:B *312:B 3.4846e-06
6 *306:B *153:33 0.000224348
7 *249:A *306:B 0.000149959
8 *344:A *306:B 3.09595e-05
*RES
1 *304:Y *306:B 34.4571 
*END

*D_NET *119 0.00065833
*CONN
*I *306:A I *D sky130_fd_sc_hd__nand2_2
*I *305:Y O *D sky130_fd_sc_hd__nand2_2
*CAP
1 *306:A 0.000159068
2 *305:Y 0.000159068
3 *306:A *312:A 2.63003e-05
4 *306:A *312:B 5.49489e-05
5 *306:A *120:10 7.11153e-05
6 *306:A *125:10 0.000181778
7 *305:A *306:A 6.05161e-06
*RES
1 *305:Y *306:A 22.4393 
*END

*D_NET *120 0.00168214
*CONN
*I *308:A I *D sky130_fd_sc_hd__nand2_1
*I *307:B I *D sky130_fd_sc_hd__nand2_4
*I *306:Y O *D sky130_fd_sc_hd__nand2_2
*CAP
1 *308:A 0.000322611
2 *307:B 0
3 *306:Y 0.000220165
4 *120:10 0.000542776
5 *308:A *256:B 0.000125005
6 *120:10 *256:B 7.01378e-05
7 *120:10 *312:B 7.54868e-05
8 *120:10 *121:8 5.7119e-05
9 *120:10 *125:10 9.74665e-05
10 *219:B *308:A 5.45307e-05
11 *222:A *308:A 4.57302e-05
12 *306:A *120:10 7.11153e-05
*RES
1 *306:Y *120:10 17.925 
2 *120:10 *307:B 13.8 
3 *120:10 *308:A 19.8357 
*END

*D_NET *121 0.00225142
*CONN
*I *308:B I *D sky130_fd_sc_hd__nand2_1
*I *309:B I *D sky130_fd_sc_hd__nand2_1
*I *312:B I *D sky130_fd_sc_hd__nand2_2
*I *307:Y O *D sky130_fd_sc_hd__nand2_4
*CAP
1 *308:B 0.000209416
2 *309:B 0
3 *312:B 0.000135872
4 *307:Y 2.83479e-05
5 *121:27 0.000621231
6 *121:8 0.000576035
7 *308:B *204:B 1.00887e-05
8 *308:B *310:A 6.05161e-06
9 *308:B *124:10 0.000162334
10 *312:B *256:B 2.54879e-05
11 *121:27 *124:10 0.000153134
12 *121:27 *154:40 1.62209e-05
13 *306:A *312:B 5.49489e-05
14 *306:B *312:B 3.4846e-06
15 *307:A *121:27 0.000116162
16 *120:10 *312:B 7.54868e-05
17 *120:10 *121:8 5.7119e-05
*RES
1 *307:Y *121:8 14.5321 
2 *121:8 *312:B 16.2821 
3 *121:8 *121:27 14.6786 
4 *121:27 *309:B 13.8 
5 *121:27 *308:B 17.8179 
*END

*D_NET *122 0.000332846
*CONN
*I *310:A I *D sky130_fd_sc_hd__nand2_2
*I *308:Y O *D sky130_fd_sc_hd__nand2_1
*CAP
1 *310:A 0.000163397
2 *308:Y 0.000163397
3 *308:B *310:A 6.05161e-06
*RES
1 *308:Y *310:A 29.7786 
*END

*D_NET *123 0.000335591
*CONN
*I *310:B I *D sky130_fd_sc_hd__nand2_2
*I *309:Y O *D sky130_fd_sc_hd__nand2_1
*CAP
1 *310:B 6.22123e-05
2 *309:Y 6.22123e-05
3 *310:B *154:40 0.000139208
4 *307:A *310:B 7.1959e-05
*RES
1 *309:Y *310:B 20.3857 
*END

*D_NET *124 0.00126983
*CONN
*I *204:B I *D sky130_fd_sc_hd__nand2_2
*I *205:A I *D sky130_fd_sc_hd__nand2_1
*I *310:Y O *D sky130_fd_sc_hd__nand2_2
*CAP
1 *204:B 0.00018546
2 *205:A 0
3 *310:Y 0.000178135
4 *124:10 0.000363595
5 *205:B *204:B 7.23273e-05
6 *205:B *124:10 5.54817e-06
7 *207:A *204:B 0
8 *222:A *204:B 0
9 *222:B *204:B 0
10 *307:A *124:10 0.000139208
11 *308:B *204:B 1.00887e-05
12 *308:B *124:10 0.000162334
13 *121:27 *124:10 0.000153134
*RES
1 *310:Y *124:10 18.0143 
2 *124:10 *205:A 13.8 
3 *124:10 *204:B 17.1929 
*END

*D_NET *125 0.00183592
*CONN
*I *319:A I *D sky130_fd_sc_hd__nand2_1
*I *317:B I *D sky130_fd_sc_hd__nand2_2
*I *312:Y O *D sky130_fd_sc_hd__nand2_2
*CAP
1 *319:A 5.01962e-05
2 *317:B 0.000319467
3 *312:Y 0.000239381
4 *125:10 0.000609044
5 *317:B *318:A 6.69271e-05
6 *317:B *319:B 1.62025e-05
7 *317:B *130:10 0.000174813
8 *125:10 *312:A 1.8584e-05
9 *226:B *317:B 1.87331e-05
10 *305:A *125:10 1.4796e-05
11 *306:A *125:10 0.000181778
12 *341:A *125:10 2.85321e-05
13 *120:10 *125:10 9.74665e-05
*RES
1 *312:Y *125:10 18.55 
2 *125:10 *317:B 19.1929 
3 *125:10 *319:A 14.8357 
*END

*D_NET *126 0.00352845
*CONN
*I *321:A I *D sky130_fd_sc_hd__nand2_1
*I *315:B I *D sky130_fd_sc_hd__nand2_1
*I *314:B I *D sky130_fd_sc_hd__nand2_1
*I *313:Y O *D sky130_fd_sc_hd__nand2_1
*CAP
1 *321:A 0
2 *315:B 0.00020253
3 *314:B 7.85529e-05
4 *313:Y 0.00032739
5 *126:25 0.000305272
6 *126:12 0.000508685
7 *314:B *250:B 3.29376e-05
8 *314:B *258:B 1.98839e-05
9 *314:B *316:A 5.44984e-05
10 *314:B *316:B 5.49995e-05
11 *315:B *258:A 5.24684e-06
12 *315:B *316:B 0.00012249
13 *315:B *154:30 0.000303803
14 *126:12 *258:B 7.36469e-05
15 *126:12 *158:12 0
16 *126:12 *158:38 0
17 *126:25 *258:A 0.00011427
18 *126:25 *316:B 7.45519e-05
19 *126:25 *158:38 7.58841e-05
20 *224:B *315:B 8.25181e-05
21 *226:B *315:B 1.73789e-05
22 *251:A *314:B 0.000268842
23 *251:A *126:12 0.000663909
24 *315:A *315:B 9.76163e-05
25 *315:A *126:12 1.03904e-05
26 *42:10 *315:B 3.31535e-05
*RES
1 *313:Y *126:12 26.7643 
2 *126:12 *314:B 12.3179 
3 *126:12 *126:25 7.66071 
4 *126:25 *315:B 19.9071 
5 *126:25 *321:A 13.8 
*END

*D_NET *127 0.000235667
*CONN
*I *316:A I *D sky130_fd_sc_hd__nand2_1
*I *314:Y O *D sky130_fd_sc_hd__nand2_1
*CAP
1 *316:A 3.77701e-05
2 *314:Y 3.77701e-05
3 *316:A *250:B 0.000100165
4 *316:A *258:B 5.46383e-06
5 *314:B *316:A 5.44984e-05
*RES
1 *314:Y *316:A 19.975 
*END

*D_NET *128 0.00125371
*CONN
*I *316:B I *D sky130_fd_sc_hd__nand2_1
*I *315:Y O *D sky130_fd_sc_hd__nand2_1
*CAP
1 *316:B 0.000278645
2 *315:Y 0.000278645
3 *316:B *250:B 1.98839e-05
4 *316:B *258:B 1.24368e-05
5 *316:B *129:12 4.55219e-05
6 *316:B *158:38 5.5764e-05
7 *226:B *316:B 0.000168496
8 *314:A *316:B 5.54817e-06
9 *314:B *316:B 5.49995e-05
10 *315:A *316:B 0.000136727
11 *315:B *316:B 0.00012249
12 *126:25 *316:B 7.45519e-05
*RES
1 *315:Y *316:B 33.8679 
*END

*D_NET *129 0.000998616
*CONN
*I *318:A I *D sky130_fd_sc_hd__nand2_1
*I *317:A I *D sky130_fd_sc_hd__nand2_2
*I *316:Y O *D sky130_fd_sc_hd__nand2_1
*CAP
1 *318:A 0.000137864
2 *317:A 0
3 *316:Y 0.000181318
4 *129:12 0.000319182
5 *318:A *130:10 7.70142e-05
6 *318:A *134:10 1.32293e-05
7 *129:12 *250:B 9.84673e-05
8 *226:B *129:12 5.90911e-05
9 *316:B *129:12 4.55219e-05
10 *317:B *318:A 6.69271e-05
*RES
1 *316:Y *129:12 21.1929 
2 *129:12 *317:A 9.3 
3 *129:12 *318:A 12.3357 
*END

*D_NET *130 0.00059204
*CONN
*I *321:B I *D sky130_fd_sc_hd__nand2_1
*I *318:B I *D sky130_fd_sc_hd__nand2_1
*I *319:B I *D sky130_fd_sc_hd__nand2_1
*I *317:Y O *D sky130_fd_sc_hd__nand2_2
*CAP
1 *321:B 2.04425e-05
2 *318:B 0
3 *319:B 2.14165e-05
4 *317:Y 0.000100971
5 *130:10 0.000101945
6 *321:B *134:10 2.59355e-05
7 *226:B *321:B 5.33005e-05
8 *317:B *319:B 1.62025e-05
9 *317:B *130:10 0.000174813
10 *318:A *130:10 7.70142e-05
*RES
1 *317:Y *130:10 12.3357 
2 *130:10 *319:B 9.83571 
3 *130:10 *318:B 9.3 
4 *317:Y *321:B 19.1357 
*END

*D_NET *131 0.000208543
*CONN
*I *320:A I *D sky130_fd_sc_hd__nand2_2
*I *318:Y O *D sky130_fd_sc_hd__nand2_1
*CAP
1 *320:A 8.4339e-05
2 *318:Y 8.4339e-05
3 *320:A *320:B 3.98645e-05
*RES
1 *318:Y *320:A 29.2429 
*END

*D_NET *132 0.000217892
*CONN
*I *320:B I *D sky130_fd_sc_hd__nand2_2
*I *319:Y O *D sky130_fd_sc_hd__nand2_1
*CAP
1 *320:B 6.45869e-05
2 *319:Y 6.45869e-05
3 *320:B *154:40 4.88537e-05
4 *320:A *320:B 3.98645e-05
*RES
1 *319:Y *320:B 29.2429 
*END

*D_NET *133 0.00182506
*CONN
*I *215:A I *D sky130_fd_sc_hd__nand2_1
*I *214:B I *D sky130_fd_sc_hd__nand2_2
*I *320:Y O *D sky130_fd_sc_hd__nand2_2
*CAP
1 *215:A 0.00013447
2 *214:B 7.70376e-05
3 *320:Y 0.000199936
4 *133:10 0.000411443
5 *133:10 *224:A 0
6 *133:10 *256:A 1.32293e-05
7 *133:10 *154:30 0.000133821
8 *214:A *214:B 1.04232e-05
9 *215:B *215:A 0.000117135
10 *216:A *214:B 2.89114e-05
11 *217:B *215:A 0.000287301
12 *217:B *133:10 3.34366e-05
13 *219:B *133:10 9.32406e-05
14 *224:B *214:B 0
15 *257:A *133:10 9.83689e-05
16 *345:A *215:A 2.47093e-05
17 *33:17 *215:A 7.83366e-05
18 *33:17 *133:10 5.43587e-05
19 *73:6 *214:B 2.89016e-05
*RES
1 *320:Y *133:10 19.2464 
2 *133:10 *214:B 15.175 
3 *133:10 *215:A 18.4786 
*END

*D_NET *134 0.00107746
*CONN
*I *225:A I *D sky130_fd_sc_hd__nand2_1
*I *224:A I *D sky130_fd_sc_hd__nand2_1
*I *321:Y O *D sky130_fd_sc_hd__nand2_1
*CAP
1 *225:A 0
2 *224:A 0.000172731
3 *321:Y 0.000193456
4 *134:10 0.000366188
5 *226:B *134:10 0.000136693
6 *227:A *224:A 0.000149911
7 *257:A *224:A 0
8 *318:A *134:10 1.32293e-05
9 *321:B *134:10 2.59355e-05
10 *42:10 *224:A 1.93174e-05
11 *133:10 *224:A 0
*RES
1 *321:Y *134:10 16.8 
2 *134:10 *224:A 17.1929 
3 *134:10 *225:A 13.8 
*END

*D_NET *135 0.00467011
*CONN
*I *234:A I *D sky130_fd_sc_hd__nand2_2
*I *220:A I *D sky130_fd_sc_hd__nand2_2
*I *300:A I *D sky130_fd_sc_hd__nand2_1
*I *198:A I *D sky130_fd_sc_hd__nand2_1
*I *322:X O *D sky130_fd_sc_hd__buf_6
*CAP
1 *234:A 7.2546e-05
2 *220:A 0.000185507
3 *300:A 1.99857e-05
4 *198:A 0.000193996
5 *322:X 9.26549e-05
6 *135:24 0.00111229
7 *135:12 0.00127385
8 *135:8 0.000355235
9 *198:A *198:B 6.24067e-05
10 *198:A *300:B 0.000142856
11 *234:A *240:B 0
12 *234:A *146:34 9.83442e-05
13 *135:8 *240:B 0
14 *135:24 *238:B 4.23784e-06
15 *135:24 *337:A 4.14074e-05
16 p[0] *220:A 9.65701e-06
17 p[0] *135:24 4.11173e-05
18 *231:A *220:A 4.52652e-05
19 *231:A *135:8 1.08359e-05
20 *260:A *198:A 5.52302e-05
21 *265:B *220:A 0.00012353
22 *267:A *300:A 0
23 *267:A *135:24 0.000350124
24 *279:A *220:A 0.000140933
25 *311:A *198:A 3.18676e-05
26 *311:A *300:A 1.04232e-05
27 *311:A *135:24 2.11604e-05
28 *80:14 *220:A 6.55528e-06
29 *80:14 *234:A 3.22595e-05
30 *80:14 *135:8 0.000135832
*RES
1 *322:X *135:8 15.8982 
2 *135:8 *135:12 3.74527 
3 *135:12 *135:24 15.5769 
4 *135:24 *198:A 13.55 
5 *135:24 *300:A 9.72857 
6 *135:12 *220:A 21.2725 
7 *135:8 *234:A 15.3268 
*END

*D_NET *136 0.00108135
*CONN
*I *330:A I *D sky130_fd_sc_hd__clkdlybuf4s25_1
*I *263:Y O *D sky130_fd_sc_hd__nand2_1
*CAP
1 *330:A 0.000326045
2 *263:Y 0.000326045
3 *330:A *198:B 7.43578e-06
4 *330:A *155:20 0
5 *262:A *330:A 7.2754e-05
6 *263:A *330:A 7.6644e-05
7 *290:A *330:A 5.52302e-05
8 *61:10 *330:A 4.38511e-05
9 *87:10 *330:A 0.000173343
*RES
1 *263:Y *330:A 34.2786 
*END

*D_NET *137 0.000912726
*CONN
*I *331:A I *D sky130_fd_sc_hd__clkbuf_2
*I *291:Y O *D sky130_fd_sc_hd__nand2_1
*CAP
1 *331:A 0.000296183
2 *291:Y 0.000296183
3 *331:A *244:A 1.32552e-05
4 *331:A *155:20 7.80183e-05
5 *289:A *331:A 7.47852e-05
6 *291:A *331:A 0.000121433
7 *106:10 *331:A 3.28686e-05
*RES
1 *291:Y *331:A 32.5464 
*END

*D_NET *138 0.00103553
*CONN
*I *332:A I *D sky130_fd_sc_hd__clkbuf_2
*I *202:Y O *D sky130_fd_sc_hd__nand2_1
*CAP
1 *332:A 0.00032153
2 *202:Y 0.00032153
3 *332:A *155:12 1.34741e-05
4 *332:A *155:16 3.36952e-05
5 *202:A *332:A 7.89362e-05
6 *202:B *332:A 0.000266363
7 *203:A *332:A 0
8 *20:10 *332:A 0
*RES
1 *202:Y *332:A 34.9393 
*END

*D_NET *139 0.000957592
*CONN
*I *333:A I *D sky130_fd_sc_hd__clkbuf_2
*I *212:Y O *D sky130_fd_sc_hd__nand2_1
*CAP
1 *333:A 0.00035977
2 *212:Y 0.00035977
3 *207:B *333:A 5.71472e-05
4 *210:A *333:A 0.000151333
5 *212:A *333:A 2.95726e-05
6 *212:B *333:A 0
7 *23:12 *333:A 0
*RES
1 *212:Y *333:A 33.7429 
*END

*D_NET *140 0.000873926
*CONN
*I *334:A I *D sky130_fd_sc_hd__clkbuf_2
*I *222:Y O *D sky130_fd_sc_hd__nand2_1
*CAP
1 *334:A 0.00022103
2 *222:Y 0.00022103
3 p[5] *334:A 2.84109e-05
4 *216:B *334:A 1.28935e-06
5 *221:A *334:A 0.000208743
6 *221:B *334:A 0.000130393
7 *222:B *334:A 6.30292e-05
*RES
1 *222:Y *334:A 33.0464 
*END

*D_NET *141 0.000244243
*CONN
*I *335:A I *D sky130_fd_sc_hd__buf_6
*I *232:Y O *D sky130_fd_sc_hd__nand2_1
*CAP
1 *335:A 9.10886e-05
2 *232:Y 9.10886e-05
3 *232:A *335:A 6.20656e-05
*RES
1 *232:Y *335:A 20.3857 
*END

*D_NET *142 0.000284031
*CONN
*I *336:A I *D sky130_fd_sc_hd__clkbuf_2
*I *233:Y O *D sky130_fd_sc_hd__nand2_1
*CAP
1 *336:A 9.26297e-05
2 *233:Y 9.26297e-05
3 p[7] *336:A 4.53834e-05
4 *46:21 *336:A 5.33882e-05
*RES
1 *233:Y *336:A 29.475 
*END

*D_NET *143 0.00036954
*CONN
*I *302:A I *D sky130_fd_sc_hd__nand2_2
*I *338:X O *D sky130_fd_sc_hd__buf_2
*CAP
1 *302:A 0.00018477
2 *338:X 0.00018477
*RES
1 *338:X *302:A 21.1 
*END

*D_NET *144 0.000299356
*CONN
*I *213:A I *D sky130_fd_sc_hd__nand2_2
*I *339:X O *D sky130_fd_sc_hd__buf_2
*CAP
1 *213:A 0.000149678
2 *339:X 0.000149678
3 *207:A *213:A 0
*RES
1 *339:X *213:A 29.7786 
*END

*D_NET *145 0.000418697
*CONN
*I *223:A I *D sky130_fd_sc_hd__nand2_2
*I *340:X O *D sky130_fd_sc_hd__buf_2
*CAP
1 *223:A 0.000173458
2 *340:X 0.000173458
3 *218:B *223:A 1.3701e-05
4 *37:25 *223:A 5.7661e-06
5 *41:6 *223:A 5.23142e-05
*RES
1 *340:X *223:A 21.1 
*END

*D_NET *146 0.00489818
*CONN
*I *242:A I *D sky130_fd_sc_hd__nand2_1
*I *240:A I *D sky130_fd_sc_hd__nand2_1
*I *238:A I *D sky130_fd_sc_hd__nand2_2
*I *236:A I *D sky130_fd_sc_hd__nand2_1
*I *323:X O *D sky130_fd_sc_hd__buf_6
*CAP
1 *242:A 0.000333743
2 *240:A 0.000122865
3 *238:A 1.75086e-05
4 *236:A 0.000170882
5 *323:X 0
6 *146:34 0.000759437
7 *146:23 0.000492801
8 *146:4 0.000343346
9 *238:A *337:A 0
10 *240:A *240:B 9.85308e-05
11 *242:A *234:B 0.000268095
12 *242:A *240:B 2.51992e-05
13 *146:23 *337:A 2.59355e-05
14 *146:34 *234:B 5.52238e-05
15 *146:34 *337:A 0.000106452
16 p[0] *146:23 0
17 p[0] *146:34 0.000262679
18 *234:A *146:34 9.83442e-05
19 *235:A *240:A 0
20 *235:A *146:34 9.71197e-05
21 *237:A *236:A 3.99614e-06
22 *239:A *236:A 0.000188586
23 *239:A *146:23 0.000294085
24 *243:A *242:A 0.000103908
25 *265:A *146:23 0.000163125
26 *267:A *238:A 1.28326e-05
27 *267:A *146:23 5.33005e-05
28 *267:A *146:34 0.000450243
29 *274:B *242:A 9.90367e-05
30 *280:A *146:34 5.68713e-05
31 *280:B *146:34 5.71472e-05
32 *323:A *146:23 1.19402e-05
33 *55:6 *236:A 2.44318e-05
34 *55:6 *146:23 2.14658e-05
35 *59:10 *242:A 7.90536e-05
*RES
1 *323:X *146:4 9.3 
2 *146:4 *236:A 12.7286 
3 *146:4 *146:23 13.75 
4 *146:23 *238:A 9.72857 
5 *146:23 *146:34 13.25 
6 *146:34 *240:A 16.3536 
7 *146:34 *242:A 20.8357 
*END

*D_NET *147 0.000837517
*CONN
*I *312:A I *D sky130_fd_sc_hd__nand2_2
*I *341:X O *D sky130_fd_sc_hd__buf_2
*CAP
1 *312:A 0.000336768
2 *341:X 0.000336768
3 *305:A *312:A 6.67143e-05
4 *306:A *312:A 2.63003e-05
5 *341:A *312:A 5.23822e-05
6 *125:10 *312:A 1.8584e-05
*RES
1 *341:X *312:A 23.1536 
*END

*D_NET *148 0.00107454
*CONN
*I *270:B I *D sky130_fd_sc_hd__nand2_1
*I *271:B I *D sky130_fd_sc_hd__nand2_1
*I *342:X O *D sky130_fd_sc_hd__buf_2
*CAP
1 *270:B 0
2 *271:B 4.37269e-05
3 *342:X 0.000283947
4 *148:14 0.000327674
5 *148:14 *270:A 9.9804e-05
6 *148:14 *156:16 0
7 *272:A *271:B 4.59075e-05
8 *272:A *148:14 5.71472e-05
9 *342:A *148:14 6.39901e-05
10 *76:16 *148:14 0
11 *83:10 *148:14 0.00015234
*RES
1 *342:X *148:14 24.9786 
2 *148:14 *271:B 10.2464 
3 *148:14 *270:B 9.3 
*END

*D_NET *149 0.0019001
*CONN
*I *299:B I *D sky130_fd_sc_hd__nand2_1
*I *298:B I *D sky130_fd_sc_hd__nand2_1
*I *343:X O *D sky130_fd_sc_hd__buf_2
*CAP
1 *299:B 0.000226555
2 *298:B 7.1956e-05
3 *343:X 0.000304219
4 *149:10 0.00060273
5 *298:B *244:A 2.53112e-06
6 *149:10 *254:B 0.000113926
7 *149:10 *156:6 4.97967e-05
8 *149:10 *156:12 8.49977e-05
9 *297:B *298:B 5.66971e-05
10 *301:A *298:B 0.000128771
11 *301:A *149:10 2.37713e-05
12 *301:B *299:B 5.32913e-05
13 *110:10 *298:B 0.000146853
14 *110:10 *149:10 9.15842e-06
15 *115:8 *149:10 2.48421e-05
*RES
1 *343:X *149:10 19.05 
2 *149:10 *298:B 16.2821 
3 *149:10 *299:B 17.2286 
*END

*D_NET *150 0.000873787
*CONN
*I *273:A I *D sky130_fd_sc_hd__nand2_4
*I *344:X O *D sky130_fd_sc_hd__buf_2
*CAP
1 *273:A 0.000347811
2 *344:X 0.000347811
3 *278:B *273:A 4.10796e-05
4 *281:A *273:A 0
5 *306:B *273:A 5.70002e-05
6 *344:A *273:A 8.00858e-05
7 *346:A *273:A 0
*RES
1 *344:X *273:A 33.2786 
*END

*D_NET *151 0.00122889
*CONN
*I *219:A I *D sky130_fd_sc_hd__nand2_1
*I *345:X O *D sky130_fd_sc_hd__buf_2
*CAP
1 *219:A 0.000352742
2 *345:X 0.000352742
3 *219:A *256:B 1.00332e-05
4 *219:B *219:A 6.70435e-05
5 *221:B *219:A 3.85226e-05
6 *222:A *219:A 0
7 *222:B *219:A 0
8 *345:A *219:A 0.000234205
9 *36:8 *219:A 0.000173601
*RES
1 *345:X *219:A 35.2429 
*END

*D_NET *152 0.00187438
*CONN
*I *270:A I *D sky130_fd_sc_hd__nand2_1
*I *346:X O *D sky130_fd_sc_hd__buf_2
*CAP
1 *270:A 0.000467017
2 *346:X 0.000467017
3 *270:A *153:33 8.25843e-06
4 *270:A *156:16 0
5 *265:A *270:A 9.60939e-05
6 *268:B *270:A 3.34366e-05
7 *280:B *270:A 3.34366e-05
8 *281:A *270:A 0.00027994
9 *281:B *270:A 0.000175709
10 *342:A *270:A 0.000150632
11 *83:10 *270:A 6.30292e-05
12 *148:14 *270:A 9.9804e-05
*RES
1 *346:X *270:A 37.475 
*END

*D_NET *153 0.00564262
*CONN
*I *250:A I *D sky130_fd_sc_hd__nand2_1
*I *246:A I *D sky130_fd_sc_hd__nand2_1
*I *244:A I *D sky130_fd_sc_hd__nand2_1
*I *248:A I *D sky130_fd_sc_hd__nand2_1
*I *324:X O *D sky130_fd_sc_hd__clkdlybuf4s25_1
*CAP
1 *250:A 8.8756e-05
2 *246:A 1.99857e-05
3 *244:A 0.000342534
4 *248:A 0.000113536
5 *324:X 0.000229742
6 *153:33 0.000912413
7 *153:16 0.00103673
8 *153:8 0.000691801
9 *244:A *156:12 0
10 *245:A *244:A 1.81805e-05
11 *247:A *244:A 3.18676e-05
12 *247:A *246:A 1.04232e-05
13 *247:A *153:33 5.44341e-05
14 *249:A *153:33 9.74665e-05
15 *270:A *153:33 8.25843e-06
16 *281:A *248:A 3.99614e-06
17 *281:A *153:33 0.000444066
18 *284:A *153:8 4.97967e-05
19 *285:A *153:16 0
20 *285:B *153:8 6.05161e-06
21 *286:B *153:16 8.18567e-05
22 *290:B *244:A 3.34295e-05
23 *291:A *244:A 2.89114e-05
24 *291:A *246:A 0
25 *291:B *244:A 1.19402e-05
26 *297:B *244:A 5.50052e-05
27 *298:B *244:A 2.53112e-06
28 *299:A *244:A 5.51649e-05
29 *304:A *153:16 8.07313e-05
30 *304:A *153:33 3.57366e-05
31 *306:B *248:A 7.32756e-05
32 *306:B *153:33 0.000224348
33 *314:A *250:A 3.79779e-05
34 *331:A *244:A 1.32552e-05
35 *63:12 *153:33 3.71723e-05
36 *96:12 *153:33 0.000271898
37 *98:25 *153:16 0.000248525
38 *101:8 *153:16 6.87574e-05
39 *101:8 *153:33 0
40 *106:10 *244:A 0.000122062
*RES
1 *324:X *153:8 16.3893 
2 *153:8 *153:16 13.0357 
3 *153:16 *248:A 11.4964 
4 *153:16 *153:33 13 
5 *153:33 *244:A 24.5857 
6 *153:33 *246:A 9.72857 
7 *153:8 *250:A 15.4429 
*END

*D_NET *154 0.00511964
*CONN
*I *256:A I *D sky130_fd_sc_hd__nand2_1
*I *254:A I *D sky130_fd_sc_hd__nand2_1
*I *252:A I *D sky130_fd_sc_hd__nand2_1
*I *258:A I *D sky130_fd_sc_hd__nand2_1
*I *325:X O *D sky130_fd_sc_hd__clkdlybuf4s25_1
*CAP
1 *256:A 3.51674e-05
2 *254:A 2.25532e-05
3 *252:A 0.000246597
4 *258:A 0.000227641
5 *325:X 0.000587757
6 *154:40 0.00102101
7 *154:30 0.00114715
8 *252:A *252:B 1.87331e-05
9 *252:A *254:B 0.000139154
10 *252:A *156:6 2.85234e-05
11 *254:A *254:B 3.49456e-06
12 *154:40 *256:B 3.18309e-05
13 *224:B *258:A 0.000100248
14 *227:A *154:30 5.71472e-05
15 *227:B *258:A 7.74068e-05
16 *257:A *256:A 1.47936e-05
17 *259:A *258:A 0.000150043
18 *307:A *154:40 9.49152e-05
19 *309:A *254:A 1.02301e-05
20 *310:B *154:40 0.000139208
21 *315:A *258:A 0.000172931
22 *315:A *154:30 8.48678e-06
23 *315:B *258:A 5.24684e-06
24 *315:B *154:30 0.000303803
25 *320:B *154:40 4.88537e-05
26 *343:A *252:A 5.49995e-05
27 *116:12 *252:A 2.12733e-05
28 *116:12 *254:A 5.66971e-05
29 *116:12 *154:40 1.62025e-05
30 *121:27 *154:40 1.62209e-05
31 *126:25 *258:A 0.00011427
32 *133:10 *256:A 1.32293e-05
33 *133:10 *154:30 0.000133821
*RES
1 *325:X *258:A 33.3321 
2 *325:X *154:30 16.7643 
3 *154:30 *154:40 19.1071 
4 *154:40 *252:A 14.3714 
5 *154:40 *254:A 10.2643 
6 *154:30 *256:A 10.2286 
*END

*D_NET *155 0.00437627
*CONN
*I *252:B I *D sky130_fd_sc_hd__nand2_1
*I *244:B I *D sky130_fd_sc_hd__nand2_1
*I *300:B I *D sky130_fd_sc_hd__nand2_1
*I *236:B I *D sky130_fd_sc_hd__nand2_1
*I *326:X O *D sky130_fd_sc_hd__clkbuf_2
*CAP
1 *252:B 0.000133967
2 *244:B 6.32225e-05
3 *300:B 2.57978e-05
4 *236:B 0.000199097
5 *326:X 0.000223318
6 *155:20 0.000578357
7 *155:16 0.000637551
8 *155:12 0.00057815
9 *252:B *156:6 8.2817e-05
10 *300:B *198:B 7.77751e-05
11 *155:12 *156:6 2.85234e-05
12 *198:A *300:B 0.000142856
13 *200:B *252:B 5.49995e-05
14 *200:B *155:16 1.6806e-05
15 *202:A *155:12 9.45048e-06
16 *202:A *155:16 7.80092e-05
17 *202:B *155:12 0.000101777
18 *209:A *236:B 0
19 *245:A *244:B 1.21258e-05
20 *245:A *155:20 0.000527789
21 *252:A *252:B 1.87331e-05
22 *261:A *155:20 0.000171375
23 *262:A *155:20 7.79781e-06
24 *267:B *236:B 0
25 *288:B *155:20 7.83462e-05
26 *289:A *155:20 0
27 *297:B *244:B 1.24368e-05
28 *299:A *155:16 8.82684e-05
29 *299:A *155:20 2.47319e-05
30 *330:A *155:20 0
31 *331:A *155:20 7.80183e-05
32 *332:A *155:12 1.34741e-05
33 *332:A *155:16 3.36952e-05
34 *53:10 *236:B 5.35191e-05
35 *53:10 *155:20 9.25014e-06
36 *61:10 *155:20 8.68569e-05
37 *76:10 *155:20 7.15687e-05
38 *106:10 *155:20 1.34741e-05
39 *115:8 *155:16 4.23387e-05
*RES
1 *326:X *155:12 22.1214 
2 *155:12 *155:16 9.78571 
3 *155:16 *155:20 10.375 
4 *155:20 *236:B 17.3179 
5 *155:20 *300:B 15.1571 
6 *155:16 *244:B 14.7464 
7 *155:12 *252:B 11.9071 
*END

*D_NET *156 0.00555863
*CONN
*I *254:B I *D sky130_fd_sc_hd__nand2_1
*I *246:B I *D sky130_fd_sc_hd__nand2_1
*I *238:B I *D sky130_fd_sc_hd__nand2_2
*I *198:B I *D sky130_fd_sc_hd__nand2_1
*I *327:X O *D sky130_fd_sc_hd__buf_6
*CAP
1 *254:B 0.000104135
2 *246:B 0
3 *238:B 0.000390041
4 *198:B 0.000418553
5 *327:X 0.00014535
6 *156:16 0.00114798
7 *156:12 0.00075209
8 *156:6 0.000662193
9 *238:B *337:A 0.000255971
10 *198:A *198:B 6.24067e-05
11 *200:B *156:6 5.66971e-05
12 *202:A *156:6 7.4854e-05
13 *244:A *156:12 0
14 *252:A *254:B 0.000139154
15 *252:A *156:6 2.85234e-05
16 *252:B *156:6 8.2817e-05
17 *254:A *254:B 3.49456e-06
18 *260:A *198:B 2.59355e-05
19 *265:A *238:B 4.34472e-05
20 *268:A *238:B 1.3712e-05
21 *268:A *156:16 0
22 *268:B *238:B 5.58941e-05
23 *269:B *156:16 3.67548e-05
24 *270:A *156:16 0
25 *272:B *156:16 0.00015234
26 *280:B *238:B 5.58941e-05
27 *281:A *156:12 0
28 *290:B *156:16 0
29 *291:B *156:16 0.000125731
30 *296:B *156:12 4.26814e-05
31 *300:B *198:B 7.77751e-05
32 *311:A *198:B 0.00010096
33 *311:A *238:B 9.29472e-06
34 *330:A *198:B 7.43578e-06
35 *342:A *156:12 0
36 *342:A *156:16 0
37 *343:A *254:B 5.49995e-05
38 *76:10 *238:B 0
39 *76:10 *156:16 0
40 *110:10 *156:12 0.000150043
41 *135:24 *238:B 4.23784e-06
42 *148:14 *156:16 0
43 *149:10 *254:B 0.000113926
44 *149:10 *156:6 4.97967e-05
45 *149:10 *156:12 8.49977e-05
46 *155:12 *156:6 2.85234e-05
*RES
1 *327:X *156:6 13.1214 
2 *156:6 *156:12 12.4464 
3 *156:12 *156:16 11 
4 *156:16 *198:B 15.2107 
5 *156:16 *238:B 33.675 
6 *156:12 *246:B 13.8 
7 *156:6 *254:B 12.7286 
*END

*D_NET *157 0.00454183
*CONN
*I *256:B I *D sky130_fd_sc_hd__nand2_1
*I *248:B I *D sky130_fd_sc_hd__nand2_1
*I *220:B I *D sky130_fd_sc_hd__nand2_2
*I *240:B I *D sky130_fd_sc_hd__nand2_1
*I *328:X O *D sky130_fd_sc_hd__buf_6
*CAP
1 *256:B 0.000550656
2 *248:B 3.91659e-05
3 *220:B 5.81364e-05
4 *240:B 0.000268235
5 *328:X 0.000442155
6 *157:32 0.000826822
7 *157:12 0.000366447
8 *157:10 0.000719232
9 *219:A *256:B 1.00332e-05
10 *234:A *240:B 0
11 *240:A *240:B 9.85308e-05
12 *242:A *240:B 2.51992e-05
13 *275:A *157:10 2.44318e-05
14 *277:A *157:10 3.48705e-05
15 *277:B *157:10 0.000229456
16 *278:A *157:12 1.6271e-05
17 *278:A *157:32 8.22008e-05
18 *279:A *220:B 5.65955e-05
19 *287:A *157:10 3.82062e-05
20 *305:A *256:B 0.000147725
21 *308:A *256:B 0.000125005
22 *312:B *256:B 2.54879e-05
23 *344:A *256:B 6.93428e-05
24 *344:A *157:32 1.00477e-05
25 *92:6 *220:B 8.51331e-05
26 *92:6 *157:10 5.52302e-05
27 *102:10 *157:10 3.52408e-05
28 *120:10 *256:B 7.01378e-05
29 *135:8 *240:B 0
30 *154:40 *256:B 3.18309e-05
*RES
1 *328:X *157:10 21.7464 
2 *157:10 *157:12 0.732143 
3 *157:12 *240:B 18.7821 
4 *157:12 *220:B 15.1571 
5 *157:10 *157:32 4.375 
6 *157:32 *248:B 14.3357 
7 *157:32 *256:B 24.3 
*END

*D_NET *158 0.00479249
*CONN
*I *258:B I *D sky130_fd_sc_hd__nand2_1
*I *250:B I *D sky130_fd_sc_hd__nand2_1
*I *242:B I *D sky130_fd_sc_hd__nand2_1
*I *234:B I *D sky130_fd_sc_hd__nand2_2
*I *329:X O *D sky130_fd_sc_hd__dlymetal6s2s_1
*CAP
1 *258:B 0.000149109
2 *250:B 0.000191671
3 *242:B 0
4 *234:B 0.000342233
5 *329:X 0.000116001
6 *158:38 0.000578965
7 *158:12 0.000672136
8 *158:8 0.000684089
9 *235:A *234:B 0.000138893
10 *242:A *234:B 0.000268095
11 *243:A *234:B 0.000163324
12 *251:A *250:B 9.45048e-06
13 *251:A *258:B 1.21258e-05
14 *251:A *158:12 0
15 *274:B *234:B 9.90367e-05
16 *275:A *158:12 0
17 *284:A *158:12 0.000177948
18 *284:A *158:38 0.000215088
19 *314:A *158:38 4.40237e-05
20 *314:B *250:B 3.29376e-05
21 *314:B *258:B 1.98839e-05
22 *316:A *250:B 0.000100165
23 *316:A *258:B 5.46383e-06
24 *316:B *250:B 1.98839e-05
25 *316:B *258:B 1.24368e-05
26 *316:B *158:38 5.5764e-05
27 *57:10 *158:12 0
28 *59:10 *158:12 0.000340781
29 *89:10 *234:B 3.97677e-05
30 *126:12 *258:B 7.36469e-05
31 *126:12 *158:12 0
32 *126:12 *158:38 0
33 *126:25 *158:38 7.58841e-05
34 *129:12 *250:B 9.84673e-05
35 *146:34 *234:B 5.52238e-05
*RES
1 *329:X *158:8 15.5679 
2 *158:8 *158:12 11.6071 
3 *158:12 *234:B 18.2464 
4 *158:12 *242:B 9.3 
5 *158:8 *158:38 10.0893 
6 *158:38 *250:B 13.5679 
7 *158:38 *258:B 12.3357 
*END

*D_NET *159 0.00116377
*CONN
*I *337:A I *D sky130_fd_sc_hd__clkdlybuf4s25_1
*I *311:Y O *D sky130_fd_sc_hd__inv_1
*CAP
1 *337:A 0.000241866
2 *311:Y 0.000241866
3 *238:A *337:A 0
4 *238:B *337:A 0.000255971
5 *267:A *337:A 2.77143e-05
6 *268:A *337:A 5.71472e-05
7 *280:A *337:A 5.49544e-05
8 *280:B *337:A 5.52302e-05
9 *281:B *337:A 5.52238e-05
10 *135:24 *337:A 4.14074e-05
11 *146:23 *337:A 2.59355e-05
12 *146:34 *337:A 0.000106452
*RES
1 *311:Y *337:A 24.6982 
*END
