*SPEF "ieee 1481-1999"
*DESIGN "behav"
*DATE "14:53:51 Sunday September 06, 2026"
*VENDOR "The OpenROAD Project"
*PROGRAM "OpenROAD"
*VERSION "dcf36133a369abc8f3c5e5738cd4d82e4903c0e0"
*DESIGN_FLOW "NAME_SCOPE LOCAL" "PIN_CAP NONE"
*DIVIDER /
*DELIMITER :
*BUS_DELIMITER []
*T_UNIT 1 NS
*C_UNIT 1 PF
*R_UNIT 1 OHM
*L_UNIT 1 HENRY

*NAME_MAP
*3 a[0]
*4 a[1]
*5 a[2]
*6 a[3]
*7 b[0]
*8 b[1]
*9 b[2]
*10 b[3]
*11 p[0]
*12 p[1]
*13 p[2]
*14 p[3]
*15 p[4]
*16 p[5]
*17 p[6]
*18 p[7]
*19 _000_
*20 _001_
*21 _002_
*22 _003_
*23 _004_
*24 _005_
*25 _006_
*26 _007_
*27 _008_
*28 _009_
*29 _010_
*30 _011_
*31 _012_
*32 _013_
*33 _014_
*34 _015_
*35 _016_
*36 _017_
*37 _018_
*38 _019_
*39 _020_
*40 _021_
*41 _022_
*42 _023_
*43 _024_
*44 _025_
*45 _026_
*46 _027_
*47 _028_
*48 _029_
*49 _030_
*50 _031_
*51 _032_
*52 _033_
*53 _034_
*54 _035_
*55 _036_
*56 _037_
*57 _038_
*58 _039_
*59 _040_
*60 _041_
*61 _042_
*62 _043_
*63 _044_
*64 _045_
*65 _046_
*66 _047_
*67 _048_
*68 _049_
*69 _050_
*70 _051_
*71 _052_
*72 net1
*73 net10
*74 net11
*75 net12
*76 net13
*77 net14
*78 net15
*79 net16
*80 net2
*81 net3
*82 net4
*83 net5
*84 net6
*85 net7
*86 net8
*87 net9
*88 PHY_EDGE_ROW_0_Left_13
*89 PHY_EDGE_ROW_0_Right_0
*90 PHY_EDGE_ROW_10_Left_23
*91 PHY_EDGE_ROW_10_Right_10
*92 PHY_EDGE_ROW_11_Left_24
*93 PHY_EDGE_ROW_11_Right_11
*94 PHY_EDGE_ROW_12_Left_25
*95 PHY_EDGE_ROW_12_Right_12
*96 PHY_EDGE_ROW_1_Left_14
*97 PHY_EDGE_ROW_1_Right_1
*98 PHY_EDGE_ROW_2_Left_15
*99 PHY_EDGE_ROW_2_Right_2
*100 PHY_EDGE_ROW_3_Left_16
*101 PHY_EDGE_ROW_3_Right_3
*102 PHY_EDGE_ROW_4_Left_17
*103 PHY_EDGE_ROW_4_Right_4
*104 PHY_EDGE_ROW_5_Left_18
*105 PHY_EDGE_ROW_5_Right_5
*106 PHY_EDGE_ROW_6_Left_19
*107 PHY_EDGE_ROW_6_Right_6
*108 PHY_EDGE_ROW_7_Left_20
*109 PHY_EDGE_ROW_7_Right_7
*110 PHY_EDGE_ROW_8_Left_21
*111 PHY_EDGE_ROW_8_Right_8
*112 PHY_EDGE_ROW_9_Left_22
*113 PHY_EDGE_ROW_9_Right_9
*114 TAP_TAPCELL_ROW_0_26
*115 TAP_TAPCELL_ROW_0_27
*116 TAP_TAPCELL_ROW_10_37
*117 TAP_TAPCELL_ROW_11_38
*118 TAP_TAPCELL_ROW_12_39
*119 TAP_TAPCELL_ROW_12_40
*120 TAP_TAPCELL_ROW_1_28
*121 TAP_TAPCELL_ROW_2_29
*122 TAP_TAPCELL_ROW_3_30
*123 TAP_TAPCELL_ROW_4_31
*124 TAP_TAPCELL_ROW_5_32
*125 TAP_TAPCELL_ROW_6_33
*126 TAP_TAPCELL_ROW_7_34
*127 TAP_TAPCELL_ROW_8_35
*128 TAP_TAPCELL_ROW_9_36
*129 _053_
*130 _054_
*131 _055_
*132 _056_
*133 _057_
*134 _058_
*135 _059_
*136 _060_
*137 _061_
*138 _062_
*139 _063_
*140 _064_
*141 _065_
*142 _066_
*143 _067_
*144 _068_
*145 _069_
*146 _070_
*147 _071_
*148 _072_
*149 _073_
*150 _074_
*151 _075_
*152 _076_
*153 _077_
*154 _078_
*155 _079_
*156 _080_
*157 _081_
*158 _082_
*159 _083_
*160 _084_
*161 _085_
*162 _086_
*163 _087_
*164 _088_
*165 _089_
*166 _090_
*167 _091_
*168 _092_
*169 _093_
*170 _094_
*171 _095_
*172 _096_
*173 _097_
*174 _098_
*175 _099_
*176 _100_
*177 _101_
*178 _102_
*179 _103_
*180 _104_
*181 _105_
*182 _106_
*183 _107_
*184 _108_
*185 _109_
*186 _110_
*187 _111_
*188 _112_
*189 _113_
*190 input1
*191 input2
*192 input3
*193 input4
*194 input5
*195 input6
*196 input7
*197 input8
*198 output10
*199 output11
*200 output12
*201 output13
*202 output14
*203 output15
*204 output16
*205 output9

*PORTS
a[0] I
a[1] I
a[2] I
a[3] I
b[0] I
b[1] I
b[2] I
b[3] I
p[0] O
p[1] O
p[2] O
p[3] O
p[4] O
p[5] O
p[6] O
p[7] O

*D_NET *3 0.0011018
*CONN
*P a[0] I
*I *190:A I *D sky130_fd_sc_hd__clkdlybuf4s25_1
*CAP
1 a[0] 0.000332302
2 *190:A 0.000332302
3 *190:A p[0] 0.0002186
4 *190:A *194:A 0.0002186
*RES
1 a[0] *190:A 22.2901 
*END

*D_NET *4 0.0013522
*CONN
*P a[1] I
*I *191:A I *D sky130_fd_sc_hd__clkdlybuf4s25_1
*CAP
1 a[1] 0.000378982
2 *191:A 0.000378982
3 *191:A p[0] 0.0002186
4 *191:A p[1] 0.000375637
5 *191:A *131:C 0
6 *191:A *194:A 0
7 *191:A *195:A 0
8 *191:A *80:10 0
*RES
1 a[1] *191:A 21.616 
*END

*D_NET *5 0.00220346
*CONN
*P a[2] I
*I *192:A I *D sky130_fd_sc_hd__clkdlybuf4s25_1
*CAP
1 a[2] 0.000679358
2 *192:A 0.000679358
3 *192:A *193:A 0.000776481
4 *192:A *196:A 5.52631e-05
5 *192:A *197:A 0
6 *192:A *82:10 1.29975e-05
*RES
1 a[2] *192:A 29.3437 
*END

*D_NET *6 0.00203811
*CONN
*P a[3] I
*I *193:A I *D sky130_fd_sc_hd__clkdlybuf4s25_1
*CAP
1 a[3] 0.000474624
2 *193:A 0.000474624
3 *193:A *195:A 0.000191377
4 *193:A *196:A 5.52631e-05
5 *193:A *197:A 6.57423e-05
6 *192:A *193:A 0.000776481
*RES
1 a[3] *193:A 28.7002 
*END

*D_NET *7 0.0019025
*CONN
*P b[0] I
*I *194:A I *D sky130_fd_sc_hd__clkdlybuf4s25_1
*CAP
1 b[0] 0.000514347
2 *194:A 0.000514347
3 *194:A p[0] 5.41609e-05
4 *194:A *195:A 0.000328672
5 *194:A *205:A 4.18895e-05
6 *194:A *87:12 0.000230482
7 *190:A *194:A 0.0002186
8 *191:A *194:A 0
*RES
1 b[0] *194:A 24.9534 
*END

*D_NET *8 0.00219654
*CONN
*P b[1] I
*I *195:A I *D sky130_fd_sc_hd__clkdlybuf4s25_1
*CAP
1 b[1] 0.000577643
2 *195:A 0.000577643
3 *195:A *129:A 0
4 *195:A *129:B 0.000110162
5 *195:A *135:A 3.4599e-05
6 *195:A *135:B 0.000136727
7 *195:A *23:6 0.000100165
8 *195:A *80:24 3.64864e-05
9 *195:A *84:8 7.15503e-05
10 *195:A *87:12 3.15196e-05
11 *191:A *195:A 0
12 *193:A *195:A 0.000191377
13 *194:A *195:A 0.000328672
*RES
1 b[1] *195:A 26.5618 
*END

*D_NET *9 0.00173949
*CONN
*P b[2] I
*I *196:A I *D sky130_fd_sc_hd__clkdlybuf4s25_1
*CAP
1 b[2] 0.000747681
2 *196:A 0.000747681
3 *196:A *197:A 0.000133601
4 *192:A *196:A 5.52631e-05
5 *193:A *196:A 5.52631e-05
*RES
1 b[2] *196:A 31.9113 
*END

*D_NET *10 0.00142651
*CONN
*P b[3] I
*I *197:A I *D sky130_fd_sc_hd__clkdlybuf4s25_1
*CAP
1 b[3] 0.000613581
2 *197:A 0.000613581
3 *192:A *197:A 0
4 *193:A *197:A 6.57423e-05
5 *196:A *197:A 0.000133601
*RES
1 b[3] *197:A 28.1632 
*END

*D_NET *11 0.000995462
*CONN
*P p[0] O
*I *205:X O *D sky130_fd_sc_hd__clkdlybuf4s25_1
*CAP
1 p[0] 0.000252051
2 *205:X 0.000252051
3 *190:A p[0] 0.0002186
4 *191:A p[0] 0.0002186
5 *194:A p[0] 5.41609e-05
*RES
1 *205:X p[0] 21.0759 
*END

*D_NET *12 0.00155266
*CONN
*P p[1] O
*I *198:X O *D sky130_fd_sc_hd__clkdlybuf4s25_1
*CAP
1 p[1] 0.000559939
2 *198:X 0.000559939
3 p[1] *80:10 5.71472e-05
4 *191:A p[1] 0.000375637
*RES
1 *198:X p[1] 24.5248 
*END

*D_NET *13 0.0017151
*CONN
*P p[2] O
*I *199:X O *D sky130_fd_sc_hd__clkdlybuf4s25_1
*CAP
1 p[2] 0.00085755
2 *199:X 0.00085755
*RES
1 *199:X p[2] 30.425 
*END

*D_NET *14 0.000865335
*CONN
*P p[3] O
*I *200:X O *D sky130_fd_sc_hd__clkdlybuf4s25_1
*CAP
1 p[3] 0.000432668
2 *200:X 0.000432668
3 p[3] *200:A 0
*RES
1 *200:X p[3] 19.8416 
*END

*D_NET *15 0.000987118
*CONN
*P p[4] O
*I *201:X O *D sky130_fd_sc_hd__clkdlybuf4s25_1
*CAP
1 p[4] 0.000493559
2 *201:X 0.000493559
*RES
1 *201:X p[4] 23.0144 
*END

*D_NET *16 0.000888475
*CONN
*P p[5] O
*I *202:X O *D sky130_fd_sc_hd__clkdlybuf4s25_1
*CAP
1 p[5] 0.000410895
2 *202:X 0.000410895
3 p[5] *202:A 6.66856e-05
*RES
1 *202:X p[5] 19.2345 
*END

*D_NET *17 0.000878867
*CONN
*P p[6] O
*I *203:X O *D sky130_fd_sc_hd__clkdlybuf4s25_1
*CAP
1 p[6] 0.000439434
2 *203:X 0.000439434
3 p[6] *203:A 0
*RES
1 *203:X p[6] 19.8416 
*END

*D_NET *18 0.00119522
*CONN
*P p[7] O
*I *204:X O *D sky130_fd_sc_hd__clkdlybuf4s25_1
*CAP
1 p[7] 0.00059761
2 *204:X 0.00059761
*RES
1 *204:X p[7] 24.8536 
*END

*D_NET *19 0.000523702
*CONN
*I *132:A I *D sky130_fd_sc_hd__nor2_2
*I *130:Y O *D sky130_fd_sc_hd__a22oi_2
*CAP
1 *132:A 0.000117572
2 *130:Y 0.000117572
3 *132:A *130:B2 7.14389e-05
4 *132:A *131:A 3.18676e-05
5 *132:A *131:B 3.67967e-05
6 *132:A *131:C 4.74948e-05
7 *132:A *132:B 0
8 *132:A *20:8 0.00010096
*RES
1 *130:Y *132:A 22.1536 
*END

*D_NET *20 0.00191212
*CONN
*I *188:A I *D sky130_fd_sc_hd__or2_2
*I *139:A I *D sky130_fd_sc_hd__nand2_2
*I *132:B I *D sky130_fd_sc_hd__nor2_2
*I *131:X O *D sky130_fd_sc_hd__and3_2
*CAP
1 *188:A 0.000204142
2 *139:A 0
3 *132:B 1.91209e-05
4 *131:X 0.00011731
5 *20:19 0.000534836
6 *20:8 0.000467125
7 *188:A *138:A 0
8 *188:A *188:B 0.000228753
9 *188:A *189:A 1.98839e-05
10 *188:A *189:B 6.26559e-05
11 *188:A *24:18 5.52238e-05
12 *20:19 *188:B 4.55108e-05
13 *20:19 *26:6 5.65955e-05
14 *132:A *132:B 0
15 *132:A *20:8 0.00010096
*RES
1 *131:X *20:8 11.4964 
2 *20:8 *132:B 9.72857 
3 *20:8 *20:19 5.48214 
4 *20:19 *139:A 9.3 
5 *20:19 *188:A 22.9429 
*END

*D_NET *21 0.00126268
*CONN
*I *134:A I *D sky130_fd_sc_hd__inv_2
*I *136:D I *D sky130_fd_sc_hd__and4b_2
*I *133:X O *D sky130_fd_sc_hd__a22o_2
*CAP
1 *134:A 0.000126977
2 *136:D 0
3 *133:X 0.000232628
4 *21:8 0.000359605
5 *134:A *137:A2_N 0
6 *134:A *137:B2 5.57914e-05
7 *134:A *138:A 1.41029e-05
8 *134:A *146:A1 5.59013e-05
9 *134:A *24:10 5.33882e-05
10 *134:A *81:93 0
11 *134:A *83:50 9.90367e-05
12 *21:8 *129:A 3.52408e-05
13 *21:8 *136:C 1.04232e-05
14 *21:8 *146:B1 0
15 *21:8 *83:31 0.000198594
16 *21:8 *83:50 2.09922e-05
*RES
1 *133:X *21:8 13.9607 
2 *21:8 *136:D 9.3 
3 *21:8 *134:A 21.8 
*END

*D_NET *22 0.000188443
*CONN
*I *137:B1 I *D sky130_fd_sc_hd__o2bb2a_2
*I *134:Y O *D sky130_fd_sc_hd__inv_2
*CAP
1 *137:B1 5.3856e-05
2 *134:Y 5.3856e-05
3 *137:B1 *138:B 8.07313e-05
*RES
1 *134:Y *137:B1 19.9571 
*END

*D_NET *23 0.00305117
*CONN
*I *137:B2 I *D sky130_fd_sc_hd__o2bb2a_2
*I *136:A_N I *D sky130_fd_sc_hd__and4b_2
*I *145:A I *D sky130_fd_sc_hd__nand3_2
*I *146:B1 I *D sky130_fd_sc_hd__a21o_2
*I *135:X O *D sky130_fd_sc_hd__and4_2
*CAP
1 *137:B2 0.000195286
2 *136:A_N 0
3 *145:A 1.16193e-05
4 *146:B1 0.000272494
5 *135:X 0.000124604
6 *23:44 0.00033506
7 *23:12 0.000535267
8 *23:6 0.000515533
9 *137:B2 *130:B2 0
10 *137:B2 *137:A2_N 0.000101545
11 *137:B2 *138:A 0
12 *137:B2 *83:14 0
13 *137:B2 *83:31 0.000183726
14 *137:B2 *83:50 1.33343e-05
15 *145:A *145:C 2.78661e-05
16 *146:B1 *145:B 2.41972e-05
17 *146:B1 *145:C 1.44983e-06
18 *146:B1 *146:A2 0.000153054
19 *146:B1 *32:10 7.60491e-05
20 *146:B1 *83:50 0.000105908
21 *23:6 *84:8 7.60811e-05
22 *23:12 *145:C 1.24368e-05
23 *23:12 *84:8 5.23735e-05
24 *23:44 *137:A2_N 1.46624e-05
25 *23:44 *81:93 6.26653e-05
26 *23:44 *83:14 0
27 *23:44 *84:19 0
28 *134:A *137:B2 5.57914e-05
29 *195:A *23:6 0.000100165
30 *21:8 *146:B1 0
*RES
1 *135:X *23:6 12.3 
2 *23:6 *23:12 4.47321 
3 *23:12 *146:B1 24.0054 
4 *23:12 *145:A 9.78661 
5 *23:6 *23:44 11.8571 
6 *23:44 *136:A_N 9.3 
7 *23:44 *137:B2 22.6214 
*END

*D_NET *24 0.00229202
*CONN
*I *138:A I *D sky130_fd_sc_hd__nor2_2
*I *150:B1 I *D sky130_fd_sc_hd__a21oi_2
*I *149:A I *D sky130_fd_sc_hd__and3_2
*I *136:X O *D sky130_fd_sc_hd__and4b_2
*CAP
1 *138:A 0.000131883
2 *150:B1 0
3 *149:A 9.05654e-05
4 *136:X 0.000140135
5 *24:18 0.000580338
6 *24:10 0.000761791
7 *138:A *138:B 0.000153047
8 *138:A *188:B 0
9 *149:A *150:A1 7.8327e-05
10 *24:10 *146:A1 5.52302e-05
11 *24:10 *83:50 1.98839e-05
12 *24:18 *138:B 1.28239e-05
13 *24:18 *188:B 9.07497e-05
14 *24:18 *189:B 5.45307e-05
15 *134:A *138:A 1.41029e-05
16 *134:A *24:10 5.33882e-05
17 *137:B2 *138:A 0
18 *188:A *138:A 0
19 *188:A *24:18 5.52238e-05
*RES
1 *136:X *24:10 16.0857 
2 *24:10 *24:18 12.9821 
3 *24:18 *149:A 20.2464 
4 *24:18 *150:B1 9.3 
5 *24:10 *138:A 16.9607 
*END

*D_NET *25 0.00125122
*CONN
*I *138:B I *D sky130_fd_sc_hd__nor2_2
*I *137:X O *D sky130_fd_sc_hd__o2bb2a_2
*CAP
1 *138:B 0.000480199
2 *137:X 0.000480199
3 *138:B *137:A1_N 2.8427e-05
4 *138:B *137:A2_N 1.57885e-05
5 *137:B1 *138:B 8.07313e-05
6 *138:A *138:B 0.000153047
7 *24:18 *138:B 1.28239e-05
*RES
1 *137:X *138:B 34.6 
*END

*D_NET *26 0.000976874
*CONN
*I *139:B I *D sky130_fd_sc_hd__nand2_2
*I *188:B I *D sky130_fd_sc_hd__or2_2
*I *138:Y O *D sky130_fd_sc_hd__nor2_2
*CAP
1 *139:B 0
2 *188:B 0.000212288
3 *138:Y 1.6175e-05
4 *26:6 0.000228463
5 *188:B *189:A 9.83388e-05
6 *138:A *188:B 0
7 *188:A *188:B 0.000228753
8 *20:19 *188:B 4.55108e-05
9 *20:19 *26:6 5.65955e-05
10 *24:18 *188:B 9.07497e-05
*RES
1 *138:Y *26:6 9.83571 
2 *26:6 *188:B 23.7107 
3 *26:6 *139:B 9.3 
*END

*D_NET *27 0.00237709
*CONN
*I *152:A I *D sky130_fd_sc_hd__xnor2_2
*I *166:A1 I *D sky130_fd_sc_hd__o21ba_2
*I *189:A I *D sky130_fd_sc_hd__and2_2
*I *139:Y O *D sky130_fd_sc_hd__nand2_2
*CAP
1 *152:A 0.000260399
2 *166:A1 0.000109761
3 *189:A 0.000578221
4 *139:Y 0.000128213
5 *27:22 0.000820168
6 *152:A *152:B 0.00010096
7 *166:A1 *151:A 0.000194299
8 *166:A1 *37:10 1.02504e-05
9 *27:22 *199:A 5.65955e-05
10 *188:A *189:A 1.98839e-05
11 *188:B *189:A 9.83388e-05
*RES
1 *139:Y *189:A 20.7964 
2 *189:A *27:22 16.425 
3 *27:22 *166:A1 21.1571 
4 *27:22 *152:A 13.55 
*END

*D_NET *28 0.000665297
*CONN
*I *157:A1 I *D sky130_fd_sc_hd__a21oi_2
*I *140:Y O *D sky130_fd_sc_hd__nand2_2
*CAP
1 *157:A1 9.34771e-05
2 *140:Y 9.34771e-05
3 *157:A1 *140:A 0.000258066
4 *157:A1 *81:33 1.74352e-05
5 *157:A1 *82:18 0.000202842
*RES
1 *140:Y *157:A1 31.1 
*END

*D_NET *29 0.00213687
*CONN
*I *153:A I *D sky130_fd_sc_hd__nand2_2
*I *143:C I *D sky130_fd_sc_hd__nand4_2
*I *144:B1 I *D sky130_fd_sc_hd__a22o_2
*I *141:Y O *D sky130_fd_sc_hd__nand4_2
*CAP
1 *153:A 0.000288506
2 *143:C 0.000114775
3 *144:B1 2.13113e-05
4 *141:Y 0.00028169
5 *29:15 0.000436742
6 *29:6 0.000336463
7 *143:C *143:A 1.24368e-05
8 *143:C *144:B2 6.54817e-05
9 *143:C *84:50 4.73355e-05
10 *143:C *84:56 0.00015078
11 *153:A *144:A2 3.02036e-05
12 *153:A *153:B 0.000228592
13 *153:A *32:10 0.000122554
*RES
1 *141:Y *29:6 13.9429 
2 *29:6 *144:B1 9.72857 
3 *29:6 *29:15 0.535714 
4 *29:15 *143:C 21.3893 
5 *29:15 *153:A 15.6036 
*END

*D_NET *30 0.000862999
*CONN
*I *143:D I *D sky130_fd_sc_hd__nand4_2
*I *144:B2 I *D sky130_fd_sc_hd__a22o_2
*I *142:X O *D sky130_fd_sc_hd__a22o_2
*CAP
1 *143:D 5.5738e-05
2 *144:B2 0.000135532
3 *142:X 0.000207489
4 *30:10 0.000398759
5 *30:10 *142:B1 0
6 *143:C *144:B2 6.54817e-05
*RES
1 *142:X *30:10 12.7464 
2 *30:10 *144:B2 21.1571 
3 *30:10 *143:D 10.2464 
*END

*D_NET *31 0.00252886
*CONN
*I *145:B I *D sky130_fd_sc_hd__nand3_2
*I *146:A1 I *D sky130_fd_sc_hd__a21o_2
*I *153:B I *D sky130_fd_sc_hd__nand2_2
*I *143:Y O *D sky130_fd_sc_hd__nand4_2
*CAP
1 *145:B 0.000255263
2 *146:A1 0.000262997
3 *153:B 0.000237291
4 *143:Y 0
5 *31:6 0.000500288
6 *31:4 0.000255263
7 *145:B *143:A 3.61656e-05
8 *145:B *32:10 2.73164e-05
9 *146:A1 *146:A2 0.000190155
10 *146:A1 *32:10 0.000196999
11 *146:A1 *81:93 0
12 *146:A1 *83:50 5.46799e-05
13 *153:B *32:10 0.00014852
14 *134:A *146:A1 5.59013e-05
15 *146:B1 *145:B 2.41972e-05
16 *153:A *153:B 0.000228592
17 *24:10 *146:A1 5.52302e-05
*RES
1 *143:Y *31:4 9.3 
2 *31:4 *31:6 4.5 
3 *31:6 *153:B 18.8357 
4 *31:6 *146:A1 20.0321 
5 *31:4 *145:B 22.4429 
*END

*D_NET *32 0.00222121
*CONN
*I *146:A2 I *D sky130_fd_sc_hd__a21o_2
*I *145:C I *D sky130_fd_sc_hd__nand3_2
*I *144:X O *D sky130_fd_sc_hd__a22o_2
*CAP
1 *146:A2 6.39467e-05
2 *145:C 0.000151572
3 *144:X 0.000367838
4 *32:10 0.000583357
5 *145:C *33:6 9.80904e-05
6 *146:A2 *147:D 0
7 *145:A *145:C 2.78661e-05
8 *145:B *32:10 2.73164e-05
9 *146:A1 *146:A2 0.000190155
10 *146:A1 *32:10 0.000196999
11 *146:B1 *145:C 1.44983e-06
12 *146:B1 *146:A2 0.000153054
13 *146:B1 *32:10 7.60491e-05
14 *153:A *32:10 0.000122554
15 *153:B *32:10 0.00014852
16 *23:12 *145:C 1.24368e-05
*RES
1 *144:X *32:10 20.3536 
2 *32:10 *145:C 16.8179 
3 *32:10 *146:A2 16.3536 
*END

*D_NET *33 0.00223878
*CONN
*I *161:A I *D sky130_fd_sc_hd__and2_2
*I *164:A I *D sky130_fd_sc_hd__and3_2
*I *147:C I *D sky130_fd_sc_hd__nand4_2
*I *148:B1 I *D sky130_fd_sc_hd__a22o_2
*I *145:Y O *D sky130_fd_sc_hd__nand3_2
*CAP
1 *161:A 0
2 *164:A 0.000198704
3 *147:C 0
4 *148:B1 9.00809e-05
5 *145:Y 0.000295086
6 *33:28 0.000473793
7 *33:8 0.000112366
8 *33:6 0.00059246
9 *148:B1 *147:D 7.23651e-05
10 *148:B1 *148:A2 0.000111414
11 *148:B1 *82:93 1.00332e-05
12 *164:A *47:20 2.53112e-06
13 *33:28 *35:6 0.000102659
14 *33:28 *35:32 7.9195e-05
15 *145:C *33:6 9.80904e-05
*RES
1 *145:Y *33:6 13.9429 
2 *33:6 *33:8 0.428571 
3 *33:8 *148:B1 21.1571 
4 *33:8 *147:C 9.3 
5 *33:6 *33:28 5.07143 
6 *33:28 *164:A 21.1929 
7 *33:28 *161:A 9.3 
*END

*D_NET *34 0.000830428
*CONN
*I *148:B2 I *D sky130_fd_sc_hd__a22o_2
*I *147:D I *D sky130_fd_sc_hd__nand4_2
*I *146:X O *D sky130_fd_sc_hd__a21o_2
*CAP
1 *148:B2 1.91139e-05
2 *147:D 0.000136631
3 *146:X 8.11316e-05
4 *34:6 0.000236876
5 *148:B2 *83:50 5.49544e-05
6 *34:6 *83:50 0.000229355
7 *146:A2 *147:D 0
8 *148:B1 *147:D 7.23651e-05
*RES
1 *146:X *34:6 11.4786 
2 *34:6 *147:D 21.1571 
3 *34:6 *148:B2 9.83571 
*END

*D_NET *35 0.00200698
*CONN
*I *164:B I *D sky130_fd_sc_hd__and3_2
*I *161:B I *D sky130_fd_sc_hd__and2_2
*I *150:A1 I *D sky130_fd_sc_hd__a21oi_2
*I *149:B I *D sky130_fd_sc_hd__and3_2
*I *147:Y O *D sky130_fd_sc_hd__nand4_2
*CAP
1 *164:B 0.000202471
2 *161:B 0
3 *150:A1 0.000201973
4 *149:B 0
5 *147:Y 7.78576e-05
6 *35:32 0.000304701
7 *35:10 0.000275321
8 *35:6 0.000253436
9 *150:A1 *147:A 2.58997e-05
10 *150:A1 *150:A2 0
11 *150:A1 *37:10 0
12 *150:A1 *38:8 7.43578e-06
13 *164:B *163:B 0.000104167
14 *164:B *47:20 0.000106427
15 *164:B *48:10 0.000119613
16 *35:10 *147:A 6.75007e-05
17 *149:A *150:A1 7.8327e-05
18 *33:28 *35:6 0.000102659
19 *33:28 *35:32 7.9195e-05
*RES
1 *147:Y *35:6 11.0679 
2 *35:6 *35:10 6.14286 
3 *35:10 *149:B 13.8 
4 *35:10 *150:A1 17.9071 
5 *35:6 *35:32 2.19643 
6 *35:32 *161:B 9.3 
7 *35:32 *164:B 22.8179 
*END

*D_NET *36 0.000863436
*CONN
*I *150:A2 I *D sky130_fd_sc_hd__a21oi_2
*I *149:C I *D sky130_fd_sc_hd__and3_2
*I *148:X O *D sky130_fd_sc_hd__a22o_2
*CAP
1 *150:A2 0.000222894
2 *149:C 0
3 *148:X 0.000144032
4 *36:6 0.000366926
5 *150:A2 *37:10 9.60918e-05
6 *36:6 *147:A 3.34924e-05
7 *150:A1 *150:A2 0
*RES
1 *148:X *36:6 10.992 
2 *36:6 *149:C 9.3 
3 *36:6 *150:A2 21.7107 
*END

*D_NET *37 0.00131081
*CONN
*I *151:A I *D sky130_fd_sc_hd__nor2_2
*I *166:B1_N I *D sky130_fd_sc_hd__o21ba_2
*I *149:X O *D sky130_fd_sc_hd__and3_2
*CAP
1 *151:A 5.26599e-05
2 *166:B1_N 0.000132974
3 *149:X 0.000202322
4 *37:10 0.000387956
5 *151:A *151:B 0.000109809
6 *166:B1_N *151:B 5.52238e-05
7 *166:B1_N *38:8 1.97502e-05
8 *166:B1_N *53:10 3.18676e-05
9 *37:10 *151:B 1.76039e-05
10 *37:10 *53:10 0
11 *150:A1 *37:10 0
12 *150:A2 *37:10 9.60918e-05
13 *166:A1 *151:A 0.000194299
14 *166:A1 *37:10 1.02504e-05
*RES
1 *149:X *37:10 17.7107 
2 *37:10 *166:B1_N 16.5321 
3 *37:10 *151:A 16.3536 
*END

*D_NET *38 0.00094206
*CONN
*I *151:B I *D sky130_fd_sc_hd__nor2_2
*I *166:A2 I *D sky130_fd_sc_hd__o21ba_2
*I *150:Y O *D sky130_fd_sc_hd__a21oi_2
*CAP
1 *151:B 0.000138922
2 *166:A2 0
3 *150:Y 0.000227197
4 *38:8 0.000366119
5 *150:A1 *38:8 7.43578e-06
6 *151:A *151:B 0.000109809
7 *166:B1_N *151:B 5.52238e-05
8 *166:B1_N *38:8 1.97502e-05
9 *37:10 *151:B 1.76039e-05
*RES
1 *150:Y *38:8 12.2107 
2 *38:8 *166:A2 9.3 
3 *38:8 *151:B 21.6929 
*END

*D_NET *39 0.000165058
*CONN
*I *152:B I *D sky130_fd_sc_hd__xnor2_2
*I *151:Y O *D sky130_fd_sc_hd__nor2_2
*CAP
1 *152:B 3.20492e-05
2 *151:Y 3.20492e-05
3 *152:A *152:B 0.00010096
*RES
1 *151:Y *152:B 19.5464 
*END

*D_NET *40 0.000962056
*CONN
*I *160:A I *D sky130_fd_sc_hd__xnor2_2
*I *159:A I *D sky130_fd_sc_hd__and2_2
*I *153:Y O *D sky130_fd_sc_hd__nand2_2
*CAP
1 *160:A 3.78541e-05
2 *159:A 9.81346e-05
3 *153:Y 0.000245693
4 *40:12 0.000381682
5 *159:A *82:93 0.000198692
*RES
1 *153:Y *40:12 22.425 
2 *40:12 *159:A 20.8536 
3 *40:12 *160:A 9.83571 
*END

*D_NET *41 0.000302145
*CONN
*I *158:A I *D sky130_fd_sc_hd__xnor2_2
*I *154:Y O *D sky130_fd_sc_hd__nand2_2
*CAP
1 *158:A 0.000100391
2 *154:Y 0.000100391
3 *158:A *54:8 0
4 *158:A *82:70 0.000101363
*RES
1 *154:Y *158:A 29.5464 
*END

*D_NET *42 0.000739299
*CONN
*I *168:B1 I *D sky130_fd_sc_hd__a31o_2
*I *157:B1 I *D sky130_fd_sc_hd__a21oi_2
*I *155:X O *D sky130_fd_sc_hd__and4_2
*CAP
1 *168:B1 1.44544e-05
2 *157:B1 8.3949e-05
3 *155:X 3.71485e-05
4 *42:6 0.000135552
5 *157:B1 *154:A 0
6 *157:B1 *44:12 0.000100823
7 *157:B1 *54:8 0
8 *157:B1 *81:12 2.82057e-05
9 *168:B1 *44:12 9.90431e-05
10 *168:B1 *82:57 8.66063e-05
11 *42:6 *155:D 6.05161e-06
12 *42:6 *44:12 5.33005e-05
13 *42:6 *82:57 9.41642e-05
*RES
1 *155:X *42:6 10.2464 
2 *42:6 *157:B1 20.2464 
3 *42:6 *168:B1 10.2464 
*END

*D_NET *43 0.00162493
*CONN
*I *157:A2 I *D sky130_fd_sc_hd__a21oi_2
*I *181:C I *D sky130_fd_sc_hd__and3_2
*I *156:Y O *D sky130_fd_sc_hd__nand2_2
*CAP
1 *157:A2 0.000268783
2 *181:C 9.02748e-05
3 *156:Y 0
4 *43:4 0.000359058
5 *157:A2 *140:A 0.000107503
6 *157:A2 *169:B2 5.58941e-05
7 *157:A2 *181:A 0.000128146
8 *157:A2 *181:B 7.15687e-05
9 *157:A2 *82:18 0
10 *157:A2 *86:10 0.000202842
11 *157:A2 *86:12 0.000241198
12 *181:C *156:A 1.97695e-05
13 *181:C *181:A 5.71472e-05
14 *181:C *181:B 2.27416e-05
*RES
1 *156:Y *43:4 9.3 
2 *43:4 *181:C 11.5143 
3 *43:4 *157:A2 25.9429 
*END

*D_NET *44 0.00120882
*CONN
*I *158:B I *D sky130_fd_sc_hd__xnor2_2
*I *168:A3 I *D sky130_fd_sc_hd__a31o_2
*I *157:Y O *D sky130_fd_sc_hd__a21oi_2
*CAP
1 *158:B 9.89711e-05
2 *168:A3 0
3 *157:Y 0.000175604
4 *44:12 0.000274575
5 *158:B *82:70 0.000142053
6 *44:12 *81:12 0.00012501
7 *44:12 *82:57 0.000115013
8 *44:12 *82:70 2.44318e-05
9 *157:B1 *44:12 0.000100823
10 *168:B1 *44:12 9.90431e-05
11 *42:6 *44:12 5.33005e-05
*RES
1 *157:Y *44:12 22.9429 
2 *44:12 *168:A3 9.3 
3 *44:12 *158:B 11.8893 
*END

*D_NET *45 0.000628992
*CONN
*I *159:B I *D sky130_fd_sc_hd__and2_2
*I *160:B I *D sky130_fd_sc_hd__xnor2_2
*I *158:Y O *D sky130_fd_sc_hd__xnor2_2
*CAP
1 *159:B 0
2 *160:B 9.76809e-05
3 *158:Y 0.000117466
4 *45:6 0.000215147
5 *160:B *82:93 0.000198698
*RES
1 *158:Y *45:6 11.0679 
2 *45:6 *160:B 20.8536 
3 *45:6 *159:B 9.3 
*END

*D_NET *46 0.000607306
*CONN
*I *174:A I *D sky130_fd_sc_hd__nor2_2
*I *175:A I *D sky130_fd_sc_hd__and2_2
*I *159:X O *D sky130_fd_sc_hd__and2_2
*CAP
1 *174:A 7.12975e-05
2 *175:A 0.000101062
3 *159:X 6.17285e-05
4 *46:6 0.000234088
5 *174:A *174:B 5.52302e-05
6 *175:A *174:B 7.80929e-05
7 *175:A *59:21 5.80706e-06
*RES
1 *159:X *46:6 10.2464 
2 *46:6 *175:A 20.55 
3 *46:6 *174:A 10.6571 
*END

*D_NET *47 0.00149146
*CONN
*I *163:A I *D sky130_fd_sc_hd__or2_2
*I *164:C I *D sky130_fd_sc_hd__and3_2
*I *162:A I *D sky130_fd_sc_hd__nor2_2
*I *160:Y O *D sky130_fd_sc_hd__xnor2_2
*CAP
1 *163:A 7.42848e-05
2 *164:C 0
3 *162:A 8.90528e-05
4 *160:Y 0.000199718
5 *47:20 0.000264136
6 *47:12 0.000449086
7 *162:A *162:B 0.000140243
8 *162:A *51:8 3.46801e-05
9 *163:A *163:B 5.66971e-05
10 *47:20 *163:B 7.46072e-05
11 *164:A *47:20 2.53112e-06
12 *164:B *47:20 0.000106427
*RES
1 *160:Y *47:12 21.4071 
2 *47:12 *47:20 13 
3 *47:20 *162:A 11.4964 
4 *47:20 *164:C 9.3 
5 *47:12 *163:A 10.6571 
*END

*D_NET *48 0.00140787
*CONN
*I *162:B I *D sky130_fd_sc_hd__nor2_2
*I *163:B I *D sky130_fd_sc_hd__or2_2
*I *161:X O *D sky130_fd_sc_hd__and2_2
*CAP
1 *162:B 0.000147325
2 *163:B 0.000119629
3 *161:X 0.000131084
4 *48:10 0.000398038
5 *162:B *51:8 8.25843e-06
6 *163:B *165:B 3.45953e-05
7 *163:B *50:8 4.37633e-05
8 *48:10 *165:B 2.98475e-05
9 *162:A *162:B 0.000140243
10 *163:A *163:B 5.66971e-05
11 *164:B *163:B 0.000104167
12 *164:B *48:10 0.000119613
13 *47:20 *163:B 7.46072e-05
*RES
1 *161:X *48:10 16.0857 
2 *48:10 *163:B 17.4964 
3 *48:10 *162:B 16.4071 
*END

*D_NET *49 0.000285056
*CONN
*I *165:A I *D sky130_fd_sc_hd__nor2_2
*I *162:Y O *D sky130_fd_sc_hd__nor2_2
*CAP
1 *165:A 4.87228e-05
2 *162:Y 4.87228e-05
3 *165:A *165:B 0.000124012
4 *165:A *53:12 6.35976e-05
*RES
1 *162:Y *165:A 29.2429 
*END

*D_NET *50 0.000933536
*CONN
*I *177:B1 I *D sky130_fd_sc_hd__o21a_2
*I *180:A I *D sky130_fd_sc_hd__nor2_2
*I *163:X O *D sky130_fd_sc_hd__or2_2
*CAP
1 *177:B1 2.7583e-05
2 *180:A 0.000173987
3 *163:X 0.000135991
4 *50:8 0.000337561
5 *177:B1 *178:B 2.85234e-05
6 *180:A *176:A 5.52302e-05
7 *180:A *179:A_N 0
8 *50:8 *177:A1 0.000130898
9 *163:B *50:8 4.37633e-05
*RES
1 *163:X *50:8 17.2643 
2 *50:8 *180:A 16.8893 
3 *50:8 *177:B1 14.3357 
*END

*D_NET *51 0.00139413
*CONN
*I *177:A1 I *D sky130_fd_sc_hd__o21a_2
*I *165:B I *D sky130_fd_sc_hd__nor2_2
*I *164:X O *D sky130_fd_sc_hd__and3_2
*CAP
1 *177:A1 0.000127323
2 *165:B 0.000178648
3 *164:X 0.000108201
4 *51:8 0.000414172
5 *165:B *167:A 6.05161e-06
6 *165:B *53:12 3.45023e-05
7 *177:A1 *53:12 0.000162937
8 *162:A *51:8 3.46801e-05
9 *162:B *51:8 8.25843e-06
10 *163:B *165:B 3.45953e-05
11 *165:A *165:B 0.000124012
12 *48:10 *165:B 2.98475e-05
13 *50:8 *177:A1 0.000130898
*RES
1 *164:X *51:8 15.1571 
2 *51:8 *165:B 18.0321 
3 *51:8 *177:A1 17.8714 
*END

*D_NET *52 0.00048334
*CONN
*I *167:A I *D sky130_fd_sc_hd__xnor2_2
*I *165:Y O *D sky130_fd_sc_hd__nor2_2
*CAP
1 *167:A 0.000238644
2 *165:Y 0.000238644
3 *165:B *167:A 6.05161e-06
*RES
1 *165:Y *167:A 21.5107 
*END

*D_NET *53 0.00287394
*CONN
*I *167:B I *D sky130_fd_sc_hd__xnor2_2
*I *177:A2 I *D sky130_fd_sc_hd__o21a_2
*I *179:A_N I *D sky130_fd_sc_hd__and2b_2
*I *166:X O *D sky130_fd_sc_hd__o21ba_2
*CAP
1 *167:B 0
2 *177:A2 7.28562e-05
3 *179:A_N 0.000246338
4 *166:X 0.000389629
5 *53:12 0.000678933
6 *53:10 0.000749369
7 *177:A2 *178:B 5.08826e-05
8 *179:A_N *176:B 0.000297827
9 *179:A_N *178:A 6.49087e-05
10 *179:A_N *202:A 0
11 *179:A_N *65:10 0
12 *53:10 *201:A 0
13 *53:12 *178:A 3.02892e-05
14 *165:A *53:12 6.35976e-05
15 *165:B *53:12 3.45023e-05
16 *166:B1_N *53:10 3.18676e-05
17 *177:A1 *53:12 0.000162937
18 *180:A *179:A_N 0
19 *37:10 *53:10 0
*RES
1 *166:X *53:10 19.9429 
2 *53:10 *53:12 7.71429 
3 *53:12 *179:A_N 19.2286 
4 *53:12 *177:A2 15.1571 
5 *53:10 *167:B 13.8 
*END

*D_NET *54 0.001463
*CONN
*I *173:A I *D sky130_fd_sc_hd__xnor2_2
*I *172:A I *D sky130_fd_sc_hd__and3_2
*I *168:X O *D sky130_fd_sc_hd__a31o_2
*CAP
1 *173:A 0.000135071
2 *172:A 0.000253666
3 *168:X 0.000271843
4 *54:8 0.000660581
5 *172:A *169:A2 0
6 *172:A *186:B1_N 0.00010096
7 *172:A *56:6 3.69047e-06
8 *172:A *56:21 3.71854e-05
9 *172:A *81:12 0
10 *54:8 *154:A 0
11 *54:8 *81:12 0
12 *54:8 *84:58 0
13 *157:B1 *54:8 0
14 *158:A *54:8 0
*RES
1 *168:X *54:8 18.4786 
2 *54:8 *172:A 17.6393 
3 *54:8 *173:A 15.9786 
*END

*D_NET *55 0.000785725
*CONN
*I *172:B I *D sky130_fd_sc_hd__and3_2
*I *171:A I *D sky130_fd_sc_hd__nand2_2
*I *169:X O *D sky130_fd_sc_hd__a22o_2
*CAP
1 *172:B 0
2 *171:A 7.98271e-05
3 *169:X 0.000188905
4 *55:6 0.000268732
5 *171:A *171:B 7.83174e-05
6 *171:A *66:12 2.34204e-05
7 *55:6 *56:6 0.000102197
8 *55:6 *56:21 4.43256e-05
*RES
1 *169:X *55:6 11.8893 
2 *55:6 *171:A 20.2464 
3 *55:6 *172:B 9.3 
*END

*D_NET *56 0.00197921
*CONN
*I *186:B1_N I *D sky130_fd_sc_hd__a21bo_2
*I *172:C I *D sky130_fd_sc_hd__and3_2
*I *171:B I *D sky130_fd_sc_hd__nand2_2
*I *170:Y O *D sky130_fd_sc_hd__nand4_2
*CAP
1 *186:B1_N 0.000159903
2 *172:C 0
3 *171:B 0.000129905
4 *170:Y 0.000208709
5 *56:21 0.000220713
6 *56:6 0.000399423
7 *171:B *169:A1 0
8 *171:B *66:12 0
9 *186:B1_N *182:A 0.000133293
10 *186:B1_N *58:8 0.000111383
11 *56:6 *169:A1 0.000121416
12 *56:6 *169:A2 1.57155e-05
13 *56:6 *169:B2 1.21258e-05
14 *56:6 *170:A 1.24368e-05
15 *56:6 *170:D 5.03772e-05
16 *56:6 *82:18 1.02821e-05
17 *56:6 *82:20 2.28598e-05
18 *56:21 *186:A2 3.99614e-06
19 *56:21 *58:8 0
20 *171:A *171:B 7.83174e-05
21 *172:A *186:B1_N 0.00010096
22 *172:A *56:6 3.69047e-06
23 *172:A *56:21 3.71854e-05
24 *55:6 *56:6 0.000102197
25 *55:6 *56:21 4.43256e-05
*RES
1 *170:Y *56:6 14.3536 
2 *56:6 *171:B 20.8536 
3 *56:6 *56:21 1.67857 
4 *56:21 *172:C 9.3 
5 *56:21 *186:B1_N 13.4161 
*END

*D_NET *57 0.00127697
*CONN
*I *173:B I *D sky130_fd_sc_hd__xnor2_2
*I *171:Y O *D sky130_fd_sc_hd__nand2_2
*CAP
1 *173:B 0.00062255
2 *171:Y 0.00062255
3 *173:B *66:12 3.18676e-05
*RES
1 *171:Y *173:B 37.4571 
*END

*D_NET *58 0.00099525
*CONN
*I *182:A I *D sky130_fd_sc_hd__xor2_2
*I *186:A1 I *D sky130_fd_sc_hd__a21bo_2
*I *172:X O *D sky130_fd_sc_hd__and3_2
*CAP
1 *182:A 8.6696e-05
2 *186:A1 0
3 *172:X 2.91222e-05
4 *58:8 0.000115818
5 *182:A *182:B 0.000389902
6 *182:A *187:B 5.018e-05
7 *58:8 *182:B 1.83239e-05
8 *58:8 *186:A2 6.05322e-05
9 *186:B1_N *182:A 0.000133293
10 *186:B1_N *58:8 0.000111383
11 *56:21 *58:8 0
*RES
1 *172:X *58:8 10.675 
2 *58:8 *186:A1 9.3 
3 *58:8 *182:A 13.1393 
*END

*D_NET *59 0.00186151
*CONN
*I *174:B I *D sky130_fd_sc_hd__nor2_2
*I *175:B I *D sky130_fd_sc_hd__and2_2
*I *179:B I *D sky130_fd_sc_hd__and2b_2
*I *173:Y O *D sky130_fd_sc_hd__xnor2_2
*CAP
1 *174:B 0.000184662
2 *175:B 0
3 *179:B 0.000149205
4 *173:Y 0.000398074
5 *59:21 0.000222986
6 *59:10 0.000585604
7 *174:B *176:A 0
8 *174:B *65:10 0
9 *179:B *61:6 0.000126629
10 *179:B *64:10 5.52238e-05
11 *59:10 *65:10 0
12 *59:21 *65:10 0
13 *174:A *174:B 5.52302e-05
14 *175:A *174:B 7.80929e-05
15 *175:A *59:21 5.80706e-06
*RES
1 *173:Y *59:10 20.3893 
2 *59:10 *179:B 16.8 
3 *59:10 *59:21 0.732143 
4 *59:21 *175:B 13.8 
5 *59:21 *174:B 17.5321 
*END

*D_NET *60 0.000555766
*CONN
*I *176:A I *D sky130_fd_sc_hd__nor2_2
*I *180:B I *D sky130_fd_sc_hd__nor2_2
*I *174:Y O *D sky130_fd_sc_hd__nor2_2
*CAP
1 *176:A 0.000129953
2 *180:B 0
3 *174:Y 9.27002e-05
4 *60:6 0.000222653
5 *60:6 *65:10 5.52302e-05
6 *174:B *176:A 0
7 *180:A *176:A 5.52302e-05
*RES
1 *174:Y *60:6 11.0679 
2 *60:6 *180:B 9.3 
3 *60:6 *176:A 11.925 
*END

*D_NET *61 0.00238019
*CONN
*I *176:B I *D sky130_fd_sc_hd__nor2_2
*I *183:A1 I *D sky130_fd_sc_hd__o31a_2
*I *184:A I *D sky130_fd_sc_hd__or4_2
*I *175:X O *D sky130_fd_sc_hd__and2_2
*CAP
1 *176:B 0.000213552
2 *183:A1 0
3 *184:A 0.000144344
4 *175:X 0.000149736
5 *61:10 0.00033913
6 *61:6 0.000558074
7 *176:B *202:A 0
8 *176:B *65:10 0
9 *184:A *184:B 0.000154762
10 *184:A *184:C 2.82057e-05
11 *184:A *184:D 0
12 *184:A *185:B 0
13 *184:A *64:10 1.02504e-05
14 *61:6 *64:10 1.21258e-05
15 *61:10 *203:A 0
16 *61:10 *64:10 0.000309773
17 *61:10 *65:10 3.57844e-05
18 *179:A_N *176:B 0.000297827
19 *179:B *61:6 0.000126629
*RES
1 *175:X *61:6 12.3 
2 *61:6 *61:10 9.48214 
3 *61:10 *184:A 17.1929 
4 *61:10 *183:A1 13.8 
5 *61:6 *176:B 23.1393 
*END

*D_NET *62 0.000285844
*CONN
*I *178:A I *D sky130_fd_sc_hd__xnor2_2
*I *176:Y O *D sky130_fd_sc_hd__nor2_2
*CAP
1 *178:A 9.53231e-05
2 *176:Y 9.53231e-05
3 *178:A *202:A 0
4 *179:A_N *178:A 6.49087e-05
5 *53:12 *178:A 3.02892e-05
*RES
1 *176:Y *178:A 29.85 
*END

*D_NET *63 0.000483014
*CONN
*I *178:B I *D sky130_fd_sc_hd__xnor2_2
*I *177:X O *D sky130_fd_sc_hd__o21a_2
*CAP
1 *178:B 0.000201804
2 *177:X 0.000201804
3 *177:A2 *178:B 5.08826e-05
4 *177:B1 *178:B 2.85234e-05
*RES
1 *177:X *178:B 22.0286 
*END

*D_NET *64 0.00140961
*CONN
*I *183:A2 I *D sky130_fd_sc_hd__o31a_2
*I *184:B I *D sky130_fd_sc_hd__or4_2
*I *179:X O *D sky130_fd_sc_hd__and2b_2
*CAP
1 *183:A2 0
2 *184:B 3.63616e-05
3 *179:X 0.000159982
4 *64:10 0.000196343
5 *184:B *184:C 0.000154762
6 *184:B *65:10 1.02504e-05
7 *64:10 *65:10 0.000309773
8 *179:B *64:10 5.52238e-05
9 *184:A *184:B 0.000154762
10 *184:A *64:10 1.02504e-05
11 *61:6 *64:10 1.21258e-05
12 *61:10 *64:10 0.000309773
*RES
1 *179:X *64:10 18.8179 
2 *64:10 *184:B 15.7464 
3 *64:10 *183:A2 13.8 
*END

*D_NET *65 0.00149593
*CONN
*I *183:A3 I *D sky130_fd_sc_hd__o31a_2
*I *184:C I *D sky130_fd_sc_hd__or4_2
*I *180:Y O *D sky130_fd_sc_hd__nor2_2
*CAP
1 *183:A3 0
2 *184:C 5.47764e-05
3 *180:Y 0.000341285
4 *65:10 0.000396062
5 *184:C *184:D 0.0001098
6 *174:B *65:10 0
7 *176:B *65:10 0
8 *179:A_N *65:10 0
9 *184:A *184:C 2.82057e-05
10 *184:B *184:C 0.000154762
11 *184:B *65:10 1.02504e-05
12 *59:10 *65:10 0
13 *59:21 *65:10 0
14 *60:6 *65:10 5.52302e-05
15 *61:10 *65:10 3.57844e-05
16 *64:10 *65:10 0.000309773
*RES
1 *180:Y *65:10 21.1393 
2 *65:10 *184:C 16.3536 
3 *65:10 *183:A3 13.8 
*END

*D_NET *66 0.00206896
*CONN
*I *182:B I *D sky130_fd_sc_hd__xor2_2
*I *186:A2 I *D sky130_fd_sc_hd__a21bo_2
*I *181:X O *D sky130_fd_sc_hd__and3_2
*CAP
1 *182:B 0.00026698
2 *186:A2 2.36982e-05
3 *181:X 0.000474015
4 *66:12 0.000764693
5 *182:B *187:B 1.15281e-05
6 *171:A *66:12 2.34204e-05
7 *171:B *66:12 0
8 *173:B *66:12 3.18676e-05
9 *182:A *182:B 0.000389902
10 *56:21 *186:A2 3.99614e-06
11 *58:8 *182:B 1.83239e-05
12 *58:8 *186:A2 6.05322e-05
*RES
1 *181:X *66:12 24.2821 
2 *66:12 *186:A2 10.242 
3 *66:12 *182:B 5.3125 
*END

*D_NET *67 0.00103174
*CONN
*I *183:B1 I *D sky130_fd_sc_hd__o31a_2
*I *184:D I *D sky130_fd_sc_hd__or4_2
*I *182:X O *D sky130_fd_sc_hd__xor2_2
*CAP
1 *183:B1 1.88267e-05
2 *184:D 8.59946e-05
3 *182:X 0.000135061
4 *67:6 0.000239882
5 *183:B1 *187:A 5.52302e-05
6 *184:D *204:A 9.56968e-05
7 *67:6 *187:A 0.000230475
8 *67:6 *187:B 3.18676e-05
9 *67:6 *204:A 2.89016e-05
10 *184:A *184:D 0
11 *184:C *184:D 0.0001098
*RES
1 *182:X *67:6 12.7107 
2 *67:6 *184:D 21.1571 
3 *67:6 *183:B1 9.83571 
*END

*D_NET *68 0.000957145
*CONN
*I *185:A_N I *D sky130_fd_sc_hd__and2b_2
*I *187:A I *D sky130_fd_sc_hd__or2_2
*I *183:X O *D sky130_fd_sc_hd__o31a_2
*CAP
1 *185:A_N 5.79961e-05
2 *187:A 0.000277724
3 *183:X 0
4 *68:4 0.00033572
5 *183:B1 *187:A 5.52302e-05
6 *67:6 *187:A 0.000230475
*RES
1 *183:X *68:4 9.3 
2 *68:4 *187:A 13.9429 
3 *68:4 *185:A_N 10.2464 
*END

*D_NET *69 0.000606635
*CONN
*I *185:B I *D sky130_fd_sc_hd__and2b_2
*I *184:X O *D sky130_fd_sc_hd__or4_2
*CAP
1 *185:B 0.000303317
2 *184:X 0.000303317
3 *184:A *185:B 0
*RES
1 *184:X *185:B 31.5286 
*END

*D_NET *70 0.00116524
*CONN
*I *187:B I *D sky130_fd_sc_hd__or2_2
*I *186:X O *D sky130_fd_sc_hd__a21bo_2
*CAP
1 *187:B 0.00053583
2 *186:X 0.00053583
3 *182:A *187:B 5.018e-05
4 *182:B *187:B 1.15281e-05
5 *67:6 *187:B 3.18676e-05
*RES
1 *186:X *187:B 25.3143 
*END

*D_NET *71 0.000421742
*CONN
*I *189:B I *D sky130_fd_sc_hd__and2_2
*I *188:X O *D sky130_fd_sc_hd__or2_2
*CAP
1 *189:B 0.000152277
2 *188:X 0.000152277
3 *188:A *189:B 6.26559e-05
4 *24:18 *189:B 5.45307e-05
*RES
1 *188:X *189:B 30.7964 
*END

*D_NET *72 0.00304132
*CONN
*I *129:B I *D sky130_fd_sc_hd__and2_2
*I *130:A1 I *D sky130_fd_sc_hd__a22oi_2
*I *135:A I *D sky130_fd_sc_hd__and4_2
*I *142:A1 I *D sky130_fd_sc_hd__a22o_2
*I *141:A I *D sky130_fd_sc_hd__nand4_2
*I *133:B2 I *D sky130_fd_sc_hd__a22o_2
*I *190:X O *D sky130_fd_sc_hd__clkdlybuf4s25_1
*CAP
1 *129:B 6.38925e-05
2 *130:A1 0.000130386
3 *135:A 9.45776e-05
4 *142:A1 7.73709e-05
5 *141:A 0.000260842
6 *133:B2 2.52056e-05
7 *190:X 2.52056e-05
8 *72:22 0.000438089
9 *72:20 0.00022132
10 *72:18 0.000221146
11 *129:B *80:24 5.50052e-05
12 *130:A1 *131:C 0.000227736
13 *130:A1 *80:12 4.23086e-05
14 *130:A1 *80:14 0.000135559
15 *130:A1 *80:18 5.80706e-06
16 *130:A1 *87:12 0
17 *133:B2 *129:A 5.52302e-05
18 *141:A *142:A2 0.000204474
19 *141:A *80:24 7.08044e-05
20 *141:A *80:26 0.000199782
21 *142:A1 *142:B1 1.84865e-05
22 *142:A1 *85:83 5.60463e-06
23 *72:20 *129:A 7.57869e-05
24 *72:20 *80:18 0.000117388
25 *72:20 *87:12 0
26 *72:22 *129:A 3.03135e-05
27 *72:22 *80:18 5.28915e-05
28 *72:22 *80:24 2.59761e-05
29 *72:22 *85:83 1.53675e-05
30 *195:A *129:B 0.000110162
31 *195:A *135:A 3.4599e-05
*RES
1 *190:X *133:B2 19.1357 
2 *190:X *72:18 13.8 
3 *72:18 *72:20 2.85714 
4 *72:20 *72:22 2.09821 
5 *72:22 *141:A 20.2554 
6 *72:22 *142:A1 15.0411 
7 *72:20 *135:A 14.3357 
8 *72:18 *130:A1 18.175 
9 *135:A *129:B 20.4571 
*END

*D_NET *73 0.000514581
*CONN
*I *198:A I *D sky130_fd_sc_hd__clkdlybuf4s25_1
*I *132:Y O *D sky130_fd_sc_hd__nor2_2
*CAP
1 *198:A 0.00025729
2 *132:Y 0.00025729
*RES
1 *132:Y *198:A 31.8321 
*END

*D_NET *74 0.000331592
*CONN
*I *199:A I *D sky130_fd_sc_hd__clkdlybuf4s25_1
*I *189:X O *D sky130_fd_sc_hd__and2_2
*CAP
1 *199:A 0.000137499
2 *189:X 0.000137499
3 *27:22 *199:A 5.65955e-05
*RES
1 *189:X *199:A 29.7786 
*END

*D_NET *75 0.000570787
*CONN
*I *200:A I *D sky130_fd_sc_hd__clkdlybuf4s25_1
*I *152:Y O *D sky130_fd_sc_hd__xnor2_2
*CAP
1 *200:A 0.000285394
2 *152:Y 0.000285394
3 p[3] *200:A 0
*RES
1 *152:Y *200:A 31.4214 
*END

*D_NET *76 0.000588548
*CONN
*I *201:A I *D sky130_fd_sc_hd__clkdlybuf4s25_1
*I *167:Y O *D sky130_fd_sc_hd__xnor2_2
*CAP
1 *201:A 0.000294274
2 *167:Y 0.000294274
3 *53:10 *201:A 0
*RES
1 *167:Y *201:A 32.7429 
*END

*D_NET *77 0.000624724
*CONN
*I *202:A I *D sky130_fd_sc_hd__clkdlybuf4s25_1
*I *178:Y O *D sky130_fd_sc_hd__xnor2_2
*CAP
1 *202:A 0.000279019
2 *178:Y 0.000279019
3 p[5] *202:A 6.66856e-05
4 *176:B *202:A 0
5 *178:A *202:A 0
6 *179:A_N *202:A 0
*RES
1 *178:Y *202:A 32.7429 
*END

*D_NET *78 0.000186505
*CONN
*I *203:A I *D sky130_fd_sc_hd__clkdlybuf4s25_1
*I *185:X O *D sky130_fd_sc_hd__and2b_2
*CAP
1 *203:A 9.32525e-05
2 *185:X 9.32525e-05
3 p[6] *203:A 0
4 *61:10 *203:A 0
*RES
1 *185:X *203:A 29.2429 
*END

*D_NET *79 0.000372927
*CONN
*I *204:A I *D sky130_fd_sc_hd__clkdlybuf4s25_1
*I *187:X O *D sky130_fd_sc_hd__or2_2
*CAP
1 *204:A 0.000124164
2 *187:X 0.000124164
3 *184:D *204:A 9.56968e-05
4 *67:6 *204:A 2.89016e-05
*RES
1 *187:X *204:A 30.3857 
*END

*D_NET *80 0.00591204
*CONN
*I *130:B1 I *D sky130_fd_sc_hd__a22oi_2
*I *131:B I *D sky130_fd_sc_hd__and3_2
*I *133:A2 I *D sky130_fd_sc_hd__a22o_2
*I *135:C I *D sky130_fd_sc_hd__and4_2
*I *142:B2 I *D sky130_fd_sc_hd__a22o_2
*I *141:B I *D sky130_fd_sc_hd__nand4_2
*I *140:A I *D sky130_fd_sc_hd__nand2_2
*I *155:A I *D sky130_fd_sc_hd__and4_2
*I *191:X O *D sky130_fd_sc_hd__clkdlybuf4s25_1
*CAP
1 *130:B1 9.29861e-06
2 *131:B 0.000224239
3 *133:A2 0.000153613
4 *135:C 0
5 *142:B2 0
6 *141:B 0
7 *140:A 0.000255119
8 *155:A 0
9 *191:X 0.00016902
10 *80:32 0.000532705
11 *80:26 0.000384036
12 *80:24 0.000312686
13 *80:18 0.000317501
14 *80:14 0.00038218
15 *80:12 0.000363274
16 *80:10 0.000200052
17 *130:B1 *130:A2 5.52302e-05
18 *131:B *130:A2 9.99644e-06
19 *131:B *130:B2 9.90367e-05
20 *131:B *131:A 7.49387e-06
21 *133:A2 *129:A 5.86806e-05
22 *140:A *155:B 8.36572e-05
23 *140:A *155:C 2.14658e-05
24 *140:A *81:33 5.33433e-05
25 *140:A *82:10 3.67452e-05
26 *140:A *82:18 7.4826e-05
27 *140:A *85:55 2.61337e-05
28 *140:A *86:10 2.78729e-05
29 *140:A *86:64 2.84009e-05
30 *80:10 *131:C 1.46624e-05
31 *80:10 *84:30 1.52978e-05
32 *80:12 *84:30 4.35131e-05
33 *80:14 *84:30 0.000143268
34 *80:18 *133:B1 0.000260483
35 *80:18 *84:19 1.41029e-05
36 *80:18 *84:30 1.17968e-05
37 *80:18 *85:83 9.15842e-06
38 *80:24 *135:B 5.49995e-05
39 *80:26 *142:A2 6.97936e-06
40 *80:26 *86:75 5.54817e-06
41 *80:32 *155:B 5.33005e-05
42 *80:32 *86:75 0.000190807
43 p[1] *80:10 5.71472e-05
44 *129:B *80:24 5.50052e-05
45 *130:A1 *80:12 4.23086e-05
46 *130:A1 *80:14 0.000135559
47 *130:A1 *80:18 5.80706e-06
48 *132:A *131:B 3.67967e-05
49 *141:A *80:24 7.08044e-05
50 *141:A *80:26 0.000199782
51 *157:A1 *140:A 0.000258066
52 *157:A2 *140:A 0.000107503
53 *191:A *80:10 0
54 *195:A *80:24 3.64864e-05
55 *72:20 *80:18 0.000117388
56 *72:22 *80:18 5.28915e-05
57 *72:22 *80:24 2.59761e-05
*RES
1 *191:X *80:10 16.3893 
2 *80:10 *80:12 1.03571 
3 *80:12 *80:14 3.46429 
4 *80:14 *80:18 8.57143 
5 *80:18 *80:24 7.91071 
6 *80:24 *80:26 2.85714 
7 *80:26 *80:32 10.5357 
8 *80:32 *155:A 9.3 
9 *80:32 *140:A 25.8893 
10 *80:26 *141:B 13.8 
11 *80:24 *142:B2 13.8 
12 *80:18 *135:C 9.3 
13 *80:14 *133:A2 16.0366 
14 *80:12 *131:B 16.8 
15 *80:10 *130:B1 14.3357 
*END

*D_NET *81 0.00578964
*CONN
*I *137:A2_N I *D sky130_fd_sc_hd__o2bb2a_2
*I *136:B I *D sky130_fd_sc_hd__and4b_2
*I *143:B I *D sky130_fd_sc_hd__nand4_2
*I *144:A2 I *D sky130_fd_sc_hd__a22o_2
*I *155:D I *D sky130_fd_sc_hd__and4_2
*I *170:C I *D sky130_fd_sc_hd__nand4_2
*I *156:B I *D sky130_fd_sc_hd__nand2_2
*I *169:A2 I *D sky130_fd_sc_hd__a22o_2
*I *192:X O *D sky130_fd_sc_hd__clkdlybuf4s25_1
*CAP
1 *137:A2_N 0.000206047
2 *136:B 0
3 *143:B 4.02457e-05
4 *144:A2 1.68719e-05
5 *155:D 8.51953e-05
6 *170:C 0
7 *156:B 9.16179e-05
8 *169:A2 9.01879e-05
9 *192:X 0.0004539
10 *81:93 0.00042042
11 *81:82 0.000373033
12 *81:71 0.000471556
13 *81:33 0.000470953
14 *81:12 0.000651721
15 *81:10 0.000385023
16 *137:A2_N *83:14 0
17 *143:B *143:A 9.84729e-05
18 *155:D *82:57 1.21258e-05
19 *156:B *156:A 0.000106552
20 *156:B *181:A 8.06427e-05
21 *156:B *86:12 3.90513e-05
22 *169:A2 *170:D 0
23 *169:A2 *82:18 9.64135e-05
24 *81:10 *82:10 0.000116121
25 *81:10 *84:58 0
26 *81:12 *82:10 8.15095e-05
27 *81:12 *82:18 0.000386169
28 *81:12 *84:58 0
29 *81:33 *140:B 2.59355e-05
30 *81:33 *85:10 7.6644e-05
31 *81:33 *86:12 2.72449e-05
32 *81:71 *84:56 2.90764e-05
33 *81:71 *84:58 5.107e-05
34 *81:82 *84:50 5.51649e-05
35 *81:82 *84:56 0.000164455
36 *81:93 *84:50 0.000115591
37 *134:A *137:A2_N 0
38 *134:A *81:93 0
39 *137:B2 *137:A2_N 0.000101545
40 *138:B *137:A2_N 1.57885e-05
41 *140:A *81:33 5.33433e-05
42 *146:A1 *81:93 0
43 *153:A *144:A2 3.02036e-05
44 *157:A1 *81:33 1.74352e-05
45 *157:B1 *81:12 2.82057e-05
46 *172:A *169:A2 0
47 *172:A *81:12 0
48 *23:44 *137:A2_N 1.46624e-05
49 *23:44 *81:93 6.26653e-05
50 *42:6 *155:D 6.05161e-06
51 *44:12 *81:12 0.00012501
52 *54:8 *81:12 0
53 *56:6 *169:A2 1.57155e-05
*RES
1 *192:X *81:10 15.9786 
2 *81:10 *81:12 5.89286 
3 *81:12 *169:A2 15.7152 
4 *81:12 *81:33 14.0536 
5 *81:33 *156:B 16.6571 
6 *81:33 *170:C 13.8 
7 *81:10 *155:D 15.175 
8 *192:X *81:71 18.4429 
9 *81:71 *144:A2 14.1036 
10 *81:71 *81:82 2.85714 
11 *81:82 *143:B 14.7464 
12 *81:82 *81:93 4.67857 
13 *81:93 *136:B 13.8 
14 *81:93 *137:A2_N 17.1036 
*END

*D_NET *82 0.00778116
*CONN
*I *148:A2 I *D sky130_fd_sc_hd__a22o_2
*I *147:B I *D sky130_fd_sc_hd__nand4_2
*I *154:B I *D sky130_fd_sc_hd__nand2_2
*I *168:A2 I *D sky130_fd_sc_hd__a31o_2
*I *169:B1 I *D sky130_fd_sc_hd__a22o_2
*I *181:B I *D sky130_fd_sc_hd__and3_2
*I *170:D I *D sky130_fd_sc_hd__nand4_2
*I *193:X O *D sky130_fd_sc_hd__clkdlybuf4s25_1
*CAP
1 *148:A2 0.000147384
2 *147:B 0
3 *154:B 0.000139972
4 *168:A2 0
5 *169:B1 0
6 *181:B 0.000135248
7 *170:D 6.36253e-05
8 *193:X 0.000319975
9 *82:93 0.00108291
10 *82:70 0.00146987
11 *82:57 0.00065857
12 *82:20 0.000222963
13 *82:18 0.000242631
14 *82:10 0.000802716
15 *148:A2 *147:A 1.46576e-05
16 *154:B *154:A 6.24189e-05
17 *170:D *169:B2 5.33005e-05
18 *170:D *85:14 0
19 *181:B *169:A1 4.25619e-05
20 *181:B *169:B2 3.34295e-05
21 *82:10 *85:55 0
22 *82:18 *169:A1 6.05161e-06
23 *82:18 *169:B2 2.8266e-06
24 *140:A *82:10 3.67452e-05
25 *140:A *82:18 7.4826e-05
26 *148:B1 *148:A2 0.000111414
27 *148:B1 *82:93 1.00332e-05
28 *155:D *82:57 1.21258e-05
29 *157:A1 *82:18 0.000202842
30 *157:A2 *181:B 7.15687e-05
31 *157:A2 *82:18 0
32 *158:A *82:70 0.000101363
33 *158:B *82:70 0.000142053
34 *159:A *82:93 0.000198692
35 *160:B *82:93 0.000198698
36 *168:B1 *82:57 8.66063e-05
37 *169:A2 *170:D 0
38 *169:A2 *82:18 9.64135e-05
39 *181:C *181:B 2.27416e-05
40 *192:A *82:10 1.29975e-05
41 *42:6 *82:57 9.41642e-05
42 *44:12 *82:57 0.000115013
43 *44:12 *82:70 2.44318e-05
44 *56:6 *170:D 5.03772e-05
45 *56:6 *82:18 1.02821e-05
46 *56:6 *82:20 2.28598e-05
47 *81:10 *82:10 0.000116121
48 *81:12 *82:10 8.15095e-05
49 *81:12 *82:18 0.000386169
*RES
1 *193:X *82:10 18.9429 
2 *82:10 *82:18 11.3571 
3 *82:18 *82:20 0.535714 
4 *82:20 *170:D 10.675 
5 *82:20 *181:B 21.0857 
6 *82:18 *169:B1 9.3 
7 *82:10 *82:57 8.89286 
8 *82:57 *168:A2 9.3 
9 *82:57 *82:70 14.5714 
10 *82:70 *154:B 12.4786 
11 *82:70 *82:93 21.3393 
12 *82:93 *147:B 13.8 
13 *82:93 *148:A2 16.8045 
*END

*D_NET *83 0.00493601
*CONN
*I *137:A1_N I *D sky130_fd_sc_hd__o2bb2a_2
*I *130:B2 I *D sky130_fd_sc_hd__a22oi_2
*I *148:A1 I *D sky130_fd_sc_hd__a22o_2
*I *147:A I *D sky130_fd_sc_hd__nand4_2
*I *136:C I *D sky130_fd_sc_hd__and4b_2
*I *129:A I *D sky130_fd_sc_hd__and2_2
*I *194:X O *D sky130_fd_sc_hd__clkdlybuf4s25_1
*CAP
1 *137:A1_N 7.2939e-05
2 *130:B2 0.000153736
3 *148:A1 0
4 *147:A 0.000256927
5 *136:C 1.99857e-05
6 *129:A 0.000363924
7 *194:X 0
8 *83:50 0.000716614
9 *83:31 0.000597838
10 *83:14 0.000600559
11 *83:8 0.000309475
12 *83:4 0.000110209
13 *129:A *87:12 0
14 *130:B2 *130:A2 0
15 *130:B2 *131:A 1.74352e-05
16 *130:B2 *84:30 6.07532e-05
17 *83:14 *84:19 1.41706e-05
18 *83:14 *84:30 5.48488e-05
19 *131:B *130:B2 9.90367e-05
20 *132:A *130:B2 7.14389e-05
21 *133:A2 *129:A 5.86806e-05
22 *133:B2 *129:A 5.52302e-05
23 *134:A *83:50 9.90367e-05
24 *137:A2_N *83:14 0
25 *137:B2 *130:B2 0
26 *137:B2 *83:14 0
27 *137:B2 *83:31 0.000183726
28 *137:B2 *83:50 1.33343e-05
29 *138:B *137:A1_N 2.8427e-05
30 *146:A1 *83:50 5.46799e-05
31 *146:B1 *83:50 0.000105908
32 *148:A2 *147:A 1.46576e-05
33 *148:B2 *83:50 5.49544e-05
34 *150:A1 *147:A 2.58997e-05
35 *195:A *129:A 0
36 *21:8 *129:A 3.52408e-05
37 *21:8 *136:C 1.04232e-05
38 *21:8 *83:31 0.000198594
39 *21:8 *83:50 2.09922e-05
40 *23:44 *83:14 0
41 *24:10 *83:50 1.98839e-05
42 *34:6 *83:50 0.000229355
43 *35:10 *147:A 6.75007e-05
44 *36:6 *147:A 3.34924e-05
45 *72:20 *129:A 7.57869e-05
46 *72:22 *129:A 3.03135e-05
*RES
1 *194:X *83:4 9.3 
2 *83:4 *83:8 5.03571 
3 *83:8 *83:14 7.08036 
4 *83:14 *129:A 25.3089 
5 *83:14 *83:31 3.61607 
6 *83:31 *136:C 9.72857 
7 *83:31 *83:50 9.76786 
8 *83:50 *147:A 23.4607 
9 *83:50 *148:A1 9.3 
10 *83:8 *130:B2 17.7286 
11 *83:4 *137:A1_N 10.7911 
*END

*D_NET *84 0.00603655
*CONN
*I *143:A I *D sky130_fd_sc_hd__nand4_2
*I *144:A1 I *D sky130_fd_sc_hd__a22o_2
*I *168:A1 I *D sky130_fd_sc_hd__a31o_2
*I *154:A I *D sky130_fd_sc_hd__nand2_2
*I *131:A I *D sky130_fd_sc_hd__and3_2
*I *130:A2 I *D sky130_fd_sc_hd__a22oi_2
*I *133:A1 I *D sky130_fd_sc_hd__a22o_2
*I *135:B I *D sky130_fd_sc_hd__and4_2
*I *195:X O *D sky130_fd_sc_hd__clkdlybuf4s25_1
*CAP
1 *143:A 0.000208492
2 *144:A1 0
3 *168:A1 0
4 *154:A 0.0003245
5 *131:A 2.51583e-05
6 *130:A2 0.000102034
7 *133:A1 0
8 *135:B 5.5097e-05
9 *195:X 0
10 *84:58 0.000628799
11 *84:56 0.000402534
12 *84:50 0.000396772
13 *84:30 0.000327211
14 *84:19 0.000337527
15 *84:8 0.00051032
16 *84:4 0.000407761
17 *130:A2 *131:C 0.000225616
18 *131:A *131:C 0.000142856
19 *84:19 *133:B1 0.000247399
20 *130:B1 *130:A2 5.52302e-05
21 *130:B2 *130:A2 0
22 *130:B2 *131:A 1.74352e-05
23 *130:B2 *84:30 6.07532e-05
24 *131:B *130:A2 9.99644e-06
25 *131:B *131:A 7.49387e-06
26 *132:A *131:A 3.18676e-05
27 *143:B *143:A 9.84729e-05
28 *143:C *143:A 1.24368e-05
29 *143:C *84:50 4.73355e-05
30 *143:C *84:56 0.00015078
31 *145:B *143:A 3.61656e-05
32 *154:B *154:A 6.24189e-05
33 *157:B1 *154:A 0
34 *195:A *135:B 0.000136727
35 *195:A *84:8 7.15503e-05
36 *23:6 *84:8 7.60811e-05
37 *23:12 *84:8 5.23735e-05
38 *23:44 *84:19 0
39 *54:8 *154:A 0
40 *54:8 *84:58 0
41 *80:10 *84:30 1.52978e-05
42 *80:12 *84:30 4.35131e-05
43 *80:14 *84:30 0.000143268
44 *80:18 *84:19 1.41029e-05
45 *80:18 *84:30 1.17968e-05
46 *80:24 *135:B 5.49995e-05
47 *81:10 *84:58 0
48 *81:12 *84:58 0
49 *81:71 *84:56 2.90764e-05
50 *81:71 *84:58 5.107e-05
51 *81:82 *84:50 5.51649e-05
52 *81:82 *84:56 0.000164455
53 *81:93 *84:50 0.000115591
54 *83:14 *84:19 1.41706e-05
55 *83:14 *84:30 5.48488e-05
*RES
1 *195:X *84:4 9.3 
2 *84:4 *84:8 4.66071 
3 *84:8 *135:B 10.6571 
4 *84:8 *84:19 7.96429 
5 *84:19 *133:A1 13.8 
6 *84:19 *84:30 9.48214 
7 *84:30 *130:A2 11.9071 
8 *84:30 *131:A 10.6571 
9 *84:4 *84:50 6.75 
10 *84:50 *84:56 3.21429 
11 *84:56 *84:58 5.28571 
12 *84:58 *154:A 18.9786 
13 *84:58 *168:A1 13.8 
14 *84:56 *144:A1 13.8 
15 *84:50 *143:A 17.6571 
*END

*D_NET *85 0.00498692
*CONN
*I *155:C I *D sky130_fd_sc_hd__and4_2
*I *133:B1 I *D sky130_fd_sc_hd__a22o_2
*I *135:D I *D sky130_fd_sc_hd__and4_2
*I *142:B1 I *D sky130_fd_sc_hd__a22o_2
*I *141:D I *D sky130_fd_sc_hd__nand4_2
*I *169:B2 I *D sky130_fd_sc_hd__a22o_2
*I *170:B I *D sky130_fd_sc_hd__nand4_2
*I *156:A I *D sky130_fd_sc_hd__nand2_2
*I *196:X O *D sky130_fd_sc_hd__clkdlybuf4s25_1
*CAP
1 *155:C 4.65986e-05
2 *133:B1 7.80536e-05
3 *135:D 0
4 *142:B1 0.000103472
5 *141:D 0
6 *169:B2 0.00014227
7 *170:B 0
8 *156:A 0.000215619
9 *196:X 0
10 *85:83 0.000228717
11 *85:64 0.000348786
12 *85:55 0.000320643
13 *85:51 0.00037241
14 *85:14 0.000366022
15 *85:10 0.000517935
16 *85:4 0.000325081
17 *142:B1 *142:A2 1.24368e-05
18 *155:C *155:B 5.52302e-05
19 *169:B2 *170:A 7.48301e-06
20 *85:10 *86:10 0.000266559
21 *85:10 *86:12 0.00012401
22 *85:10 *86:64 6.73939e-05
23 *85:14 *170:A 3.5566e-05
24 *85:51 *155:B 4.13595e-05
25 *85:55 *142:A2 5.54817e-06
26 *85:55 *86:64 3.34295e-05
27 *85:55 *86:75 0.000194098
28 *85:64 *142:A2 8.80814e-05
29 *85:83 *142:A2 2.54756e-05
30 *140:A *155:C 2.14658e-05
31 *140:A *85:55 2.61337e-05
32 *142:A1 *142:B1 1.84865e-05
33 *142:A1 *85:83 5.60463e-06
34 *156:B *156:A 0.000106552
35 *157:A2 *169:B2 5.58941e-05
36 *170:D *169:B2 5.33005e-05
37 *170:D *85:14 0
38 *181:B *169:B2 3.34295e-05
39 *181:C *156:A 1.97695e-05
40 *30:10 *142:B1 0
41 *56:6 *169:B2 1.21258e-05
42 *72:22 *85:83 1.53675e-05
43 *80:18 *133:B1 0.000260483
44 *80:18 *85:83 9.15842e-06
45 *81:33 *85:10 7.6644e-05
46 *82:10 *85:55 0
47 *82:18 *169:B2 2.8266e-06
48 *84:19 *133:B1 0.000247399
*RES
1 *196:X *85:4 9.3 
2 *85:4 *85:10 14.8929 
3 *85:10 *85:14 2.08929 
4 *85:14 *156:A 22.6393 
5 *85:14 *170:B 9.3 
6 *85:10 *169:B2 20.3893 
7 *85:4 *85:51 1.375 
8 *85:51 *85:55 9.78571 
9 *85:55 *141:D 13.8 
10 *85:55 *85:64 2.25 
11 *85:64 *142:B1 15.6036 
12 *85:64 *85:83 2.91071 
13 *85:83 *135:D 13.8 
14 *85:83 *133:B1 17.2643 
15 *85:51 *155:C 10.2464 
*END

*D_NET *86 0.00521304
*CONN
*I *142:A2 I *D sky130_fd_sc_hd__a22o_2
*I *141:C I *D sky130_fd_sc_hd__nand4_2
*I *155:B I *D sky130_fd_sc_hd__and4_2
*I *140:B I *D sky130_fd_sc_hd__nand2_2
*I *169:A1 I *D sky130_fd_sc_hd__a22o_2
*I *170:A I *D sky130_fd_sc_hd__nand4_2
*I *181:A I *D sky130_fd_sc_hd__and3_2
*I *197:X O *D sky130_fd_sc_hd__clkdlybuf4s25_1
*CAP
1 *142:A2 0.000141696
2 *141:C 0
3 *155:B 4.09544e-05
4 *140:B 3.27275e-05
5 *169:A1 0.000224867
6 *170:A 0.00027575
7 *181:A 0.000144767
8 *197:X 5.54804e-05
9 *86:75 0.000292683
10 *86:64 0.000299098
11 *86:25 0.000500618
12 *86:12 0.000240698
13 *86:10 0.000193668
14 *86:8 0.000227647
15 *140:A *155:B 8.36572e-05
16 *140:A *86:10 2.78729e-05
17 *140:A *86:64 2.84009e-05
18 *141:A *142:A2 0.000204474
19 *142:B1 *142:A2 1.24368e-05
20 *155:C *155:B 5.52302e-05
21 *156:B *181:A 8.06427e-05
22 *156:B *86:12 3.90513e-05
23 *157:A2 *181:A 0.000128146
24 *157:A2 *86:10 0.000202842
25 *157:A2 *86:12 0.000241198
26 *169:B2 *170:A 7.48301e-06
27 *171:B *169:A1 0
28 *181:B *169:A1 4.25619e-05
29 *181:C *181:A 5.71472e-05
30 *56:6 *169:A1 0.000121416
31 *56:6 *170:A 1.24368e-05
32 *80:26 *142:A2 6.97936e-06
33 *80:26 *86:75 5.54817e-06
34 *80:32 *155:B 5.33005e-05
35 *80:32 *86:75 0.000190807
36 *81:33 *140:B 2.59355e-05
37 *81:33 *86:12 2.72449e-05
38 *82:18 *169:A1 6.05161e-06
39 *85:10 *86:10 0.000266559
40 *85:10 *86:12 0.00012401
41 *85:10 *86:64 6.73939e-05
42 *85:14 *170:A 3.5566e-05
43 *85:51 *155:B 4.13595e-05
44 *85:55 *142:A2 5.54817e-06
45 *85:55 *86:64 3.34295e-05
46 *85:55 *86:75 0.000194098
47 *85:64 *142:A2 8.80814e-05
48 *85:83 *142:A2 2.54756e-05
*RES
1 *197:X *86:8 14.3357 
2 *86:8 *86:10 3.46429 
3 *86:10 *86:12 3.16071 
4 *86:12 *181:A 16.9964 
5 *86:12 *86:25 4.5 
6 *86:25 *170:A 13.8714 
7 *86:25 *169:A1 21.6437 
8 *86:10 *140:B 14.3357 
9 *86:8 *86:64 2.17857 
10 *86:64 *155:B 15.1571 
11 *86:64 *86:75 4.98214 
12 *86:75 *141:C 13.8 
13 *86:75 *142:A2 17.7509 
*END

*D_NET *87 0.00253023
*CONN
*I *205:A I *D sky130_fd_sc_hd__clkdlybuf4s25_1
*I *131:C I *D sky130_fd_sc_hd__and3_2
*I *129:X O *D sky130_fd_sc_hd__and2_2
*CAP
1 *205:A 2.58391e-05
2 *131:C 0.000446158
3 *129:X 0.000311989
4 *87:12 0.000783986
5 *129:A *87:12 0
6 *130:A1 *131:C 0.000227736
7 *130:A1 *87:12 0
8 *130:A2 *131:C 0.000225616
9 *131:A *131:C 0.000142856
10 *132:A *131:C 4.74948e-05
11 *191:A *131:C 0
12 *194:A *205:A 4.18895e-05
13 *194:A *87:12 0.000230482
14 *195:A *87:12 3.15196e-05
15 *72:20 *87:12 0
16 *80:10 *131:C 1.46624e-05
*RES
1 *129:X *87:12 24.55 
2 *87:12 *131:C 25.9964 
3 *87:12 *205:A 9.83571 
*END
