*SPEF "ieee 1481-1999"
*DESIGN "rand0_nand9"
*DATE "16:12:22 Sunday September 06, 2026"
*VENDOR "The OpenROAD Project"
*PROGRAM "OpenROAD"
*VERSION "dcf36133a369abc8f3c5e5738cd4d82e4903c0e0"
*DESIGN_FLOW "NAME_SCOPE LOCAL" "PIN_CAP NONE"
*DIVIDER /
*DELIMITER :
*BUS_DELIMITER []
*T_UNIT 1 NS
*C_UNIT 1 PF
*R_UNIT 1 OHM
*L_UNIT 1 HENRY

*NAME_MAP
*3 a[0]
*4 a[1]
*5 a[2]
*6 a[3]
*7 b[0]
*8 b[1]
*9 b[2]
*10 b[3]
*11 p[0]
*12 p[1]
*13 p[2]
*14 p[3]
*15 p[4]
*16 p[5]
*17 p[6]
*18 p[7]
*19 n10
*20 n101
*21 n102
*22 n103
*23 n104
*24 n105
*25 n106
*26 n107
*27 n108
*28 n11
*29 n110
*30 n111
*31 n112
*32 n113
*33 n114
*34 n115
*35 n116
*36 n117
*37 n12
*38 n13
*39 n14
*40 n15
*41 n16
*42 n17
*43 n18
*44 n19
*45 n20
*46 n21
*47 n22
*48 n23
*49 n24
*50 n25
*51 n26
*52 n27
*53 n28
*54 n29
*55 n30
*56 n31
*57 n32
*58 n33
*59 n34
*60 n35
*61 n36
*62 n37
*63 n38
*64 n39
*65 n40
*66 n41
*67 n42
*68 n43
*69 n44
*70 n45
*71 n46
*72 n47
*73 n48
*74 n49
*75 n50
*76 n51
*77 n52
*78 n53
*79 n54
*80 n55
*81 n56
*82 n57
*83 n58
*84 n59
*85 n60
*86 n61
*87 n62
*88 n63
*89 n64
*90 n65
*91 n66
*92 n67
*93 n68
*94 n69
*95 n70
*96 n71
*97 n72
*98 n73
*99 n74
*100 n75
*101 n76
*102 n77
*103 n78
*104 n79
*105 n8
*106 n80
*107 n81
*108 n82
*109 n83
*110 n84
*111 n85
*112 n86
*113 n88
*114 n90
*115 n91
*116 n92
*117 n93
*118 n94
*119 n95
*120 n96
*121 n97
*122 n99
*123 PHY_EDGE_ROW_0_Left_12
*124 PHY_EDGE_ROW_0_Right_0
*125 PHY_EDGE_ROW_10_Left_22
*126 PHY_EDGE_ROW_10_Right_10
*127 PHY_EDGE_ROW_11_Left_23
*128 PHY_EDGE_ROW_11_Right_11
*129 PHY_EDGE_ROW_1_Left_13
*130 PHY_EDGE_ROW_1_Right_1
*131 PHY_EDGE_ROW_2_Left_14
*132 PHY_EDGE_ROW_2_Right_2
*133 PHY_EDGE_ROW_3_Left_15
*134 PHY_EDGE_ROW_3_Right_3
*135 PHY_EDGE_ROW_4_Left_16
*136 PHY_EDGE_ROW_4_Right_4
*137 PHY_EDGE_ROW_5_Left_17
*138 PHY_EDGE_ROW_5_Right_5
*139 PHY_EDGE_ROW_6_Left_18
*140 PHY_EDGE_ROW_6_Right_6
*141 PHY_EDGE_ROW_7_Left_19
*142 PHY_EDGE_ROW_7_Right_7
*143 PHY_EDGE_ROW_8_Left_20
*144 PHY_EDGE_ROW_8_Right_8
*145 PHY_EDGE_ROW_9_Left_21
*146 PHY_EDGE_ROW_9_Right_9
*147 TAP_TAPCELL_ROW_0_24
*148 TAP_TAPCELL_ROW_0_25
*149 TAP_TAPCELL_ROW_10_35
*150 TAP_TAPCELL_ROW_11_36
*151 TAP_TAPCELL_ROW_11_37
*152 TAP_TAPCELL_ROW_1_26
*153 TAP_TAPCELL_ROW_2_27
*154 TAP_TAPCELL_ROW_3_28
*155 TAP_TAPCELL_ROW_4_29
*156 TAP_TAPCELL_ROW_5_30
*157 TAP_TAPCELL_ROW_6_31
*158 TAP_TAPCELL_ROW_7_32
*159 TAP_TAPCELL_ROW_8_33
*160 TAP_TAPCELL_ROW_9_34
*161 g0
*162 g1
*163 g10
*164 g100
*165 g101
*166 g102
*167 g103
*168 g104
*169 g105
*170 g106
*171 g107
*172 g108
*173 g109
*174 g11
*175 g110
*176 g111
*177 g12
*178 g13
*179 g14
*180 g15
*181 g16
*182 g17
*183 g18
*184 g19
*185 g2
*186 g20
*187 g21
*188 g22
*189 g23
*190 g24
*191 g25
*192 g26
*193 g27
*194 g28
*195 g29
*196 g3
*197 g30
*198 g31
*199 g32
*200 g33
*201 g34
*202 g35
*203 g36
*204 g37
*205 g38
*206 g39
*207 g4
*208 g40
*209 g41
*210 g42
*211 g43
*212 g44
*213 g45
*214 g46
*215 g47
*216 g48
*217 g49
*218 g5
*219 g50
*220 g51
*221 g52
*222 g53
*223 g54
*224 g55
*225 g56
*226 g57
*227 g58
*228 g59
*229 g6
*230 g60
*231 g61
*232 g62
*233 g63
*234 g64
*235 g65
*236 g66
*237 g67
*238 g68
*239 g69
*240 g7
*241 g70
*242 g71
*243 g72
*244 g73
*245 g74
*246 g75
*247 g76
*248 g77
*249 g78
*250 g79
*251 g8
*252 g80
*253 g81
*254 g82
*255 g83
*256 g84
*257 g85
*258 g86
*259 g87
*260 g88
*261 g89
*262 g9
*263 g90
*264 g91
*265 g92
*266 g93
*267 g94
*268 g95
*269 g96
*270 g97
*271 g98
*272 g99

*PORTS
a[0] I
a[1] I
a[2] I
a[3] I
b[0] I
b[1] I
b[2] I
b[3] I
p[0] O
p[1] O
p[2] O
p[3] O
p[4] O
p[5] O
p[6] O
p[7] O

*D_NET *3 0.00265282
*CONN
*P a[0] I
*I *207:A I *D sky130_fd_sc_hd__nand2_1
*I *229:A I *D sky130_fd_sc_hd__nand2_1
*I *161:A I *D sky130_fd_sc_hd__nand2_1
*I *185:A I *D sky130_fd_sc_hd__nand2_1
*CAP
1 a[0] 0.000271976
2 *207:A 4.47334e-05
3 *229:A 0.000118868
4 *161:A 0
5 *185:A 7.17432e-05
6 *3:29 0.000457446
7 *3:20 0.000344329
8 *3:7 0.000394204
9 *185:A *185:B 0.000140379
10 *207:A *207:B 1.73088e-05
11 *207:A *4:25 1.74352e-05
12 *229:A *182:A 0
13 *229:A *190:A 4.1331e-06
14 *229:A *229:B 2.26973e-05
15 *229:A *4:9 0
16 *229:A *8:26 0
17 *3:7 p[1] 0
18 *3:7 *8:5 0.000448937
19 *3:20 *185:B 9.35984e-05
20 *3:29 *251:A 5.52238e-05
21 *3:29 *251:B 5.23401e-05
22 *3:29 *4:25 9.74668e-05
*RES
1 a[0] *3:7 4.64767 
2 *3:7 *185:A 15.5946 
3 *3:7 *3:20 5.6875 
4 *3:20 *161:A 9.3 
5 *3:20 *3:29 5.07143 
6 *3:29 *229:A 20.2464 
7 *3:29 *207:A 10.2643 
*END

*D_NET *4 0.0041948
*CONN
*P a[1] I
*I *251:A I *D sky130_fd_sc_hd__nand2_1
*I *163:A I *D sky130_fd_sc_hd__nand2_1
*I *179:A I *D sky130_fd_sc_hd__nand2_1
*I *177:A I *D sky130_fd_sc_hd__nand2_1
*CAP
1 a[1] 0.000448416
2 *251:A 1.1624e-05
3 *163:A 0
4 *179:A 0.000178769
5 *177:A 0
6 *4:29 0.00030164
7 *4:25 0.000543196
8 *4:9 0.000880365
9 *179:A *180:A 9.67754e-05
10 *179:A *210:A 0
11 *179:A *9:39 0.000107954
12 *251:A *251:B 5.52238e-05
13 *4:9 p[0] 0.000168071
14 *4:9 *182:A 6.01582e-05
15 *4:9 *5:7 0.000521314
16 *4:9 *5:11 0.00013727
17 *4:9 *7:7 0.000165102
18 *4:9 *7:13 4.33669e-05
19 *4:9 *7:33 6.99087e-05
20 *4:9 *8:22 0
21 *4:25 *182:A 3.50566e-05
22 *4:25 *185:B 1.41275e-05
23 *4:25 *207:B 8.07313e-05
24 *4:25 *251:B 1.24368e-05
25 *4:25 *7:13 4.6025e-06
26 *4:29 *163:B 9.59532e-06
27 *4:29 *191:A 0
28 *4:29 *207:B 6.65398e-05
29 *4:29 *210:A 0
30 *4:29 *8:26 6.62299e-06
31 *4:29 *9:39 5.80706e-06
32 *207:A *4:25 1.74352e-05
33 *229:A *4:9 0
34 *3:29 *251:A 5.52238e-05
35 *3:29 *4:25 9.74668e-05
*RES
1 a[1] *4:9 8.85558 
2 *4:9 *4:25 12.75 
3 *4:25 *4:29 6.75 
4 *4:29 *177:A 13.8 
5 *4:29 *179:A 17.6036 
6 *4:25 *163:A 9.3 
7 *4:9 *251:A 14.3357 
*END

*D_NET *5 0.0040163
*CONN
*P a[2] I
*I *188:A I *D sky130_fd_sc_hd__nand2_1
*I *186:A I *D sky130_fd_sc_hd__nand2_1
*I *181:A I *D sky130_fd_sc_hd__nand2_1
*I *183:A I *D sky130_fd_sc_hd__nand2_1
*CAP
1 a[2] 0.000267254
2 *188:A 0
3 *186:A 0.000246945
4 *181:A 0
5 *183:A 0.000189321
6 *5:35 0.000363814
7 *5:11 0.000311378
8 *5:7 0.000506182
9 *183:A *182:A 5.52238e-05
10 *183:A *190:B 6.17579e-05
11 *183:A *191:A 0.000264326
12 *183:A *240:A 5.62995e-05
13 *186:A *186:B 2.79443e-05
14 *186:A *9:39 3.24049e-05
15 *186:A *10:15 5.05873e-05
16 *186:A *10:26 0.00022887
17 *5:7 *8:22 0
18 *5:7 *9:9 0.000540899
19 *5:11 *190:A 7.5177e-05
20 *5:35 *6:15 0
21 *5:35 *9:9 6.92389e-05
22 *5:35 *9:22 1.00887e-05
23 *5:35 *10:26 0
24 *4:9 *5:7 0.000521314
25 *4:9 *5:11 0.00013727
*RES
1 a[2] *5:7 5.008 
2 *5:7 *5:11 7.50893 
3 *5:11 *183:A 14.8357 
4 *5:11 *181:A 9.3 
5 *5:7 *5:35 6.59821 
6 *5:35 *186:A 14.3893 
7 *5:35 *188:A 9.3 
*END

*D_NET *6 0.00272419
*CONN
*P a[3] I
*I *197:A I *D sky130_fd_sc_hd__nand2_1
*I *194:A I *D sky130_fd_sc_hd__nand2_1
*I *192:A I *D sky130_fd_sc_hd__nand2_1
*I *190:A I *D sky130_fd_sc_hd__nand2_1
*CAP
1 a[3] 0.000295957
2 *197:A 2.95839e-05
3 *194:A 4.02457e-05
4 *192:A 3.19807e-05
5 *190:A 0.000135503
6 *6:15 0.0005321
7 *6:9 0.00049898
8 *6:7 0.000419659
9 *190:A *229:B 0
10 *194:A *10:15 9.84729e-05
11 *197:A *195:A 3.19585e-05
12 *197:A *197:B 4.53443e-05
13 *6:7 *9:9 1.61549e-05
14 *6:7 *10:7 0.000394819
15 *6:9 *195:A 1.84336e-05
16 *6:9 *197:B 4.74545e-05
17 *6:9 *10:15 8.23597e-06
18 *6:15 *9:9 0
19 *229:A *190:A 4.1331e-06
20 *5:11 *190:A 7.5177e-05
21 *5:35 *6:15 0
*RES
1 a[3] *6:7 4.64767 
2 *6:7 *6:9 1.79464 
3 *6:9 *6:15 10.1607 
4 *6:15 *190:A 21.1571 
5 *6:15 *192:A 9.83571 
6 *6:9 *194:A 14.7464 
7 *6:7 *197:A 14.9875 
*END

*D_NET *7 0.00242592
*CONN
*P b[0] I
*I *190:B I *D sky130_fd_sc_hd__nand2_1
*I *181:B I *D sky130_fd_sc_hd__nand2_1
*I *161:B I *D sky130_fd_sc_hd__nand2_1
*I *251:B I *D sky130_fd_sc_hd__nand2_1
*CAP
1 b[0] 0.0002361
2 *190:B 0.000104449
3 *181:B 0
4 *161:B 0
5 *251:B 8.69162e-05
6 *7:33 0.00013064
7 *7:13 0.000196522
8 *7:7 0.000371896
9 *7:7 p[0] 0.000168071
10 *7:7 *8:5 0.000486086
11 *7:7 *8:22 6.35515e-05
12 *7:13 *162:A 6.56976e-05
13 *7:13 *185:B 2.06112e-05
14 *7:33 *162:A 3.06366e-05
15 *183:A *190:B 6.17579e-05
16 *251:A *251:B 5.52238e-05
17 *3:29 *251:B 5.23401e-05
18 *4:9 *7:7 0.000165102
19 *4:9 *7:13 4.33669e-05
20 *4:9 *7:33 6.99087e-05
21 *4:25 *251:B 1.24368e-05
22 *4:25 *7:13 4.6025e-06
*RES
1 b[0] *7:7 4.86387 
2 *7:7 *7:13 6.52679 
3 *7:13 *251:B 11.5143 
4 *7:13 *161:B 9.3 
5 *7:7 *7:33 5.38393 
6 *7:33 *181:B 9.3 
7 *7:33 *190:B 11.5143 
*END

*D_NET *8 0.00438649
*CONN
*P b[1] I
*I *163:B I *D sky130_fd_sc_hd__nand2_1
*I *192:B I *D sky130_fd_sc_hd__nand2_1
*I *183:B I *D sky130_fd_sc_hd__nand2_1
*I *185:B I *D sky130_fd_sc_hd__nand2_1
*CAP
1 b[1] 0.000165994
2 *163:B 1.28795e-05
3 *192:B 0.000229209
4 *183:B 0
5 *185:B 0.000135901
6 *8:26 0.000358912
7 *8:22 0.000741264
8 *8:5 0.000900576
9 *185:B *182:A 0
10 *185:B *262:A 5.57914e-05
11 *192:B *179:B 0.000141941
12 *192:B *193:A 2.83336e-05
13 *192:B *207:B 1.02504e-05
14 *192:B *229:B 0
15 *192:B *9:39 0.000185978
16 *8:26 *207:B 0.000127446
17 *8:26 *229:B 8.50795e-06
18 *185:A *185:B 0.000140379
19 *229:A *8:26 0
20 *3:7 *8:5 0.000448937
21 *3:20 *185:B 9.35984e-05
22 *4:9 *8:22 0
23 *4:25 *185:B 1.41275e-05
24 *4:29 *163:B 9.59532e-06
25 *4:29 *8:26 6.62299e-06
26 *5:7 *8:22 0
27 *7:7 *8:5 0.000486086
28 *7:7 *8:22 6.35515e-05
29 *7:13 *185:B 2.06112e-05
*RES
1 b[1] *8:5 1.30973 
2 *8:5 *185:B 20.7546 
3 *8:5 *8:22 4.61007 
4 *8:22 *8:26 2.63393 
5 *8:26 *183:B 13.8 
6 *8:26 *192:B 18.9607 
7 *8:22 *163:B 14.0768 
*END

*D_NET *9 0.00422723
*CONN
*P b[2] I
*I *177:B I *D sky130_fd_sc_hd__nand2_1
*I *207:B I *D sky130_fd_sc_hd__nand2_1
*I *186:B I *D sky130_fd_sc_hd__nand2_1
*I *194:B I *D sky130_fd_sc_hd__nand2_1
*CAP
1 b[2] 0.000306358
2 *177:B 0
3 *207:B 0.000156062
4 *186:B 4.46962e-05
5 *194:B 0
6 *9:39 0.000508165
7 *9:22 0.000600137
8 *9:9 0.000509695
9 *186:B *10:26 1.24368e-05
10 *9:9 *10:7 0.000389403
11 *9:22 *10:15 0.000141941
12 *9:22 *10:26 0.000110614
13 *9:39 *193:A 0.000138365
14 *9:39 *214:B 1.0609e-05
15 *179:A *9:39 0.000107954
16 *186:A *186:B 2.79443e-05
17 *186:A *9:39 3.24049e-05
18 *192:B *207:B 1.02504e-05
19 *192:B *9:39 0.000185978
20 *207:A *207:B 1.73088e-05
21 *4:25 *207:B 8.07313e-05
22 *4:29 *207:B 6.65398e-05
23 *4:29 *9:39 5.80706e-06
24 *5:7 *9:9 0.000540899
25 *5:35 *9:9 6.92389e-05
26 *5:35 *9:22 1.00887e-05
27 *6:7 *9:9 1.61549e-05
28 *6:15 *9:9 0
29 *8:26 *207:B 0.000127446
*RES
1 b[2] *9:9 5.81986 
2 *9:9 *194:B 13.8 
3 *9:9 *9:22 8.64286 
4 *9:22 *186:B 10.6929 
5 *9:22 *9:39 12.2679 
6 *9:39 *207:B 17.6571 
7 *9:39 *177:B 13.8 
*END

*D_NET *10 0.00352537
*CONN
*P b[3] I
*I *197:B I *D sky130_fd_sc_hd__nand2_1
*I *179:B I *D sky130_fd_sc_hd__nand2_1
*I *229:B I *D sky130_fd_sc_hd__nand2_1
*I *188:B I *D sky130_fd_sc_hd__nand2_1
*CAP
1 b[3] 0.000132345
2 *197:B 0.000109988
3 *179:B 2.6593e-05
4 *229:B 0.0002173
5 *188:B 0
6 *10:26 0.000423455
7 *10:15 0.000387678
8 *10:7 0.00045045
9 *179:B *193:A 7.62323e-05
10 *186:A *10:15 5.05873e-05
11 *186:A *10:26 0.00022887
12 *186:B *10:26 1.24368e-05
13 *190:A *229:B 0
14 *192:B *179:B 0.000141941
15 *192:B *229:B 0
16 *194:A *10:15 9.84729e-05
17 *197:A *197:B 4.53443e-05
18 *229:A *229:B 2.26973e-05
19 *5:35 *10:26 0
20 *6:7 *10:7 0.000394819
21 *6:9 *197:B 4.74545e-05
22 *6:9 *10:15 8.23597e-06
23 *8:26 *229:B 8.50795e-06
24 *9:9 *10:7 0.000389403
25 *9:22 *10:15 0.000141941
26 *9:22 *10:26 0.000110614
*RES
1 b[3] *10:7 4.50353 
2 *10:7 *10:15 9.02679 
3 *10:15 *188:B 9.3 
4 *10:15 *10:26 8.92857 
5 *10:26 *229:B 17.6214 
6 *10:26 *179:B 15.1571 
7 *10:7 *197:B 16.2018 
*END

*D_NET *11 0.00104666
*CONN
*P p[0] O
*I *162:Y O *D sky130_fd_sc_hd__inv_1
*CAP
1 p[0] 0.000355257
2 *162:Y 0.000355257
3 *4:9 p[0] 0.000168071
4 *7:7 p[0] 0.000168071
*RES
1 *162:Y p[0] 22.7799 
*END

*D_NET *12 0.00088146
*CONN
*P p[1] O
*I *250:X O *D sky130_fd_sc_hd__xor2_1
*CAP
1 p[1] 0.000434155
2 *250:X 0.000434155
3 p[1] *196:A 1.31511e-05
4 *3:7 p[1] 0
*RES
1 *250:X p[1] 20.169 
*END

*D_NET *13 0.00155447
*CONN
*P p[2] O
*I *253:X O *D sky130_fd_sc_hd__xor2_1
*CAP
1 p[2] 0.000763031
2 *253:X 0.000763031
3 p[2] p[3] 0
4 p[2] *204:B 0
5 p[2] *254:B 2.84026e-05
*RES
1 *253:X p[2] 28.9607 
*END

*D_NET *14 0.00119185
*CONN
*P p[3] O
*I *263:Y O *D sky130_fd_sc_hd__nand2_1
*CAP
1 p[3] 0.000595923
2 *263:Y 0.000595923
3 p[2] p[3] 0
*RES
1 *263:Y p[3] 24.8536 
*END

*D_NET *15 0.000996766
*CONN
*P p[4] O
*I *265:X O *D sky130_fd_sc_hd__xor2_1
*CAP
1 p[4] 0.000498383
2 *265:X 0.000498383
3 p[4] *266:A 0
4 p[4] *111:10 0
*RES
1 *265:X p[4] 20.2384 
*END

*D_NET *16 0.00180254
*CONN
*P p[5] O
*I *165:Y O *D sky130_fd_sc_hd__nand2_1
*CAP
1 p[5] 0.000818771
2 *165:Y 0.000818771
3 p[5] *165:A 8.00806e-05
4 p[5] *165:B 7.83587e-05
5 p[5] *269:A 0
6 p[5] *270:A 6.55528e-06
7 p[5] *112:8 0
*RES
1 *165:Y p[5] 29.5812 
*END

*D_NET *17 0.0015124
*CONN
*P p[6] O
*I *175:Y O *D sky130_fd_sc_hd__nand2_1
*CAP
1 p[6] 0.000717023
2 *175:Y 0.000717023
3 p[6] p[7] 0
4 p[6] *172:B 0
5 p[6] *175:A 7.83587e-05
*RES
1 *175:Y p[6] 27.8134 
*END

*D_NET *18 0.00148844
*CONN
*P p[7] O
*I *176:Y O *D sky130_fd_sc_hd__nand2_1
*CAP
1 p[7] 0.000700127
2 *176:Y 0.000700127
3 p[7] *172:A 6.74911e-05
4 p[7] *172:B 0
5 p[7] *176:B 7.43578e-06
6 p[7] *33:10 1.32552e-05
7 p[6] p[7] 0
*RES
1 *176:Y p[7] 27.6884 
*END

*D_NET *19 0.00056324
*CONN
*I *196:A I *D sky130_fd_sc_hd__inv_1
*I *185:Y O *D sky130_fd_sc_hd__nand2_1
*CAP
1 *196:A 0.000234723
2 *185:Y 0.000234723
3 *196:A *262:A 0
4 *196:A *28:14 8.06427e-05
5 p[1] *196:A 1.31511e-05
*RES
1 *185:Y *196:A 32.2116 
*END

*D_NET *20 0.000963245
*CONN
*I *271:B I *D sky130_fd_sc_hd__nand2_1
*I *164:A I *D sky130_fd_sc_hd__nand2_1
*I *266:X O *D sky130_fd_sc_hd__and2_1
*CAP
1 *271:B 1.00162e-05
2 *164:A 6.79479e-05
3 *266:X 0.000235604
4 *20:6 0.000313568
5 *164:A *165:A 1.24368e-05
6 *164:A *165:B 5.52238e-05
7 *164:A *270:A 1.17091e-05
8 *164:A *271:A 1.04232e-05
9 *164:A *272:A 4.43256e-05
10 *164:A *24:6 3.18676e-05
11 *271:B *271:A 5.7661e-06
12 *271:B *272:A 1.04232e-05
13 *20:6 *165:A 4.27935e-05
14 *20:6 *267:B 9.99644e-06
15 *20:6 *272:A 3.18676e-05
16 *20:6 *272:B 6.9276e-05
*RES
1 *266:X *20:6 13.5321 
2 *20:6 *164:A 11.0857 
3 *20:6 *271:B 9.72857 
*END

*D_NET *21 0.00167826
*CONN
*I *269:B I *D sky130_fd_sc_hd__nand2_1
*I *166:A I *D sky130_fd_sc_hd__nand2_1
*I *268:B I *D sky130_fd_sc_hd__nand2_1
*I *267:Y O *D sky130_fd_sc_hd__nand2_1
*CAP
1 *269:B 0.000102193
2 *166:A 0
3 *268:B 0.000251264
4 *267:Y 0
5 *21:25 0.000320666
6 *21:6 0.000469737
7 *268:B *165:B 0
8 *268:B *267:A 7.83659e-05
9 *268:B *268:A 0.000230431
10 *268:B *270:A 0
11 *269:B *270:B 4.40153e-05
12 *21:25 *166:B 0
13 *21:25 *267:A 4.73656e-05
14 *21:25 *270:A 0
15 *21:25 *270:B 0.000126414
16 *21:25 *29:14 7.80714e-06
*RES
1 *267:Y *21:6 13.8 
2 *21:6 *268:B 18.5679 
3 *21:6 *21:25 9.32143 
4 *21:25 *166:A 9.3 
5 *21:25 *269:B 11.5143 
*END

*D_NET *22 0.000403172
*CONN
*I *270:A I *D sky130_fd_sc_hd__nand2_1
*I *268:Y O *D sky130_fd_sc_hd__nand2_1
*CAP
1 *270:A 0.000144302
2 *268:Y 0.000144302
3 *270:A *165:B 3.84349e-05
4 *270:A *267:B 3.41517e-06
5 *270:A *24:6 5.20669e-05
6 *270:A *29:14 2.38651e-06
7 p[5] *270:A 6.55528e-06
8 *164:A *270:A 1.17091e-05
9 *268:B *270:A 0
10 *21:25 *270:A 0
*RES
1 *268:Y *270:A 30.3143 
*END

*D_NET *23 0.000760905
*CONN
*I *270:B I *D sky130_fd_sc_hd__nand2_1
*I *269:Y O *D sky130_fd_sc_hd__nand2_1
*CAP
1 *270:B 0.000189797
2 *269:Y 0.000189797
3 *270:B *166:B 6.55528e-06
4 *270:B *29:14 0.000204326
5 *269:B *270:B 4.40153e-05
6 *21:25 *270:B 0.000126414
*RES
1 *269:Y *270:B 32.0286 
*END

*D_NET *24 0.000779481
*CONN
*I *272:A I *D sky130_fd_sc_hd__nand2_1
*I *271:A I *D sky130_fd_sc_hd__nand2_1
*I *270:Y O *D sky130_fd_sc_hd__nand2_1
*CAP
1 *272:A 3.30336e-05
2 *271:A 1.35998e-05
3 *270:Y 6.49309e-05
4 *24:6 0.000111564
5 *272:A *272:B 0.000122343
6 *272:A *25:8 5.52238e-05
7 *24:6 *267:B 4.35597e-05
8 *24:6 *25:8 0.000142434
9 *24:6 *29:14 6.05161e-06
10 *164:A *271:A 1.04232e-05
11 *164:A *272:A 4.43256e-05
12 *164:A *24:6 3.18676e-05
13 *270:A *24:6 5.20669e-05
14 *271:B *271:A 5.7661e-06
15 *271:B *272:A 1.04232e-05
16 *20:6 *272:A 3.18676e-05
*RES
1 *270:Y *24:6 11.4786 
2 *24:6 *271:A 9.72857 
3 *24:6 *272:A 11.0857 
*END

*D_NET *25 0.00131539
*CONN
*I *272:B I *D sky130_fd_sc_hd__nand2_1
*I *166:B I *D sky130_fd_sc_hd__nand2_1
*I *164:B I *D sky130_fd_sc_hd__nand2_1
*I *271:Y O *D sky130_fd_sc_hd__nand2_1
*CAP
1 *272:B 5.82529e-05
2 *166:B 0.000123572
3 *164:B 3.79505e-05
4 *271:Y 0
5 *25:8 0.000194524
6 *25:4 9.1255e-05
7 *164:B *29:14 2.84019e-05
8 *166:B *29:14 4.09836e-05
9 *272:B *267:B 0.000160291
10 *25:8 *267:B 0.000184323
11 *270:B *166:B 6.55528e-06
12 *272:A *272:B 0.000122343
13 *272:A *25:8 5.52238e-05
14 *20:6 *272:B 6.9276e-05
15 *21:25 *166:B 0
16 *24:6 *25:8 0.000142434
*RES
1 *271:Y *25:4 9.3 
2 *25:4 *25:8 6.26786 
3 *25:8 *164:B 14.5321 
4 *25:8 *166:B 16.05 
5 *25:4 *272:B 11.925 
*END

*D_NET *26 0.000374451
*CONN
*I *165:A I *D sky130_fd_sc_hd__nand2_1
*I *272:Y O *D sky130_fd_sc_hd__nand2_1
*CAP
1 *165:A 0.000105467
2 *272:Y 0.000105467
3 *165:A *165:B 2.82057e-05
4 *165:A *112:8 0
5 p[5] *165:A 8.00806e-05
6 *164:A *165:A 1.24368e-05
7 *20:6 *165:A 4.27935e-05
*RES
1 *272:Y *165:A 29.7786 
*END

*D_NET *27 0.0004202
*CONN
*I *165:B I *D sky130_fd_sc_hd__nand2_1
*I *164:Y O *D sky130_fd_sc_hd__nand2_1
*CAP
1 *165:B 0.000109988
2 *164:Y 0.000109988
3 p[5] *165:B 7.83587e-05
4 *164:A *165:B 5.52238e-05
5 *165:A *165:B 2.82057e-05
6 *268:B *165:B 0
7 *270:A *165:B 3.84349e-05
*RES
1 *164:Y *165:B 29.7786 
*END

*D_NET *28 0.000881675
*CONN
*I *250:A I *D sky130_fd_sc_hd__xor2_1
*I *252:A I *D sky130_fd_sc_hd__and2_1
*I *196:Y O *D sky130_fd_sc_hd__inv_1
*CAP
1 *250:A 0
2 *252:A 0.000128748
3 *196:Y 0.000186975
4 *28:14 0.000315723
5 *252:A *252:B 9.0298e-05
6 *28:14 *262:A 7.92879e-05
7 *196:A *28:14 8.06427e-05
*RES
1 *196:Y *28:14 21.9339 
2 *28:14 *252:A 11.8179 
3 *28:14 *250:A 9.3 
*END

*D_NET *29 0.00191638
*CONN
*I *173:A I *D sky130_fd_sc_hd__nand2_1
*I *171:B I *D sky130_fd_sc_hd__nand2_1
*I *166:Y O *D sky130_fd_sc_hd__nand2_1
*CAP
1 *173:A 1.00162e-05
2 *171:B 7.76446e-05
3 *166:Y 0.000645491
4 *29:14 0.000733152
5 *171:B *175:B 3.18676e-05
6 *171:B *33:10 1.6215e-05
7 *171:B *34:17 4.22908e-05
8 *173:A *175:B 1.04232e-05
9 *173:A *34:17 5.7661e-06
10 *29:14 *175:B 3.18676e-05
11 *29:14 *267:B 2.1692e-05
12 *164:B *29:14 2.84019e-05
13 *166:B *29:14 4.09836e-05
14 *270:A *29:14 2.38651e-06
15 *270:B *29:14 0.000204326
16 *21:25 *29:14 7.80714e-06
17 *24:6 *29:14 6.05161e-06
*RES
1 *166:Y *29:14 29.0143 
2 *29:14 *171:B 11.0857 
3 *29:14 *173:A 9.72857 
*END

*D_NET *30 0.00134863
*CONN
*I *176:A I *D sky130_fd_sc_hd__nand2_1
*I *168:B I *D sky130_fd_sc_hd__nand2_1
*I *169:B I *D sky130_fd_sc_hd__nand2_1
*I *167:Y O *D sky130_fd_sc_hd__nand2_1
*CAP
1 *176:A 9.30339e-06
2 *168:B 0.000150253
3 *169:B 8.0508e-05
4 *167:Y 0.000254491
5 *30:22 0.00033354
6 *168:B *167:A 0
7 *168:B *170:A 0.000123295
8 *168:B *172:A 0
9 *168:B *230:A 1.02504e-05
10 *168:B *33:10 4.87953e-05
11 *169:B *169:A 4.06451e-05
12 *169:B *170:B 0.000144773
13 *176:A *170:B 1.3701e-05
14 *176:A *176:B 1.97695e-05
15 *30:22 *170:B 0.000110665
16 *30:22 *176:B 5.7661e-06
17 *30:22 *93:12 2.87555e-06
*RES
1 *167:Y *169:B 20.7964 
2 *167:Y *30:22 12.2107 
3 *30:22 *168:B 21.8 
4 *30:22 *176:A 9.72857 
*END

*D_NET *31 0.000496333
*CONN
*I *170:A I *D sky130_fd_sc_hd__nand2_1
*I *168:Y O *D sky130_fd_sc_hd__nand2_1
*CAP
1 *170:A 0.000148197
2 *168:Y 0.000148197
3 *170:A *172:A 0
4 *170:A *93:12 7.6644e-05
5 *168:B *170:A 0.000123295
*RES
1 *168:Y *170:A 30.1893 
*END

*D_NET *32 0.000504612
*CONN
*I *170:B I *D sky130_fd_sc_hd__nand2_1
*I *169:Y O *D sky130_fd_sc_hd__nand2_1
*CAP
1 *170:B 9.72525e-05
2 *169:Y 9.72525e-05
3 *170:B *167:B 1.04232e-05
4 *170:B *169:A 1.32552e-05
5 *170:B *93:12 1.72894e-05
6 *169:B *170:B 0.000144773
7 *176:A *170:B 1.3701e-05
8 *30:22 *170:B 0.000110665
*RES
1 *169:Y *170:B 21.5107 
*END

*D_NET *33 0.00135198
*CONN
*I *171:A I *D sky130_fd_sc_hd__nand2_1
*I *172:A I *D sky130_fd_sc_hd__nand2_1
*I *170:Y O *D sky130_fd_sc_hd__nand2_1
*CAP
1 *171:A 0
2 *172:A 0.000286555
3 *170:Y 0.000131622
4 *33:10 0.000418177
5 *172:A *172:B 0.000169497
6 *172:A *175:A 2.89016e-05
7 *33:10 *167:B 0
8 *33:10 *176:B 7.7307e-05
9 *33:10 *93:12 9.41642e-05
10 p[7] *172:A 6.74911e-05
11 p[7] *33:10 1.32552e-05
12 *168:B *172:A 0
13 *168:B *33:10 4.87953e-05
14 *170:A *172:A 0
15 *171:B *33:10 1.6215e-05
*RES
1 *170:Y *33:10 12.4429 
2 *33:10 *172:A 24.2821 
3 *33:10 *171:A 9.3 
*END

*D_NET *34 0.000976833
*CONN
*I *173:B I *D sky130_fd_sc_hd__nand2_1
*I *172:B I *D sky130_fd_sc_hd__nand2_1
*I *176:B I *D sky130_fd_sc_hd__nand2_1
*I *171:Y O *D sky130_fd_sc_hd__nand2_1
*CAP
1 *173:B 0
2 *172:B 0.000189599
3 *176:B 7.94655e-05
4 *171:Y 0
5 *34:17 0.000240182
6 *34:4 0.000130049
7 *172:B *175:A 0
8 *34:17 *175:B 9.7049e-06
9 p[6] *172:B 0
10 p[7] *172:B 0
11 p[7] *176:B 7.43578e-06
12 *171:B *34:17 4.22908e-05
13 *172:A *172:B 0.000169497
14 *173:A *34:17 5.7661e-06
15 *176:A *176:B 1.97695e-05
16 *30:22 *176:B 5.7661e-06
17 *33:10 *176:B 7.7307e-05
*RES
1 *171:Y *34:4 9.3 
2 *34:4 *176:B 11.0857 
3 *34:4 *34:17 1.375 
4 *34:17 *172:B 22.1036 
5 *34:17 *173:B 9.3 
*END

*D_NET *35 0.000468336
*CONN
*I *175:A I *D sky130_fd_sc_hd__nand2_1
*I *172:Y O *D sky130_fd_sc_hd__nand2_1
*CAP
1 *175:A 0.000180538
2 *172:Y 0.000180538
3 p[6] *175:A 7.83587e-05
4 *172:A *175:A 2.89016e-05
5 *172:B *175:A 0
*RES
1 *172:Y *175:A 30.4929 
*END

*D_NET *36 0.000192971
*CONN
*I *175:B I *D sky130_fd_sc_hd__nand2_1
*I *173:Y O *D sky130_fd_sc_hd__nand2_1
*CAP
1 *175:B 5.45539e-05
2 *173:Y 5.45539e-05
3 *171:B *175:B 3.18676e-05
4 *173:A *175:B 1.04232e-05
5 *29:14 *175:B 3.18676e-05
6 *34:17 *175:B 9.7049e-06
*RES
1 *173:Y *175:B 19.975 
*END

*D_NET *37 0.00057887
*CONN
*I *218:A I *D sky130_fd_sc_hd__inv_1
*I *207:Y O *D sky130_fd_sc_hd__nand2_1
*CAP
1 *218:A 0.000226981
2 *207:Y 0.000226981
3 *218:A *174:A 0
4 *218:A *182:A 0
5 *218:A *199:B 9.57064e-05
6 *218:A *113:12 2.92014e-05
*RES
1 *207:Y *218:A 32.3634 
*END

*D_NET *38 0.00110768
*CONN
*I *199:A I *D sky130_fd_sc_hd__nand2_1
*I *200:A I *D sky130_fd_sc_hd__nand2_1
*I *218:Y O *D sky130_fd_sc_hd__inv_1
*CAP
1 *199:A 6.15576e-05
2 *200:A 0.000106119
3 *218:Y 6.50119e-05
4 *38:8 0.000232688
5 *199:A *174:A 1.02504e-05
6 *199:A *199:B 6.39901e-05
7 *199:A *208:A 0
8 *199:A *65:14 7.83659e-05
9 *200:A *199:B 6.7257e-05
10 *200:A *202:B 0.000148903
11 *200:A *65:14 0.000246064
12 *38:8 *202:B 2.59355e-05
13 *38:8 *113:12 1.53439e-06
*RES
1 *218:Y *38:8 14.5411 
2 *38:8 *200:A 17.2643 
3 *38:8 *199:A 15.4429 
*END

*D_NET *39 0.000625157
*CONN
*I *240:A I *D sky130_fd_sc_hd__inv_1
*I *229:Y O *D sky130_fd_sc_hd__nand2_1
*CAP
1 *240:A 0.000217468
2 *229:Y 0.000217468
3 *240:A *178:A 8.0094e-05
4 *240:A *191:A 5.38273e-05
5 *183:A *240:A 5.62995e-05
*RES
1 *229:Y *240:A 22.7205 
*END

*D_NET *40 0.00130216
*CONN
*I *209:A I *D sky130_fd_sc_hd__xor2_1
*I *210:A I *D sky130_fd_sc_hd__and2_1
*I *240:Y O *D sky130_fd_sc_hd__inv_1
*CAP
1 *209:A 0.000116732
2 *210:A 0.000184071
3 *240:Y 9.35211e-05
4 *40:6 0.000394324
5 *209:A *184:A 1.13883e-05
6 *209:A *209:B 4.35597e-05
7 *209:A *46:6 2.84109e-05
8 *210:A *180:A 1.98839e-05
9 *210:A *191:A 2.49484e-05
10 *210:A *210:B 0.000224574
11 *40:6 *178:A 0.000129844
12 *40:6 *191:A 1.42135e-05
13 *40:6 *46:6 1.66856e-05
14 *179:A *210:A 0
15 *4:29 *210:A 0
*RES
1 *240:Y *40:6 11.2732 
2 *40:6 *210:A 22.1036 
3 *40:6 *209:A 11.4964 
*END

*D_NET *41 0.00108711
*CONN
*I *262:A I *D sky130_fd_sc_hd__inv_1
*I *251:Y O *D sky130_fd_sc_hd__nand2_1
*CAP
1 *262:A 0.000297777
2 *251:Y 0.000297777
3 *262:A *182:A 0.000220186
4 *262:A *42:12 0.000136293
5 *185:B *262:A 5.57914e-05
6 *196:A *262:A 0
7 *28:14 *262:A 7.92879e-05
*RES
1 *251:Y *262:A 35.0509 
*END

*D_NET *42 0.000799883
*CONN
*I *252:B I *D sky130_fd_sc_hd__and2_1
*I *250:B I *D sky130_fd_sc_hd__xor2_1
*I *262:Y O *D sky130_fd_sc_hd__inv_1
*CAP
1 *252:B 0.000112098
2 *250:B 0
3 *262:Y 0.000111682
4 *42:12 0.00022378
5 *42:12 *182:A 0.000125731
6 *252:A *252:B 9.0298e-05
7 *262:A *42:12 0.000136293
*RES
1 *262:Y *42:12 20.6839 
2 *42:12 *250:B 9.3 
3 *42:12 *252:B 11.4964 
*END

*D_NET *43 0.000439238
*CONN
*I *174:A I *D sky130_fd_sc_hd__inv_1
*I *163:Y O *D sky130_fd_sc_hd__nand2_1
*CAP
1 *174:A 0.000149013
2 *163:Y 0.000149013
3 *174:A *208:A 0.000117628
4 *174:A *65:6 1.33343e-05
5 *199:A *174:A 1.02504e-05
6 *218:A *174:A 0
*RES
1 *163:Y *174:A 30.6491 
*END

*D_NET *44 0.000494499
*CONN
*I *205:A I *D sky130_fd_sc_hd__nand2_1
*I *203:B I *D sky130_fd_sc_hd__nand2_1
*I *174:Y O *D sky130_fd_sc_hd__inv_1
*CAP
1 *205:A 1.03267e-05
2 *203:B 0
3 *174:Y 0.000152742
4 *44:12 0.000163069
5 *205:A *204:A 3.18676e-05
6 *205:A *69:6 5.52302e-05
7 *44:12 *202:A 4.1331e-06
8 *44:12 *208:A 7.71303e-05
9 *44:12 *65:14 0
*RES
1 *174:Y *44:12 20.6839 
2 *44:12 *203:B 9.3 
3 *44:12 *205:A 9.83571 
*END

*D_NET *45 0.000605065
*CONN
*I *178:A I *D sky130_fd_sc_hd__inv_1
*I *177:Y O *D sky130_fd_sc_hd__nand2_1
*CAP
1 *178:A 7.5663e-05
2 *177:Y 7.5663e-05
3 *178:A *191:A 0.000243801
4 *240:A *178:A 8.0094e-05
5 *40:6 *178:A 0.000129844
*RES
1 *177:Y *178:A 21.8991 
*END

*D_NET *46 0.00107768
*CONN
*I *209:B I *D sky130_fd_sc_hd__xor2_1
*I *210:B I *D sky130_fd_sc_hd__and2_1
*I *178:Y O *D sky130_fd_sc_hd__inv_1
*CAP
1 *209:B 2.75551e-05
2 *210:B 0.000167017
3 *178:Y 2.6246e-05
4 *46:6 0.000220818
5 *209:B *184:A 2.23592e-05
6 *209:B *191:A 5.33005e-05
7 *210:B *180:A 0.000141734
8 *210:B *191:A 3.12359e-05
9 *46:6 *191:A 7.41811e-05
10 *209:A *209:B 4.35597e-05
11 *209:A *46:6 2.84109e-05
12 *210:A *210:B 0.000224574
13 *40:6 *46:6 1.66856e-05
*RES
1 *178:Y *46:6 10.0411 
2 *46:6 *210:B 22.2107 
3 *46:6 *209:B 10.2464 
*END

*D_NET *47 0.0022
*CONN
*I *180:A I *D sky130_fd_sc_hd__inv_1
*I *179:Y O *D sky130_fd_sc_hd__nand2_1
*CAP
1 *180:A 0.000903149
2 *179:Y 0.000903149
3 *180:A *184:A 7.154e-05
4 *180:A *52:12 7.12299e-06
5 *180:A *75:16 5.66472e-05
6 *179:A *180:A 9.67754e-05
7 *210:A *180:A 1.98839e-05
8 *210:B *180:A 0.000141734
*RES
1 *179:Y *180:A 42.7027 
*END

*D_NET *48 0.00086026
*CONN
*I *241:A I *D sky130_fd_sc_hd__nand2_1
*I *242:A I *D sky130_fd_sc_hd__nand2_1
*I *180:Y O *D sky130_fd_sc_hd__inv_1
*CAP
1 *241:A 3.61282e-05
2 *242:A 0.000157427
3 *180:Y 2.22422e-05
4 *48:6 0.000215797
5 *242:A *245:A 0
6 *242:A *245:B 2.289e-05
7 *242:A *249:B 2.51343e-06
8 *242:A *83:8 2.99158e-05
9 *242:A *103:16 0.000201854
10 *242:A *122:12 0.000171492
*RES
1 *180:Y *48:6 9.63036 
2 *48:6 *242:A 23.1348 
3 *48:6 *241:A 9.83571 
*END

*D_NET *49 0.00172786
*CONN
*I *182:A I *D sky130_fd_sc_hd__inv_1
*I *181:Y O *D sky130_fd_sc_hd__nand2_1
*CAP
1 *182:A 0.000615751
2 *181:Y 0.000615751
3 *182:A *199:B 0
4 *183:A *182:A 5.52238e-05
5 *185:B *182:A 0
6 *218:A *182:A 0
7 *229:A *182:A 0
8 *262:A *182:A 0.000220186
9 *4:9 *182:A 6.01582e-05
10 *4:25 *182:A 3.50566e-05
11 *42:12 *182:A 0.000125731
*RES
1 *181:Y *182:A 39.7027 
*END

*D_NET *50 0.000866573
*CONN
*I *199:B I *D sky130_fd_sc_hd__nand2_1
*I *201:A I *D sky130_fd_sc_hd__nand2_1
*I *182:Y O *D sky130_fd_sc_hd__inv_1
*CAP
1 *199:B 0.000198557
2 *201:A 0
3 *182:Y 4.40985e-05
4 *50:6 0.000242655
5 *199:B *202:B 0.000154309
6 *182:A *199:B 0
7 *199:A *199:B 6.39901e-05
8 *200:A *199:B 6.7257e-05
9 *218:A *199:B 9.57064e-05
*RES
1 *182:Y *50:6 10.0411 
2 *50:6 *201:A 9.3 
3 *50:6 *199:B 23.8179 
*END

*D_NET *51 0.00209388
*CONN
*I *184:A I *D sky130_fd_sc_hd__inv_1
*I *183:Y O *D sky130_fd_sc_hd__nand2_1
*CAP
1 *184:A 0.00069972
2 *183:Y 0.00069972
3 *184:A *191:A 0.000566245
4 *184:A *52:12 2.29112e-05
5 *180:A *184:A 7.154e-05
6 *209:A *184:A 1.13883e-05
7 *209:B *184:A 2.23592e-05
*RES
1 *183:Y *184:A 37.7562 
*END

*D_NET *52 0.000708058
*CONN
*I *233:A I *D sky130_fd_sc_hd__nand2_1
*I *231:B I *D sky130_fd_sc_hd__nand2_1
*I *184:Y O *D sky130_fd_sc_hd__inv_1
*CAP
1 *233:A 5.39846e-05
2 *231:B 0
3 *184:Y 0.000166591
4 *52:12 0.000220576
5 *233:A *231:A 7.01283e-05
6 *233:A *233:B 1.02132e-05
7 *233:A *74:10 0.000141734
8 *233:A *94:6 1.47972e-05
9 *180:A *52:12 7.12299e-06
10 *184:A *52:12 2.29112e-05
*RES
1 *184:Y *52:12 20.5768 
2 *52:12 *231:B 9.3 
3 *52:12 *233:A 11.5143 
*END

*D_NET *53 0.000370427
*CONN
*I *187:A I *D sky130_fd_sc_hd__inv_1
*I *186:Y O *D sky130_fd_sc_hd__nand2_1
*CAP
1 *187:A 0.000185214
2 *186:Y 0.000185214
*RES
1 *186:Y *187:A 30.6491 
*END

*D_NET *54 0.00097581
*CONN
*I *211:B I *D sky130_fd_sc_hd__nand2_1
*I *213:A I *D sky130_fd_sc_hd__nand2_1
*I *187:Y O *D sky130_fd_sc_hd__inv_1
*CAP
1 *211:B 0.00028346
2 *213:A 1.98239e-05
3 *187:Y 4.28664e-05
4 *54:6 0.00034615
5 *211:B *212:A 3.20477e-05
6 *211:B *213:B 5.66971e-05
7 *211:B *76:10 0.000126272
8 *211:B *76:21 6.49987e-05
9 *213:A *76:21 3.49456e-06
*RES
1 *187:Y *54:6 10.0411 
2 *54:6 *213:A 9.72857 
3 *54:6 *211:B 23.8536 
*END

*D_NET *55 0.000405729
*CONN
*I *189:A I *D sky130_fd_sc_hd__inv_1
*I *188:Y O *D sky130_fd_sc_hd__nand2_1
*CAP
1 *189:A 0.000139967
2 *188:Y 0.000139967
3 *189:A *195:A 2.92473e-05
4 *189:A *221:B 6.68114e-05
5 *189:A *222:A 2.53112e-06
6 *189:A *223:A 2.72055e-05
*RES
1 *188:Y *189:A 30.1938 
*END

*D_NET *56 0.000642848
*CONN
*I *221:A I *D sky130_fd_sc_hd__nand2_1
*I *222:A I *D sky130_fd_sc_hd__nand2_1
*I *189:Y O *D sky130_fd_sc_hd__inv_1
*CAP
1 *221:A 0
2 *222:A 0.000116482
3 *189:Y 0.000117262
4 *56:8 0.000233745
5 *222:A *230:A 4.27842e-06
6 *222:A *85:10 6.23278e-05
7 *56:8 *221:B 9.45672e-05
8 *56:8 *85:10 1.16543e-05
9 *189:A *222:A 2.53112e-06
*RES
1 *189:Y *56:8 11.5946 
2 *56:8 *222:A 20.55 
3 *56:8 *221:A 9.3 
*END

*D_NET *57 0.00266418
*CONN
*I *191:A I *D sky130_fd_sc_hd__inv_1
*I *190:Y O *D sky130_fd_sc_hd__nand2_1
*CAP
1 *191:A 0.000660949
2 *190:Y 0.000660949
3 *191:A *231:A 1.62049e-05
4 *178:A *191:A 0.000243801
5 *183:A *191:A 0.000264326
6 *184:A *191:A 0.000566245
7 *209:B *191:A 5.33005e-05
8 *210:A *191:A 2.49484e-05
9 *210:B *191:A 3.12359e-05
10 *240:A *191:A 5.38273e-05
11 *4:29 *191:A 0
12 *40:6 *191:A 1.42135e-05
13 *46:6 *191:A 7.41811e-05
*RES
1 *190:Y *191:A 42.3634 
*END

*D_NET *58 0.00115283
*CONN
*I *232:A I *D sky130_fd_sc_hd__nand2_1
*I *231:A I *D sky130_fd_sc_hd__nand2_1
*I *191:Y O *D sky130_fd_sc_hd__inv_1
*CAP
1 *232:A 0.000287162
2 *231:A 0.000210416
3 *191:Y 0
4 *58:4 0.000497578
5 *231:A *233:B 1.30765e-05
6 *231:A *74:10 1.34631e-05
7 *231:A *94:6 1.30891e-05
8 *232:A *94:21 3.17163e-05
9 *191:A *231:A 1.62049e-05
10 *233:A *231:A 7.01283e-05
*RES
1 *191:Y *58:4 9.3 
2 *58:4 *231:A 22.1661 
3 *58:4 *232:A 22.3268 
*END

*D_NET *59 0.000824586
*CONN
*I *193:A I *D sky130_fd_sc_hd__inv_1
*I *192:Y O *D sky130_fd_sc_hd__nand2_1
*CAP
1 *193:A 0.000290828
2 *192:Y 0.000290828
3 *179:B *193:A 7.62323e-05
4 *192:B *193:A 2.83336e-05
5 *9:39 *193:A 0.000138365
*RES
1 *192:Y *193:A 32.1134 
*END

*D_NET *60 0.000926015
*CONN
*I *211:A I *D sky130_fd_sc_hd__nand2_1
*I *212:A I *D sky130_fd_sc_hd__nand2_1
*I *193:Y O *D sky130_fd_sc_hd__inv_1
*CAP
1 *211:A 0
2 *212:A 9.976e-05
3 *193:Y 0.000128612
4 *60:6 0.000228372
5 *212:A *214:A 0.000101777
6 *212:A *76:10 0.000150043
7 *60:6 *214:B 0.000185403
8 *211:B *212:A 3.20477e-05
*RES
1 *193:Y *60:6 12.0946 
2 *60:6 *212:A 21.1571 
3 *60:6 *211:A 9.3 
*END

*D_NET *61 0.00037182
*CONN
*I *195:A I *D sky130_fd_sc_hd__inv_1
*I *194:Y O *D sky130_fd_sc_hd__nand2_1
*CAP
1 *195:A 0.000109909
2 *194:Y 0.000109909
3 *195:A *223:A 5.5764e-05
4 *195:A *62:6 1.65984e-05
5 *189:A *195:A 2.92473e-05
6 *197:A *195:A 3.19585e-05
7 *6:9 *195:A 1.84336e-05
*RES
1 *194:Y *195:A 30.1938 
*END

*D_NET *62 0.000852492
*CONN
*I *221:B I *D sky130_fd_sc_hd__nand2_1
*I *223:A I *D sky130_fd_sc_hd__nand2_1
*I *195:Y O *D sky130_fd_sc_hd__inv_1
*CAP
1 *221:B 8.50414e-05
2 *223:A 0.000136849
3 *195:Y 5.00761e-05
4 *62:6 0.000271967
5 *221:B *85:10 4.93118e-06
6 *223:A *85:10 4.26814e-05
7 *189:A *221:B 6.68114e-05
8 *189:A *223:A 2.72055e-05
9 *195:A *223:A 5.5764e-05
10 *195:A *62:6 1.65984e-05
11 *56:8 *221:B 9.45672e-05
*RES
1 *195:Y *62:6 10.0411 
2 *62:6 *223:A 21.1571 
3 *62:6 *221:B 11.5143 
*END

*D_NET *63 0.000577795
*CONN
*I *198:A I *D sky130_fd_sc_hd__inv_1
*I *197:Y O *D sky130_fd_sc_hd__nand2_1
*CAP
1 *198:A 0.000287484
2 *197:Y 0.000287484
3 *198:A *167:A 2.8266e-06
4 *198:A *230:A 0
*RES
1 *197:Y *198:A 32.667 
*END

*D_NET *64 0.000420519
*CONN
*I *168:A I *D sky130_fd_sc_hd__nand2_1
*I *167:A I *D sky130_fd_sc_hd__nand2_1
*I *198:Y O *D sky130_fd_sc_hd__inv_1
*CAP
1 *168:A 5.53377e-05
2 *167:A 0.000131324
3 *198:Y 2.21844e-05
4 *64:6 0.000208846
5 *168:B *167:A 0
6 *198:A *167:A 2.8266e-06
*RES
1 *198:Y *64:6 9.63036 
2 *64:6 *167:A 20.5232 
3 *64:6 *168:A 10.2464 
*END

*D_NET *65 0.00208902
*CONN
*I *208:A I *D sky130_fd_sc_hd__nand2_1
*I *200:B I *D sky130_fd_sc_hd__nand2_1
*I *201:B I *D sky130_fd_sc_hd__nand2_1
*I *199:Y O *D sky130_fd_sc_hd__nand2_1
*CAP
1 *208:A 0.0003256
2 *200:B 3.30393e-05
3 *201:B 6.9395e-05
4 *199:Y 6.91384e-05
5 *65:14 0.000279428
6 *65:6 0.000571732
7 *200:B *202:A 1.74352e-05
8 *201:B *202:A 6.05161e-06
9 *201:B *202:B 7.43578e-06
10 *208:A *73:12 0.000101227
11 *65:14 *202:A 7.6021e-05
12 *65:14 *204:A 0
13 *174:A *208:A 0.000117628
14 *174:A *65:6 1.33343e-05
15 *199:A *208:A 0
16 *199:A *65:14 7.83659e-05
17 *200:A *65:14 0.000246064
18 *44:12 *208:A 7.71303e-05
19 *44:12 *65:14 0
*RES
1 *199:Y *65:6 10.2464 
2 *65:6 *65:14 13.5 
3 *65:14 *201:B 10.675 
4 *65:14 *200:B 10.2643 
5 *65:6 *208:A 24.0679 
*END

*D_NET *66 0.000499367
*CONN
*I *202:A I *D sky130_fd_sc_hd__nand2_1
*I *200:Y O *D sky130_fd_sc_hd__nand2_1
*CAP
1 *202:A 0.000197863
2 *200:Y 0.000197863
3 *200:B *202:A 1.74352e-05
4 *201:B *202:A 6.05161e-06
5 *44:12 *202:A 4.1331e-06
6 *65:14 *202:A 7.6021e-05
*RES
1 *200:Y *202:A 30.4929 
*END

*D_NET *67 0.000661928
*CONN
*I *202:B I *D sky130_fd_sc_hd__nand2_1
*I *201:Y O *D sky130_fd_sc_hd__nand2_1
*CAP
1 *202:B 0.000148701
2 *201:Y 0.000148701
3 *202:B *113:12 2.79421e-05
4 *199:B *202:B 0.000154309
5 *200:A *202:B 0.000148903
6 *201:B *202:B 7.43578e-06
7 *38:8 *202:B 2.59355e-05
*RES
1 *201:Y *202:B 31.0286 
*END

*D_NET *68 0.00113504
*CONN
*I *204:A I *D sky130_fd_sc_hd__nand2_1
*I *203:A I *D sky130_fd_sc_hd__nand2_1
*I *202:Y O *D sky130_fd_sc_hd__nand2_1
*CAP
1 *204:A 0.000230003
2 *203:A 3.82418e-05
3 *202:Y 3.95555e-05
4 *68:6 0.0003078
5 *203:A *205:B 0
6 *203:A *113:12 0
7 *204:A *206:B 9.90367e-05
8 *204:A *69:6 2.95641e-05
9 *204:A *113:12 0.000260954
10 *68:6 *113:12 9.80173e-05
11 *205:A *204:A 3.18676e-05
12 *65:14 *204:A 0
*RES
1 *202:Y *68:6 10.2464 
2 *68:6 *203:A 10.0321 
3 *68:6 *204:A 23.8 
*END

*D_NET *69 0.00162742
*CONN
*I *204:B I *D sky130_fd_sc_hd__nand2_1
*I *208:B I *D sky130_fd_sc_hd__nand2_1
*I *205:B I *D sky130_fd_sc_hd__nand2_1
*I *203:Y O *D sky130_fd_sc_hd__nand2_1
*CAP
1 *204:B 0.000366673
2 *208:B 8.90386e-06
3 *205:B 1.63023e-05
4 *203:Y 8.84288e-05
5 *69:15 0.000443228
6 *69:6 0.000172382
7 *204:B *206:A 0.000255066
8 *204:B *206:B 2.36643e-05
9 *204:B *72:8 4.35482e-05
10 *204:B *113:12 1.10868e-05
11 *208:B *206:B 1.02132e-05
12 *69:6 *206:B 3.18676e-05
13 *69:15 *206:B 7.12598e-05
14 p[2] *204:B 0
15 *203:A *205:B 0
16 *204:A *69:6 2.95641e-05
17 *205:A *69:6 5.52302e-05
*RES
1 *203:Y *69:6 11.0679 
2 *69:6 *205:B 9.72857 
3 *69:6 *69:15 1.35714 
4 *69:15 *208:B 9.72857 
5 *69:15 *204:B 25.4071 
*END

*D_NET *70 0.000805372
*CONN
*I *206:A I *D sky130_fd_sc_hd__nand2_1
*I *204:Y O *D sky130_fd_sc_hd__nand2_1
*CAP
1 *206:A 0.000247679
2 *204:Y 0.000247679
3 *206:A *72:8 5.49489e-05
4 *204:B *206:A 0.000255066
*RES
1 *204:Y *206:A 31.85 
*END

*D_NET *71 0.000471272
*CONN
*I *206:B I *D sky130_fd_sc_hd__nand2_1
*I *205:Y O *D sky130_fd_sc_hd__nand2_1
*CAP
1 *206:B 6.00439e-05
2 *205:Y 6.00439e-05
3 *206:B *113:12 0.000115142
4 *204:A *206:B 9.90367e-05
5 *204:B *206:B 2.36643e-05
6 *208:B *206:B 1.02132e-05
7 *69:6 *206:B 3.18676e-05
8 *69:15 *206:B 7.12598e-05
*RES
1 *205:Y *206:B 21.2071 
*END

*D_NET *72 0.000800287
*CONN
*I *254:A I *D sky130_fd_sc_hd__and2_1
*I *253:A I *D sky130_fd_sc_hd__xor2_1
*I *206:Y O *D sky130_fd_sc_hd__nand2_1
*CAP
1 *254:A 8.44288e-05
2 *253:A 0
3 *206:Y 6.88858e-05
4 *72:8 0.000153315
5 *254:A *254:B 0.000186765
6 *254:A *113:12 1.64621e-05
7 *72:8 *113:12 0.000191933
8 *204:B *72:8 4.35482e-05
9 *206:A *72:8 5.49489e-05
*RES
1 *206:Y *72:8 11.4964 
2 *72:8 *253:A 9.3 
3 *72:8 *254:A 11.4786 
*END

*D_NET *73 0.00253157
*CONN
*I *255:A I *D sky130_fd_sc_hd__nand2_1
*I *256:A I *D sky130_fd_sc_hd__nand2_1
*I *208:Y O *D sky130_fd_sc_hd__nand2_1
*CAP
1 *255:A 0.00010234
2 *256:A 0.000131217
3 *208:Y 0.000737807
4 *73:12 0.000971364
5 *255:A *257:A 6.64984e-05
6 *255:A *115:8 1.00073e-05
7 *256:A *256:B 0.000153047
8 *256:A *258:A 0.000109414
9 *256:A *264:B 0
10 *256:A *101:12 0
11 *256:A *115:12 8.15095e-05
12 *73:12 *264:A 5.71472e-05
13 *73:12 *115:8 9.99644e-06
14 *208:A *73:12 0.000101227
*RES
1 *208:Y *73:12 30.0321 
2 *73:12 *256:A 21.9964 
3 *73:12 *255:A 11.7554 
*END

*D_NET *74 0.00142276
*CONN
*I *237:A I *D sky130_fd_sc_hd__nand2_1
*I *235:B I *D sky130_fd_sc_hd__nand2_1
*I *209:X O *D sky130_fd_sc_hd__xor2_1
*CAP
1 *237:A 2.16932e-05
2 *235:B 0
3 *209:X 0.000365547
4 *74:10 0.00038724
5 *237:A *98:8 4.27935e-05
6 *74:10 *234:A 1.21289e-05
7 *74:10 *234:B 0.000229181
8 *74:10 *235:A 0.000136697
9 *74:10 *236:A 9.22103e-06
10 *74:10 *94:6 7.83333e-06
11 *74:10 *98:8 5.52238e-05
12 *231:A *74:10 1.34631e-05
13 *233:A *74:10 0.000141734
*RES
1 *209:X *74:10 16.8536 
2 *74:10 *235:B 9.3 
3 *74:10 *237:A 9.83571 
*END

*D_NET *75 0.000932286
*CONN
*I *217:A I *D sky130_fd_sc_hd__nand2_1
*I *215:B I *D sky130_fd_sc_hd__nand2_1
*I *210:X O *D sky130_fd_sc_hd__and2_1
*CAP
1 *217:A 0
2 *215:B 2.02436e-05
3 *210:X 0.000336937
4 *75:16 0.00035718
5 *215:B *80:22 5.65955e-05
6 *75:16 *215:A 3.41517e-06
7 *75:16 *219:B 5.49489e-05
8 *75:16 *79:12 2.98475e-05
9 *75:16 *80:22 1.64713e-05
10 *180:A *75:16 5.66472e-05
*RES
1 *210:X *75:16 24.2821 
2 *75:16 *215:B 9.83571 
3 *75:16 *217:A 9.3 
*END

*D_NET *76 0.000774493
*CONN
*I *212:B I *D sky130_fd_sc_hd__nand2_1
*I *213:B I *D sky130_fd_sc_hd__nand2_1
*I *220:A I *D sky130_fd_sc_hd__nand2_1
*I *211:Y O *D sky130_fd_sc_hd__nand2_1
*CAP
1 *212:B 0
2 *213:B 1.63173e-05
3 *220:A 0
4 *211:Y 5.12836e-05
5 *76:21 7.81529e-05
6 *76:10 0.000113119
7 *76:21 *215:A 8.48678e-06
8 *76:21 *220:B 5.46383e-06
9 *76:21 *84:10 0.000100165
10 *211:B *213:B 5.66971e-05
11 *211:B *76:10 0.000126272
12 *211:B *76:21 6.49987e-05
13 *212:A *76:10 0.000150043
14 *213:A *76:21 3.49456e-06
*RES
1 *211:Y *76:10 20.2464 
2 *76:10 *220:A 9.3 
3 *76:10 *76:21 2.21429 
4 *76:21 *213:B 9.83571 
5 *76:21 *212:B 9.3 
*END

*D_NET *77 0.000882646
*CONN
*I *214:A I *D sky130_fd_sc_hd__nand2_1
*I *212:Y O *D sky130_fd_sc_hd__nand2_1
*CAP
1 *214:A 0.000223402
2 *212:Y 0.000223402
3 *214:A *214:B 0.000277468
4 *214:A *79:12 5.65955e-05
5 *212:A *214:A 0.000101777
*RES
1 *212:Y *214:A 32.6714 
*END

*D_NET *78 0.000901216
*CONN
*I *214:B I *D sky130_fd_sc_hd__nand2_1
*I *213:Y O *D sky130_fd_sc_hd__nand2_1
*CAP
1 *214:B 0.000213868
2 *213:Y 0.000213868
3 *214:A *214:B 0.000277468
4 *9:39 *214:B 1.0609e-05
5 *60:6 *214:B 0.000185403
*RES
1 *213:Y *214:B 33.0821 
*END

*D_NET *79 0.00175653
*CONN
*I *215:A I *D sky130_fd_sc_hd__nand2_1
*I *216:A I *D sky130_fd_sc_hd__nand2_1
*I *214:Y O *D sky130_fd_sc_hd__nand2_1
*CAP
1 *215:A 0.000299118
2 *216:A 0
3 *214:Y 0.000385725
4 *79:12 0.000684843
5 *215:A *216:B 2.38501e-05
6 *215:A *219:B 3.97002e-05
7 *215:A *220:B 2.61505e-05
8 *215:A *80:22 0.000198798
9 *214:A *79:12 5.65955e-05
10 *75:16 *215:A 3.41517e-06
11 *75:16 *79:12 2.98475e-05
12 *76:21 *215:A 8.48678e-06
*RES
1 *214:Y *79:12 23.2464 
2 *79:12 *216:A 9.3 
3 *79:12 *215:A 14.175 
*END

*D_NET *80 0.000665389
*CONN
*I *216:B I *D sky130_fd_sc_hd__nand2_1
*I *217:B I *D sky130_fd_sc_hd__nand2_1
*I *220:B I *D sky130_fd_sc_hd__nand2_1
*I *215:Y O *D sky130_fd_sc_hd__nand2_1
*CAP
1 *216:B 7.33263e-06
2 *217:B 0
3 *220:B 7.15207e-05
4 *215:Y 0.000121484
5 *80:22 5.72955e-05
6 *216:B *219:B 5.66971e-05
7 *80:22 *219:B 2.37306e-05
8 *215:A *216:B 2.38501e-05
9 *215:A *220:B 2.61505e-05
10 *215:A *80:22 0.000198798
11 *215:B *80:22 5.65955e-05
12 *75:16 *80:22 1.64713e-05
13 *76:21 *220:B 5.46383e-06
*RES
1 *215:Y *220:B 19.975 
2 *215:Y *80:22 11.4964 
3 *80:22 *217:B 9.3 
4 *80:22 *216:B 9.83571 
*END

*D_NET *81 0.000387329
*CONN
*I *219:A I *D sky130_fd_sc_hd__nand2_1
*I *216:Y O *D sky130_fd_sc_hd__nand2_1
*CAP
1 *219:A 0.000133968
2 *216:Y 0.000133968
3 *219:A *219:B 0.000115927
4 *219:A *83:8 3.466e-06
*RES
1 *216:Y *219:A 21.1 
*END

*D_NET *82 0.000465083
*CONN
*I *219:B I *D sky130_fd_sc_hd__nand2_1
*I *217:Y O *D sky130_fd_sc_hd__nand2_1
*CAP
1 *219:B 8.70395e-05
2 *217:Y 8.70395e-05
3 *215:A *219:B 3.97002e-05
4 *216:B *219:B 5.66971e-05
5 *219:A *219:B 0.000115927
6 *75:16 *219:B 5.49489e-05
7 *80:22 *219:B 2.37306e-05
*RES
1 *217:Y *219:B 21.2071 
*END

*D_NET *83 0.0014886
*CONN
*I *247:A I *D sky130_fd_sc_hd__nand2_1
*I *245:B I *D sky130_fd_sc_hd__nand2_1
*I *219:Y O *D sky130_fd_sc_hd__nand2_1
*CAP
1 *247:A 0.000251038
2 *245:B 0.000106835
3 *219:Y 0.000280138
4 *83:8 0.00063801
5 *245:B *244:A 2.06178e-05
6 *245:B *245:A 3.00355e-06
7 *245:B *249:A 1.37298e-05
8 *245:B *249:B 4.27842e-06
9 *245:B *122:12 1.82312e-05
10 *247:A *248:B 1.72964e-05
11 *247:A *249:A 3.93691e-05
12 *247:A *249:B 3.54498e-05
13 *83:8 *103:16 4.3304e-06
14 *219:A *83:8 3.466e-06
15 *242:A *245:B 2.289e-05
16 *242:A *83:8 2.99158e-05
*RES
1 *219:Y *83:8 17.2107 
2 *83:8 *245:B 15.8536 
3 *83:8 *247:A 18.0143 
*END

*D_NET *84 0.00127714
*CONN
*I *225:B I *D sky130_fd_sc_hd__nand2_1
*I *227:A I *D sky130_fd_sc_hd__nand2_1
*I *220:Y O *D sky130_fd_sc_hd__nand2_1
*CAP
1 *225:B 0.000173131
2 *227:A 0
3 *220:Y 0.000327784
4 *84:10 0.000500915
5 *225:B *226:A 4.1331e-06
6 *225:B *226:B 0.00012435
7 *225:B *89:17 2.78584e-05
8 *84:10 *225:A 0
9 *84:10 *226:A 1.88048e-05
10 *84:10 *88:10 0
11 *76:21 *84:10 0.000100165
*RES
1 *220:Y *84:10 19.1214 
2 *84:10 *227:A 13.8 
3 *84:10 *225:B 16.6214 
*END

*D_NET *85 0.000826302
*CONN
*I *230:A I *D sky130_fd_sc_hd__nand2_1
*I *222:B I *D sky130_fd_sc_hd__nand2_1
*I *223:B I *D sky130_fd_sc_hd__nand2_1
*I *221:Y O *D sky130_fd_sc_hd__nand2_1
*CAP
1 *230:A 0.00019657
2 *222:B 0
3 *223:B 2.50978e-05
4 *221:Y 9.59215e-05
5 *85:12 2.50978e-05
6 *85:10 0.000292492
7 *223:B *224:B 5.49995e-05
8 *230:A *225:A 0
9 *230:A *88:10 0
10 *168:B *230:A 1.02504e-05
11 *198:A *230:A 0
12 *221:B *85:10 4.93118e-06
13 *222:A *230:A 4.27842e-06
14 *222:A *85:10 6.23278e-05
15 *223:A *85:10 4.26814e-05
16 *56:8 *85:10 1.16543e-05
*RES
1 *221:Y *85:10 15.9786 
2 *85:10 *85:12 4.5 
3 *85:12 *223:B 9.83571 
4 *85:12 *222:B 9.3 
5 *85:10 *230:A 17.3179 
*END

*D_NET *86 0.000319696
*CONN
*I *224:A I *D sky130_fd_sc_hd__nand2_1
*I *222:Y O *D sky130_fd_sc_hd__nand2_1
*CAP
1 *224:A 0.00011606
2 *222:Y 0.00011606
3 *224:A *224:B 5.64677e-05
4 *224:A *88:10 3.11088e-05
*RES
1 *222:Y *224:A 20.7964 
*END

*D_NET *87 0.000377275
*CONN
*I *224:B I *D sky130_fd_sc_hd__nand2_1
*I *223:Y O *D sky130_fd_sc_hd__nand2_1
*CAP
1 *224:B 0.000132904
2 *223:Y 0.000132904
3 *223:B *224:B 5.49995e-05
4 *224:A *224:B 5.64677e-05
*RES
1 *223:Y *224:B 21.2071 
*END

*D_NET *88 0.00146354
*CONN
*I *225:A I *D sky130_fd_sc_hd__nand2_1
*I *226:A I *D sky130_fd_sc_hd__nand2_1
*I *224:Y O *D sky130_fd_sc_hd__nand2_1
*CAP
1 *225:A 3.82519e-05
2 *226:A 0.000213693
3 *224:Y 0.000283449
4 *88:10 0.000535394
5 *226:A *226:B 1.21289e-05
6 *226:A *228:B 0.00018372
7 *226:A *230:B 5.52302e-05
8 *226:A *89:17 8.76257e-05
9 *224:A *88:10 3.11088e-05
10 *225:B *226:A 4.1331e-06
11 *230:A *225:A 0
12 *230:A *88:10 0
13 *84:10 *225:A 0
14 *84:10 *226:A 1.88048e-05
15 *84:10 *88:10 0
*RES
1 *224:Y *88:10 18.7464 
2 *88:10 *226:A 26.9429 
3 *88:10 *225:A 14.5321 
*END

*D_NET *89 0.00104821
*CONN
*I *226:B I *D sky130_fd_sc_hd__nand2_1
*I *227:B I *D sky130_fd_sc_hd__nand2_1
*I *230:B I *D sky130_fd_sc_hd__nand2_1
*I *225:Y O *D sky130_fd_sc_hd__nand2_1
*CAP
1 *226:B 5.83497e-05
2 *227:B 0
3 *230:B 0.000244463
4 *225:Y 0
5 *89:17 9.81652e-05
6 *89:4 0.000284278
7 *226:B *228:A 0
8 *226:B *228:B 5.57575e-05
9 *89:17 *228:B 0
10 *225:B *226:B 0.00012435
11 *225:B *89:17 2.78584e-05
12 *226:A *226:B 1.21289e-05
13 *226:A *230:B 5.52302e-05
14 *226:A *89:17 8.76257e-05
*RES
1 *225:Y *89:4 9.3 
2 *89:4 *230:B 13.55 
3 *89:4 *89:17 1.375 
4 *89:17 *227:B 9.3 
5 *89:17 *226:B 11.5143 
*END

*D_NET *90 0.000312122
*CONN
*I *228:A I *D sky130_fd_sc_hd__nand2_1
*I *226:Y O *D sky130_fd_sc_hd__nand2_1
*CAP
1 *228:A 0.000121136
2 *226:Y 0.000121136
3 *228:A *228:B 5.66452e-05
4 *228:A *92:6 1.32056e-05
5 *226:B *228:A 0
*RES
1 *226:Y *228:A 20.7964 
*END

*D_NET *91 0.000465388
*CONN
*I *228:B I *D sky130_fd_sc_hd__nand2_1
*I *227:Y O *D sky130_fd_sc_hd__nand2_1
*CAP
1 *228:B 8.46327e-05
2 *227:Y 8.46327e-05
3 *226:A *228:B 0.00018372
4 *226:B *228:B 5.57575e-05
5 *228:A *228:B 5.66452e-05
6 *89:17 *228:B 0
*RES
1 *227:Y *228:B 21.2071 
*END

*D_NET *92 0.0010972
*CONN
*I *267:A I *D sky130_fd_sc_hd__nand2_1
*I *268:A I *D sky130_fd_sc_hd__nand2_1
*I *228:Y O *D sky130_fd_sc_hd__nand2_1
*CAP
1 *267:A 7.87362e-05
2 *268:A 0.00013557
3 *228:Y 0.00014961
4 *92:6 0.000363916
5 *228:A *92:6 1.32056e-05
6 *268:B *267:A 7.83659e-05
7 *268:B *268:A 0.000230431
8 *21:25 *267:A 4.73656e-05
*RES
1 *228:Y *92:6 11.0679 
2 *92:6 *268:A 12.6214 
3 *92:6 *267:A 19.9429 
*END

*D_NET *93 0.000916661
*CONN
*I *167:B I *D sky130_fd_sc_hd__nand2_1
*I *169:A I *D sky130_fd_sc_hd__nand2_1
*I *230:Y O *D sky130_fd_sc_hd__nand2_1
*CAP
1 *167:B 1.67212e-05
2 *169:A 0.000129896
3 *230:Y 0.000184064
4 *93:12 0.000330682
5 *169:B *169:A 4.06451e-05
6 *170:A *93:12 7.6644e-05
7 *170:B *167:B 1.04232e-05
8 *170:B *169:A 1.32552e-05
9 *170:B *93:12 1.72894e-05
10 *30:22 *93:12 2.87555e-06
11 *33:10 *167:B 0
12 *33:10 *93:12 9.41642e-05
*RES
1 *230:Y *93:12 21.1036 
2 *93:12 *169:A 11.3893 
3 *93:12 *167:B 10.0321 
*END

*D_NET *94 0.00126785
*CONN
*I *239:A I *D sky130_fd_sc_hd__nand2_1
*I *232:B I *D sky130_fd_sc_hd__nand2_1
*I *233:B I *D sky130_fd_sc_hd__nand2_1
*I *231:Y O *D sky130_fd_sc_hd__nand2_1
*CAP
1 *239:A 0.00025854
2 *232:B 0
3 *233:B 3.66506e-05
4 *231:Y 6.86086e-05
5 *94:21 0.000416125
6 *94:6 0.000262845
7 *233:B *234:B 5.35387e-05
8 *239:A *122:12 0
9 *94:21 *234:A 5.52238e-05
10 *94:21 *234:B 2.55928e-05
11 *94:21 *122:12 0
12 *231:A *233:B 1.30765e-05
13 *231:A *94:6 1.30891e-05
14 *232:A *94:21 3.17163e-05
15 *233:A *233:B 1.02132e-05
16 *233:A *94:6 1.47972e-05
17 *74:10 *94:6 7.83333e-06
*RES
1 *231:Y *94:6 10.2464 
2 *94:6 *233:B 10.5366 
3 *94:6 *94:21 7 
4 *94:21 *232:B 13.8 
5 *94:21 *239:A 18.0143 
*END

*D_NET *95 0.000356272
*CONN
*I *234:A I *D sky130_fd_sc_hd__nand2_1
*I *232:Y O *D sky130_fd_sc_hd__nand2_1
*CAP
1 *234:A 8.78833e-05
2 *232:Y 8.78833e-05
3 *234:A *234:B 5.75275e-05
4 *234:A *235:A 4.22908e-05
5 *234:A *236:A 1.33343e-05
6 *234:A *98:8 0
7 *74:10 *234:A 1.21289e-05
8 *94:21 *234:A 5.52238e-05
*RES
1 *232:Y *234:A 20.7964 
*END

*D_NET *96 0.000503685
*CONN
*I *234:B I *D sky130_fd_sc_hd__nand2_1
*I *233:Y O *D sky130_fd_sc_hd__nand2_1
*CAP
1 *234:B 6.40703e-05
2 *233:Y 6.40703e-05
3 *234:B *235:A 9.7049e-06
4 *233:B *234:B 5.35387e-05
5 *234:A *234:B 5.75275e-05
6 *74:10 *234:B 0.000229181
7 *94:21 *234:B 2.55928e-05
*RES
1 *233:Y *234:B 21.2071 
*END

*D_NET *97 0.00110012
*CONN
*I *236:A I *D sky130_fd_sc_hd__nand2_1
*I *235:A I *D sky130_fd_sc_hd__nand2_1
*I *234:Y O *D sky130_fd_sc_hd__nand2_1
*CAP
1 *236:A 0.00029382
2 *235:A 1.75334e-05
3 *234:Y 0.000311354
4 *236:A *236:B 2.44318e-05
5 *236:A *238:A 3.31648e-05
6 *236:A *238:B 9.22103e-06
7 *236:A *98:8 0.000199344
8 *234:A *235:A 4.22908e-05
9 *234:A *236:A 1.33343e-05
10 *234:B *235:A 9.7049e-06
11 *74:10 *235:A 0.000136697
12 *74:10 *236:A 9.22103e-06
*RES
1 *234:Y *235:A 19.975 
2 *234:Y *236:A 23.1536 
*END

*D_NET *98 0.000793147
*CONN
*I *239:B I *D sky130_fd_sc_hd__nand2_1
*I *236:B I *D sky130_fd_sc_hd__nand2_1
*I *237:B I *D sky130_fd_sc_hd__nand2_1
*I *235:Y O *D sky130_fd_sc_hd__nand2_1
*CAP
1 *239:B 7.38476e-05
2 *236:B 7.99171e-06
3 *237:B 0
4 *235:Y 0.000126814
5 *98:8 6.0958e-05
6 *236:B *238:B 3.18676e-05
7 *239:B *122:12 0.00015244
8 *98:8 *238:B 1.74352e-05
9 *234:A *98:8 0
10 *236:A *236:B 2.44318e-05
11 *236:A *98:8 0.000199344
12 *237:A *98:8 4.27935e-05
13 *74:10 *98:8 5.52238e-05
*RES
1 *235:Y *98:8 11.4964 
2 *98:8 *237:B 9.3 
3 *98:8 *236:B 9.83571 
4 *235:Y *239:B 29.5464 
*END

*D_NET *99 0.000225007
*CONN
*I *238:A I *D sky130_fd_sc_hd__nand2_1
*I *236:Y O *D sky130_fd_sc_hd__nand2_1
*CAP
1 *238:A 3.55564e-05
2 *236:Y 3.55564e-05
3 *238:A *238:B 0.00012073
4 *236:A *238:A 3.31648e-05
*RES
1 *236:Y *238:A 19.975 
*END

*D_NET *100 0.000559442
*CONN
*I *238:B I *D sky130_fd_sc_hd__nand2_1
*I *237:Y O *D sky130_fd_sc_hd__nand2_1
*CAP
1 *238:B 0.000190095
2 *237:Y 0.000190095
3 *236:A *238:B 9.22103e-06
4 *236:B *238:B 3.18676e-05
5 *238:A *238:B 0.00012073
6 *98:8 *238:B 1.74352e-05
*RES
1 *237:Y *238:B 22.3321 
*END

*D_NET *101 0.000969168
*CONN
*I *257:A I *D sky130_fd_sc_hd__nand2_1
*I *255:B I *D sky130_fd_sc_hd__nand2_1
*I *238:Y O *D sky130_fd_sc_hd__nand2_1
*CAP
1 *257:A 9.48255e-05
2 *255:B 0
3 *238:Y 0.000283902
4 *101:12 0.000378728
5 *257:A *115:8 9.80173e-05
6 *101:12 *258:A 4.71964e-05
7 *101:12 *122:12 0
8 *255:A *257:A 6.64984e-05
9 *256:A *101:12 0
*RES
1 *238:Y *101:12 23.2107 
2 *101:12 *255:B 9.3 
3 *101:12 *257:A 12.1214 
*END

*D_NET *102 0.000998191
*CONN
*I *243:A I *D sky130_fd_sc_hd__nand2_1
*I *241:B I *D sky130_fd_sc_hd__nand2_1
*I *239:Y O *D sky130_fd_sc_hd__nand2_1
*CAP
1 *243:A 0.000191507
2 *241:B 0
3 *239:Y 0.000237752
4 *102:10 0.00042926
5 *243:A *243:B 3.90603e-05
6 *243:A *244:A 2.83284e-06
7 *243:A *103:10 3.54498e-05
8 *102:10 *122:12 6.23278e-05
*RES
1 *239:Y *102:10 17.2107 
2 *102:10 *241:B 13.8 
3 *102:10 *243:A 17.6036 
*END

*D_NET *103 0.00166337
*CONN
*I *243:B I *D sky130_fd_sc_hd__nand2_1
*I *242:B I *D sky130_fd_sc_hd__nand2_1
*I *249:A I *D sky130_fd_sc_hd__nand2_1
*I *241:Y O *D sky130_fd_sc_hd__nand2_1
*CAP
1 *243:B 4.50602e-05
2 *242:B 0
3 *249:A 0.000175834
4 *241:Y 9.34703e-05
5 *103:16 0.000442984
6 *103:10 0.00040568
7 *243:B *122:12 3.59351e-05
8 *249:A *244:A 2.23393e-05
9 *103:10 *122:12 3.75868e-05
10 *103:16 *245:A 6.85548e-05
11 *103:16 *249:B 2.13481e-06
12 *242:A *103:16 0.000201854
13 *243:A *243:B 3.90603e-05
14 *243:A *103:10 3.54498e-05
15 *245:B *249:A 1.37298e-05
16 *247:A *249:A 3.93691e-05
17 *83:8 *103:16 4.3304e-06
*RES
1 *241:Y *103:10 15.3714 
2 *103:10 *103:16 8.53571 
3 *103:16 *249:A 21.4964 
4 *103:16 *242:B 9.3 
5 *103:10 *243:B 14.8357 
*END

*D_NET *104 0.00101
*CONN
*I *244:A I *D sky130_fd_sc_hd__nand2_1
*I *242:Y O *D sky130_fd_sc_hd__nand2_1
*CAP
1 *244:A 0.000482103
2 *242:Y 0.000482103
3 *243:A *244:A 2.83284e-06
4 *245:B *244:A 2.06178e-05
5 *249:A *244:A 2.23393e-05
*RES
1 *242:Y *244:A 35.8133 
*END

*D_NET *105 0.000289704
*CONN
*I *162:A I *D sky130_fd_sc_hd__inv_1
*I *161:Y O *D sky130_fd_sc_hd__nand2_1
*CAP
1 *162:A 9.66848e-05
2 *161:Y 9.66848e-05
3 *7:13 *162:A 6.56976e-05
4 *7:33 *162:A 3.06366e-05
*RES
1 *161:Y *162:A 29.4795 
*END

*D_NET *106 0.00022304
*CONN
*I *244:B I *D sky130_fd_sc_hd__nand2_1
*I *243:Y O *D sky130_fd_sc_hd__nand2_1
*CAP
1 *244:B 6.27359e-05
2 *243:Y 6.27359e-05
3 *244:B *245:A 9.75679e-05
*RES
1 *243:Y *244:B 19.975 
*END

*D_NET *107 0.00079705
*CONN
*I *246:A I *D sky130_fd_sc_hd__nand2_1
*I *245:A I *D sky130_fd_sc_hd__nand2_1
*I *244:Y O *D sky130_fd_sc_hd__nand2_1
*CAP
1 *246:A 0.000128685
2 *245:A 0.000166289
3 *244:Y 0.000294974
4 *245:A *249:B 6.05161e-06
5 *245:A *108:23 3.19235e-05
6 *242:A *245:A 0
7 *244:B *245:A 9.75679e-05
8 *245:B *245:A 3.00355e-06
9 *103:16 *245:A 6.85548e-05
*RES
1 *244:Y *245:A 22.0464 
2 *244:Y *246:A 29.2429 
*END

*D_NET *108 0.00151944
*CONN
*I *247:B I *D sky130_fd_sc_hd__nand2_1
*I *246:B I *D sky130_fd_sc_hd__nand2_1
*I *249:B I *D sky130_fd_sc_hd__nand2_1
*I *245:Y O *D sky130_fd_sc_hd__nand2_1
*CAP
1 *247:B 3.99522e-05
2 *246:B 0.000259033
3 *249:B 0.0001138
4 *245:Y 0
5 *108:23 0.000434624
6 *108:4 0.000249438
7 *246:B *248:A 0.000109549
8 *246:B *248:B 3.4689e-05
9 *246:B *111:10 1.62025e-05
10 *247:B *122:12 2.37944e-05
11 *249:B *122:12 0.000120553
12 *108:23 *122:12 3.54498e-05
13 *242:A *249:B 2.51343e-06
14 *245:A *249:B 6.05161e-06
15 *245:A *108:23 3.19235e-05
16 *245:B *249:B 4.27842e-06
17 *247:A *249:B 3.54498e-05
18 *103:16 *249:B 2.13481e-06
*RES
1 *245:Y *108:4 9.3 
2 *108:4 *249:B 20.4339 
3 *108:4 *108:23 6.48214 
4 *108:23 *246:B 17.5321 
5 *108:23 *247:B 14.5321 
*END

*D_NET *109 0.000242266
*CONN
*I *248:A I *D sky130_fd_sc_hd__nand2_1
*I *246:Y O *D sky130_fd_sc_hd__nand2_1
*CAP
1 *248:A 3.81248e-05
2 *246:Y 3.81248e-05
3 *248:A *248:B 5.46383e-06
4 *248:A *111:10 5.10039e-05
5 *246:B *248:A 0.000109549
*RES
1 *246:Y *248:A 19.975 
*END

*D_NET *110 0.000229235
*CONN
*I *248:B I *D sky130_fd_sc_hd__nand2_1
*I *247:Y O *D sky130_fd_sc_hd__nand2_1
*CAP
1 *248:B 8.58931e-05
2 *247:Y 8.58931e-05
3 *246:B *248:B 3.4689e-05
4 *247:A *248:B 1.72964e-05
5 *248:A *248:B 5.46383e-06
*RES
1 *247:Y *248:B 20.3857 
*END

*D_NET *111 0.000752524
*CONN
*I *266:A I *D sky130_fd_sc_hd__and2_1
*I *265:A I *D sky130_fd_sc_hd__xor2_1
*I *248:Y O *D sky130_fd_sc_hd__nand2_1
*CAP
1 *266:A 8.70636e-05
2 *265:A 0
3 *248:Y 0.000200691
4 *111:10 0.000287754
5 *266:A *266:B 9.21958e-05
6 *111:10 *266:B 1.76135e-05
7 *111:10 *122:12 0
8 p[4] *266:A 0
9 p[4] *111:10 0
10 *246:B *111:10 1.62025e-05
11 *248:A *111:10 5.10039e-05
*RES
1 *248:Y *111:10 17.7107 
2 *111:10 *265:A 13.8 
3 *111:10 *266:A 16.05 
*END

*D_NET *112 0.00249455
*CONN
*I *269:A I *D sky130_fd_sc_hd__nand2_1
*I *267:B I *D sky130_fd_sc_hd__nand2_1
*I *249:Y O *D sky130_fd_sc_hd__nand2_1
*CAP
1 *269:A 0.000280585
2 *267:B 0.000455957
3 *249:Y 0.000264198
4 *112:8 0.00100074
5 *112:8 *266:B 0
6 *112:8 *122:12 6.97972e-05
7 p[5] *269:A 0
8 p[5] *112:8 0
9 *165:A *112:8 0
10 *270:A *267:B 3.41517e-06
11 *272:B *267:B 0.000160291
12 *20:6 *267:B 9.99644e-06
13 *24:6 *267:B 4.35597e-05
14 *25:8 *267:B 0.000184323
15 *29:14 *267:B 2.1692e-05
*RES
1 *249:Y *112:8 18.7821 
2 *112:8 *267:B 20.3 
3 *112:8 *269:A 18.3357 
*END

*D_NET *113 0.0027707
*CONN
*I *254:B I *D sky130_fd_sc_hd__and2_1
*I *253:B I *D sky130_fd_sc_hd__xor2_1
*I *252:X O *D sky130_fd_sc_hd__and2_1
*CAP
1 *254:B 0.000125492
2 *253:B 0
3 *252:X 0.000774137
4 *113:12 0.000899629
5 *254:B *259:B 3.99614e-06
6 *254:B *261:B 0
7 p[2] *254:B 2.84026e-05
8 *202:B *113:12 2.79421e-05
9 *203:A *113:12 0
10 *204:A *113:12 0.000260954
11 *204:B *113:12 1.10868e-05
12 *206:B *113:12 0.000115142
13 *218:A *113:12 2.92014e-05
14 *254:A *254:B 0.000186765
15 *254:A *113:12 1.64621e-05
16 *38:8 *113:12 1.53439e-06
17 *68:6 *113:12 9.80173e-05
18 *72:8 *113:12 0.000191933
*RES
1 *252:X *113:12 20.675 
2 *113:12 *253:B 9.3 
3 *113:12 *254:B 12.3179 
*END

*D_NET *114 0.000328575
*CONN
*I *259:B I *D sky130_fd_sc_hd__nand2_1
*I *261:A I *D sky130_fd_sc_hd__nand2_1
*I *254:X O *D sky130_fd_sc_hd__and2_1
*CAP
1 *259:B 0.000101493
2 *261:A 0
3 *254:X 2.8673e-05
4 *114:6 0.000130166
5 *259:B *259:A 5.7661e-06
6 *259:B *260:B 1.04232e-05
7 *259:B *261:B 4.80569e-05
8 *254:B *259:B 3.99614e-06
*RES
1 *254:X *114:6 9.83571 
2 *114:6 *261:A 9.3 
3 *114:6 *259:B 11.5143 
*END

*D_NET *115 0.000970536
*CONN
*I *256:B I *D sky130_fd_sc_hd__nand2_1
*I *257:B I *D sky130_fd_sc_hd__nand2_1
*I *264:A I *D sky130_fd_sc_hd__nand2_1
*I *255:Y O *D sky130_fd_sc_hd__nand2_1
*CAP
1 *256:B 4.30497e-05
2 *257:B 0
3 *264:A 1.78173e-05
4 *255:Y 0.000141614
5 *115:12 5.17256e-05
6 *115:8 0.000218572
7 *256:B *122:12 7.80929e-05
8 *115:12 *264:B 4.1331e-06
9 *115:12 *122:12 5.80706e-06
10 *255:A *115:8 1.00073e-05
11 *256:A *256:B 0.000153047
12 *256:A *115:12 8.15095e-05
13 *257:A *115:8 9.80173e-05
14 *73:12 *264:A 5.71472e-05
15 *73:12 *115:8 9.99644e-06
*RES
1 *255:Y *115:8 15.5679 
2 *115:8 *115:12 5.53571 
3 *115:12 *264:A 9.83571 
4 *115:12 *257:B 9.3 
5 *115:8 *256:B 15.7464 
*END

*D_NET *116 0.00088309
*CONN
*I *258:A I *D sky130_fd_sc_hd__nand2_1
*I *256:Y O *D sky130_fd_sc_hd__nand2_1
*CAP
1 *258:A 0.000323199
2 *256:Y 0.000323199
3 *258:A *258:B 8.00806e-05
4 *258:A *264:B 0
5 *256:A *258:A 0.000109414
6 *101:12 *258:A 4.71964e-05
*RES
1 *256:Y *258:A 32.6179 
*END

*D_NET *117 0.000469503
*CONN
*I *258:B I *D sky130_fd_sc_hd__nand2_1
*I *257:Y O *D sky130_fd_sc_hd__nand2_1
*CAP
1 *258:B 0.000157963
2 *257:Y 0.000157963
3 *258:B *259:A 7.43578e-06
4 *258:B *260:A 3.99614e-06
5 *258:B *260:B 5.7661e-06
6 *258:B *264:B 0
7 *258:B *118:6 5.62995e-05
8 *258:A *258:B 8.00806e-05
*RES
1 *257:Y *258:B 30.85 
*END

*D_NET *118 0.000444316
*CONN
*I *260:A I *D sky130_fd_sc_hd__nand2_1
*I *259:A I *D sky130_fd_sc_hd__nand2_1
*I *258:Y O *D sky130_fd_sc_hd__nand2_1
*CAP
1 *260:A 1.06417e-05
2 *259:A 0.000102118
3 *258:Y 3.38818e-05
4 *118:6 0.000146641
5 *259:A *260:B 6.20656e-05
6 *259:A *261:B 9.7049e-06
7 *260:A *260:B 5.7661e-06
8 *258:B *259:A 7.43578e-06
9 *258:B *260:A 3.99614e-06
10 *258:B *118:6 5.62995e-05
11 *259:B *259:A 5.7661e-06
*RES
1 *258:Y *118:6 10.2464 
2 *118:6 *259:A 11.4964 
3 *118:6 *260:A 9.72857 
*END

*D_NET *119 0.000663821
*CONN
*I *264:B I *D sky130_fd_sc_hd__nand2_1
*I *260:B I *D sky130_fd_sc_hd__nand2_1
*I *261:B I *D sky130_fd_sc_hd__nand2_1
*I *259:Y O *D sky130_fd_sc_hd__nand2_1
*CAP
1 *264:B 0.000103285
2 *260:B 9.86271e-05
3 *261:B 5.7041e-05
4 *259:Y 5.7041e-05
5 *119:18 0.000201912
6 *254:B *261:B 0
7 *256:A *264:B 0
8 *258:A *264:B 0
9 *258:B *260:B 5.7661e-06
10 *258:B *264:B 0
11 *259:A *260:B 6.20656e-05
12 *259:A *261:B 9.7049e-06
13 *259:B *260:B 1.04232e-05
14 *259:B *261:B 4.80569e-05
15 *260:A *260:B 5.7661e-06
16 *115:12 *264:B 4.1331e-06
*RES
1 *259:Y *261:B 19.975 
2 *259:Y *119:18 9.3 
3 *119:18 *260:B 11.5143 
4 *119:18 *264:B 19.9429 
*END

*D_NET *120 0.000485787
*CONN
*I *263:A I *D sky130_fd_sc_hd__nand2_1
*I *260:Y O *D sky130_fd_sc_hd__nand2_1
*CAP
1 *263:A 0.000242894
2 *260:Y 0.000242894
3 *263:A *263:B 0
*RES
1 *260:Y *263:A 31.725 
*END

*D_NET *121 0.00022349
*CONN
*I *263:B I *D sky130_fd_sc_hd__nand2_1
*I *261:Y O *D sky130_fd_sc_hd__nand2_1
*CAP
1 *263:B 0.000111745
2 *261:Y 0.000111745
3 *263:A *263:B 0
*RES
1 *261:Y *263:B 29.5464 
*END

*D_NET *122 0.00304376
*CONN
*I *265:B I *D sky130_fd_sc_hd__xor2_1
*I *266:B I *D sky130_fd_sc_hd__and2_1
*I *264:Y O *D sky130_fd_sc_hd__nand2_1
*CAP
1 *265:B 3.08129e-05
2 *266:B 0.000103212
3 *264:Y 0.000927196
4 *122:12 0.00106122
5 *239:A *122:12 0
6 *239:B *122:12 0.00015244
7 *242:A *122:12 0.000171492
8 *243:B *122:12 3.59351e-05
9 *245:B *122:12 1.82312e-05
10 *247:B *122:12 2.37944e-05
11 *249:B *122:12 0.000120553
12 *256:B *122:12 7.80929e-05
13 *266:A *266:B 9.21958e-05
14 *94:21 *122:12 0
15 *101:12 *122:12 0
16 *102:10 *122:12 6.23278e-05
17 *103:10 *122:12 3.75868e-05
18 *108:23 *122:12 3.54498e-05
19 *111:10 *266:B 1.76135e-05
20 *111:10 *122:12 0
21 *112:8 *266:B 0
22 *112:8 *122:12 6.97972e-05
23 *115:12 *122:12 5.80706e-06
*RES
1 *264:Y *122:12 37.1036 
2 *122:12 *266:B 20.8536 
3 *122:12 *265:B 9.83571 
*END
