*SPEF "ieee 1481-1999"
*DESIGN "m8_array_nand9"
*DATE "16:22:08 Sunday September 06, 2026"
*VENDOR "The OpenROAD Project"
*PROGRAM "OpenROAD"
*VERSION "dcf36133a369abc8f3c5e5738cd4d82e4903c0e0"
*DESIGN_FLOW "NAME_SCOPE LOCAL" "PIN_CAP NONE"
*DIVIDER /
*DELIMITER :
*BUS_DELIMITER []
*T_UNIT 1 NS
*C_UNIT 1 PF
*R_UNIT 1 OHM
*L_UNIT 1 HENRY

*NAME_MAP
*3 a[0]
*4 a[1]
*5 a[2]
*6 a[3]
*7 a[4]
*8 a[5]
*9 a[6]
*10 a[7]
*11 b[0]
*12 b[1]
*13 b[2]
*14 b[3]
*15 b[4]
*16 b[5]
*17 b[6]
*18 b[7]
*19 p[0]
*20 p[10]
*21 p[11]
*22 p[12]
*23 p[13]
*24 p[14]
*25 p[15]
*26 p[1]
*27 p[2]
*28 p[3]
*29 p[4]
*30 p[5]
*31 p[6]
*32 p[7]
*33 p[8]
*34 p[9]
*35 n100
*36 n101
*37 n102
*38 n103
*39 n104
*40 n105
*41 n106
*42 n107
*43 n108
*44 n109
*45 n110
*46 n111
*47 n112
*48 n113
*49 n114
*50 n115
*51 n116
*52 n117
*53 n118
*54 n119
*55 n120
*56 n121
*57 n122
*58 n123
*59 n124
*60 n125
*61 n126
*62 n127
*63 n128
*64 n129
*65 n130
*66 n131
*67 n132
*68 n133
*69 n134
*70 n135
*71 n136
*72 n137
*73 n138
*74 n139
*75 n140
*76 n141
*77 n142
*78 n143
*79 n144
*80 n145
*81 n146
*82 n148
*83 n149
*84 n150
*85 n151
*86 n152
*87 n153
*88 n154
*89 n155
*90 n156
*91 n157
*92 n158
*93 n159
*94 n16
*95 n160
*96 n161
*97 n162
*98 n163
*99 n164
*100 n165
*101 n166
*102 n167
*103 n168
*104 n169
*105 n170
*106 n171
*107 n172
*108 n173
*109 n174
*110 n175
*111 n176
*112 n177
*113 n178
*114 n179
*115 n18
*116 n180
*117 n181
*118 n182
*119 n183
*120 n184
*121 n185
*122 n186
*123 n187
*124 n188
*125 n189
*126 n19
*127 n190
*128 n191
*129 n192
*130 n193
*131 n194
*132 n195
*133 n196
*134 n197
*135 n198
*136 n199
*137 n20
*138 n200
*139 n201
*140 n202
*141 n203
*142 n204
*143 n205
*144 n206
*145 n207
*146 n208
*147 n209
*148 n21
*149 n210
*150 n212
*151 n213
*152 n214
*153 n215
*154 n216
*155 n217
*156 n218
*157 n219
*158 n22
*159 n220
*160 n221
*161 n222
*162 n223
*163 n224
*164 n225
*165 n226
*166 n227
*167 n228
*168 n229
*169 n23
*170 n230
*171 n231
*172 n232
*173 n233
*174 n234
*175 n235
*176 n236
*177 n237
*178 n238
*179 n239
*180 n24
*181 n240
*182 n241
*183 n242
*184 n243
*185 n244
*186 n245
*187 n246
*188 n247
*189 n248
*190 n249
*191 n25
*192 n250
*193 n251
*194 n252
*195 n253
*196 n254
*197 n255
*198 n256
*199 n257
*200 n258
*201 n259
*202 n26
*203 n260
*204 n261
*205 n262
*206 n263
*207 n264
*208 n265
*209 n266
*210 n267
*211 n268
*212 n269
*213 n27
*214 n270
*215 n271
*216 n272
*217 n273
*218 n274
*219 n275
*220 n276
*221 n277
*222 n278
*223 n28
*224 n280
*225 n281
*226 n282
*227 n283
*228 n284
*229 n285
*230 n286
*231 n287
*232 n288
*233 n289
*234 n29
*235 n290
*236 n291
*237 n292
*238 n293
*239 n294
*240 n295
*241 n296
*242 n297
*243 n298
*244 n299
*245 n30
*246 n300
*247 n301
*248 n302
*249 n303
*250 n304
*251 n305
*252 n306
*253 n307
*254 n308
*255 n309
*256 n31
*257 n310
*258 n311
*259 n312
*260 n313
*261 n314
*262 n315
*263 n316
*264 n317
*265 n318
*266 n319
*267 n32
*268 n320
*269 n321
*270 n322
*271 n323
*272 n324
*273 n325
*274 n326
*275 n327
*276 n328
*277 n329
*278 n33
*279 n330
*280 n331
*281 n332
*282 n333
*283 n334
*284 n335
*285 n336
*286 n337
*287 n338
*288 n339
*289 n34
*290 n340
*291 n341
*292 n342
*293 n343
*294 n344
*295 n345
*296 n346
*297 n348
*298 n349
*299 n35
*300 n350
*301 n351
*302 n352
*303 n353
*304 n354
*305 n355
*306 n356
*307 n357
*308 n358
*309 n359
*310 n36
*311 n360
*312 n361
*313 n362
*314 n363
*315 n364
*316 n365
*317 n366
*318 n367
*319 n368
*320 n369
*321 n37
*322 n370
*323 n371
*324 n372
*325 n373
*326 n374
*327 n375
*328 n376
*329 n377
*330 n378
*331 n379
*332 n38
*333 n380
*334 n381
*335 n382
*336 n383
*337 n384
*338 n385
*339 n386
*340 n387
*341 n388
*342 n389
*343 n39
*344 n390
*345 n391
*346 n392
*347 n393
*348 n394
*349 n395
*350 n396
*351 n397
*352 n398
*353 n399
*354 n40
*355 n400
*356 n401
*357 n402
*358 n403
*359 n404
*360 n405
*361 n406
*362 n407
*363 n408
*364 n409
*365 n41
*366 n410
*367 n411
*368 n412
*369 n413
*370 n414
*371 n416
*372 n417
*373 n418
*374 n419
*375 n42
*376 n420
*377 n421
*378 n422
*379 n423
*380 n424
*381 n425
*382 n426
*383 n427
*384 n428
*385 n429
*386 n43
*387 n430
*388 n431
*389 n432
*390 n433
*391 n434
*392 n435
*393 n436
*394 n437
*395 n438
*396 n439
*397 n44
*398 n440
*399 n441
*400 n442
*401 n443
*402 n444
*403 n445
*404 n446
*405 n447
*406 n448
*407 n449
*408 n45
*409 n450
*410 n451
*411 n452
*412 n453
*413 n454
*414 n455
*415 n456
*416 n457
*417 n458
*418 n459
*419 n46
*420 n460
*421 n461
*422 n462
*423 n463
*424 n464
*425 n465
*426 n466
*427 n467
*428 n468
*429 n469
*430 n47
*431 n470
*432 n471
*433 n472
*434 n473
*435 n474
*436 n475
*437 n476
*438 n477
*439 n478
*440 n479
*441 n48
*442 n480
*443 n481
*444 n482
*445 n484
*446 n485
*447 n486
*448 n487
*449 n488
*450 n489
*451 n49
*452 n490
*453 n491
*454 n492
*455 n493
*456 n494
*457 n495
*458 n496
*459 n497
*460 n498
*461 n499
*462 n50
*463 n500
*464 n501
*465 n502
*466 n503
*467 n504
*468 n505
*469 n506
*470 n507
*471 n508
*472 n509
*473 n51
*474 n510
*475 n511
*476 n512
*477 n513
*478 n514
*479 n515
*480 n516
*481 n517
*482 n518
*483 n519
*484 n52
*485 n520
*486 n521
*487 n522
*488 n523
*489 n524
*490 n525
*491 n526
*492 n527
*493 n528
*494 n529
*495 n53
*496 n530
*497 n531
*498 n532
*499 n533
*500 n534
*501 n535
*502 n536
*503 n537
*504 n538
*505 n539
*506 n54
*507 n540
*508 n541
*509 n542
*510 n543
*511 n544
*512 n545
*513 n546
*514 n547
*515 n548
*516 n549
*517 n55
*518 n550
*519 n552
*520 n553
*521 n554
*522 n555
*523 n556
*524 n557
*525 n558
*526 n559
*527 n56
*528 n561
*529 n562
*530 n563
*531 n564
*532 n565
*533 n566
*534 n567
*535 n568
*536 n57
*537 n570
*538 n571
*539 n572
*540 n573
*541 n574
*542 n575
*543 n576
*544 n577
*545 n579
*546 n58
*547 n580
*548 n581
*549 n582
*550 n583
*551 n584
*552 n585
*553 n586
*554 n588
*555 n589
*556 n59
*557 n590
*558 n591
*559 n592
*560 n593
*561 n594
*562 n595
*563 n597
*564 n598
*565 n599
*566 n60
*567 n600
*568 n601
*569 n602
*570 n603
*571 n604
*572 n606
*573 n607
*574 n608
*575 n609
*576 n61
*577 n610
*578 n611
*579 n612
*580 n613
*581 n62
*582 n63
*583 n64
*584 n65
*585 n66
*586 n67
*587 n68
*588 n69
*589 n70
*590 n71
*591 n72
*592 n73
*593 n74
*594 n75
*595 n76
*596 n77
*597 n78
*598 n79
*599 n80
*600 n81
*601 n82
*602 n83
*603 n84
*604 n85
*605 n86
*606 n87
*607 n88
*608 n89
*609 n90
*610 n91
*611 n92
*612 n93
*613 n94
*614 n95
*615 n96
*616 n97
*617 n98
*618 n99
*619 PHY_EDGE_ROW_0_Left_27
*620 PHY_EDGE_ROW_0_Right_0
*621 PHY_EDGE_ROW_10_Left_37
*622 PHY_EDGE_ROW_10_Right_10
*623 PHY_EDGE_ROW_11_Left_38
*624 PHY_EDGE_ROW_11_Right_11
*625 PHY_EDGE_ROW_12_Left_39
*626 PHY_EDGE_ROW_12_Right_12
*627 PHY_EDGE_ROW_13_Left_40
*628 PHY_EDGE_ROW_13_Right_13
*629 PHY_EDGE_ROW_14_Left_41
*630 PHY_EDGE_ROW_14_Right_14
*631 PHY_EDGE_ROW_15_Left_42
*632 PHY_EDGE_ROW_15_Right_15
*633 PHY_EDGE_ROW_16_Left_43
*634 PHY_EDGE_ROW_16_Right_16
*635 PHY_EDGE_ROW_17_Left_44
*636 PHY_EDGE_ROW_17_Right_17
*637 PHY_EDGE_ROW_18_Left_45
*638 PHY_EDGE_ROW_18_Right_18
*639 PHY_EDGE_ROW_19_Left_46
*640 PHY_EDGE_ROW_19_Right_19
*641 PHY_EDGE_ROW_1_Left_28
*642 PHY_EDGE_ROW_1_Right_1
*643 PHY_EDGE_ROW_20_Left_47
*644 PHY_EDGE_ROW_20_Right_20
*645 PHY_EDGE_ROW_21_Left_48
*646 PHY_EDGE_ROW_21_Right_21
*647 PHY_EDGE_ROW_22_Left_49
*648 PHY_EDGE_ROW_22_Right_22
*649 PHY_EDGE_ROW_23_Left_50
*650 PHY_EDGE_ROW_23_Right_23
*651 PHY_EDGE_ROW_24_Left_51
*652 PHY_EDGE_ROW_24_Right_24
*653 PHY_EDGE_ROW_25_Left_52
*654 PHY_EDGE_ROW_25_Right_25
*655 PHY_EDGE_ROW_26_Left_53
*656 PHY_EDGE_ROW_26_Right_26
*657 PHY_EDGE_ROW_2_Left_29
*658 PHY_EDGE_ROW_2_Right_2
*659 PHY_EDGE_ROW_3_Left_30
*660 PHY_EDGE_ROW_3_Right_3
*661 PHY_EDGE_ROW_4_Left_31
*662 PHY_EDGE_ROW_4_Right_4
*663 PHY_EDGE_ROW_5_Left_32
*664 PHY_EDGE_ROW_5_Right_5
*665 PHY_EDGE_ROW_6_Left_33
*666 PHY_EDGE_ROW_6_Right_6
*667 PHY_EDGE_ROW_7_Left_34
*668 PHY_EDGE_ROW_7_Right_7
*669 PHY_EDGE_ROW_8_Left_35
*670 PHY_EDGE_ROW_8_Right_8
*671 PHY_EDGE_ROW_9_Left_36
*672 PHY_EDGE_ROW_9_Right_9
*673 TAP_TAPCELL_ROW_0_54
*674 TAP_TAPCELL_ROW_0_55
*675 TAP_TAPCELL_ROW_0_56
*676 TAP_TAPCELL_ROW_0_57
*677 TAP_TAPCELL_ROW_0_58
*678 TAP_TAPCELL_ROW_10_81
*679 TAP_TAPCELL_ROW_10_82
*680 TAP_TAPCELL_ROW_10_83
*681 TAP_TAPCELL_ROW_11_84
*682 TAP_TAPCELL_ROW_11_85
*683 TAP_TAPCELL_ROW_12_86
*684 TAP_TAPCELL_ROW_12_87
*685 TAP_TAPCELL_ROW_12_88
*686 TAP_TAPCELL_ROW_13_89
*687 TAP_TAPCELL_ROW_13_90
*688 TAP_TAPCELL_ROW_14_91
*689 TAP_TAPCELL_ROW_14_92
*690 TAP_TAPCELL_ROW_14_93
*691 TAP_TAPCELL_ROW_15_94
*692 TAP_TAPCELL_ROW_15_95
*693 TAP_TAPCELL_ROW_16_96
*694 TAP_TAPCELL_ROW_16_97
*695 TAP_TAPCELL_ROW_16_98
*696 TAP_TAPCELL_ROW_17_100
*697 TAP_TAPCELL_ROW_17_99
*698 TAP_TAPCELL_ROW_18_101
*699 TAP_TAPCELL_ROW_18_102
*700 TAP_TAPCELL_ROW_18_103
*701 TAP_TAPCELL_ROW_19_104
*702 TAP_TAPCELL_ROW_19_105
*703 TAP_TAPCELL_ROW_1_59
*704 TAP_TAPCELL_ROW_1_60
*705 TAP_TAPCELL_ROW_20_106
*706 TAP_TAPCELL_ROW_20_107
*707 TAP_TAPCELL_ROW_20_108
*708 TAP_TAPCELL_ROW_21_109
*709 TAP_TAPCELL_ROW_21_110
*710 TAP_TAPCELL_ROW_22_111
*711 TAP_TAPCELL_ROW_22_112
*712 TAP_TAPCELL_ROW_22_113
*713 TAP_TAPCELL_ROW_23_114
*714 TAP_TAPCELL_ROW_23_115
*715 TAP_TAPCELL_ROW_24_116
*716 TAP_TAPCELL_ROW_24_117
*717 TAP_TAPCELL_ROW_24_118
*718 TAP_TAPCELL_ROW_25_119
*719 TAP_TAPCELL_ROW_25_120
*720 TAP_TAPCELL_ROW_26_121
*721 TAP_TAPCELL_ROW_26_122
*722 TAP_TAPCELL_ROW_26_123
*723 TAP_TAPCELL_ROW_26_124
*724 TAP_TAPCELL_ROW_26_125
*725 TAP_TAPCELL_ROW_2_61
*726 TAP_TAPCELL_ROW_2_62
*727 TAP_TAPCELL_ROW_2_63
*728 TAP_TAPCELL_ROW_3_64
*729 TAP_TAPCELL_ROW_3_65
*730 TAP_TAPCELL_ROW_4_66
*731 TAP_TAPCELL_ROW_4_67
*732 TAP_TAPCELL_ROW_4_68
*733 TAP_TAPCELL_ROW_5_69
*734 TAP_TAPCELL_ROW_5_70
*735 TAP_TAPCELL_ROW_6_71
*736 TAP_TAPCELL_ROW_6_72
*737 TAP_TAPCELL_ROW_6_73
*738 TAP_TAPCELL_ROW_7_74
*739 TAP_TAPCELL_ROW_7_75
*740 TAP_TAPCELL_ROW_8_76
*741 TAP_TAPCELL_ROW_8_77
*742 TAP_TAPCELL_ROW_8_78
*743 TAP_TAPCELL_ROW_9_79
*744 TAP_TAPCELL_ROW_9_80
*745 g0
*746 g1
*747 g10
*748 g100
*749 g101
*750 g102
*751 g103
*752 g104
*753 g105
*754 g106
*755 g107
*756 g108
*757 g109
*758 g11
*759 g110
*760 g111
*761 g112
*762 g113
*763 g114
*764 g115
*765 g116
*766 g117
*767 g118
*768 g119
*769 g12
*770 g120
*771 g121
*772 g122
*773 g123
*774 g124
*775 g125
*776 g126
*777 g127
*778 g128
*779 g129
*780 g13
*781 g130
*782 g131
*783 g132
*784 g133
*785 g134
*786 g135
*787 g136
*788 g137
*789 g138
*790 g139
*791 g14
*792 g140
*793 g141
*794 g142
*795 g143
*796 g144
*797 g145
*798 g146
*799 g147
*800 g148
*801 g149
*802 g15
*803 g150
*804 g151
*805 g152
*806 g153
*807 g154
*808 g155
*809 g156
*810 g157
*811 g158
*812 g159
*813 g16
*814 g160
*815 g161
*816 g162
*817 g163
*818 g164
*819 g165
*820 g166
*821 g167
*822 g168
*823 g169
*824 g17
*825 g170
*826 g171
*827 g172
*828 g173
*829 g174
*830 g175
*831 g176
*832 g177
*833 g178
*834 g179
*835 g18
*836 g180
*837 g181
*838 g182
*839 g183
*840 g184
*841 g185
*842 g186
*843 g187
*844 g188
*845 g189
*846 g19
*847 g190
*848 g191
*849 g192
*850 g193
*851 g194
*852 g195
*853 g196
*854 g197
*855 g198
*856 g199
*857 g2
*858 g20
*859 g200
*860 g201
*861 g202
*862 g203
*863 g204
*864 g205
*865 g206
*866 g207
*867 g208
*868 g209
*869 g21
*870 g210
*871 g211
*872 g212
*873 g213
*874 g214
*875 g215
*876 g216
*877 g217
*878 g218
*879 g219
*880 g22
*881 g220
*882 g221
*883 g222
*884 g223
*885 g224
*886 g225
*887 g226
*888 g227
*889 g228
*890 g229
*891 g23
*892 g230
*893 g231
*894 g232
*895 g233
*896 g234
*897 g235
*898 g236
*899 g237
*900 g238
*901 g239
*902 g24
*903 g240
*904 g241
*905 g242
*906 g243
*907 g244
*908 g245
*909 g246
*910 g247
*911 g248
*912 g249
*913 g25
*914 g250
*915 g251
*916 g252
*917 g253
*918 g254
*919 g255
*920 g256
*921 g257
*922 g258
*923 g259
*924 g26
*925 g260
*926 g261
*927 g262
*928 g263
*929 g264
*930 g265
*931 g266
*932 g267
*933 g268
*934 g269
*935 g27
*936 g270
*937 g271
*938 g272
*939 g273
*940 g274
*941 g275
*942 g276
*943 g277
*944 g278
*945 g279
*946 g28
*947 g280
*948 g281
*949 g282
*950 g283
*951 g284
*952 g285
*953 g286
*954 g287
*955 g288
*956 g289
*957 g29
*958 g290
*959 g291
*960 g292
*961 g293
*962 g294
*963 g295
*964 g296
*965 g297
*966 g298
*967 g299
*968 g3
*969 g30
*970 g300
*971 g301
*972 g302
*973 g303
*974 g304
*975 g305
*976 g306
*977 g307
*978 g308
*979 g309
*980 g31
*981 g310
*982 g311
*983 g312
*984 g313
*985 g314
*986 g315
*987 g316
*988 g317
*989 g318
*990 g319
*991 g32
*992 g320
*993 g321
*994 g322
*995 g323
*996 g324
*997 g325
*998 g326
*999 g327
*1000 g328
*1001 g329
*1002 g33
*1003 g330
*1004 g331
*1005 g332
*1006 g333
*1007 g334
*1008 g335
*1009 g336
*1010 g337
*1011 g338
*1012 g339
*1013 g34
*1014 g340
*1015 g341
*1016 g342
*1017 g343
*1018 g344
*1019 g345
*1020 g346
*1021 g347
*1022 g348
*1023 g349
*1024 g35
*1025 g350
*1026 g351
*1027 g352
*1028 g353
*1029 g354
*1030 g355
*1031 g356
*1032 g357
*1033 g358
*1034 g359
*1035 g36
*1036 g360
*1037 g361
*1038 g362
*1039 g363
*1040 g364
*1041 g365
*1042 g366
*1043 g367
*1044 g368
*1045 g369
*1046 g37
*1047 g370
*1048 g371
*1049 g372
*1050 g373
*1051 g374
*1052 g375
*1053 g376
*1054 g377
*1055 g378
*1056 g379
*1057 g38
*1058 g380
*1059 g381
*1060 g382
*1061 g383
*1062 g384
*1063 g385
*1064 g386
*1065 g387
*1066 g388
*1067 g389
*1068 g39
*1069 g390
*1070 g391
*1071 g392
*1072 g393
*1073 g394
*1074 g395
*1075 g396
*1076 g397
*1077 g398
*1078 g399
*1079 g4
*1080 g40
*1081 g400
*1082 g401
*1083 g402
*1084 g403
*1085 g404
*1086 g405
*1087 g406
*1088 g407
*1089 g408
*1090 g409
*1091 g41
*1092 g410
*1093 g411
*1094 g412
*1095 g413
*1096 g414
*1097 g415
*1098 g416
*1099 g417
*1100 g418
*1101 g419
*1102 g42
*1103 g420
*1104 g421
*1105 g422
*1106 g423
*1107 g424
*1108 g425
*1109 g426
*1110 g427
*1111 g428
*1112 g429
*1113 g43
*1114 g430
*1115 g431
*1116 g432
*1117 g433
*1118 g434
*1119 g435
*1120 g436
*1121 g437
*1122 g438
*1123 g439
*1124 g44
*1125 g440
*1126 g441
*1127 g442
*1128 g443
*1129 g444
*1130 g445
*1131 g446
*1132 g447
*1133 g448
*1134 g449
*1135 g45
*1136 g450
*1137 g451
*1138 g452
*1139 g453
*1140 g454
*1141 g455
*1142 g456
*1143 g457
*1144 g458
*1145 g459
*1146 g46
*1147 g460
*1148 g461
*1149 g462
*1150 g463
*1151 g464
*1152 g465
*1153 g466
*1154 g467
*1155 g468
*1156 g469
*1157 g47
*1158 g470
*1159 g471
*1160 g472
*1161 g473
*1162 g474
*1163 g475
*1164 g476
*1165 g477
*1166 g478
*1167 g479
*1168 g48
*1169 g480
*1170 g481
*1171 g482
*1172 g483
*1173 g484
*1174 g485
*1175 g486
*1176 g487
*1177 g488
*1178 g489
*1179 g49
*1180 g490
*1181 g491
*1182 g492
*1183 g493
*1184 g494
*1185 g495
*1186 g496
*1187 g497
*1188 g498
*1189 g499
*1190 g5
*1191 g50
*1192 g500
*1193 g501
*1194 g502
*1195 g503
*1196 g504
*1197 g505
*1198 g506
*1199 g507
*1200 g508
*1201 g509
*1202 g51
*1203 g510
*1204 g511
*1205 g512
*1206 g513
*1207 g514
*1208 g515
*1209 g516
*1210 g517
*1211 g518
*1212 g519
*1213 g52
*1214 g520
*1215 g521
*1216 g522
*1217 g523
*1218 g524
*1219 g525
*1220 g526
*1221 g527
*1222 g528
*1223 g529
*1224 g53
*1225 g530
*1226 g531
*1227 g532
*1228 g533
*1229 g534
*1230 g535
*1231 g536
*1232 g537
*1233 g538
*1234 g539
*1235 g54
*1236 g540
*1237 g541
*1238 g542
*1239 g543
*1240 g544
*1241 g545
*1242 g546
*1243 g547
*1244 g548
*1245 g549
*1246 g55
*1247 g550
*1248 g551
*1249 g552
*1250 g553
*1251 g554
*1252 g555
*1253 g556
*1254 g557
*1255 g558
*1256 g559
*1257 g56
*1258 g560
*1259 g561
*1260 g562
*1261 g563
*1262 g564
*1263 g565
*1264 g566
*1265 g567
*1266 g568
*1267 g569
*1268 g57
*1269 g570
*1270 g571
*1271 g572
*1272 g573
*1273 g574
*1274 g575
*1275 g576
*1276 g577
*1277 g578
*1278 g579
*1279 g58
*1280 g580
*1281 g581
*1282 g582
*1283 g583
*1284 g584
*1285 g585
*1286 g586
*1287 g587
*1288 g588
*1289 g589
*1290 g59
*1291 g590
*1292 g591
*1293 g592
*1294 g593
*1295 g594
*1296 g595
*1297 g596
*1298 g597
*1299 g598
*1300 g599
*1301 g6
*1302 g60
*1303 g61
*1304 g62
*1305 g63
*1306 g64
*1307 g65
*1308 g66
*1309 g67
*1310 g68
*1311 g69
*1312 g7
*1313 g70
*1314 g71
*1315 g72
*1316 g73
*1317 g74
*1318 g75
*1319 g76
*1320 g77
*1321 g78
*1322 g79
*1323 g8
*1324 g80
*1325 g81
*1326 g82
*1327 g83
*1328 g84
*1329 g85
*1330 g86
*1331 g87
*1332 g88
*1333 g89
*1334 g9
*1335 g90
*1336 g91
*1337 g92
*1338 g93
*1339 g94
*1340 g95
*1341 g96
*1342 g97
*1343 g98
*1344 g99

*PORTS
a[0] I
a[1] I
a[2] I
a[3] I
a[4] I
a[5] I
a[6] I
a[7] I
b[0] I
b[1] I
b[2] I
b[3] I
b[4] I
b[5] I
b[6] I
b[7] I
p[0] O
p[10] O
p[11] O
p[12] O
p[13] O
p[14] O
p[15] O
p[1] O
p[2] O
p[3] O
p[4] O
p[5] O
p[6] O
p[7] O
p[8] O
p[9] O

*D_NET *3 0.0107023
*CONN
*P a[0] I
*I *857:A I *D sky130_fd_sc_hd__nand2_1
*I *745:A I *D sky130_fd_sc_hd__nand2_1
*I *791:A I *D sky130_fd_sc_hd__nand2_1
*I *769:A I *D sky130_fd_sc_hd__nand2_1
*I *747:A I *D sky130_fd_sc_hd__nand2_1
*I *1323:A I *D sky130_fd_sc_hd__nand2_1
*I *1301:A I *D sky130_fd_sc_hd__nand2_1
*I *1079:A I *D sky130_fd_sc_hd__nand2_1
*CAP
1 a[0] 0.000806526
2 *857:A 0
3 *745:A 1.1326e-05
4 *791:A 0.000133309
5 *769:A 1.67212e-05
6 *747:A 4.71702e-05
7 *1323:A 6.20453e-05
8 *1301:A 6.70921e-05
9 *1079:A 0
10 *3:99 0.000646548
11 *3:71 0.000763089
12 *3:58 0.00123653
13 *3:45 0.00111819
14 *3:32 0.00112578
15 *3:15 0.000578834
16 *3:13 0.00144175
17 *745:A *746:A 5.52238e-05
18 *745:A *968:A 2.27416e-05
19 *747:A *758:A 6.29133e-05
20 *747:A *4:67 4.9071e-05
21 *747:A *16:34 1.04232e-05
22 *747:A *386:8 0
23 *769:A *780:A 1.04232e-05
24 *769:A *825:A 0
25 *791:A *780:A 3.18676e-05
26 *791:A *791:B 5.04841e-06
27 *1301:A *14:17 2.56694e-05
28 *1323:A *805:A 2.8266e-06
29 *1323:A *15:15 0
30 *1323:A *15:28 4.1331e-06
31 *3:13 p[0] 1.11993e-05
32 *3:13 *5:9 0
33 *3:13 *13:15 0
34 *3:13 *13:25 4.6025e-06
35 *3:32 *1079:B 5.03176e-05
36 *3:32 *1190:A 9.78771e-05
37 *3:32 *4:24 0.000205997
38 *3:32 *4:39 0.000436205
39 *3:32 *13:15 2.6304e-05
40 *3:32 *13:25 6.31312e-05
41 *3:32 *148:10 3.4792e-05
42 *3:45 *4:39 0.000271352
43 *3:45 *4:48 0.000265784
44 *3:58 *4:48 0.000170964
45 *3:58 *4:67 0.000290216
46 *3:71 *780:A 3.85956e-05
47 *3:71 *823:B 2.10515e-05
48 *3:71 *825:A 2.44318e-05
49 *3:71 *935:A 1.34554e-05
50 *3:71 *16:34 3.80953e-06
51 *3:71 *121:8 0.000188586
52 *3:71 *121:10 1.74352e-05
53 *3:71 *234:6 2.61528e-05
54 *3:71 *386:8 7.61109e-05
55 *3:99 *813:B 0
56 *3:99 *857:B 1.90936e-05
57 *3:99 *13:25 9.59532e-06
*RES
1 a[0] *3:13 15.9464 
2 *3:13 *3:15 4.5 
3 *3:15 *1079:A 9.3 
4 *3:15 *3:32 18.8214 
5 *3:32 *1301:A 19.3357 
6 *3:32 *3:45 7.10714 
7 *3:45 *1323:A 19.3357 
8 *3:45 *3:58 8.33929 
9 *3:58 *747:A 10.8714 
10 *3:58 *3:71 8.66071 
11 *3:71 *769:A 9.72857 
12 *3:71 *791:A 11.9071 
13 *3:13 *3:99 12.8574 
14 *3:99 *745:A 9.83571 
15 *3:99 *857:A 9.3 
*END

*D_NET *4 0.0105515
*CONN
*P a[1] I
*I *835:A I *D sky130_fd_sc_hd__nand2_1
*I *924:A I *D sky130_fd_sc_hd__nand2_1
*I *969:A I *D sky130_fd_sc_hd__nand2_1
*I *946:A I *D sky130_fd_sc_hd__nand2_1
*I *902:A I *D sky130_fd_sc_hd__nand2_1
*I *880:A I *D sky130_fd_sc_hd__nand2_1
*I *858:A I *D sky130_fd_sc_hd__nand2_1
*I *813:A I *D sky130_fd_sc_hd__nand2_1
*CAP
1 a[1] 0.000372299
2 *835:A 0.000116467
3 *924:A 0
4 *969:A 0.000394327
5 *946:A 0
6 *902:A 1.99857e-05
7 *880:A 1.99857e-05
8 *858:A 3.46908e-05
9 *813:A 0.000110609
10 *4:73 0.000931719
11 *4:67 0.000891395
12 *4:48 0.000549383
13 *4:39 0.000362225
14 *4:24 0.000597411
15 *4:16 0.000613616
16 *4:5 0.00058418
17 *835:A *813:B 0
18 *835:A *846:A 2.89016e-05
19 *835:A *857:B 8.8364e-05
20 *835:A *5:9 0.000190805
21 *858:A *869:A 4.81894e-05
22 *858:A *13:15 1.8461e-05
23 *880:A *891:A 1.04232e-05
24 *902:A *913:A 1.04232e-05
25 *969:A *791:B 4.46641e-05
26 *969:A *834:A 4.1331e-06
27 *969:A *946:B 0
28 *969:A *957:A 2.27416e-05
29 *969:A *17:33 0
30 *969:A *18:22 3.52572e-05
31 *969:A *408:14 0
32 *4:5 p[1] 0
33 *4:5 *5:9 0.000488918
34 *4:16 *813:B 0
35 *4:16 *5:9 0.000144474
36 *4:24 p[0] 1.66856e-05
37 *4:24 *746:A 0.000112762
38 *4:24 *846:A 2.97126e-05
39 *4:24 *869:A 1.02936e-05
40 *4:24 *1079:B 2.96677e-05
41 *4:24 *1190:A 0.000131519
42 *4:24 *13:15 5.49489e-05
43 *4:24 *13:25 4.35597e-05
44 *4:24 *299:12 1.28192e-05
45 *4:39 *794:A 3.18676e-05
46 *4:39 *794:B 1.98828e-05
47 *4:39 *796:A 1.48401e-05
48 *4:39 *869:A 9.29472e-06
49 *4:39 *880:B 2.28598e-05
50 *4:39 *891:A 1.74352e-05
51 *4:39 *1301:B 2.89016e-05
52 *4:39 *1312:A 0.000151125
53 *4:39 *169:6 1.22159e-05
54 *4:48 *804:A 0.00010096
55 *4:48 *804:B 2.61528e-05
56 *4:48 *806:A 1.95199e-05
57 *4:48 *891:A 5.44341e-05
58 *4:48 *913:A 3.18676e-05
59 *4:48 *1323:B 5.71472e-05
60 *4:48 *1334:A 7.43279e-05
61 *4:48 *15:17 8.57023e-05
62 *4:48 *191:6 2.19064e-05
63 *4:67 *758:A 4.69983e-05
64 *4:67 *816:A 4.14279e-05
65 *4:67 *913:A 5.44341e-05
66 *4:67 *16:21 0.000311108
67 *4:67 *213:6 0.000166679
68 *4:67 *365:6 4.40835e-05
69 *4:73 *924:B 5.71472e-05
70 *4:73 *946:B 0.000144773
71 *4:73 *957:A 1.32552e-05
72 *4:73 *16:21 2.55489e-05
73 *747:A *4:67 4.9071e-05
74 *3:32 *4:24 0.000205997
75 *3:32 *4:39 0.000436205
76 *3:45 *4:39 0.000271352
77 *3:45 *4:48 0.000265784
78 *3:58 *4:48 0.000170964
79 *3:58 *4:67 0.000290216
*RES
1 a[1] *4:5 10.7143 
2 *4:5 *813:A 15.5679 
3 *4:5 *4:16 2.55357 
4 *4:16 *4:24 12.9821 
5 *4:24 *858:A 10.6929 
6 *4:24 *4:39 7.125 
7 *4:39 *880:A 9.72857 
8 *4:39 *4:48 7.51786 
9 *4:48 *902:A 9.72857 
10 *4:48 *4:67 19.7321 
11 *4:67 *4:73 9.19643 
12 *4:73 *946:A 9.3 
13 *4:73 *969:A 25.4607 
14 *4:67 *924:A 9.3 
15 *4:16 *835:A 16.8893 
*END

*D_NET *5 0.0126146
*CONN
*P a[2] I
*I *991:A I *D sky130_fd_sc_hd__nand2_1
*I *1013:A I *D sky130_fd_sc_hd__nand2_1
*I *1080:A I *D sky130_fd_sc_hd__nand2_1
*I *1146:A I *D sky130_fd_sc_hd__nand2_1
*I *1124:A I *D sky130_fd_sc_hd__nand2_1
*I *1102:A I *D sky130_fd_sc_hd__nand2_1
*I *1057:A I *D sky130_fd_sc_hd__nand2_1
*I *1035:A I *D sky130_fd_sc_hd__nand2_1
*CAP
1 a[2] 0.000673811
2 *991:A 0.000187443
3 *1013:A 0
4 *1080:A 6.57729e-05
5 *1146:A 0.000329976
6 *1124:A 0
7 *1102:A 4.92961e-05
8 *1057:A 1.53311e-05
9 *1035:A 0.000475722
10 *5:93 0.000276175
11 *5:56 0.00101175
12 *5:45 0.00137201
13 *5:41 0.00103806
14 *5:28 0.0012449
15 *5:22 0.00112459
16 *5:9 0.00128717
17 *991:A *856:A 3.35774e-05
18 *991:A *859:B 5.66971e-05
19 *991:A *1002:A 2.32837e-06
20 *991:A *1013:B 5.50052e-05
21 *991:A *1024:A 3.11088e-05
22 *1035:A *801:A 0.000141729
23 *1035:A *1035:B 9.79307e-05
24 *1035:A *100:14 1.97756e-05
25 *1057:A *1068:A 1.02301e-05
26 *1080:A *886:B 0
27 *1080:A *888:A 5.49995e-05
28 *1080:A *1091:A 3.11088e-05
29 *1102:A *1113:A 1.02301e-05
30 *1146:A *847:B 5.66971e-05
31 *1146:A *906:A 5.46383e-06
32 *1146:A *1135:A 1.32293e-05
33 *1146:A *1157:A 2.77809e-06
34 *1146:A *18:39 1.12669e-05
35 *1146:A *144:16 7.89362e-05
36 *5:9 p[0] 0.000565629
37 *5:9 *785:A 0
38 *5:9 *787:A 0.000175512
39 *5:9 *846:A 0
40 *5:9 *1079:B 0
41 *5:9 *12:48 0
42 *5:9 *13:46 0
43 *5:9 *299:12 0
44 *5:22 *12:48 0
45 *5:22 *13:46 0
46 *5:28 *856:A 3.22347e-05
47 *5:28 *865:B 0.000143633
48 *5:28 *1024:A 5.50052e-05
49 *5:28 *1046:A 1.37493e-05
50 *5:28 *1057:B 2.85321e-05
51 *5:28 *1068:A 1.62025e-05
52 *5:28 *161:6 1.62025e-05
53 *5:28 *495:6 3.57486e-05
54 *5:41 *875:B 4.34677e-05
55 *5:41 *1068:A 5.36161e-05
56 *5:41 *517:6 3.49632e-05
57 *5:45 *1091:A 4.77002e-05
58 *5:45 *1113:A 1.52013e-05
59 *5:45 *536:10 0.00033664
60 *5:56 *895:B 5.82717e-06
61 *5:56 *896:A 2.12647e-05
62 *5:56 *897:A 3.53022e-06
63 *5:56 *1113:A 2.27495e-05
64 *5:56 *1135:A 2.1652e-05
65 *5:56 *190:8 0.0001871
66 *5:56 *190:14 1.62025e-05
67 *5:93 *1024:A 3.29297e-05
68 *835:A *5:9 0.000190805
69 *3:13 *5:9 0
70 *4:5 *5:9 0.000488918
71 *4:16 *5:9 0.000144474
*RES
1 a[2] *5:9 20.7857 
2 *5:9 *1035:A 21.7464 
3 *5:9 *5:22 2.55357 
4 *5:22 *5:28 19.0179 
5 *5:28 *1057:A 9.72857 
6 *5:28 *5:41 6.32143 
7 *5:41 *5:45 9.26786 
8 *5:45 *1102:A 10.3357 
9 *5:45 *5:56 9.375 
10 *5:56 *1124:A 9.3 
11 *5:56 *1146:A 24.2107 
12 *5:41 *1080:A 11.0857 
13 *5:22 *5:93 5.76786 
14 *5:93 *1013:A 9.3 
15 *5:93 *991:A 13.1571 
*END

*D_NET *6 0.0119058
*CONN
*P a[3] I
*I *1191:A I *D sky130_fd_sc_hd__nand2_1
*I *1304:A I *D sky130_fd_sc_hd__nand2_1
*I *1302:A I *D sky130_fd_sc_hd__nand2_1
*I *1279:A I *D sky130_fd_sc_hd__nand2_1
*I *1257:A I *D sky130_fd_sc_hd__nand2_1
*I *1235:A I *D sky130_fd_sc_hd__nand2_1
*I *1213:A I *D sky130_fd_sc_hd__nand2_1
*I *1168:A I *D sky130_fd_sc_hd__nand2_1
*CAP
1 a[3] 0.000291521
2 *1191:A 0
3 *1304:A 0.000300998
4 *1302:A 0
5 *1279:A 1.79444e-05
6 *1257:A 5.16739e-05
7 *1235:A 7.09829e-05
8 *1213:A 4.19535e-05
9 *1168:A 7.9191e-05
10 *6:82 0.000697373
11 *6:71 0.00100661
12 *6:56 0.00138047
13 *6:45 0.00128693
14 *6:36 0.00111103
15 *6:28 0.00124524
16 *6:5 0.00102631
17 *1168:A *929:A 0
18 *1168:A *1179:A 1.90936e-05
19 *1213:A *1213:B 1.6215e-05
20 *1213:A *1224:A 1.02132e-05
21 *1213:A *13:67 1.6215e-05
22 *1235:A *1246:A 0
23 *1257:A *1268:A 0.000126439
24 *1257:A *15:47 1.00887e-05
25 *1257:A *15:51 0.000140253
26 *1279:A *1290:A 1.04232e-05
27 *1279:A *16:64 5.7661e-06
28 *1304:A *981:A 0.000183713
29 *1304:A *982:A 0.00015134
30 *1304:A *1302:B 5.90995e-05
31 *1304:A *1303:A 1.33343e-05
32 *1304:A *1305:A 0.000103267
33 *1304:A *17:61 2.14757e-05
34 *1304:A *18:50 2.82057e-05
35 *6:5 p[3] 0.000490014
36 *6:28 p[3] 0.000210396
37 *6:28 *928:B 1.25924e-05
38 *6:28 *929:A 0
39 *6:28 *1202:A 3.11088e-05
40 *6:28 *11:37 0.000162944
41 *6:28 *12:42 0.000141935
42 *6:36 *932:A 0.000120893
43 *6:36 *932:B 5.52302e-05
44 *6:36 *943:A 2.54558e-06
45 *6:36 *1202:A 2.04265e-05
46 *6:36 *1224:A 1.48543e-05
47 *6:36 *12:42 0
48 *6:36 *12:46 4.27842e-06
49 *6:36 *13:67 3.28686e-05
50 *6:36 *13:83 5.19959e-05
51 *6:36 *168:16 8.38952e-06
52 *6:36 *586:6 3.4224e-05
53 *6:45 *940:B 8.76257e-05
54 *6:45 *943:A 3.45362e-06
55 *6:45 *1224:A 2.23019e-05
56 *6:45 *235:6 1.32552e-05
57 *6:45 *588:6 0.00012238
58 *6:56 *951:B 1.32552e-05
59 *6:56 *953:A 4.23784e-06
60 *6:56 *960:B 5.74499e-06
61 *6:56 *962:B 3.69047e-06
62 *6:56 *1246:A 3.34639e-05
63 *6:56 *1268:A 0.000102197
64 *6:56 *590:8 0.000117379
65 *6:71 *961:A 2.14658e-05
66 *6:71 *962:B 1.21258e-05
67 *6:71 *1290:A 1.32552e-05
68 *6:71 *16:47 3.67257e-05
69 *6:71 *16:64 3.61629e-06
70 *6:71 *254:8 0.000186669
71 *6:82 *971:B 4.38128e-05
72 *6:82 *1290:A 5.44341e-05
73 *6:82 *1302:B 1.97695e-05
74 *6:82 *1303:A 1.74352e-05
75 *6:82 *16:64 1.42135e-05
76 *6:82 *594:6 3.52408e-05
*RES
1 a[3] *6:5 1.30973 
2 *6:5 *1168:A 18.3975 
3 *6:5 *6:28 15.17 
4 *6:28 *6:36 17.2321 
5 *6:36 *1213:A 10.3357 
6 *6:36 *6:45 6.28571 
7 *6:45 *1235:A 10.8714 
8 *6:45 *6:56 9.57143 
9 *6:56 *1257:A 20.2464 
10 *6:56 *6:71 7.83929 
11 *6:71 *1279:A 9.72857 
12 *6:71 *6:82 7.53571 
13 *6:82 *1302:A 9.3 
14 *6:82 *1304:A 24.9071 
15 *6:28 *1191:A 9.3 
*END

*D_NET *7 0.0113583
*CONN
*P a[4] I
*I *1308:A I *D sky130_fd_sc_hd__nand2_1
*I *1310:A I *D sky130_fd_sc_hd__nand2_1
*I *1321:A I *D sky130_fd_sc_hd__nand2_1
*I *1319:A I *D sky130_fd_sc_hd__nand2_1
*I *1317:A I *D sky130_fd_sc_hd__nand2_1
*I *1315:A I *D sky130_fd_sc_hd__nand2_1
*I *1313:A I *D sky130_fd_sc_hd__nand2_1
*I *1306:A I *D sky130_fd_sc_hd__nand2_1
*CAP
1 a[4] 0.000346692
2 *1308:A 0
3 *1310:A 0
4 *1321:A 0.000268126
5 *1319:A 0
6 *1317:A 8.96245e-05
7 *1315:A 2.57577e-05
8 *1313:A 2.23854e-05
9 *1306:A 2.83344e-05
10 *7:81 0.00088476
11 *7:64 0.00130768
12 *7:51 0.00102893
13 *7:42 0.00109537
14 *7:36 0.00150753
15 *7:24 0.00121248
16 *7:7 0.00075121
17 *1306:A *1004:B 1.30905e-05
18 *1306:A *11:21 2.34337e-05
19 *1306:A *11:29 5.80706e-06
20 *1317:A *16:64 7.48356e-05
21 *1317:A *16:81 1.02504e-05
22 *1321:A *1055:A 9.54798e-06
23 *1321:A *1058:A 6.37883e-06
24 *1321:A *17:67 2.11419e-05
25 *1321:A *18:75 1.01912e-05
26 *7:7 p[4] 0.000273045
27 *7:24 p[4] 9.60939e-05
28 *7:24 *1004:A 0.000124518
29 *7:24 *1004:B 2.95746e-06
30 *7:24 *1005:A 1.37743e-05
31 *7:24 *1009:A 6.04503e-05
32 *7:24 *1010:B 0.000144773
33 *7:24 *1012:B 1.74352e-05
34 *7:24 *1015:B 3.30903e-05
35 *7:24 *1308:B 7.49933e-05
36 *7:24 *11:21 6.54601e-05
37 *7:24 *297:6 3.66478e-05
38 *7:24 *302:10 0.000139913
39 *7:36 *1011:A 9.15186e-06
40 *7:36 *1310:B 1.08716e-05
41 *7:36 *12:21 9.59532e-06
42 *7:36 *13:83 1.01912e-05
43 *7:36 *302:10 4.1331e-06
44 *7:42 *1310:B 8.6229e-06
45 *7:42 *1311:A 0.000368852
46 *7:42 *1313:B 9.60939e-05
47 *7:42 *1314:A 3.18676e-05
48 *7:42 *13:83 3.92924e-05
49 *7:42 *242:12 0
50 *7:42 *604:12 6.78332e-05
51 *7:51 *1314:A 5.17614e-05
52 *7:51 *1316:A 2.44318e-05
53 *7:64 *1045:B 7.77751e-05
54 *7:64 *1316:A 0.00014183
55 *7:64 *282:8 0.000139907
56 *7:64 *338:10 5.71472e-05
57 *7:81 *988:A 3.67142e-05
58 *7:81 *1056:A 0.00020099
59 *7:81 *17:61 0.000121573
60 *7:81 *17:67 2.29823e-05
*RES
1 a[4] *7:7 4.64767 
2 *7:7 *1306:A 14.3804 
3 *7:7 *7:24 13.3125 
4 *7:24 *7:36 13.2178 
5 *7:36 *7:42 17.8571 
6 *7:42 *1313:A 9.72857 
7 *7:42 *7:51 7.10714 
8 *7:51 *1315:A 9.72857 
9 *7:51 *7:64 10.8393 
10 *7:64 *1317:A 20.2464 
11 *7:64 *7:81 13.1429 
12 *7:81 *1319:A 13.8 
13 *7:81 *1321:A 21.653 
14 *7:36 *1310:A 13.8 
15 *7:24 *1308:A 9.3 
*END

*D_NET *8 0.0123186
*CONN
*P a[5] I
*I *1339:A I *D sky130_fd_sc_hd__nand2_1
*I *1337:A I *D sky130_fd_sc_hd__nand2_1
*I *1335:A I *D sky130_fd_sc_hd__nand2_1
*I *1332:A I *D sky130_fd_sc_hd__nand2_1
*I *1330:A I *D sky130_fd_sc_hd__nand2_1
*I *1328:A I *D sky130_fd_sc_hd__nand2_1
*I *1326:A I *D sky130_fd_sc_hd__nand2_1
*I *1324:A I *D sky130_fd_sc_hd__nand2_1
*CAP
1 a[5] 0.000403455
2 *1339:A 0.000302542
3 *1337:A 2.23854e-05
4 *1335:A 2.03441e-05
5 *1332:A 3.35758e-05
6 *1330:A 0.000413623
7 *1328:A 2.22847e-05
8 *1326:A 0.000116573
9 *1324:A 0
10 *8:95 0.000705925
11 *8:86 0.000951772
12 *8:58 0.000511859
13 *8:54 0.00133087
14 *8:43 0.00127422
15 *8:24 0.00108296
16 *8:11 0.000833689
17 *1326:A *1326:B 5.52238e-05
18 *1326:A *1327:A 7.83587e-05
19 *1326:A *12:19 1.18064e-05
20 *1326:A *12:21 1.76039e-05
21 *1326:A *316:12 0
22 *1330:A *1103:A 0.000139907
23 *1330:A *1104:B 5.59013e-05
24 *1330:A *1105:A 0.000139907
25 *1330:A *1105:B 2.49484e-05
26 *1330:A *1110:B 0.000128146
27 *1330:A *14:72 1.91512e-05
28 *1330:A *38:10 0
29 *1330:A *392:8 1.21289e-05
30 *1330:A *401:14 0
31 *1332:A *15:60 0
32 *1332:A *336:10 1.59782e-05
33 *1335:A *16:81 5.7661e-06
34 *1339:A *1337:B 5.52238e-05
35 *1339:A *1338:A 3.18676e-05
36 *1339:A *17:67 9.71197e-05
37 *1339:A *18:75 0.000177948
38 *1339:A *18:92 2.48938e-05
39 *1339:A *366:12 0.000202842
40 *8:11 p[5] 0.000189705
41 *8:11 *1324:B 2.01359e-05
42 *8:11 *11:21 1.48924e-05
43 *8:24 *1081:A 0.000115711
44 *8:24 *1082:B 6.12955e-05
45 *8:24 *1084:A 8.24438e-05
46 *8:24 *1084:B 6.00426e-05
47 *8:24 *1324:B 1.5546e-05
48 *8:24 *1325:A 4.22908e-05
49 *8:24 *11:15 0.000305671
50 *8:24 *11:21 9.71197e-05
51 *8:24 *616:12 2.10844e-05
52 *8:43 *1082:B 0.000111172
53 *8:43 *1083:A 0.000199009
54 *8:43 *1328:B 0.000141734
55 *8:43 *1329:A 2.07878e-05
56 *8:43 *316:12 7.1678e-05
57 *8:54 *1092:A 5.71472e-05
58 *8:54 *1092:B 5.68722e-05
59 *8:54 *1104:A 0.000154027
60 *8:54 *1105:B 1.32552e-05
61 *8:54 *1329:A 2.80662e-05
62 *8:54 *326:12 0.000173328
63 *8:58 *1333:A 0.000128161
64 *8:58 *15:60 0
65 *8:58 *336:10 5.5782e-05
66 *8:86 *1333:A 0.000331832
67 *8:86 *1336:A 3.18676e-05
68 *8:86 *40:12 1.96517e-05
69 *8:95 *1122:A 0.000140933
70 *8:95 *1336:A 2.89016e-05
71 *8:95 *1338:A 5.62995e-05
72 *8:95 *16:81 6.42778e-05
73 *8:95 *16:91 5.52302e-05
74 *8:95 *412:10 3.18676e-05
*RES
1 a[5] *8:11 9.80009 
2 *8:11 *1324:A 9.3 
3 *8:11 *8:24 9.10714 
4 *8:24 *1326:A 20.4786 
5 *8:24 *8:43 8.89286 
6 *8:43 *1328:A 9.72857 
7 *8:43 *8:54 12.7679 
8 *8:54 *8:58 6.44643 
9 *8:58 *1330:A 30.425 
10 *8:58 *1332:A 14.5321 
11 *8:54 *8:86 10.3929 
12 *8:86 *1335:A 9.72857 
13 *8:86 *8:95 7.92857 
14 *8:95 *1337:A 9.72857 
15 *8:95 *1339:A 25.4964 
*END

*D_NET *9 0.0134604
*CONN
*P a[6] I
*I *756:A I *D sky130_fd_sc_hd__nand2_1
*I *759:A I *D sky130_fd_sc_hd__nand2_1
*I *754:A I *D sky130_fd_sc_hd__nand2_1
*I *752:A I *D sky130_fd_sc_hd__nand2_1
*I *750:A I *D sky130_fd_sc_hd__nand2_1
*I *1343:A I *D sky130_fd_sc_hd__nand2_1
*I *1341:A I *D sky130_fd_sc_hd__nand2_1
*I *748:A I *D sky130_fd_sc_hd__nand2_1
*CAP
1 a[6] 0.000787343
2 *756:A 0.000171244
3 *759:A 5.72911e-05
4 *754:A 1.79444e-05
5 *752:A 2.68018e-05
6 *750:A 0
7 *1343:A 1.00162e-05
8 *1341:A 0.000277845
9 *748:A 0
10 *9:58 0.000726643
11 *9:45 0.00109012
12 *9:33 0.00118705
13 *9:23 0.00130241
14 *9:19 0.00136463
15 *9:13 0.000747977
16 *9:9 0.00104248
17 *752:A *752:B 5.7661e-06
18 *752:A *753:A 1.04232e-05
19 *752:A *410:16 1.97695e-05
20 *754:A *755:A 1.04232e-05
21 *754:A *772:B 5.7661e-06
22 *756:A *757:A 5.34326e-05
23 *756:A *1207:B 4.40835e-05
24 *756:A *1209:A 0.000134118
25 *756:A *496:12 2.40611e-05
26 *759:A *759:B 5.7661e-06
27 *759:A *760:A 9.7049e-06
28 *759:A *18:92 4.72917e-05
29 *1341:A *1344:A 1.74352e-05
30 *1341:A *12:15 1.00073e-05
31 *1341:A *445:8 4.59429e-05
32 *1341:A *450:12 9.6561e-06
33 *1343:A *1344:A 1.04232e-05
34 *1343:A *12:15 5.7661e-06
35 *9:9 p[13] 0.000839689
36 *9:9 *774:B 0
37 *9:9 *776:A 0
38 *9:9 *1207:A 4.90803e-05
39 *9:9 *1216:A 6.19181e-05
40 *9:9 *1287:A 2.39779e-05
41 *9:9 *10:5 0.00126413
42 *9:9 *10:17 5.41794e-05
43 *9:9 *76:12 0
44 *9:9 *513:12 0
45 *9:9 *568:10 4.84853e-05
46 *9:13 *1207:A 0.00015134
47 *9:19 *755:A 5.09353e-05
48 *9:19 *1197:B 5.56195e-05
49 *9:19 *1199:A 1.48401e-05
50 *9:19 *1208:B 0.000227539
51 *9:19 *18:92 6.05161e-06
52 *9:19 *486:8 0.000186669
53 *9:23 *753:A 3.07146e-05
54 *9:23 *755:A 1.74352e-05
55 *9:23 *772:B 7.49387e-06
56 *9:23 *1186:A 3.14078e-05
57 *9:23 *1186:B 4.88637e-05
58 *9:23 *1187:B 0.00010096
59 *9:23 *1189:A 2.00269e-05
60 *9:23 *16:91 2.59355e-05
61 *9:23 *56:6 1.96517e-05
62 *9:33 *751:A 1.33343e-05
63 *9:33 *15:79 0.000103267
64 *9:33 *420:12 0
65 *9:45 *751:A 1.74352e-05
66 *9:45 *1169:B 0.000105163
67 *9:45 *1170:B 3.50885e-05
68 *9:45 *13:113 0
69 *9:58 *748:B 5.38444e-06
70 *9:58 *749:A 3.08664e-05
71 *9:58 *765:B 1.47972e-05
72 *9:58 *1156:B 4.27935e-05
73 *9:58 *1158:A 5.33005e-05
74 *9:58 *1158:B 5.17896e-05
75 *9:58 *1160:A 0.000102362
76 *9:58 *1167:B 3.35484e-05
77 *9:58 *1344:A 5.44341e-05
78 *9:58 *12:15 1.42135e-05
79 *9:58 *13:113 4.81095e-05
80 *9:58 *50:6 0.000117994
*RES
1 a[6] *9:9 25.5491 
2 *9:9 *9:13 6.44643 
3 *9:13 *9:19 12.0714 
4 *9:19 *9:23 9.58929 
5 *9:23 *9:33 17.4643 
6 *9:33 *9:45 20.4464 
7 *9:45 *748:A 9.3 
8 *9:45 *9:58 9.625 
9 *9:58 *1341:A 13.4607 
10 *9:58 *1343:A 9.72857 
11 *9:33 *750:A 9.3 
12 *9:23 *752:A 10.0321 
13 *9:19 *754:A 9.72857 
14 *9:13 *759:A 10.675 
15 *9:9 *756:A 17.7821 
*END

*D_NET *10 0.0128586
*CONN
*P a[7] I
*I *774:A I *D sky130_fd_sc_hd__nand2_1
*I *776:A I *D sky130_fd_sc_hd__nand2_1
*I *772:A I *D sky130_fd_sc_hd__nand2_1
*I *770:A I *D sky130_fd_sc_hd__nand2_1
*I *767:A I *D sky130_fd_sc_hd__nand2_1
*I *761:A I *D sky130_fd_sc_hd__nand2_1
*I *765:A I *D sky130_fd_sc_hd__nand2_1
*I *763:A I *D sky130_fd_sc_hd__nand2_1
*CAP
1 a[7] 0.000702245
2 *774:A 0
3 *776:A 0.000568495
4 *772:A 1.99857e-05
5 *770:A 1.99857e-05
6 *767:A 1.56769e-05
7 *761:A 0.000599055
8 *765:A 0
9 *763:A 0.000466454
10 *10:85 0.000707898
11 *10:42 0.000765196
12 *10:27 0.00108922
13 *10:25 0.000919617
14 *10:19 0.000886983
15 *10:17 0.00102176
16 *10:5 0.00142374
17 *761:A *761:B 5.7661e-06
18 *761:A *765:B 5.52238e-05
19 *761:A *1174:B 0.000144499
20 *761:A *1184:A 0
21 *761:A *1184:B 0
22 *761:A *464:12 3.08664e-05
23 *763:A *764:A 6.35901e-05
24 *763:A *766:A 5.33005e-05
25 *763:A *66:12 3.49005e-05
26 *767:A *768:A 1.04232e-05
27 *770:A *771:A 1.04232e-05
28 *772:A *773:A 1.04232e-05
29 *776:A *777:A 0
30 *776:A *1220:B 0
31 *776:A *1221:A 0
32 *776:A *1221:B 0
33 *776:A *1222:A 6.35611e-05
34 *776:A *1222:B 0.000115379
35 *776:A *1225:A 0.000127446
36 *776:A *1226:B 3.35687e-05
37 *776:A *509:6 4.43256e-05
38 *776:A *513:12 5.26184e-05
39 *10:5 *1281:A 0
40 *10:5 *1289:A 6.09476e-05
41 *10:17 *773:A 5.32912e-05
42 *10:17 *774:B 0.000310505
43 *10:17 *1215:A 9.80173e-05
44 *10:17 *74:12 1.06618e-05
45 *10:19 *771:A 9.8247e-05
46 *10:19 *772:B 9.90431e-05
47 *10:19 *773:A 3.18676e-05
48 *10:19 *72:12 1.4024e-05
49 *10:25 *768:A 6.67678e-05
50 *10:25 *771:A 3.18676e-05
51 *10:25 *70:12 7.90536e-05
52 *10:27 *766:A 5.94614e-05
53 *10:27 *767:B 5.52302e-05
54 *10:27 *768:A 3.18676e-05
55 *10:27 *68:12 3.52408e-05
56 *10:42 *765:B 9.25014e-06
57 *10:42 *766:A 0.000153047
58 *10:42 *1183:A 0
59 *10:42 *474:12 0
60 *10:85 *774:B 0.000139907
61 *10:85 *775:A 3.93247e-05
62 *9:9 *776:A 0
63 *9:9 *10:5 0.00126413
64 *9:9 *10:17 5.41794e-05
*RES
1 a[7] *10:5 19.1205 
2 *10:5 *10:17 15.375 
3 *10:17 *10:19 7.92857 
4 *10:19 *10:25 8.375 
5 *10:25 *10:27 7.51786 
6 *10:27 *763:A 16.8357 
7 *10:27 *10:42 12.1607 
8 *10:42 *765:A 9.3 
9 *10:42 *761:A 20.1393 
10 *10:25 *767:A 9.72857 
11 *10:19 *770:A 9.72857 
12 *10:17 *772:A 9.72857 
13 *10:5 *10:85 7.10714 
14 *10:85 *776:A 29.3536 
15 *10:85 *774:A 9.3 
*END

*D_NET *11 0.012035
*CONN
*P b[0] I
*I *761:B I *D sky130_fd_sc_hd__nand2_1
*I *1341:B I *D sky130_fd_sc_hd__nand2_1
*I *1324:B I *D sky130_fd_sc_hd__nand2_1
*I *1306:B I *D sky130_fd_sc_hd__nand2_1
*I *1168:B I *D sky130_fd_sc_hd__nand2_1
*I *745:B I *D sky130_fd_sc_hd__nand2_1
*I *813:B I *D sky130_fd_sc_hd__nand2_1
*I *991:B I *D sky130_fd_sc_hd__nand2_1
*CAP
1 b[0] 0.000459912
2 *761:B 0.000306215
3 *1341:B 0
4 *1324:B 4.08441e-05
5 *1306:B 0
6 *1168:B 0
7 *745:B 9.17936e-05
8 *813:B 0.000250687
9 *991:B 0
10 *11:48 0.000886665
11 *11:37 0.00130576
12 *11:29 0.00129893
13 *11:21 0.0011356
14 *11:15 0.00122814
15 *11:9 0.000817496
16 *11:7 0.00099458
17 *745:B *746:A 0
18 *745:B *968:A 5.35909e-05
19 *745:B *278:8 0
20 *761:B *1229:A 5.71472e-05
21 *761:B *1230:B 4.8035e-05
22 *761:B *454:12 2.05484e-05
23 *813:B *779:A 0.000200406
24 *813:B *779:B 0
25 *813:B *783:A 0
26 *813:B *824:A 4.75617e-05
27 *813:B *857:B 0
28 *1324:B *1081:A 9.25014e-06
29 *1324:B *616:12 9.29472e-06
30 *11:7 p[6] 0
31 *11:7 *12:7 0.000692563
32 *11:9 *1163:A 0
33 *11:9 *450:12 0
34 *11:9 *454:12 3.15196e-05
35 *11:15 *1085:B 0
36 *11:15 *1089:A 0.000128154
37 *11:15 *1089:B 4.57445e-05
38 *11:15 *1154:A 0
39 *11:15 *1155:A 0
40 *11:15 *1163:A 0
41 *11:15 *1342:A 0.000128161
42 *11:15 *12:19 0
43 *11:15 *371:12 8.56101e-05
44 *11:15 *380:12 0
45 *11:21 p[4] 0
46 *11:21 p[5] 0.000163437
47 *11:21 *1004:A 2.00751e-05
48 *11:21 *1014:B 0
49 *11:21 *1078:A 5.48488e-05
50 *11:21 *1081:A 0
51 *11:21 *1325:A 5.06356e-05
52 *11:21 *306:12 0
53 *11:21 *616:12 0
54 *11:29 p[4] 0
55 *11:29 *1003:A 0
56 *11:29 *1004:B 0
57 *11:29 *1179:A 2.22999e-05
58 *11:37 *861:A 1.50223e-05
59 *11:37 *861:B 0.000174544
60 *11:37 *863:B 7.80183e-05
61 *11:37 *929:A 7.18982e-05
62 *11:37 *12:42 7.50713e-05
63 *11:37 *224:12 1.4024e-05
64 *11:48 *783:A 0
65 *11:48 *792:A 0.000128154
66 *11:48 *852:A 0
67 *11:48 *857:B 0
68 *11:48 *12:48 0
69 *11:48 *82:12 7.6021e-05
70 *761:A *761:B 5.7661e-06
71 *835:A *813:B 0
72 *1306:A *11:21 2.34337e-05
73 *1306:A *11:29 5.80706e-06
74 *3:99 *813:B 0
75 *4:16 *813:B 0
76 *6:28 *11:37 0.000162944
77 *7:24 *11:21 6.54601e-05
78 *8:11 *1324:B 2.01359e-05
79 *8:11 *11:21 1.48924e-05
80 *8:24 *1324:B 1.5546e-05
81 *8:24 *11:15 0.000305671
82 *8:24 *11:21 9.71197e-05
*RES
1 b[0] *11:7 5.36833 
2 *11:7 *11:9 4.22321 
3 *11:9 *11:15 16.7321 
4 *11:15 *11:21 17.125 
5 *11:21 *11:29 13.9107 
6 *11:29 *11:37 19.1071 
7 *11:37 *991:B 13.8 
8 *11:37 *11:48 9.76786 
9 *11:48 *813:B 18.2107 
10 *11:48 *745:B 15.6036 
11 *11:29 *1168:B 9.3 
12 *11:21 *1306:B 13.8 
13 *11:15 *1324:B 19.1884 
14 *11:9 *1341:B 13.8 
15 *11:7 *761:B 19.0411 
*END

*D_NET *12 0.0114395
*CONN
*P b[1] I
*I *763:B I *D sky130_fd_sc_hd__nand2_1
*I *1343:B I *D sky130_fd_sc_hd__nand2_1
*I *1326:B I *D sky130_fd_sc_hd__nand2_1
*I *1191:B I *D sky130_fd_sc_hd__nand2_1
*I *1013:B I *D sky130_fd_sc_hd__nand2_1
*I *857:B I *D sky130_fd_sc_hd__nand2_1
*I *835:B I *D sky130_fd_sc_hd__nand2_1
*I *1308:B I *D sky130_fd_sc_hd__nand2_1
*CAP
1 b[1] 0.000706093
2 *763:B 0.000235233
3 *1343:B 0
4 *1326:B 0.000110619
5 *1191:B 0
6 *1013:B 2.34942e-05
7 *857:B 0.000146188
8 *835:B 0
9 *1308:B 0.00018265
10 *12:48 0.000579068
11 *12:46 0.000825725
12 *12:42 0.0010911
13 *12:21 0.00122062
14 *12:19 0.00103887
15 *12:15 0.00101452
16 *12:7 0.00134381
17 *763:B *762:A 0.000153047
18 *763:B *1229:B 0
19 *857:B *746:A 5.52302e-05
20 *857:B *968:A 5.30637e-06
21 *1308:B *1010:B 1.3701e-05
22 *1308:B *1015:B 2.16401e-05
23 *1308:B *302:10 2.84494e-05
24 *12:7 p[7] 0.000192875
25 *12:15 *1160:B 0.000175526
26 *12:15 *1161:A 0
27 *12:15 *1174:B 0
28 *12:15 *1229:B 0
29 *12:15 *1344:A 0.00011996
30 *12:15 *50:6 1.96517e-05
31 *12:15 *445:8 1.3701e-05
32 *12:15 *450:12 5.71472e-05
33 *12:15 *454:12 0
34 *12:19 *1085:A 0.00015234
35 *12:19 *1085:B 7.8327e-05
36 *12:19 *1089:A 0
37 *12:19 *1090:A 0
38 *12:19 *1159:A 0
39 *12:19 *1160:B 0
40 *12:19 *1161:A 1.02504e-05
41 *12:19 *1327:A 0.000119614
42 *12:19 *1342:A 0
43 *12:19 *390:12 0
44 *12:21 *1009:B 7.95909e-05
45 *12:21 *1011:A 0
46 *12:21 *1023:B 0
47 *12:21 *1078:B 0
48 *12:21 *1309:A 6.74911e-05
49 *12:21 *302:10 0
50 *12:21 *307:12 0
51 *12:21 *602:10 0
52 *12:42 *932:B 0
53 *12:42 *944:B 0
54 *12:42 *947:A 0
55 *12:42 *1008:B 0
56 *12:42 *1009:B 7.83587e-05
57 *12:42 *225:10 0
58 *12:42 *228:14 6.74911e-05
59 *12:42 *232:12 0
60 *12:42 *242:12 0
61 *12:46 *859:B 6.35274e-05
62 *12:46 *861:A 7.27704e-05
63 *813:B *857:B 0
64 *835:A *857:B 8.8364e-05
65 *991:A *1013:B 5.50052e-05
66 *1326:A *1326:B 5.52238e-05
67 *1326:A *12:19 1.18064e-05
68 *1326:A *12:21 1.76039e-05
69 *1341:A *12:15 1.00073e-05
70 *1343:A *12:15 5.7661e-06
71 *3:99 *857:B 1.90936e-05
72 *5:9 *12:48 0
73 *5:22 *12:48 0
74 *6:28 *12:42 0.000141935
75 *6:36 *12:42 0
76 *6:36 *12:46 4.27842e-06
77 *7:24 *1308:B 7.49933e-05
78 *7:36 *12:21 9.59532e-06
79 *9:58 *12:15 1.42135e-05
80 *11:7 *12:7 0.000692563
81 *11:15 *12:19 0
82 *11:37 *12:42 7.50713e-05
83 *11:48 *857:B 0
84 *11:48 *12:48 0
*RES
1 b[1] *12:7 6.23313 
2 *12:7 *12:15 12.2411 
3 *12:15 *12:19 16.1607 
4 *12:19 *12:21 6.19643 
5 *12:21 *1308:B 16.8536 
6 *12:21 *12:42 17.5179 
7 *12:42 *12:46 11.6071 
8 *12:46 *12:48 7.71429 
9 *12:48 *835:B 13.8 
10 *12:48 *857:B 17.1214 
11 *12:46 *1013:B 14.3357 
12 *12:42 *1191:B 9.3 
13 *12:19 *1326:B 15.5857 
14 *12:15 *1343:B 9.3 
15 *12:7 *763:B 18.3804 
*END

*D_NET *13 0.0137343
*CONN
*P b[2] I
*I *858:B I *D sky130_fd_sc_hd__nand2_1
*I *1213:B I *D sky130_fd_sc_hd__nand2_1
*I *765:B I *D sky130_fd_sc_hd__nand2_1
*I *748:B I *D sky130_fd_sc_hd__nand2_1
*I *1328:B I *D sky130_fd_sc_hd__nand2_1
*I *1310:B I *D sky130_fd_sc_hd__nand2_1
*I *1035:B I *D sky130_fd_sc_hd__nand2_1
*I *1079:B I *D sky130_fd_sc_hd__nand2_1
*CAP
1 b[2] 0.00088912
2 *858:B 0
3 *1213:B 2.29461e-05
4 *765:B 0.00050357
5 *748:B 3.70181e-05
6 *1328:B 5.26554e-05
7 *1310:B 0.000123184
8 *1035:B 0.000170856
9 *1079:B 0.000202532
10 *13:113 0.00120167
11 *13:98 0.00106516
12 *13:83 0.00120563
13 *13:67 0.00134477
14 *13:46 0.00104236
15 *13:25 0.000735574
16 *13:15 0.00114146
17 *765:B *749:A 0.000308031
18 *765:B *1169:A 5.41794e-05
19 *765:B *1169:B 0.00012401
20 *765:B *1170:B 0.000112916
21 *765:B *1175:A 0.000141375
22 *765:B *1183:A 0
23 *1035:B *801:A 0.000141729
24 *1035:B *1046:A 0.000103897
25 *1035:B *100:14 3.08664e-05
26 *1079:B *784:A 4.90803e-05
27 *1079:B *785:A 2.6304e-05
28 *1079:B *793:A 0
29 *1079:B *1190:A 2.47603e-05
30 *1079:B *148:10 7.6644e-05
31 *1079:B *299:12 1.81548e-05
32 *1213:B *943:A 4.62997e-06
33 *1310:B *1311:A 4.60837e-06
34 *1310:B *312:12 3.25339e-05
35 *1310:B *602:10 0
36 *13:15 *869:A 6.05161e-06
37 *13:15 *1190:A 0
38 *13:25 *784:A 5.83304e-05
39 *13:25 *846:A 0
40 *13:25 *148:10 7.6644e-05
41 *13:46 *787:A 0
42 *13:46 *793:A 0.00015234
43 *13:46 *801:B 0.000125731
44 *13:46 *96:12 0
45 *13:67 *943:A 8.97655e-07
46 *13:67 *100:14 0.000160729
47 *13:67 *168:16 0.000293278
48 *13:83 *932:B 0
49 *13:83 *939:A 0
50 *13:83 *943:A 2.76657e-05
51 *13:83 *944:B 0
52 *13:83 *945:A 5.71124e-05
53 *13:83 *1202:A 8.45364e-05
54 *13:83 *1311:A 0.000148903
55 *13:83 *168:16 2.99168e-05
56 *13:83 *225:10 0
57 *13:83 *238:8 9.58181e-05
58 *13:83 *239:6 1.39841e-05
59 *13:83 *239:14 0.000212021
60 *13:98 *1023:A 0.000151333
61 *13:98 *1025:A 0
62 *13:113 *1092:B 0
63 *13:113 *1094:B 0
64 *13:113 *1097:A 0.000128154
65 *13:113 *382:8 0
66 *13:113 *387:24 5.93525e-05
67 *761:A *765:B 5.52238e-05
68 *858:A *13:15 1.8461e-05
69 *1035:A *1035:B 9.79307e-05
70 *1213:A *1213:B 1.6215e-05
71 *1213:A *13:67 1.6215e-05
72 *3:13 *13:15 0
73 *3:13 *13:25 4.6025e-06
74 *3:32 *1079:B 5.03176e-05
75 *3:32 *13:15 2.6304e-05
76 *3:32 *13:25 6.31312e-05
77 *3:99 *13:25 9.59532e-06
78 *4:24 *1079:B 2.96677e-05
79 *4:24 *13:15 5.49489e-05
80 *4:24 *13:25 4.35597e-05
81 *5:9 *1079:B 0
82 *5:9 *13:46 0
83 *5:22 *13:46 0
84 *6:36 *13:67 3.28686e-05
85 *6:36 *13:83 5.19959e-05
86 *7:36 *1310:B 1.08716e-05
87 *7:36 *13:83 1.01912e-05
88 *7:42 *1310:B 8.6229e-06
89 *7:42 *13:83 3.92924e-05
90 *8:43 *1328:B 0.000141734
91 *9:45 *13:113 0
92 *9:58 *748:B 5.38444e-06
93 *9:58 *765:B 1.47972e-05
94 *9:58 *13:113 4.81095e-05
95 *10:42 *765:B 9.25014e-06
*RES
1 b[2] *13:15 20.0893 
2 *13:15 *13:25 9.63393 
3 *13:25 *1079:B 18.2375 
4 *13:25 *13:46 5.66964 
5 *13:46 *1035:B 18.4786 
6 *13:46 *13:67 16.6161 
7 *13:67 *13:83 27.4196 
8 *13:83 *1310:B 16.0143 
9 *13:83 *13:98 6.5 
10 *13:98 *1328:B 15.1571 
11 *13:98 *13:113 15.0893 
12 *13:113 *748:B 10.0321 
13 *13:113 *765:B 27.8357 
14 *13:67 *1213:B 10.0143 
15 *13:15 *858:B 9.3 
*END

*D_NET *14 0.0102788
*CONN
*P b[3] I
*I *767:B I *D sky130_fd_sc_hd__nand2_1
*I *750:B I *D sky130_fd_sc_hd__nand2_1
*I *1330:B I *D sky130_fd_sc_hd__nand2_1
*I *1313:B I *D sky130_fd_sc_hd__nand2_1
*I *1235:B I *D sky130_fd_sc_hd__nand2_1
*I *1057:B I *D sky130_fd_sc_hd__nand2_1
*I *880:B I *D sky130_fd_sc_hd__nand2_1
*I *1301:B I *D sky130_fd_sc_hd__nand2_1
*CAP
1 b[3] 0.000942565
2 *767:B 0.000493536
3 *750:B 0
4 *1330:B 0
5 *1313:B 4.59965e-05
6 *1235:B 0
7 *1057:B 2.75619e-05
8 *880:B 2.48428e-05
9 *1301:B 2.76557e-05
10 *14:85 0.000776427
11 *14:72 0.00109124
12 *14:59 0.00132648
13 *14:46 0.00097138
14 *14:35 0.00115715
15 *14:19 5.24985e-05
16 *14:17 0.0015729
17 *767:B *751:A 4.35048e-05
18 *767:B *1180:A 0.00015234
19 *767:B *1180:B 0.00015234
20 *767:B *1182:A 5.57914e-05
21 *767:B *1183:A 0
22 *767:B *1185:A 0
23 *767:B *1194:A 0
24 *767:B *466:19 0
25 *767:B *474:12 0
26 *767:B *483:12 0
27 *14:35 *795:A 0
28 *14:35 *803:A 0
29 *14:35 *806:A 0
30 *14:35 *811:A 6.74911e-05
31 *14:35 *812:B 0
32 *14:35 *105:10 0
33 *14:35 *119:10 0
34 *14:46 *879:A 3.51224e-05
35 *14:46 *881:A 0.00014852
36 *14:46 *883:A 6.44649e-05
37 *14:46 *884:B 0.000125679
38 *14:46 *951:A 0
39 *14:46 *178:10 0
40 *14:46 *188:10 0
41 *14:59 *952:A 0
42 *14:59 *953:A 0.000125731
43 *14:59 *955:A 0
44 *14:59 *966:A 0
45 *14:59 *262:12 0
46 *14:72 *1029:B 6.65398e-05
47 *14:72 *1033:A 0
48 *14:72 *1034:A 5.9483e-05
49 *14:72 *1043:B 0
50 *14:72 *1104:B 0
51 *14:72 *1105:B 0.00015234
52 *14:72 *1106:B 0
53 *14:72 *1110:B 6.16744e-05
54 *14:72 *262:12 0
55 *14:72 *326:12 0
56 *14:72 *336:10 0
57 *14:72 *395:12 4.25716e-05
58 *14:85 *1107:A 1.3701e-05
59 *14:85 *1110:B 1.39841e-05
60 *14:85 *1331:A 7.93632e-05
61 *14:85 *38:10 3.14592e-05
62 *1301:A *14:17 2.56694e-05
63 *1330:A *14:72 1.91512e-05
64 *4:39 *880:B 2.28598e-05
65 *4:39 *1301:B 2.89016e-05
66 *5:28 *1057:B 2.85321e-05
67 *7:42 *1313:B 9.60939e-05
68 *10:27 *767:B 5.52302e-05
*RES
1 b[3] *14:17 17.0179 
2 *14:17 *14:19 4.5 
3 *14:19 *1301:B 9.83571 
4 *14:19 *880:B 9.83571 
5 *14:17 *14:35 9.83929 
6 *14:35 *1057:B 14.3357 
7 *14:35 *14:46 9.83929 
8 *14:46 *1235:B 13.8 
9 *14:46 *14:59 8.17857 
10 *14:59 *1313:B 14.7464 
11 *14:59 *14:72 19.1964 
12 *14:72 *1330:B 9.3 
13 *14:72 *14:85 10.0714 
14 *14:85 *750:B 13.8 
15 *14:85 *767:B 24.175 
*END

*D_NET *15 0.0113998
*CONN
*P b[4] I
*I *902:B I *D sky130_fd_sc_hd__nand2_1
*I *1257:B I *D sky130_fd_sc_hd__nand2_1
*I *770:B I *D sky130_fd_sc_hd__nand2_1
*I *752:B I *D sky130_fd_sc_hd__nand2_1
*I *1332:B I *D sky130_fd_sc_hd__nand2_1
*I *1315:B I *D sky130_fd_sc_hd__nand2_1
*I *1080:B I *D sky130_fd_sc_hd__nand2_1
*I *1323:B I *D sky130_fd_sc_hd__nand2_1
*CAP
1 b[4] 0.000783176
2 *902:B 0
3 *1257:B 2.64897e-05
4 *770:B 0.000551399
5 *752:B 9.63005e-05
6 *1332:B 0.000177952
7 *1315:B 0
8 *1080:B 0
9 *1323:B 2.25583e-05
10 *15:79 0.00107652
11 *15:60 0.00129826
12 *15:51 0.00121936
13 *15:47 0.000945988
14 *15:28 0.000969466
15 *15:17 0.000642753
16 *15:15 0.00082554
17 *752:B *753:A 1.57565e-05
18 *752:B *410:16 4.0342e-06
19 *770:B *753:A 1.5424e-05
20 *770:B *1188:A 7.83366e-05
21 *770:B *1189:A 0.000227539
22 *770:B *1193:A 0
23 *770:B *1194:A 0
24 *770:B *476:26 6.5185e-05
25 *770:B *483:12 0
26 *770:B *485:10 0
27 *770:B *493:12 0
28 *1332:B *1103:A 0
29 *1332:B *1114:A 9.7049e-06
30 *1332:B *1114:B 2.78584e-05
31 *1332:B *1115:B 7.43578e-06
32 *1332:B *38:10 0
33 *1332:B *405:10 5.52238e-05
34 *15:28 *805:A 0
35 *15:28 *815:A 0
36 *15:28 *819:A 3.36969e-05
37 *15:28 *820:A 0
38 *15:28 *822:B 0
39 *15:28 *110:10 0
40 *15:28 *111:12 0
41 *15:28 *114:10 0.000114492
42 *15:28 *119:10 0
43 *15:28 *129:12 0
44 *15:28 *536:10 1.78393e-05
45 *15:47 *887:A 0.000113331
46 *15:47 *888:A 0.000120902
47 *15:47 *894:B 0.00015091
48 *15:47 *184:8 0.00013364
49 *15:47 *189:12 1.70522e-05
50 *15:47 *536:10 1.00887e-05
51 *15:51 *963:A 7.6644e-05
52 *15:51 *963:B 2.72545e-05
53 *15:51 *965:A 0
54 *15:51 *970:A 0.000173083
55 *15:51 *977:A 8.15939e-05
56 *15:51 *1036:A 0
57 *15:51 *1268:A 2.49484e-05
58 *15:51 *198:12 0
59 *15:51 *272:10 6.97972e-05
60 *15:60 *1036:A 8.25098e-05
61 *15:60 *1039:A 0.000128154
62 *15:60 *1043:A 0
63 *15:60 *1044:A 8.5662e-05
64 *15:60 *1053:B 0
65 *15:60 *1115:A 4.15914e-05
66 *15:60 *1333:A 0
67 *15:60 *40:12 0
68 *15:60 *272:10 0
69 *15:60 *336:10 0
70 *15:60 *346:12 0
71 *15:79 *1120:A 0
72 *15:79 *1185:A 0
73 *15:79 *1188:A 0
74 *15:79 *1189:A 3.34295e-05
75 *15:79 *40:12 0
76 *15:79 *405:10 4.25716e-05
77 *15:79 *410:16 0.000271958
78 *752:A *752:B 5.7661e-06
79 *1257:A *15:47 1.00887e-05
80 *1257:A *15:51 0.000140253
81 *1323:A *15:15 0
82 *1323:A *15:28 4.1331e-06
83 *1332:A *15:60 0
84 *4:48 *1323:B 5.71472e-05
85 *4:48 *15:17 8.57023e-05
86 *8:58 *15:60 0
87 *9:33 *15:79 0.000103267
*RES
1 b[4] *15:15 20.0357 
2 *15:15 *15:17 0.946429 
3 *15:17 *1323:B 9.83571 
4 *15:17 *15:28 14.3393 
5 *15:28 *1080:B 13.8 
6 *15:28 *15:47 9.375 
7 *15:47 *15:51 10.7857 
8 *15:51 *1315:B 13.8 
9 *15:51 *15:60 12.7232 
10 *15:60 *1332:B 16.3982 
11 *15:60 *15:79 12.3661 
12 *15:79 *752:B 10.8714 
13 *15:79 *770:B 27.6929 
14 *15:47 *1257:B 14.3357 
15 *15:15 *902:B 9.3 
*END

*D_NET *16 0.0117228
*CONN
*P b[5] I
*I *924:B I *D sky130_fd_sc_hd__nand2_1
*I *1335:B I *D sky130_fd_sc_hd__nand2_1
*I *772:B I *D sky130_fd_sc_hd__nand2_1
*I *754:B I *D sky130_fd_sc_hd__nand2_1
*I *1317:B I *D sky130_fd_sc_hd__nand2_1
*I *1279:B I *D sky130_fd_sc_hd__nand2_1
*I *1102:B I *D sky130_fd_sc_hd__nand2_1
*I *747:B I *D sky130_fd_sc_hd__nand2_1
*CAP
1 b[5] 0.000600005
2 *924:B 1.71599e-05
3 *1335:B 0
4 *772:B 0.000413158
5 *754:B 0
6 *1317:B 0
7 *1279:B 0
8 *1102:B 0
9 *747:B 0
10 *16:91 0.000997814
11 *16:81 0.00106546
12 *16:64 0.00110298
13 *16:47 0.00119873
14 *16:34 0.00129632
15 *16:21 0.000980834
16 *16:11 0.000878233
17 *772:B *755:A 6.68521e-05
18 *772:B *1197:B 0
19 *772:B *1199:A 0.000205849
20 *772:B *1200:A 1.18064e-05
21 *772:B *1206:B 8.66228e-05
22 *772:B *486:21 0.00017309
23 *772:B *489:10 3.93893e-05
24 *772:B *493:12 0
25 *16:21 *935:A 5.62995e-05
26 *16:34 *758:A 6.68521e-05
27 *16:34 *816:A 0
28 *16:34 *823:B 0
29 *16:34 *827:B 0
30 *16:34 *830:A 0
31 *16:34 *832:B 0
32 *16:34 *120:10 0
33 *16:34 *124:10 0
34 *16:34 *129:12 0
35 *16:34 *386:8 0
36 *16:47 *897:A 4.26814e-05
37 *16:47 *903:A 4.0698e-05
38 *16:47 *194:12 4.49141e-05
39 *16:47 *198:12 0
40 *16:47 *208:10 0
41 *16:64 *971:B 2.89114e-05
42 *16:64 *972:A 9.30603e-06
43 *16:64 *973:A 0.000123295
44 *16:64 *979:B 0
45 *16:64 *987:A 0.000101797
46 *16:64 *988:B 0.000129868
47 *16:64 *1047:A 0.00022217
48 *16:64 *1290:A 0.00011996
49 *16:64 *264:10 0.000123295
50 *16:64 *268:12 0
51 *16:64 *594:6 1.66856e-05
52 *16:81 *1049:A 3.5707e-05
53 *16:81 *1054:A 0
54 *16:81 *1059:A 0
55 *16:81 *1061:A 0
56 *16:81 *1062:A 0.000109809
57 *16:81 *1122:A 5.33005e-05
58 *16:81 *352:26 0
59 *16:81 *356:12 0.000101545
60 *16:91 *1121:B 8.68665e-05
61 *16:91 *1129:A 5.5782e-05
62 *16:91 *1130:A 0
63 *16:91 *1139:B 0
64 *16:91 *1198:B 0
65 *16:91 *1200:A 0.000125724
66 *16:91 *1336:A 7.60306e-05
67 *16:91 *412:10 0
68 *16:91 *415:12 0
69 *16:91 *420:12 0
70 *747:A *16:34 1.04232e-05
71 *754:A *772:B 5.7661e-06
72 *1279:A *16:64 5.7661e-06
73 *1317:A *16:64 7.48356e-05
74 *1317:A *16:81 1.02504e-05
75 *1335:A *16:81 5.7661e-06
76 *3:71 *16:34 3.80953e-06
77 *4:67 *16:21 0.000311108
78 *4:73 *924:B 5.71472e-05
79 *4:73 *16:21 2.55489e-05
80 *6:71 *16:47 3.67257e-05
81 *6:71 *16:64 3.61629e-06
82 *6:82 *16:64 1.42135e-05
83 *8:95 *16:81 6.42778e-05
84 *8:95 *16:91 5.52302e-05
85 *9:23 *772:B 7.49387e-06
86 *9:23 *16:91 2.59355e-05
87 *10:19 *772:B 9.90431e-05
*RES
1 b[5] *16:11 15.875 
2 *16:11 *16:21 14.5714 
3 *16:21 *747:B 9.3 
4 *16:21 *16:34 15.4107 
5 *16:34 *1102:B 13.8 
6 *16:34 *16:47 15.2857 
7 *16:47 *1279:B 9.3 
8 *16:47 *16:64 18.125 
9 *16:64 *1317:B 13.8 
10 *16:64 *16:81 14.0357 
11 *16:81 *16:91 19.9107 
12 *16:91 *754:B 9.3 
13 *16:91 *772:B 28.0321 
14 *16:81 *1335:B 9.3 
15 *16:11 *924:B 9.83571 
*END

*D_NET *17 0.0136148
*CONN
*P b[6] I
*I *1319:B I *D sky130_fd_sc_hd__nand2_1
*I *774:B I *D sky130_fd_sc_hd__nand2_1
*I *756:B I *D sky130_fd_sc_hd__nand2_1
*I *1337:B I *D sky130_fd_sc_hd__nand2_1
*I *1302:B I *D sky130_fd_sc_hd__nand2_1
*I *1124:B I *D sky130_fd_sc_hd__nand2_1
*I *769:B I *D sky130_fd_sc_hd__nand2_1
*I *946:B I *D sky130_fd_sc_hd__nand2_1
*CAP
1 b[6] 0.00101091
2 *1319:B 6.2757e-05
3 *774:B 0.000430115
4 *756:B 0
5 *1337:B 2.26968e-05
6 *1302:B 6.06785e-05
7 *1124:B 0
8 *769:B 0
9 *946:B 0.000247078
10 *17:78 0.00112158
11 *17:67 0.00115572
12 *17:61 0.00104117
13 *17:46 0.00119252
14 *17:33 0.00107404
15 *17:9 0.000352898
16 *17:5 0.00159579
17 *774:B *1210:A 5.63007e-05
18 *774:B *1210:B 0.000125724
19 *774:B *1212:A 0.000150625
20 *946:B *957:A 0
21 *1319:B *1055:B 3.33087e-05
22 *1319:B *1320:A 0
23 *17:5 *18:7 0.00128746
24 *17:33 *802:A 3.48139e-05
25 *17:33 *833:A 5.90443e-06
26 *17:33 *837:A 5.58941e-05
27 *17:33 *841:A 0
28 *17:33 *842:A 0.000267807
29 *17:33 *18:39 0
30 *17:33 *134:12 7.17932e-05
31 *17:33 *140:12 6.97972e-05
32 *17:46 *908:A 0.000150773
33 *17:46 *914:A 6.14702e-06
34 *17:46 *18:50 0
35 *17:46 *209:12 4.0698e-05
36 *17:46 *218:10 0
37 *17:61 *981:A 0.00014285
38 *17:61 *981:B 0
39 *17:61 *982:A 0.000164554
40 *17:61 *989:A 8.04913e-05
41 *17:61 *1055:A 0
42 *17:61 *1056:A 1.08359e-05
43 *17:61 *18:71 0
44 *17:61 *218:10 3.17148e-05
45 *17:61 *274:8 4.25716e-05
46 *17:67 *1055:A 0
47 *17:67 *1058:A 5.32334e-05
48 *17:67 *18:75 0
49 *17:67 *357:12 3.92854e-05
50 *17:67 *366:12 0
51 *17:78 *1140:A 0.000117189
52 *17:78 *1149:B 0
53 *17:78 *1207:A 0
54 *17:78 *1208:A 0
55 *17:78 *1208:B 8.2731e-05
56 *17:78 *1210:A 5.48581e-05
57 *17:78 *1338:A 0
58 *17:78 *18:92 0
59 *17:78 *366:12 0
60 *17:78 *422:14 5.58941e-05
61 *17:78 *425:12 0
62 *969:A *946:B 0
63 *969:A *17:33 0
64 *1304:A *1302:B 5.90995e-05
65 *1304:A *17:61 2.14757e-05
66 *1321:A *17:67 2.11419e-05
67 *1339:A *1337:B 5.52238e-05
68 *1339:A *17:67 9.71197e-05
69 *4:73 *946:B 0.000144773
70 *6:82 *1302:B 1.97695e-05
71 *7:81 *17:61 0.000121573
72 *7:81 *17:67 2.29823e-05
73 *9:9 *774:B 0
74 *10:17 *774:B 0.000310505
75 *10:85 *774:B 0.000139907
*RES
1 b[6] *17:5 4.12895 
2 *17:5 *17:9 3.60113 
3 *17:9 *946:B 18.1661 
4 *17:9 *769:B 13.8 
5 *17:5 *17:33 13.0975 
6 *17:33 *1124:B 13.8 
7 *17:33 *17:46 14.5714 
8 *17:46 *1302:B 10.675 
9 *17:46 *17:61 16.1071 
10 *17:61 *17:67 12.8571 
11 *17:67 *1337:B 9.83571 
12 *17:67 *17:78 17.0714 
13 *17:78 *756:B 13.8 
14 *17:78 *774:B 23.425 
15 *17:61 *1319:B 14.8089 
*END

*D_NET *18 0.0124771
*CONN
*P b[7] I
*I *1321:B I *D sky130_fd_sc_hd__nand2_1
*I *759:B I *D sky130_fd_sc_hd__nand2_1
*I *776:B I *D sky130_fd_sc_hd__nand2_1
*I *1339:B I *D sky130_fd_sc_hd__nand2_1
*I *1304:B I *D sky130_fd_sc_hd__nand2_1
*I *1146:B I *D sky130_fd_sc_hd__nand2_1
*I *969:B I *D sky130_fd_sc_hd__nand2_1
*I *791:B I *D sky130_fd_sc_hd__nand2_1
*CAP
1 b[7] 0.00073733
2 *1321:B 0
3 *759:B 1.79444e-05
4 *776:B 0.000560631
5 *1339:B 4.58463e-05
6 *1304:B 0
7 *1146:B 0
8 *969:B 0
9 *791:B 0.000257588
10 *18:92 0.0010302
11 *18:75 0.00100218
12 *18:71 0.000974477
13 *18:50 0.000981176
14 *18:39 0.000992992
15 *18:22 0.000512505
16 *18:7 0.00102583
17 *759:B *760:A 1.04232e-05
18 *776:B *760:A 7.7723e-05
19 *776:B *1217:B 4.27437e-05
20 *776:B *1220:A 5.26184e-05
21 *776:B *1220:B 0
22 *776:B *1226:A 8.17978e-05
23 *776:B *62:6 4.11175e-05
24 *776:B *440:12 2.61337e-05
25 *776:B *505:21 0.000137983
26 *791:B *957:A 6.71359e-05
27 *791:B *408:14 7.90536e-05
28 *1339:B *1131:B 0
29 *1339:B *1132:A 3.99614e-06
30 *1339:B *1144:A 0
31 *1339:B *1340:A 3.93346e-05
32 *18:39 *834:A 0
33 *18:39 *847:A 0.000150773
34 *18:39 *847:B 6.66813e-05
35 *18:39 *848:A 6.27534e-05
36 *18:39 *980:A 0.000153047
37 *18:39 *144:16 0.000118761
38 *18:39 *430:12 9.66597e-05
39 *18:50 *917:A 0.00015244
40 *18:50 *920:A 7.54369e-06
41 *18:50 *990:A 0
42 *18:50 *1305:A 0.000128161
43 *18:50 *218:10 5.07157e-05
44 *18:50 *219:10 0
45 *18:50 *598:12 4.79842e-05
46 *18:71 *994:B 0
47 *18:71 *998:B 0.000129868
48 *18:71 *1055:A 0.000100831
49 *18:71 *1055:B 3.57366e-05
50 *18:71 *1322:A 4.22908e-05
51 *18:71 *287:10 0
52 *18:71 *293:10 0
53 *18:71 *598:12 4.1331e-06
54 *18:75 *1066:A 0
55 *18:75 *1067:A 0.000129868
56 *18:75 *1070:B 0
57 *18:75 *1074:A 0
58 *18:75 *1141:B 0
59 *18:75 *293:10 0
60 *18:75 *361:12 0
61 *18:75 *366:12 7.4826e-05
62 *18:75 *367:8 0
63 *18:92 *760:A 3.18676e-05
64 *18:92 *1140:A 0
65 *18:92 *1141:B 0
66 *18:92 *1142:A 0
67 *18:92 *1149:A 0.000153047
68 *18:92 *1149:B 0.000153047
69 *18:92 *1207:A 0.00010326
70 *18:92 *1219:A 0
71 *18:92 *435:12 0
72 *759:A *759:B 5.7661e-06
73 *759:A *18:92 4.72917e-05
74 *791:A *791:B 5.04841e-06
75 *969:A *791:B 4.46641e-05
76 *969:A *18:22 3.52572e-05
77 *1146:A *18:39 1.12669e-05
78 *1304:A *18:50 2.82057e-05
79 *1321:A *18:75 1.01912e-05
80 *1339:A *18:75 0.000177948
81 *1339:A *18:92 2.48938e-05
82 *9:19 *18:92 6.05161e-06
83 *17:5 *18:7 0.00128746
84 *17:33 *18:39 0
85 *17:46 *18:50 0
86 *17:61 *18:71 0
87 *17:67 *18:75 0
88 *17:78 *18:92 0
*RES
1 b[7] *18:7 6.81828 
2 *18:7 *791:B 18.4161 
3 *18:7 *18:22 0.883929 
4 *18:22 *969:B 13.8 
5 *18:22 *18:39 11.1607 
6 *18:39 *1146:B 13.8 
7 *18:39 *18:50 10.375 
8 *18:50 *1304:B 13.8 
9 *18:50 *18:71 14.0714 
10 *18:71 *18:75 14.0357 
11 *18:75 *1339:B 14.7643 
12 *18:75 *18:92 13.375 
13 *18:92 *776:B 27.2464 
14 *18:92 *759:B 9.72857 
15 *18:71 *1321:B 9.3 
*END

*D_NET *19 0.00152936
*CONN
*P p[0] O
*I *746:Y O *D sky130_fd_sc_hd__inv_1
*CAP
1 p[0] 0.000467925
2 *746:Y 0.000467925
3 *3:13 p[0] 1.11993e-05
4 *4:24 p[0] 1.66856e-05
5 *5:9 p[0] 0.000565629
*RES
1 *746:Y p[0] 26.6661 
*END

*D_NET *20 0.00145038
*CONN
*P p[10] O
*I *1260:Y O *D sky130_fd_sc_hd__nand2_1
*CAP
1 p[10] 0.000696023
2 *1260:Y 0.000696023
3 p[10] *1260:A 5.83304e-05
4 p[10] *1270:B 0
*RES
1 *1260:Y p[10] 27.3848 
*END

*D_NET *21 0.00134661
*CONN
*P p[11] O
*I *1270:Y O *D sky130_fd_sc_hd__nand2_1
*CAP
1 p[11] 0.000644146
2 *1270:Y 0.000644146
3 p[11] *1270:A 5.83233e-05
*RES
1 *1270:Y p[11] 26.8491 
*END

*D_NET *22 0.00186357
*CONN
*P p[12] O
*I *1280:Y O *D sky130_fd_sc_hd__nand2_1
*CAP
1 p[12] 0.000830824
2 *1280:Y 0.000830824
3 p[12] *1281:B 5.71472e-05
4 p[12] *560:20 0.000144773
*RES
1 *1280:Y p[12] 29.5277 
*END

*D_NET *23 0.00239028
*CONN
*P p[13] O
*I *1289:Y O *D sky130_fd_sc_hd__nand2_1
*CAP
1 p[13] 0.000632041
2 *1289:Y 0.000632041
3 p[13] *1286:B 8.43535e-06
4 p[13] *1287:A 0.000125724
5 p[13] *1288:B 5.52302e-05
6 p[13] *1289:B 9.71197e-05
7 *9:9 p[13] 0.000839689
*RES
1 *1289:Y p[13] 30.5991 
*END

*D_NET *24 0.000960992
*CONN
*P p[14] O
*I *1299:Y O *D sky130_fd_sc_hd__nand2_1
*CAP
1 p[14] 0.000349351
2 *1299:Y 0.000349351
3 p[14] p[15] 0.000229477
4 p[14] *1299:A 2.06178e-05
5 p[14] *1299:B 1.21955e-05
*RES
1 *1299:Y p[14] 18.8051 
*END

*D_NET *25 0.00106502
*CONN
*P p[15] O
*I *1300:Y O *D sky130_fd_sc_hd__nand2_1
*CAP
1 p[15] 0.000401868
2 *1300:Y 0.000401868
3 p[15] *1300:A 2.22043e-05
4 p[15] *577:10 9.60337e-06
5 p[14] p[15] 0.000229477
*RES
1 *1300:Y p[15] 18.8772 
*END

*D_NET *26 0.00123381
*CONN
*P p[1] O
*I *782:Y O *D sky130_fd_sc_hd__nand2_1
*CAP
1 p[1] 0.000581344
2 *782:Y 0.000581344
3 p[1] *779:B 5.71472e-05
4 p[1] *782:A 1.39726e-05
5 *4:5 p[1] 0
*RES
1 *782:Y p[1] 24.8536 
*END

*D_NET *27 0.00132808
*CONN
*P p[2] O
*I *852:Y O *D sky130_fd_sc_hd__nand2_1
*CAP
1 p[2] 0.000664041
2 *852:Y 0.000664041
3 p[2] *852:B 0
*RES
1 *852:Y p[2] 23.1313 
*END

*D_NET *28 0.0017552
*CONN
*P p[3] O
*I *928:Y O *D sky130_fd_sc_hd__nand2_1
*CAP
1 p[3] 0.000527395
2 *928:Y 0.000527395
3 *6:5 p[3] 0.000490014
4 *6:28 p[3] 0.000210396
*RES
1 *928:Y p[3] 19.3731 
*END

*D_NET *29 0.00159877
*CONN
*P p[4] O
*I *1004:Y O *D sky130_fd_sc_hd__nand2_1
*CAP
1 p[4] 0.000614816
2 *1004:Y 0.000614816
3 *7:7 p[4] 0.000273045
4 *7:24 p[4] 9.60939e-05
5 *11:21 p[4] 0
6 *11:29 p[4] 0
*RES
1 *1004:Y p[4] 24.47 
*END

*D_NET *30 0.00138295
*CONN
*P p[5] O
*I *1078:Y O *D sky130_fd_sc_hd__nand2_1
*CAP
1 p[5] 0.000514903
2 *1078:Y 0.000514903
3 *8:11 p[5] 0.000189705
4 *11:21 p[5] 0.000163437
*RES
1 *1078:Y p[5] 22.5083 
*END

*D_NET *31 0.00130415
*CONN
*P p[6] O
*I *1154:Y O *D sky130_fd_sc_hd__nand2_1
*CAP
1 p[6] 0.000652073
2 *1154:Y 0.000652073
3 p[6] *1154:B 0
4 *11:7 p[6] 0
*RES
1 *1154:Y p[6] 24.5401 
*END

*D_NET *32 0.00157806
*CONN
*P p[7] O
*I *1230:Y O *D sky130_fd_sc_hd__nand2_1
*CAP
1 p[7] 0.000689942
2 *1230:Y 0.000689942
3 p[7] *1230:A 5.30637e-06
4 *12:7 p[7] 0.000192875
*RES
1 *1230:Y p[7] 23.8654 
*END

*D_NET *33 0.00145893
*CONN
*P p[8] O
*I *1240:Y O *D sky130_fd_sc_hd__nand2_1
*CAP
1 p[8] 0.000700297
2 *1240:Y 0.000700297
3 p[8] *1240:A 5.83304e-05
*RES
1 *1240:Y p[8] 27.3848 
*END

*D_NET *34 0.00165862
*CONN
*P p[9] O
*I *1250:Y O *D sky130_fd_sc_hd__nand2_1
*CAP
1 p[9] 0.000778831
2 *1250:Y 0.000778831
3 p[9] *1250:B 0.00010096
4 p[9] *1259:A 0
*RES
1 *1250:Y p[9] 28.7062 
*END

*D_NET *35 0.000959776
*CONN
*I *1329:A I *D sky130_fd_sc_hd__inv_1
*I *1328:Y O *D sky130_fd_sc_hd__nand2_1
*CAP
1 *1329:A 0.00026959
2 *1328:Y 0.00026959
3 *1329:A *1092:A 2.89016e-05
4 *1329:A *1092:B 2.84026e-05
5 *1329:A *1093:A 0.000175526
6 *1329:A *1106:B 1.14548e-05
7 *1329:A *1108:A 5.66157e-05
8 *1329:A *36:8 1.59935e-05
9 *1329:A *326:12 2.89114e-05
10 *1329:A *391:6 2.59355e-05
11 *8:43 *1329:A 2.07878e-05
12 *8:54 *1329:A 2.80662e-05
*RES
1 *1328:Y *1329:A 33.0866 
*END

*D_NET *36 0.00163506
*CONN
*I *1094:A I *D sky130_fd_sc_hd__nand2_1
*I *1092:B I *D sky130_fd_sc_hd__nand2_1
*I *1329:Y O *D sky130_fd_sc_hd__inv_1
*CAP
1 *1094:A 0.000198868
2 *1092:B 0.000181478
3 *1329:Y 6.51423e-05
4 *36:8 0.000445489
5 *1092:B *1093:A 0.00020368
6 *1092:B *1094:B 5.83304e-05
7 *1092:B *1108:A 1.5942e-05
8 *1092:B *382:8 0.000148189
9 *1094:A *1094:B 0.00010253
10 *1094:A *1095:B 5.48009e-05
11 *1094:A *1108:A 5.10822e-05
12 *36:8 *391:6 8.25843e-06
13 *1329:A *1092:B 2.84026e-05
14 *1329:A *36:8 1.59935e-05
15 *8:54 *1092:B 5.68722e-05
16 *13:113 *1092:B 0
*RES
1 *1329:Y *36:8 14.5411 
2 *36:8 *1092:B 18.9964 
3 *36:8 *1094:A 17.7464 
*END

*D_NET *37 0.00027412
*CONN
*I *1331:A I *D sky130_fd_sc_hd__inv_1
*I *1330:Y O *D sky130_fd_sc_hd__nand2_1
*CAP
1 *1331:A 6.97666e-05
2 *1330:Y 6.97666e-05
3 *1331:A *1110:B 5.52238e-05
4 *1331:A *1116:B 0
5 *14:85 *1331:A 7.93632e-05
*RES
1 *1330:Y *1331:A 20.2563 
*END

*D_NET *38 0.00134721
*CONN
*I *1101:B I *D sky130_fd_sc_hd__nand2_1
*I *1104:A I *D sky130_fd_sc_hd__nand2_1
*I *1331:Y O *D sky130_fd_sc_hd__inv_1
*CAP
1 *1101:B 0
2 *1104:A 0.000252746
3 *1331:Y 0.000206348
4 *38:10 0.000459094
5 *1104:A *1104:B 0
6 *1104:A *1105:B 3.18676e-05
7 *1104:A *336:10 0.000103285
8 *38:10 *336:10 5.80706e-06
9 *38:10 *401:14 0.00010258
10 *38:10 *405:10 0
11 *1330:A *38:10 0
12 *1332:B *38:10 0
13 *8:54 *1104:A 0.000154027
14 *14:85 *38:10 3.14592e-05
*RES
1 *1331:Y *38:10 17.0054 
2 *38:10 *1104:A 19.3714 
3 *38:10 *1101:B 13.8 
*END

*D_NET *39 0.000908875
*CONN
*I *1333:A I *D sky130_fd_sc_hd__inv_1
*I *1332:Y O *D sky130_fd_sc_hd__nand2_1
*CAP
1 *1333:A 0.000224441
2 *1332:Y 0.000224441
3 *1333:A *336:10 0
4 *8:58 *1333:A 0.000128161
5 *8:86 *1333:A 0.000331832
6 *15:60 *1333:A 0
*RES
1 *1332:Y *1333:A 32.7027 
*END

*D_NET *40 0.0011042
*CONN
*I *1111:B I *D sky130_fd_sc_hd__nand2_1
*I *1114:A I *D sky130_fd_sc_hd__nand2_1
*I *1333:Y O *D sky130_fd_sc_hd__inv_1
*CAP
1 *1111:B 7.12492e-05
2 *1114:A 0.000106017
3 *1333:Y 0.0001537
4 *40:12 0.000330966
5 *1111:B *1112:A 4.51007e-05
6 *1111:B *402:8 8.43535e-06
7 *1114:A *1112:B 5.52238e-05
8 *1114:A *1114:B 4.56323e-05
9 *1114:A *1115:B 3.88658e-05
10 *1114:A *405:10 9.80173e-05
11 *40:12 *1115:A 4.25523e-05
12 *40:12 *1120:A 7.90803e-05
13 *1332:B *1114:A 9.7049e-06
14 *8:86 *40:12 1.96517e-05
15 *15:60 *40:12 0
16 *15:79 *40:12 0
*RES
1 *1333:Y *40:12 20.8804 
2 *40:12 *1114:A 11.9071 
3 *40:12 *1111:B 10.675 
*END

*D_NET *41 0.000564834
*CONN
*I *1336:A I *D sky130_fd_sc_hd__inv_1
*I *1335:Y O *D sky130_fd_sc_hd__nand2_1
*CAP
1 *1336:A 0.000187904
2 *1335:Y 0.000187904
3 *1336:A *42:6 1.66856e-05
4 *1336:A *346:12 0
5 *1336:A *415:12 3.55406e-05
6 *8:86 *1336:A 3.18676e-05
7 *8:95 *1336:A 2.89016e-05
8 *16:91 *1336:A 7.60306e-05
*RES
1 *1335:Y *1336:A 31.1402 
*END

*D_NET *42 0.000736017
*CONN
*I *1123:A I *D sky130_fd_sc_hd__nand2_1
*I *1121:B I *D sky130_fd_sc_hd__nand2_1
*I *1336:Y O *D sky130_fd_sc_hd__inv_1
*CAP
1 *1123:A 3.58421e-05
2 *1121:B 9.34755e-05
3 *1336:Y 0.000120522
4 *42:6 0.000249839
5 *1121:B *1122:A 0
6 *1121:B *356:12 5.80706e-06
7 *1121:B *412:10 5.33882e-05
8 *1123:A *1125:B 1.04232e-05
9 *42:6 *1125:A 3.63954e-05
10 *42:6 *1125:B 1.92789e-05
11 *42:6 *415:12 7.49387e-06
12 *1336:A *42:6 1.66856e-05
13 *16:91 *1121:B 8.68665e-05
*RES
1 *1336:Y *42:6 11.2732 
2 *42:6 *1121:B 20.55 
3 *42:6 *1123:A 10.0321 
*END

*D_NET *43 0.000656026
*CONN
*I *1338:A I *D sky130_fd_sc_hd__inv_1
*I *1337:Y O *D sky130_fd_sc_hd__nand2_1
*CAP
1 *1338:A 0.000244395
2 *1337:Y 0.000244395
3 *1338:A *1122:A 0
4 *1338:A *425:12 7.90697e-05
5 *1339:A *1338:A 3.18676e-05
6 *8:95 *1338:A 5.62995e-05
7 *17:78 *1338:A 0
*RES
1 *1337:Y *1338:A 31.5509 
*END

*D_NET *44 0.000852608
*CONN
*I *1131:B I *D sky130_fd_sc_hd__nand2_1
*I *1133:A I *D sky130_fd_sc_hd__nand2_1
*I *1338:Y O *D sky130_fd_sc_hd__inv_1
*CAP
1 *1131:B 0.000148674
2 *1133:A 3.58421e-05
3 *1338:Y 9.85197e-05
4 *44:6 0.000283035
5 *1131:B *1132:A 3.89309e-05
6 *1131:B *1132:B 3.18676e-05
7 *1131:B *1134:A 2.49291e-05
8 *1131:B *1134:B 1.92789e-05
9 *1131:B *422:10 9.22103e-06
10 *1133:A *1132:A 0
11 *1133:A *1134:B 1.04232e-05
12 *44:6 *1134:A 9.22103e-06
13 *44:6 *1134:B 2.27416e-05
14 *44:6 *425:12 0.000119924
15 *1339:B *1131:B 0
*RES
1 *1338:Y *44:6 11.2732 
2 *44:6 *1133:A 10.0321 
3 *44:6 *1131:B 12.6214 
*END

*D_NET *45 0.00021478
*CONN
*I *1340:A I *D sky130_fd_sc_hd__inv_1
*I *1339:Y O *D sky130_fd_sc_hd__nand2_1
*CAP
1 *1340:A 8.77227e-05
2 *1339:Y 8.77227e-05
3 *1340:A *1132:A 0
4 *1340:A *1143:A 0
5 *1340:A *1144:A 0
6 *1339:B *1340:A 3.93346e-05
*RES
1 *1339:Y *1340:A 20.2563 
*END

*D_NET *46 0.00107783
*CONN
*I *1143:A I *D sky130_fd_sc_hd__nand2_1
*I *1141:B I *D sky130_fd_sc_hd__nand2_1
*I *1340:Y O *D sky130_fd_sc_hd__inv_1
*CAP
1 *1143:A 5.42689e-05
2 *1141:B 0.000180636
3 *1340:Y 8.16854e-05
4 *46:6 0.00031659
5 *1141:B *1142:A 0.000236814
6 *1141:B *367:8 9.25014e-06
7 *1141:B *432:10 3.69047e-06
8 *1143:A *1142:A 6.49351e-05
9 *1143:A *1142:B 5.7661e-06
10 *1143:A *1144:A 8.43535e-06
11 *1143:A *1144:B 3.93346e-05
12 *46:6 *1144:A 1.92789e-05
13 *46:6 *435:12 5.71472e-05
14 *1340:A *1143:A 0
15 *18:75 *1141:B 0
16 *18:92 *1141:B 0
*RES
1 *1340:Y *46:6 10.8625 
2 *46:6 *1141:B 21.9964 
3 *46:6 *1143:A 10.675 
*END

*D_NET *47 0.000370601
*CONN
*I *1342:A I *D sky130_fd_sc_hd__inv_1
*I *1341:Y O *D sky130_fd_sc_hd__nand2_1
*CAP
1 *1342:A 0.00012122
2 *1341:Y 0.00012122
3 *11:15 *1342:A 0.000128161
4 *12:19 *1342:A 0
*RES
1 *1341:Y *1342:A 29.9348 
*END

*D_NET *48 0.000579976
*CONN
*I *1153:A I *D sky130_fd_sc_hd__nand2_1
*I *1151:B I *D sky130_fd_sc_hd__nand2_1
*I *1342:Y O *D sky130_fd_sc_hd__inv_1
*CAP
1 *1153:A 0.000161593
2 *1151:B 0
3 *1342:Y 4.08931e-05
4 *48:6 0.000202486
5 *1153:A *1152:A 5.52238e-05
6 *1153:A *1152:B 1.04232e-05
7 *1153:A *1153:B 3.76337e-05
8 *1153:A *442:6 7.17235e-05
*RES
1 *1342:Y *48:6 10.0411 
2 *48:6 *1151:B 9.3 
3 *48:6 *1153:A 12.7464 
*END

*D_NET *49 0.00026753
*CONN
*I *1344:A I *D sky130_fd_sc_hd__inv_1
*I *1343:Y O *D sky130_fd_sc_hd__nand2_1
*CAP
1 *1344:A 3.2639e-05
2 *1343:Y 3.2639e-05
3 *1341:A *1344:A 1.74352e-05
4 *1343:A *1344:A 1.04232e-05
5 *9:58 *1344:A 5.44341e-05
6 *12:15 *1344:A 0.00011996
*RES
1 *1343:Y *1344:A 20.2563 
*END

*D_NET *50 0.000728196
*CONN
*I *1156:B I *D sky130_fd_sc_hd__nand2_1
*I *1159:A I *D sky130_fd_sc_hd__nand2_1
*I *1344:Y O *D sky130_fd_sc_hd__inv_1
*CAP
1 *1156:B 2.16932e-05
2 *1159:A 0.000112512
3 *1344:Y 4.66029e-05
4 *50:6 0.000180808
5 *1159:A *1160:B 0.000125724
6 *1159:A *390:12 6.04162e-05
7 *9:58 *1156:B 4.27935e-05
8 *9:58 *50:6 0.000117994
9 *12:15 *50:6 1.96517e-05
10 *12:19 *1159:A 0
*RES
1 *1344:Y *50:6 10.4518 
2 *50:6 *1159:A 21.0857 
3 *50:6 *1156:B 9.83571 
*END

*D_NET *51 0.000944092
*CONN
*I *749:A I *D sky130_fd_sc_hd__inv_1
*I *748:Y O *D sky130_fd_sc_hd__nand2_1
*CAP
1 *749:A 0.000169874
2 *748:Y 0.000169874
3 *749:A *1167:A 5.52238e-05
4 *749:A *1167:B 3.14193e-05
5 *749:A *1169:A 5.33005e-05
6 *749:A *52:6 6.17507e-05
7 *749:A *400:14 6.37518e-05
8 *765:B *749:A 0.000308031
9 *9:58 *749:A 3.08664e-05
*RES
1 *748:Y *749:A 23.542 
*END

*D_NET *52 0.000704533
*CONN
*I *1166:B I *D sky130_fd_sc_hd__nand2_1
*I *1169:A I *D sky130_fd_sc_hd__nand2_1
*I *749:Y O *D sky130_fd_sc_hd__inv_1
*CAP
1 *1166:B 0
2 *1169:A 9.87406e-05
3 *749:Y 2.02127e-05
4 *52:6 0.000118953
5 *1169:A *1169:B 4.66203e-05
6 *1169:A *1170:B 0.000123288
7 *1169:A *400:14 5.33005e-05
8 *52:6 *400:14 7.41875e-05
9 *749:A *1169:A 5.33005e-05
10 *749:A *52:6 6.17507e-05
11 *765:B *1169:A 5.41794e-05
*RES
1 *749:Y *52:6 10.0411 
2 *52:6 *1169:A 21.0857 
3 *52:6 *1166:B 9.3 
*END

*D_NET *53 0.000452433
*CONN
*I *751:A I *D sky130_fd_sc_hd__inv_1
*I *750:Y O *D sky130_fd_sc_hd__nand2_1
*CAP
1 *751:A 0.000180736
2 *750:Y 0.000180736
3 *751:A *54:10 1.66856e-05
4 *751:A *400:14 0
5 *767:B *751:A 4.35048e-05
6 *9:33 *751:A 1.33343e-05
7 *9:45 *751:A 1.74352e-05
*RES
1 *750:Y *751:A 30.4259 
*END

*D_NET *54 0.0006365
*CONN
*I *1178:A I *D sky130_fd_sc_hd__nand2_1
*I *1176:B I *D sky130_fd_sc_hd__nand2_1
*I *751:Y O *D sky130_fd_sc_hd__inv_1
*CAP
1 *1178:A 1.4849e-05
2 *1176:B 0
3 *751:Y 0.000160491
4 *54:10 0.00017534
5 *1178:A *1180:B 1.92789e-05
6 *1178:A *410:16 4.18895e-05
7 *54:10 *1177:A 2.89114e-05
8 *54:10 *1177:B 2.47724e-05
9 *54:10 *1180:B 7.45824e-05
10 *54:10 *410:16 7.96992e-05
11 *751:A *54:10 1.66856e-05
*RES
1 *751:Y *54:10 12.9518 
2 *54:10 *1176:B 9.3 
3 *54:10 *1178:A 9.83571 
*END

*D_NET *55 0.000248396
*CONN
*I *753:A I *D sky130_fd_sc_hd__inv_1
*I *752:Y O *D sky130_fd_sc_hd__nand2_1
*CAP
1 *753:A 5.48176e-05
2 *752:Y 5.48176e-05
3 *753:A *1186:A 0
4 *753:A *1189:A 6.64419e-05
5 *752:A *753:A 1.04232e-05
6 *752:B *753:A 1.57565e-05
7 *770:B *753:A 1.5424e-05
8 *9:23 *753:A 3.07146e-05
*RES
1 *752:Y *753:A 20.2563 
*END

*D_NET *56 0.000585474
*CONN
*I *1186:B I *D sky130_fd_sc_hd__nand2_1
*I *1188:A I *D sky130_fd_sc_hd__nand2_1
*I *753:Y O *D sky130_fd_sc_hd__inv_1
*CAP
1 *1186:B 1.86367e-05
2 *1188:A 0.000126618
3 *753:Y 9.30032e-06
4 *56:6 0.000154555
5 *1186:B *1189:A 5.33433e-05
6 *1188:A *1189:A 5.9483e-05
7 *56:6 *1189:A 1.66856e-05
8 *770:B *1188:A 7.83366e-05
9 *9:23 *1186:B 4.88637e-05
10 *9:23 *56:6 1.96517e-05
11 *15:79 *1188:A 0
*RES
1 *753:Y *56:6 9.63036 
2 *56:6 *1188:A 21.1571 
3 *56:6 *1186:B 10.2464 
*END

*D_NET *57 0.000265133
*CONN
*I *755:A I *D sky130_fd_sc_hd__inv_1
*I *754:Y O *D sky130_fd_sc_hd__nand2_1
*CAP
1 *755:A 3.97612e-05
2 *754:Y 3.97612e-05
3 *755:A *1197:B 1.3701e-05
4 *755:A *1199:A 2.62635e-05
5 *754:A *755:A 1.04232e-05
6 *772:B *755:A 6.68521e-05
7 *9:19 *755:A 5.09353e-05
8 *9:23 *755:A 1.74352e-05
*RES
1 *754:Y *755:A 20.2563 
*END

*D_NET *58 0.000981813
*CONN
*I *1197:B I *D sky130_fd_sc_hd__nand2_1
*I *1199:A I *D sky130_fd_sc_hd__nand2_1
*I *755:Y O *D sky130_fd_sc_hd__inv_1
*CAP
1 *1197:B 9.09695e-05
2 *1199:A 0.00016563
3 *755:Y 0
4 *58:4 0.0002566
5 *1199:A *1200:A 0.00015234
6 *755:A *1197:B 1.3701e-05
7 *755:A *1199:A 2.62635e-05
8 *772:B *1197:B 0
9 *772:B *1199:A 0.000205849
10 *9:19 *1197:B 5.56195e-05
11 *9:19 *1199:A 1.48401e-05
*RES
1 *755:Y *58:4 9.3 
2 *58:4 *1199:A 21.8089 
3 *58:4 *1197:B 11.0768 
*END

*D_NET *59 0.000274585
*CONN
*I *757:A I *D sky130_fd_sc_hd__inv_1
*I *756:Y O *D sky130_fd_sc_hd__nand2_1
*CAP
1 *757:A 4.68698e-05
2 *756:Y 4.68698e-05
3 *757:A *1209:A 1.66568e-05
4 *757:A *496:12 0.000110756
5 *756:A *757:A 5.34326e-05
*RES
1 *756:Y *757:A 20.2563 
*END

*D_NET *60 0.000704724
*CONN
*I *1207:B I *D sky130_fd_sc_hd__nand2_1
*I *1209:A I *D sky130_fd_sc_hd__nand2_1
*I *757:Y O *D sky130_fd_sc_hd__inv_1
*CAP
1 *1207:B 1.25153e-05
2 *1209:A 0.000197895
3 *757:Y 0.000210411
4 *1207:B *496:12 4.40835e-05
5 *1209:A *496:12 4.49613e-05
6 *756:A *1207:B 4.40835e-05
7 *756:A *1209:A 0.000134118
8 *757:A *1209:A 1.66568e-05
*RES
1 *757:Y *1209:A 22.2696 
2 *757:Y *1207:B 19.3411 
*END

*D_NET *61 0.000310479
*CONN
*I *760:A I *D sky130_fd_sc_hd__inv_1
*I *759:Y O *D sky130_fd_sc_hd__nand2_1
*CAP
1 *760:A 9.03799e-05
2 *759:Y 9.03799e-05
3 *759:A *760:A 9.7049e-06
4 *759:B *760:A 1.04232e-05
5 *776:B *760:A 7.7723e-05
6 *18:92 *760:A 3.18676e-05
*RES
1 *759:Y *760:A 21.0777 
*END

*D_NET *62 0.00058659
*CONN
*I *1217:B I *D sky130_fd_sc_hd__nand2_1
*I *1219:A I *D sky130_fd_sc_hd__nand2_1
*I *760:Y O *D sky130_fd_sc_hd__inv_1
*CAP
1 *1217:B 4.83993e-05
2 *1219:A 9.64613e-05
3 *760:Y 3.36039e-05
4 *62:6 0.000178465
5 *1219:A *1149:A 0
6 *1219:A *1219:B 2.00751e-05
7 *1219:A *1220:B 0.000125724
8 *776:B *1217:B 4.27437e-05
9 *776:B *62:6 4.11175e-05
10 *18:92 *1219:A 0
*RES
1 *760:Y *62:6 10.0411 
2 *62:6 *1219:A 20.55 
3 *62:6 *1217:B 10.2464 
*END

*D_NET *63 0.000411695
*CONN
*I *762:A I *D sky130_fd_sc_hd__inv_1
*I *761:Y O *D sky130_fd_sc_hd__nand2_1
*CAP
1 *762:A 0.000129324
2 *761:Y 0.000129324
3 *762:A *1229:B 0
4 *763:B *762:A 0.000153047
*RES
1 *761:Y *762:A 30.2384 
*END

*D_NET *64 0.000775718
*CONN
*I *1227:B I *D sky130_fd_sc_hd__nand2_1
*I *1229:A I *D sky130_fd_sc_hd__nand2_1
*I *762:Y O *D sky130_fd_sc_hd__inv_1
*CAP
1 *1227:B 0
2 *1229:A 0.000206158
3 *762:Y 4.21285e-05
4 *64:6 0.000248287
5 *1229:A *1228:B 1.24368e-05
6 *1229:A *1229:B 0.000190282
7 *1229:A *1230:B 1.92789e-05
8 *1229:A *454:12 0
9 *761:B *1229:A 5.71472e-05
*RES
1 *762:Y *64:6 10.0411 
2 *64:6 *1229:A 22.2286 
3 *64:6 *1227:B 9.3 
*END

*D_NET *65 0.000211083
*CONN
*I *764:A I *D sky130_fd_sc_hd__inv_1
*I *763:Y O *D sky130_fd_sc_hd__nand2_1
*CAP
1 *764:A 7.37466e-05
2 *763:Y 7.37466e-05
3 *763:A *764:A 6.35901e-05
*RES
1 *763:Y *764:A 20.2563 
*END

*D_NET *66 0.000400687
*CONN
*I *1232:B I *D sky130_fd_sc_hd__nand2_1
*I *1234:A I *D sky130_fd_sc_hd__nand2_1
*I *764:Y O *D sky130_fd_sc_hd__inv_1
*CAP
1 *1232:B 2.55173e-05
2 *1234:A 0
3 *764:Y 0.000129899
4 *66:12 0.000155416
5 *1232:B *1234:B 5.49544e-05
6 *763:A *66:12 3.49005e-05
*RES
1 *764:Y *66:12 20.2732 
2 *66:12 *1234:A 9.3 
3 *66:12 *1232:B 9.83571 
*END

*D_NET *67 0.000523862
*CONN
*I *766:A I *D sky130_fd_sc_hd__inv_1
*I *765:Y O *D sky130_fd_sc_hd__nand2_1
*CAP
1 *766:A 0.000129026
2 *765:Y 0.000129026
3 *763:A *766:A 5.33005e-05
4 *10:27 *766:A 5.94614e-05
5 *10:42 *766:A 0.000153047
*RES
1 *765:Y *766:A 30.6491 
*END

*D_NET *68 0.000654596
*CONN
*I *1242:B I *D sky130_fd_sc_hd__nand2_1
*I *1244:A I *D sky130_fd_sc_hd__nand2_1
*I *766:Y O *D sky130_fd_sc_hd__inv_1
*CAP
1 *1242:B 4.85914e-05
2 *1244:A 0
3 *766:Y 0.000132347
4 *68:12 0.000180938
5 *1242:B *1243:B 0
6 *1242:B *1244:B 4.80569e-05
7 *1242:B *1245:A 0.00018051
8 *1242:B *1245:B 2.89114e-05
9 *68:12 *474:12 0
10 *10:27 *68:12 3.52408e-05
*RES
1 *766:Y *68:12 20.2732 
2 *68:12 *1244:A 9.3 
3 *68:12 *1242:B 11.5143 
*END

*D_NET *69 0.000222084
*CONN
*I *768:A I *D sky130_fd_sc_hd__inv_1
*I *767:Y O *D sky130_fd_sc_hd__nand2_1
*CAP
1 *768:A 5.65128e-05
2 *767:Y 5.65128e-05
3 *767:A *768:A 1.04232e-05
4 *10:25 *768:A 6.67678e-05
5 *10:27 *768:A 3.18676e-05
*RES
1 *767:Y *768:A 20.2563 
*END

*D_NET *70 0.000699062
*CONN
*I *1254:A I *D sky130_fd_sc_hd__nand2_1
*I *1252:B I *D sky130_fd_sc_hd__nand2_1
*I *768:Y O *D sky130_fd_sc_hd__inv_1
*CAP
1 *1254:A 0
2 *1252:B 0.000111614
3 *768:Y 0.000174362
4 *70:12 0.000285976
5 *1252:B *1253:B 0
6 *1252:B *1254:B 4.80569e-05
7 *70:12 *483:12 0
8 *10:25 *70:12 7.90536e-05
*RES
1 *768:Y *70:12 20.6839 
2 *70:12 *1252:B 11.5143 
3 *70:12 *1254:A 9.3 
*END

*D_NET *71 0.000314115
*CONN
*I *771:A I *D sky130_fd_sc_hd__inv_1
*I *770:Y O *D sky130_fd_sc_hd__nand2_1
*CAP
1 *771:A 8.67885e-05
2 *770:Y 8.67885e-05
3 *770:A *771:A 1.04232e-05
4 *10:19 *771:A 9.8247e-05
5 *10:25 *771:A 3.18676e-05
*RES
1 *770:Y *771:A 20.667 
*END

*D_NET *72 0.000584622
*CONN
*I *1264:A I *D sky130_fd_sc_hd__nand2_1
*I *1262:B I *D sky130_fd_sc_hd__nand2_1
*I *771:Y O *D sky130_fd_sc_hd__inv_1
*CAP
1 *1264:A 0
2 *1262:B 0.000105554
3 *771:Y 0.000149089
4 *72:12 0.000254643
5 *1262:B *1263:B 0
6 *1262:B *1264:B 4.80569e-05
7 *1262:B *1265:B 1.32552e-05
8 *72:12 *493:12 0
9 *10:19 *72:12 1.4024e-05
*RES
1 *771:Y *72:12 20.2732 
2 *72:12 *1262:B 11.5143 
3 *72:12 *1264:A 9.3 
*END

*D_NET *73 0.00027166
*CONN
*I *773:A I *D sky130_fd_sc_hd__inv_1
*I *772:Y O *D sky130_fd_sc_hd__nand2_1
*CAP
1 *773:A 8.80387e-05
2 *772:Y 8.80387e-05
3 *772:A *773:A 1.04232e-05
4 *10:17 *773:A 5.32912e-05
5 *10:19 *773:A 3.18676e-05
*RES
1 *772:Y *773:A 20.667 
*END

*D_NET *74 0.000604174
*CONN
*I *1274:A I *D sky130_fd_sc_hd__nand2_1
*I *1272:B I *D sky130_fd_sc_hd__nand2_1
*I *773:Y O *D sky130_fd_sc_hd__inv_1
*CAP
1 *1274:A 0
2 *1272:B 8.8822e-05
3 *773:Y 0.000151913
4 *74:12 0.000240735
5 *1272:B *1274:B 4.80569e-05
6 *1272:B *1275:A 4.18425e-05
7 *1272:B *1275:B 2.21417e-05
8 *1272:B *555:17 0
9 *74:12 *503:10 0
10 *10:17 *74:12 1.06618e-05
*RES
1 *773:Y *74:12 20.2732 
2 *74:12 *1272:B 11.5143 
3 *74:12 *1274:A 9.3 
*END

*D_NET *75 0.000258143
*CONN
*I *775:A I *D sky130_fd_sc_hd__inv_1
*I *774:Y O *D sky130_fd_sc_hd__nand2_1
*CAP
1 *775:A 9.95832e-05
2 *774:Y 9.95832e-05
3 *775:A *76:12 1.96517e-05
4 *10:85 *775:A 3.93247e-05
*RES
1 *774:Y *775:A 20.6223 
*END

*D_NET *76 0.000601351
*CONN
*I *1282:B I *D sky130_fd_sc_hd__nand2_1
*I *1284:A I *D sky130_fd_sc_hd__nand2_1
*I *775:Y O *D sky130_fd_sc_hd__inv_1
*CAP
1 *1282:B 0
2 *1284:A 8.81085e-05
3 *775:Y 0.000113913
4 *76:12 0.000202021
5 *1284:A *1283:B 0
6 *1284:A *1284:B 4.50908e-05
7 *1284:A *1285:A 4.52936e-05
8 *1284:A *1285:B 2.30392e-05
9 *76:12 *513:12 6.42338e-05
10 *775:A *76:12 1.96517e-05
11 *9:9 *76:12 0
*RES
1 *775:Y *76:12 20.2732 
2 *76:12 *1284:A 11.5143 
3 *76:12 *1282:B 9.3 
*END

*D_NET *77 0.000394497
*CONN
*I *777:A I *D sky130_fd_sc_hd__inv_1
*I *776:Y O *D sky130_fd_sc_hd__nand2_1
*CAP
1 *777:A 0.000140647
2 *776:Y 0.000140647
3 *777:A *1226:B 3.88751e-05
4 *777:A *514:12 7.43279e-05
5 *776:A *777:A 0
*RES
1 *776:Y *777:A 21.4884 
*END

*D_NET *78 0.000448792
*CONN
*I *1292:B I *D sky130_fd_sc_hd__nand2_1
*I *1294:A I *D sky130_fd_sc_hd__nand2_1
*I *777:Y O *D sky130_fd_sc_hd__inv_1
*CAP
1 *1292:B 0
2 *1294:A 1.1624e-05
3 *777:Y 0.000108969
4 *78:12 0.000120593
5 *1294:A *1294:B 5.52238e-05
6 *1294:A *1295:B 5.52238e-05
7 *78:12 *514:12 9.71589e-05
*RES
1 *777:Y *78:12 20.2732 
2 *78:12 *1294:A 9.83571 
3 *78:12 *1292:B 9.3 
*END

*D_NET *79 0.00137944
*CONN
*I *783:A I *D sky130_fd_sc_hd__inv_1
*I *779:B I *D sky130_fd_sc_hd__nand2_1
*I *781:B I *D sky130_fd_sc_hd__nand2_1
*I *778:Y O *D sky130_fd_sc_hd__nand2_1
*CAP
1 *783:A 0.00016881
2 *779:B 0.000291174
3 *781:B 0.000109802
4 *778:Y 0.000109802
5 *79:20 0.000459983
6 *779:B *779:A 0
7 *779:B *782:A 4.22908e-05
8 *779:B *782:B 0
9 *779:B *824:A 5.48581e-05
10 *781:B *778:A 0
11 *781:B *781:A 5.71472e-05
12 *781:B *278:8 2.8428e-05
13 p[1] *779:B 5.71472e-05
14 *813:B *779:B 0
15 *813:B *783:A 0
16 *11:48 *783:A 0
*RES
1 *778:Y *781:B 20.7964 
2 *778:Y *79:20 13.8 
3 *79:20 *779:B 18.9429 
4 *79:20 *783:A 16.5455 
*END

*D_NET *80 0.000183579
*CONN
*I *782:A I *D sky130_fd_sc_hd__nand2_1
*I *779:Y O *D sky130_fd_sc_hd__nand2_1
*CAP
1 *782:A 5.99397e-05
2 *779:Y 5.99397e-05
3 *782:A *824:A 7.43578e-06
4 p[1] *782:A 1.39726e-05
5 *779:B *782:A 4.22908e-05
*RES
1 *779:Y *782:A 19.975 
*END

*D_NET *81 0.000392538
*CONN
*I *782:B I *D sky130_fd_sc_hd__nand2_1
*I *781:Y O *D sky130_fd_sc_hd__nand2_1
*CAP
1 *782:B 0.000196269
2 *781:Y 0.000196269
3 *779:B *782:B 0
*RES
1 *781:Y *782:B 30.9036 
*END

*D_NET *82 0.000448648
*CONN
*I *788:B I *D sky130_fd_sc_hd__nand2_1
*I *790:A I *D sky130_fd_sc_hd__nand2_1
*I *783:Y O *D sky130_fd_sc_hd__inv_1
*CAP
1 *788:B 0
2 *790:A 2.52229e-05
3 *783:Y 0.000133479
4 *82:12 0.000158702
5 *790:A *790:B 5.52238e-05
6 *11:48 *82:12 7.6021e-05
*RES
1 *783:Y *82:12 20.5768 
2 *82:12 *790:A 9.83571 
3 *82:12 *788:B 9.3 
*END

*D_NET *83 0.00102676
*CONN
*I *793:A I *D sky130_fd_sc_hd__nand2_1
*I *785:B I *D sky130_fd_sc_hd__nand2_1
*I *786:B I *D sky130_fd_sc_hd__nand2_1
*I *784:Y O *D sky130_fd_sc_hd__nand2_1
*CAP
1 *793:A 0.000166753
2 *785:B 0
3 *786:B 8.21744e-06
4 *784:Y 0.000265393
5 *83:8 0.000106857
6 *786:B *786:A 5.65955e-05
7 *786:B *787:A 2.36643e-05
8 *793:A *91:6 9.99853e-05
9 *83:8 *784:B 5.17099e-05
10 *83:8 *785:A 1.34548e-05
11 *83:8 *786:A 2.51966e-05
12 *83:8 *787:A 5.65955e-05
13 *1079:B *793:A 0
14 *13:46 *793:A 0.00015234
*RES
1 *784:Y *83:8 11.4964 
2 *83:8 *786:B 9.83571 
3 *83:8 *785:B 9.3 
4 *784:Y *793:A 31.0286 
*END

*D_NET *84 0.00072478
*CONN
*I *787:A I *D sky130_fd_sc_hd__nand2_1
*I *785:Y O *D sky130_fd_sc_hd__nand2_1
*CAP
1 *787:A 0.000171129
2 *785:Y 0.000171129
3 *787:A *786:A 3.28516e-05
4 *787:A *787:B 8.06427e-05
5 *787:A *846:A 1.32552e-05
6 *786:B *787:A 2.36643e-05
7 *5:9 *787:A 0.000175512
8 *13:46 *787:A 0
9 *83:8 *787:A 5.65955e-05
*RES
1 *785:Y *787:A 32.0286 
*END

*D_NET *85 0.000247619
*CONN
*I *787:B I *D sky130_fd_sc_hd__nand2_1
*I *786:Y O *D sky130_fd_sc_hd__nand2_1
*CAP
1 *787:B 8.34881e-05
2 *786:Y 8.34881e-05
3 *787:A *787:B 8.06427e-05
*RES
1 *786:Y *787:B 29.5464 
*END

*D_NET *86 0.000900882
*CONN
*I *789:A I *D sky130_fd_sc_hd__nand2_1
*I *788:A I *D sky130_fd_sc_hd__nand2_1
*I *787:Y O *D sky130_fd_sc_hd__nand2_1
*CAP
1 *789:A 0
2 *788:A 2.01725e-05
3 *787:Y 0.000200108
4 *86:8 0.000220281
5 *788:A *87:21 5.52302e-05
6 *86:8 *793:B 0.000300755
7 *86:8 *87:21 0.000104336
*RES
1 *787:Y *86:8 13.9607 
2 *86:8 *788:A 9.83571 
3 *86:8 *789:A 9.3 
*END

*D_NET *87 0.00151679
*CONN
*I *793:B I *D sky130_fd_sc_hd__nand2_1
*I *789:B I *D sky130_fd_sc_hd__nand2_1
*I *790:B I *D sky130_fd_sc_hd__nand2_1
*I *788:Y O *D sky130_fd_sc_hd__nand2_1
*CAP
1 *793:B 0.000242844
2 *789:B 0
3 *790:B 0.000121353
4 *788:Y 0
5 *87:21 0.00033026
6 *87:4 0.000208769
7 *87:21 *792:A 9.80173e-05
8 *788:A *87:21 5.52302e-05
9 *790:A *790:B 5.52238e-05
10 *86:8 *793:B 0.000300755
11 *86:8 *87:21 0.000104336
*RES
1 *788:Y *87:4 9.3 
2 *87:4 *790:B 11.4964 
3 *87:4 *87:21 3.05357 
4 *87:21 *789:B 9.3 
5 *87:21 *793:B 14.5143 
*END

*D_NET *88 0.000515451
*CONN
*I *792:A I *D sky130_fd_sc_hd__nand2_1
*I *789:Y O *D sky130_fd_sc_hd__nand2_1
*CAP
1 *792:A 0.000109741
2 *789:Y 0.000109741
3 *792:A *792:B 6.97972e-05
4 *11:48 *792:A 0.000128154
5 *87:21 *792:A 9.80173e-05
*RES
1 *789:Y *792:A 30.1893 
*END

*D_NET *89 0.000206275
*CONN
*I *792:B I *D sky130_fd_sc_hd__nand2_1
*I *790:Y O *D sky130_fd_sc_hd__nand2_1
*CAP
1 *792:B 6.82389e-05
2 *790:Y 6.82389e-05
3 *792:B *852:A 0
4 *792:A *792:B 6.97972e-05
*RES
1 *790:Y *792:B 29.2429 
*END

*D_NET *90 0.000952172
*CONN
*I *849:A I *D sky130_fd_sc_hd__nand2_1
*I *850:A I *D sky130_fd_sc_hd__nand2_1
*I *792:Y O *D sky130_fd_sc_hd__nand2_1
*CAP
1 *849:A 0
2 *850:A 1.17665e-05
3 *792:Y 0.000370616
4 *90:12 0.000382383
5 *850:A *851:A 5.49995e-05
6 *850:A *146:6 5.49995e-05
7 *90:12 *852:A 7.74068e-05
*RES
1 *792:Y *90:12 23.2464 
2 *90:12 *850:A 9.83571 
3 *90:12 *849:A 9.3 
*END

*D_NET *91 0.000599568
*CONN
*I *798:B I *D sky130_fd_sc_hd__nand2_1
*I *800:A I *D sky130_fd_sc_hd__nand2_1
*I *793:Y O *D sky130_fd_sc_hd__nand2_1
*CAP
1 *798:B 7.93668e-05
2 *800:A 1.87205e-05
3 *793:Y 0.000104829
4 *91:6 0.000202917
5 *798:B *800:B 7.60962e-05
6 *798:B *801:B 1.34631e-05
7 *800:A *800:B 4.1896e-06
8 *793:A *91:6 9.99853e-05
*RES
1 *793:Y *91:6 11.0679 
2 *91:6 *800:A 9.72857 
3 *91:6 *798:B 11.0857 
*END

*D_NET *92 0.00115938
*CONN
*I *803:A I *D sky130_fd_sc_hd__nand2_1
*I *795:B I *D sky130_fd_sc_hd__nand2_1
*I *796:B I *D sky130_fd_sc_hd__nand2_1
*I *794:Y O *D sky130_fd_sc_hd__nand2_1
*CAP
1 *803:A 0.000215399
2 *795:B 0
3 *796:B 0.000179776
4 *794:Y 8.91241e-05
5 *92:10 0.000179776
6 *92:8 0.000304523
7 *796:B *797:A 3.93247e-05
8 *796:B *797:B 5.51765e-05
9 *796:B *96:12 2.52969e-05
10 *803:A *795:A 1.02504e-05
11 *92:8 *795:A 6.07328e-05
12 *92:8 *796:A 0
13 *14:35 *803:A 0
*RES
1 *794:Y *92:8 15.4429 
2 *92:8 *92:10 4.5 
3 *92:10 *796:B 12.7464 
4 *92:10 *795:B 9.3 
5 *92:8 *803:A 17.1929 
*END

*D_NET *93 0.000192316
*CONN
*I *797:A I *D sky130_fd_sc_hd__nand2_1
*I *795:Y O *D sky130_fd_sc_hd__nand2_1
*CAP
1 *797:A 6.66111e-05
2 *795:Y 6.66111e-05
3 *797:A *797:B 1.97695e-05
4 *796:B *797:A 3.93247e-05
*RES
1 *795:Y *797:A 19.975 
*END

*D_NET *94 0.000630268
*CONN
*I *746:A I *D sky130_fd_sc_hd__inv_1
*I *745:Y O *D sky130_fd_sc_hd__nand2_1
*CAP
1 *746:A 0.000192288
2 *745:Y 0.000192288
3 *746:A *968:A 2.24763e-05
4 *745:A *746:A 5.52238e-05
5 *745:B *746:A 0
6 *857:B *746:A 5.52302e-05
7 *4:24 *746:A 0.000112762
*RES
1 *745:Y *746:A 22.3098 
*END

*D_NET *95 0.000202405
*CONN
*I *797:B I *D sky130_fd_sc_hd__nand2_1
*I *796:Y O *D sky130_fd_sc_hd__nand2_1
*CAP
1 *797:B 3.558e-05
2 *796:Y 3.558e-05
3 *797:B *96:12 5.62995e-05
4 *796:B *797:B 5.51765e-05
5 *797:A *797:B 1.97695e-05
*RES
1 *796:Y *797:B 19.975 
*END

*D_NET *96 0.00076002
*CONN
*I *799:A I *D sky130_fd_sc_hd__nand2_1
*I *798:A I *D sky130_fd_sc_hd__nand2_1
*I *797:Y O *D sky130_fd_sc_hd__nand2_1
*CAP
1 *799:A 0
2 *798:A 2.55335e-05
3 *797:Y 0.000286204
4 *96:12 0.000311738
5 *798:A *97:19 5.49489e-05
6 *796:B *96:12 2.52969e-05
7 *797:B *96:12 5.62995e-05
8 *13:46 *96:12 0
*RES
1 *797:Y *96:12 22.425 
2 *96:12 *798:A 9.83571 
3 *96:12 *799:A 9.3 
*END

*D_NET *97 0.000735164
*CONN
*I *803:B I *D sky130_fd_sc_hd__nand2_1
*I *799:B I *D sky130_fd_sc_hd__nand2_1
*I *800:B I *D sky130_fd_sc_hd__nand2_1
*I *798:Y O *D sky130_fd_sc_hd__nand2_1
*CAP
1 *803:B 0.0001017
2 *799:B 0
3 *800:B 7.86975e-05
4 *798:Y 0
5 *97:19 0.000214664
6 *97:4 0.000191661
7 *800:B *801:B 1.32056e-05
8 *97:19 *101:8 0
9 *798:A *97:19 5.49489e-05
10 *798:B *800:B 7.60962e-05
11 *800:A *800:B 4.1896e-06
*RES
1 *798:Y *97:4 9.3 
2 *97:4 *800:B 11.4071 
3 *97:4 *97:19 2.19643 
4 *97:19 *799:B 9.3 
5 *97:19 *803:B 11.0679 
*END

*D_NET *98 0.000565609
*CONN
*I *801:A I *D sky130_fd_sc_hd__nand2_1
*I *799:Y O *D sky130_fd_sc_hd__nand2_1
*CAP
1 *801:A 0.000141076
2 *799:Y 0.000141076
3 *1035:A *801:A 0.000141729
4 *1035:B *801:A 0.000141729
*RES
1 *799:Y *801:A 30.6 
*END

*D_NET *99 0.000390868
*CONN
*I *801:B I *D sky130_fd_sc_hd__nand2_1
*I *800:Y O *D sky130_fd_sc_hd__nand2_1
*CAP
1 *801:B 0.000119234
2 *800:Y 0.000119234
3 *798:B *801:B 1.34631e-05
4 *800:B *801:B 1.32056e-05
5 *13:46 *801:B 0.000125731
*RES
1 *800:Y *801:B 29.7786 
*END

*D_NET *100 0.00115059
*CONN
*I *855:A I *D sky130_fd_sc_hd__nand2_1
*I *854:A I *D sky130_fd_sc_hd__nand2_1
*I *801:Y O *D sky130_fd_sc_hd__nand2_1
*CAP
1 *855:A 9.18334e-05
2 *854:A 0
3 *801:Y 0.000348414
4 *100:14 0.000440248
5 *855:A *151:8 5.87203e-05
6 *1035:A *100:14 1.97756e-05
7 *1035:B *100:14 3.08664e-05
8 *13:67 *100:14 0.000160729
*RES
1 *801:Y *100:14 24.2643 
2 *100:14 *854:A 9.3 
3 *100:14 *855:A 11.5143 
*END

*D_NET *101 0.000967277
*CONN
*I *808:B I *D sky130_fd_sc_hd__nand2_1
*I *810:A I *D sky130_fd_sc_hd__nand2_1
*I *803:Y O *D sky130_fd_sc_hd__nand2_1
*CAP
1 *808:B 0.000171368
2 *810:A 0
3 *803:Y 8.18174e-05
4 *101:8 0.000253185
5 *808:B *809:A 4.80569e-05
6 *808:B *810:B 0.000188586
7 *808:B *811:A 9.90367e-05
8 *808:B *811:B 0.00010096
9 *808:B *106:10 2.42662e-05
10 *101:8 *106:10 0
11 *97:19 *101:8 0
*RES
1 *803:Y *101:8 10.675 
2 *101:8 *810:A 9.3 
3 *101:8 *808:B 14.1036 
*END

*D_NET *102 0.00110335
*CONN
*I *805:B I *D sky130_fd_sc_hd__nand2_1
*I *812:A I *D sky130_fd_sc_hd__nand2_1
*I *806:B I *D sky130_fd_sc_hd__nand2_1
*I *804:Y O *D sky130_fd_sc_hd__nand2_1
*CAP
1 *805:B 1.88273e-05
2 *812:A 0
3 *806:B 0.000291052
4 *804:Y 6.85743e-05
5 *102:21 5.52948e-05
6 *102:10 0.000396094
7 *805:B *807:A 5.71472e-05
8 *806:B *806:A 0.000118806
9 *806:B *807:A 5.04589e-05
10 *806:B *807:B 1.74352e-05
11 *102:10 *805:A 2.56601e-05
12 *102:21 *806:A 0
13 *102:21 *807:A 3.99614e-06
*RES
1 *804:Y *102:10 19.3357 
2 *102:10 *806:B 13.4429 
3 *102:10 *102:21 0.732143 
4 *102:21 *812:A 9.3 
5 *102:21 *805:B 9.83571 
*END

*D_NET *103 0.000380948
*CONN
*I *807:A I *D sky130_fd_sc_hd__nand2_1
*I *805:Y O *D sky130_fd_sc_hd__nand2_1
*CAP
1 *807:A 8.44224e-05
2 *805:Y 8.44224e-05
3 *807:A *807:B 1.97695e-05
4 *807:A *110:10 8.07313e-05
5 *805:B *807:A 5.71472e-05
6 *806:B *807:A 5.04589e-05
7 *102:21 *807:A 3.99614e-06
*RES
1 *805:Y *807:A 21.2071 
*END

*D_NET *104 0.000182631
*CONN
*I *807:B I *D sky130_fd_sc_hd__nand2_1
*I *806:Y O *D sky130_fd_sc_hd__nand2_1
*CAP
1 *807:B 5.15677e-05
2 *806:Y 5.15677e-05
3 *807:B *806:A 4.22908e-05
4 *806:B *807:B 1.74352e-05
5 *807:A *807:B 1.97695e-05
*RES
1 *806:Y *807:B 19.975 
*END

*D_NET *105 0.000612015
*CONN
*I *808:A I *D sky130_fd_sc_hd__nand2_1
*I *809:A I *D sky130_fd_sc_hd__nand2_1
*I *807:Y O *D sky130_fd_sc_hd__nand2_1
*CAP
1 *808:A 0
2 *809:A 6.42414e-05
3 *807:Y 0.000127002
4 *105:10 0.000191244
5 *809:A *812:B 2.14658e-05
6 *809:A *106:10 0.00012073
7 *105:10 *812:B 3.92757e-05
8 *105:10 *820:A 0
9 *105:10 *110:10 0
10 *808:B *809:A 4.80569e-05
11 *14:35 *105:10 0
*RES
1 *807:Y *105:10 20.2464 
2 *105:10 *809:A 11.5143 
3 *105:10 *808:A 9.3 
*END

*D_NET *106 0.00125295
*CONN
*I *812:B I *D sky130_fd_sc_hd__nand2_1
*I *809:B I *D sky130_fd_sc_hd__nand2_1
*I *810:B I *D sky130_fd_sc_hd__nand2_1
*I *808:Y O *D sky130_fd_sc_hd__nand2_1
*CAP
1 *812:B 0.000236127
2 *809:B 0
3 *810:B 5.63669e-05
4 *808:Y 0
5 *106:10 0.000193189
6 *106:4 0.000372949
7 *812:B *805:A 0
8 *812:B *110:10 0
9 *808:B *810:B 0.000188586
10 *808:B *106:10 2.42662e-05
11 *809:A *812:B 2.14658e-05
12 *809:A *106:10 0.00012073
13 *14:35 *812:B 0
14 *101:8 *106:10 0
15 *105:10 *812:B 3.92757e-05
*RES
1 *808:Y *106:4 9.3 
2 *106:4 *106:10 2.92857 
3 *106:10 *810:B 11.0679 
4 *106:10 *809:B 9.3 
5 *106:4 *812:B 21.6036 
*END

*D_NET *107 0.000467226
*CONN
*I *811:A I *D sky130_fd_sc_hd__nand2_1
*I *809:Y O *D sky130_fd_sc_hd__nand2_1
*CAP
1 *811:A 0.000116604
2 *809:Y 0.000116604
3 *811:A *811:B 6.74911e-05
4 *808:B *811:A 9.90367e-05
5 *14:35 *811:A 6.74911e-05
*RES
1 *809:Y *811:A 30.1893 
*END

*D_NET *108 0.000441798
*CONN
*I *811:B I *D sky130_fd_sc_hd__nand2_1
*I *810:Y O *D sky130_fd_sc_hd__nand2_1
*CAP
1 *811:B 0.000136674
2 *810:Y 0.000136674
3 *808:B *811:B 0.00010096
4 *811:A *811:B 6.74911e-05
*RES
1 *810:Y *811:B 30.1893 
*END

*D_NET *109 0.000928282
*CONN
*I *866:A I *D sky130_fd_sc_hd__nand2_1
*I *865:A I *D sky130_fd_sc_hd__nand2_1
*I *811:Y O *D sky130_fd_sc_hd__nand2_1
*CAP
1 *866:A 0.000112988
2 *865:A 0
3 *811:Y 0.000320462
4 *109:10 0.00043345
5 *866:A *161:23 6.13812e-05
*RES
1 *811:Y *109:10 17.925 
2 *109:10 *865:A 13.8 
3 *109:10 *866:A 16.05 
*END

*D_NET *110 0.00131819
*CONN
*I *820:A I *D sky130_fd_sc_hd__nand2_1
*I *818:B I *D sky130_fd_sc_hd__nand2_1
*I *812:Y O *D sky130_fd_sc_hd__nand2_1
*CAP
1 *820:A 4.81731e-05
2 *818:B 0.000236465
3 *812:Y 0.000179693
4 *110:10 0.000464331
5 *818:B *818:A 3.57366e-05
6 *818:B *819:B 5.7661e-06
7 *818:B *820:B 2.95641e-05
8 *818:B *821:A 9.90367e-05
9 *818:B *821:B 0.00010096
10 *818:B *116:24 2.77258e-05
11 *818:B *119:10 1.00073e-05
12 *807:A *110:10 8.07313e-05
13 *812:B *110:10 0
14 *15:28 *820:A 0
15 *15:28 *110:10 0
16 *105:10 *820:A 0
17 *105:10 *110:10 0
*RES
1 *812:Y *110:10 16.4964 
2 *110:10 *818:B 18.3536 
3 *110:10 *820:A 14.5321 
*END

*D_NET *111 0.00101329
*CONN
*I *816:B I *D sky130_fd_sc_hd__nand2_1
*I *815:B I *D sky130_fd_sc_hd__nand2_1
*I *822:A I *D sky130_fd_sc_hd__nand2_1
*I *814:Y O *D sky130_fd_sc_hd__nand2_1
*CAP
1 *816:B 0.000154506
2 *815:B 0
3 *822:A 2.03465e-05
4 *814:Y 0.000122071
5 *111:12 0.000296924
6 *816:B *817:B 5.72984e-05
7 *816:B *827:A 0
8 *816:B *120:10 0.00010096
9 *822:A *817:B 9.90367e-05
10 *822:A *120:10 3.30237e-05
11 *111:12 *815:A 5.86416e-05
12 *111:12 *816:A 5.71472e-05
13 *111:12 *822:B 0
14 *111:12 *365:6 1.33343e-05
15 *15:28 *111:12 0
*RES
1 *814:Y *111:12 20.4786 
2 *111:12 *822:A 10.2464 
3 *111:12 *815:B 9.3 
4 *111:12 *816:B 12.9429 
*END

*D_NET *112 0.000846658
*CONN
*I *817:A I *D sky130_fd_sc_hd__nand2_1
*I *815:Y O *D sky130_fd_sc_hd__nand2_1
*CAP
1 *817:A 0.000273419
2 *815:Y 0.000273419
3 *817:A *817:B 0.000293038
4 *817:A *114:10 6.78055e-06
*RES
1 *815:Y *817:A 22.7429 
*END

*D_NET *113 0.000774107
*CONN
*I *817:B I *D sky130_fd_sc_hd__nand2_1
*I *816:Y O *D sky130_fd_sc_hd__nand2_1
*CAP
1 *817:B 0.000155739
2 *816:Y 0.000155739
3 *817:B *120:10 1.32552e-05
4 *816:B *817:B 5.72984e-05
5 *817:A *817:B 0.000293038
6 *822:A *817:B 9.90367e-05
*RES
1 *816:Y *817:B 22.85 
*END

*D_NET *114 0.000751138
*CONN
*I *818:A I *D sky130_fd_sc_hd__nand2_1
*I *819:A I *D sky130_fd_sc_hd__nand2_1
*I *817:Y O *D sky130_fd_sc_hd__nand2_1
*CAP
1 *818:A 0.000126468
2 *819:A 2.64191e-05
3 *817:Y 9.81874e-05
4 *114:10 0.000251074
5 *818:A *822:B 1.92789e-05
6 *818:A *830:A 0
7 *818:A *116:24 1.33343e-05
8 *819:A *830:A 0
9 *114:10 *822:B 2.56694e-05
10 *114:10 *120:10 0
11 *817:A *114:10 6.78055e-06
12 *818:B *818:A 3.57366e-05
13 *15:28 *819:A 3.36969e-05
14 *15:28 *114:10 0.000114492
*RES
1 *817:Y *114:10 15.8268 
2 *114:10 *819:A 14.3804 
3 *114:10 *818:A 15.9875 
*END

*D_NET *115 0.000535419
*CONN
*I *968:A I *D sky130_fd_sc_hd__inv_1
*I *857:Y O *D sky130_fd_sc_hd__nand2_1
*CAP
1 *968:A 0.000215652
2 *857:Y 0.000215652
3 *968:A *778:A 0
4 *745:A *968:A 2.27416e-05
5 *745:B *968:A 5.35909e-05
6 *746:A *968:A 2.24763e-05
7 *857:B *968:A 5.30637e-06
*RES
1 *857:Y *968:A 22.0955 
*END

*D_NET *116 0.00102608
*CONN
*I *819:B I *D sky130_fd_sc_hd__nand2_1
*I *820:B I *D sky130_fd_sc_hd__nand2_1
*I *822:B I *D sky130_fd_sc_hd__nand2_1
*I *818:Y O *D sky130_fd_sc_hd__nand2_1
*CAP
1 *819:B 1.98794e-05
2 *820:B 9.21155e-05
3 *822:B 0.000146407
4 *818:Y 0.000226038
5 *116:24 0.000191626
6 *819:B *821:A 6.09899e-05
7 *820:B *821:A 2.44318e-05
8 *820:B *821:B 4.22908e-05
9 *820:B *119:10 0.00010096
10 *822:B *120:10 0
11 *818:A *822:B 1.92789e-05
12 *818:A *116:24 1.33343e-05
13 *818:B *819:B 5.7661e-06
14 *818:B *820:B 2.95641e-05
15 *818:B *116:24 2.77258e-05
16 *15:28 *822:B 0
17 *111:12 *822:B 0
18 *114:10 *822:B 2.56694e-05
*RES
1 *818:Y *822:B 30.0821 
2 *818:Y *116:24 10.6571 
3 *116:24 *820:B 11.9071 
4 *116:24 *819:B 10.2643 
*END

*D_NET *117 0.000265928
*CONN
*I *821:A I *D sky130_fd_sc_hd__nand2_1
*I *819:Y O *D sky130_fd_sc_hd__nand2_1
*CAP
1 *821:A 3.08503e-05
2 *819:Y 3.08503e-05
3 *821:A *821:B 1.97695e-05
4 *818:B *821:A 9.90367e-05
5 *819:B *821:A 6.09899e-05
6 *820:B *821:A 2.44318e-05
*RES
1 *819:Y *821:A 19.975 
*END

*D_NET *118 0.000235052
*CONN
*I *821:B I *D sky130_fd_sc_hd__nand2_1
*I *820:Y O *D sky130_fd_sc_hd__nand2_1
*CAP
1 *821:B 2.72983e-05
2 *820:Y 2.72983e-05
3 *821:B *119:10 1.74352e-05
4 *818:B *821:B 0.00010096
5 *820:B *821:B 4.22908e-05
6 *821:A *821:B 1.97695e-05
*RES
1 *820:Y *821:B 19.975 
*END

*D_NET *119 0.00136226
*CONN
*I *876:A I *D sky130_fd_sc_hd__nand2_1
*I *875:A I *D sky130_fd_sc_hd__nand2_1
*I *821:Y O *D sky130_fd_sc_hd__nand2_1
*CAP
1 *876:A 0.000127633
2 *875:A 0
3 *821:Y 0.000419357
4 *119:10 0.00054699
5 *876:A *877:A 1.33329e-05
6 *876:A *171:8 0.000124012
7 *119:10 *877:A 2.53112e-06
8 *818:B *119:10 1.00073e-05
9 *820:B *119:10 0.00010096
10 *821:B *119:10 1.74352e-05
11 *14:35 *119:10 0
12 *15:28 *119:10 0
*RES
1 *821:Y *119:10 20.3536 
2 *119:10 *875:A 13.8 
3 *119:10 *876:A 16.5857 
*END

*D_NET *120 0.00162778
*CONN
*I *830:A I *D sky130_fd_sc_hd__nand2_1
*I *828:B I *D sky130_fd_sc_hd__nand2_1
*I *822:Y O *D sky130_fd_sc_hd__nand2_1
*CAP
1 *830:A 3.85001e-05
2 *828:B 0.000268529
3 *822:Y 0.000239361
4 *120:10 0.00054639
5 *828:B *830:B 2.95641e-05
6 *828:B *831:A 0.00014183
7 *828:B *831:B 0.00010096
8 *828:B *832:B 1.33343e-05
9 *828:B *125:28 9.20675e-05
10 *828:B *129:12 1.00073e-05
11 *816:B *120:10 0.00010096
12 *817:B *120:10 1.32552e-05
13 *818:A *830:A 0
14 *819:A *830:A 0
15 *822:A *120:10 3.30237e-05
16 *822:B *120:10 0
17 *16:34 *830:A 0
18 *16:34 *120:10 0
19 *114:10 *120:10 0
*RES
1 *822:Y *120:10 17.3179 
2 *120:10 *828:B 19.8357 
3 *120:10 *830:A 14.5321 
*END

*D_NET *121 0.000852197
*CONN
*I *825:B I *D sky130_fd_sc_hd__nand2_1
*I *826:B I *D sky130_fd_sc_hd__nand2_1
*I *832:A I *D sky130_fd_sc_hd__nand2_1
*I *823:Y O *D sky130_fd_sc_hd__nand2_1
*CAP
1 *825:B 0
2 *826:B 0
3 *832:A 0.000104586
4 *823:Y 4.58398e-05
5 *121:10 0.000117046
6 *121:8 5.82997e-05
7 *832:A *827:A 7.60306e-05
8 *832:A *827:B 3.84478e-05
9 *832:A *832:B 5.80706e-06
10 *832:A *935:A 2.8266e-06
11 *121:8 *823:B 2.82423e-05
12 *121:8 *825:A 0.00012073
13 *121:8 *386:8 1.94098e-05
14 *121:10 *823:B 2.89114e-05
15 *3:71 *121:8 0.000188586
16 *3:71 *121:10 1.74352e-05
*RES
1 *823:Y *121:8 11.8 
2 *121:8 *121:10 0.535714 
3 *121:10 *832:A 20.55 
4 *121:10 *826:B 9.3 
5 *121:8 *825:B 9.3 
*END

*D_NET *122 0.00082396
*CONN
*I *827:A I *D sky130_fd_sc_hd__nand2_1
*I *825:Y O *D sky130_fd_sc_hd__nand2_1
*CAP
1 *827:A 0.000349172
2 *825:Y 0.000349172
3 *827:A *935:A 0
4 *827:A *124:10 1.40306e-05
5 *827:A *130:12 3.55552e-05
6 *816:B *827:A 0
7 *832:A *827:A 7.60306e-05
*RES
1 *825:Y *827:A 33.2786 
*END

*D_NET *123 0.000337004
*CONN
*I *827:B I *D sky130_fd_sc_hd__nand2_1
*I *826:Y O *D sky130_fd_sc_hd__nand2_1
*CAP
1 *827:B 0.000133662
2 *826:Y 0.000133662
3 *827:B *823:B 7.43578e-06
4 *827:B *832:B 1.02504e-05
5 *827:B *935:A 6.05161e-06
6 *827:B *386:8 7.49387e-06
7 *832:A *827:B 3.84478e-05
8 *16:34 *827:B 0
*RES
1 *826:Y *827:B 29.7786 
*END

*D_NET *124 0.000667889
*CONN
*I *828:A I *D sky130_fd_sc_hd__nand2_1
*I *829:A I *D sky130_fd_sc_hd__nand2_1
*I *827:Y O *D sky130_fd_sc_hd__nand2_1
*CAP
1 *828:A 0
2 *829:A 0.000126547
3 *827:Y 0.00016206
4 *124:10 0.000288607
5 *124:10 *832:B 7.6644e-05
6 *124:10 *130:12 0
7 *827:A *124:10 1.40306e-05
8 *16:34 *124:10 0
*RES
1 *827:Y *124:10 16.2821 
2 *124:10 *829:A 15.1571 
3 *124:10 *828:A 13.8 
*END

*D_NET *125 0.00124798
*CONN
*I *829:B I *D sky130_fd_sc_hd__nand2_1
*I *830:B I *D sky130_fd_sc_hd__nand2_1
*I *832:B I *D sky130_fd_sc_hd__nand2_1
*I *828:Y O *D sky130_fd_sc_hd__nand2_1
*CAP
1 *829:B 0
2 *830:B 0.00010342
3 *832:B 0.000181548
4 *828:Y 0.000268952
5 *125:28 0.000190825
6 *830:B *831:A 8.85034e-05
7 *830:B *831:B 4.22908e-05
8 *830:B *129:12 0.00010096
9 *832:B *130:12 0
10 *125:28 *831:A 4.38128e-05
11 *827:B *832:B 1.02504e-05
12 *828:B *830:B 2.95641e-05
13 *828:B *832:B 1.33343e-05
14 *828:B *125:28 9.20675e-05
15 *832:A *832:B 5.80706e-06
16 *16:34 *832:B 0
17 *124:10 *832:B 7.6644e-05
*RES
1 *828:Y *832:B 30.4929 
2 *828:Y *125:28 11.6214 
3 *125:28 *830:B 12.4607 
4 *125:28 *829:B 9.3 
*END

*D_NET *126 0.000835048
*CONN
*I *779:A I *D sky130_fd_sc_hd__nand2_1
*I *778:A I *D sky130_fd_sc_hd__nand2_1
*I *968:Y O *D sky130_fd_sc_hd__inv_1
*CAP
1 *779:A 7.0851e-05
2 *778:A 0.000124552
3 *968:Y 2.12121e-05
4 *126:6 0.000216616
5 *778:A *824:A 2.80789e-05
6 *778:A *278:8 4.68935e-05
7 *779:A *824:A 0.000126439
8 *779:B *779:A 0
9 *781:B *778:A 0
10 *813:B *779:A 0.000200406
11 *968:A *778:A 0
*RES
1 *968:Y *126:6 9.63036 
2 *126:6 *778:A 11.4964 
3 *126:6 *779:A 20.8536 
*END

*D_NET *127 0.000371328
*CONN
*I *831:A I *D sky130_fd_sc_hd__nand2_1
*I *829:Y O *D sky130_fd_sc_hd__nand2_1
*CAP
1 *831:A 3.8706e-05
2 *829:Y 3.8706e-05
3 *831:A *831:B 1.97695e-05
4 *828:B *831:A 0.00014183
5 *830:B *831:A 8.85034e-05
6 *125:28 *831:A 4.38128e-05
*RES
1 *829:Y *831:A 20.3857 
*END

*D_NET *128 0.000235052
*CONN
*I *831:B I *D sky130_fd_sc_hd__nand2_1
*I *830:Y O *D sky130_fd_sc_hd__nand2_1
*CAP
1 *831:B 2.72983e-05
2 *830:Y 2.72983e-05
3 *831:B *129:12 1.74352e-05
4 *828:B *831:B 0.00010096
5 *830:B *831:B 4.22908e-05
6 *831:A *831:B 1.97695e-05
*RES
1 *830:Y *831:B 19.975 
*END

*D_NET *129 0.00134487
*CONN
*I *886:A I *D sky130_fd_sc_hd__nand2_1
*I *885:A I *D sky130_fd_sc_hd__nand2_1
*I *831:Y O *D sky130_fd_sc_hd__nand2_1
*CAP
1 *886:A 0
2 *885:A 1.17665e-05
3 *831:Y 0.000531249
4 *129:12 0.000543016
5 *885:A *1091:A 5.49995e-05
6 *885:A *181:6 5.49995e-05
7 *129:12 *887:A 3.67279e-06
8 *129:12 *536:10 1.67642e-05
9 *828:B *129:12 1.00073e-05
10 *830:B *129:12 0.00010096
11 *831:B *129:12 1.74352e-05
12 *15:28 *129:12 0
13 *16:34 *129:12 0
*RES
1 *831:Y *129:12 26.0857 
2 *129:12 *885:A 9.83571 
3 *129:12 *886:A 9.3 
*END

*D_NET *130 0.00120039
*CONN
*I *838:B I *D sky130_fd_sc_hd__nand2_1
*I *840:A I *D sky130_fd_sc_hd__nand2_1
*I *832:Y O *D sky130_fd_sc_hd__nand2_1
*CAP
1 *838:B 0.00020952
2 *840:A 0
3 *832:Y 0.000272181
4 *130:12 0.000481701
5 *838:B *839:A 9.92495e-05
6 *838:B *840:B 5.71472e-05
7 *838:B *135:8 9.7049e-06
8 *838:B *135:14 3.53302e-05
9 *130:12 *833:A 0
10 *130:12 *841:A 0
11 *130:12 *134:12 0
12 *827:A *130:12 3.55552e-05
13 *832:B *130:12 0
14 *124:10 *130:12 0
*RES
1 *832:Y *130:12 22.0143 
2 *130:12 *840:A 9.3 
3 *130:12 *838:B 13.8446 
*END

*D_NET *131 0.00158372
*CONN
*I *834:B I *D sky130_fd_sc_hd__nand2_1
*I *836:B I *D sky130_fd_sc_hd__nand2_1
*I *842:A I *D sky130_fd_sc_hd__nand2_1
*I *833:Y O *D sky130_fd_sc_hd__nand2_1
*CAP
1 *834:B 7.75435e-05
2 *836:B 8.46179e-06
3 *842:A 9.85266e-05
4 *833:Y 0.000106193
5 *131:21 0.000204505
6 *131:6 0.000323219
7 *834:B *837:A 5.28012e-05
8 *836:B *836:A 5.7661e-06
9 *836:B *837:B 5.70877e-06
10 *842:A *802:A 0.000267814
11 *131:6 *833:A 7.43578e-06
12 *131:6 *833:B 3.98431e-05
13 *131:6 *837:B 1.24368e-05
14 *131:21 *837:A 7.49387e-06
15 *131:21 *837:B 9.81603e-05
16 *17:33 *842:A 0.000267807
*RES
1 *833:Y *131:6 10.6571 
2 *131:6 *842:A 21.7643 
3 *131:6 *131:21 1.78571 
4 *131:21 *836:B 9.72857 
5 *131:21 *834:B 11.0857 
*END

*D_NET *132 0.000788606
*CONN
*I *837:A I *D sky130_fd_sc_hd__nand2_1
*I *834:Y O *D sky130_fd_sc_hd__nand2_1
*CAP
1 *837:A 0.000198805
2 *834:Y 0.000198805
3 *837:A *833:A 2.84494e-05
4 *837:A *833:B 0.000135028
5 *837:A *836:A 4.72938e-06
6 *837:A *134:12 5.33005e-05
7 *837:A *408:14 5.33005e-05
8 *834:B *837:A 5.28012e-05
9 *17:33 *837:A 5.58941e-05
10 *131:21 *837:A 7.49387e-06
*RES
1 *834:Y *837:A 31.8857 
*END

*D_NET *133 0.000280088
*CONN
*I *837:B I *D sky130_fd_sc_hd__nand2_1
*I *836:Y O *D sky130_fd_sc_hd__nand2_1
*CAP
1 *837:B 5.37699e-05
2 *836:Y 5.37699e-05
3 *837:B *833:B 2.59355e-05
4 *837:B *836:A 1.04232e-05
5 *837:B *408:14 1.98839e-05
6 *836:B *837:B 5.70877e-06
7 *131:6 *837:B 1.24368e-05
8 *131:21 *837:B 9.81603e-05
*RES
1 *836:Y *837:B 19.975 
*END

*D_NET *134 0.00108086
*CONN
*I *838:A I *D sky130_fd_sc_hd__nand2_1
*I *839:A I *D sky130_fd_sc_hd__nand2_1
*I *837:Y O *D sky130_fd_sc_hd__nand2_1
*CAP
1 *838:A 0
2 *839:A 6.00526e-05
3 *837:Y 0.000160162
4 *134:12 0.000220215
5 *839:A *135:8 2.89016e-05
6 *839:A *135:14 0.000285981
7 *134:12 *833:A 7.83587e-05
8 *134:12 *833:B 2.28499e-05
9 *134:12 *841:A 0
10 *837:A *134:12 5.33005e-05
11 *838:B *839:A 9.92495e-05
12 *17:33 *134:12 7.17932e-05
13 *130:12 *134:12 0
*RES
1 *837:Y *134:12 21.1929 
2 *134:12 *839:A 12.3357 
3 *134:12 *838:A 9.3 
*END

*D_NET *135 0.00105481
*CONN
*I *842:B I *D sky130_fd_sc_hd__nand2_1
*I *839:B I *D sky130_fd_sc_hd__nand2_1
*I *840:B I *D sky130_fd_sc_hd__nand2_1
*I *838:Y O *D sky130_fd_sc_hd__nand2_1
*CAP
1 *842:B 0
2 *839:B 0
3 *840:B 1.46425e-05
4 *838:Y 6.10571e-05
5 *135:14 0.000209771
6 *135:8 0.000256185
7 *135:14 *833:A 9.60939e-05
8 *838:B *840:B 5.71472e-05
9 *838:B *135:8 9.7049e-06
10 *838:B *135:14 3.53302e-05
11 *839:A *135:8 2.89016e-05
12 *839:A *135:14 0.000285981
*RES
1 *838:Y *135:8 10.675 
2 *135:8 *135:14 4.875 
3 *135:14 *840:B 9.83571 
4 *135:14 *839:B 9.3 
5 *135:8 *842:B 9.3 
*END

*D_NET *136 0.000473206
*CONN
*I *841:A I *D sky130_fd_sc_hd__nand2_1
*I *839:Y O *D sky130_fd_sc_hd__nand2_1
*CAP
1 *841:A 0.000236603
2 *839:Y 0.000236603
3 *841:A *841:B 0
4 *17:33 *841:A 0
5 *130:12 *841:A 0
6 *134:12 *841:A 0
*RES
1 *839:Y *841:A 31.1 
*END

*D_NET *137 0.000364978
*CONN
*I *1190:A I *D sky130_fd_sc_hd__inv_1
*I *1079:Y O *D sky130_fd_sc_hd__nand2_1
*CAP
1 *1190:A 5.54106e-05
2 *1079:Y 5.54106e-05
3 *1079:B *1190:A 2.47603e-05
4 *3:32 *1190:A 9.78771e-05
5 *4:24 *1190:A 0.000131519
6 *13:15 *1190:A 0
*RES
1 *1079:Y *1190:A 20.6223 
*END

*D_NET *138 0.000186505
*CONN
*I *841:B I *D sky130_fd_sc_hd__nand2_1
*I *840:Y O *D sky130_fd_sc_hd__nand2_1
*CAP
1 *841:B 9.32525e-05
2 *840:Y 9.32525e-05
3 *841:A *841:B 0
*RES
1 *840:Y *841:B 29.2429 
*END

*D_NET *139 0.000769989
*CONN
*I *895:A I *D sky130_fd_sc_hd__nand2_1
*I *896:A I *D sky130_fd_sc_hd__nand2_1
*I *841:Y O *D sky130_fd_sc_hd__nand2_1
*CAP
1 *895:A 0
2 *896:A 6.44876e-05
3 *841:Y 0.000227024
4 *139:12 0.000291512
5 *896:A *895:B 4.68028e-05
6 *896:A *190:8 0.000118898
7 *5:56 *896:A 2.12647e-05
*RES
1 *841:Y *139:12 21.1929 
2 *139:12 *896:A 11.5143 
3 *139:12 *895:A 9.3 
*END

*D_NET *140 0.00067497
*CONN
*I *843:B I *D sky130_fd_sc_hd__nand2_1
*I *845:A I *D sky130_fd_sc_hd__nand2_1
*I *842:Y O *D sky130_fd_sc_hd__nand2_1
*CAP
1 *843:B 0
2 *845:A 8.73046e-05
3 *842:Y 0.000148235
4 *140:12 0.00023554
5 *845:A *843:A 4.80569e-05
6 *845:A *845:B 1.40034e-05
7 *845:A *141:8 6.29133e-05
8 *140:12 *802:A 6.05161e-06
9 *140:12 *833:A 3.06878e-06
10 *140:12 *430:12 0
11 *17:33 *140:12 6.97972e-05
*RES
1 *842:Y *140:12 20.4786 
2 *140:12 *845:A 11.5143 
3 *140:12 *843:B 9.3 
*END

*D_NET *141 0.00110925
*CONN
*I *844:B I *D sky130_fd_sc_hd__nand2_1
*I *848:A I *D sky130_fd_sc_hd__inv_1
*I *845:B I *D sky130_fd_sc_hd__nand2_1
*I *843:Y O *D sky130_fd_sc_hd__nand2_1
*CAP
1 *844:B 0
2 *848:A 0.000153023
3 *845:B 7.45475e-06
4 *843:Y 0.00010998
5 *141:19 0.000254642
6 *141:8 0.000219054
7 *845:B *843:A 1.04232e-05
8 *848:A *847:A 0.000150773
9 *141:8 *843:A 2.95641e-05
10 *141:19 *843:A 3.46677e-05
11 *845:A *845:B 1.40034e-05
12 *845:A *141:8 6.29133e-05
13 *18:39 *848:A 6.27534e-05
*RES
1 *843:Y *141:8 11.0857 
2 *141:8 *845:B 9.72857 
3 *141:8 *141:19 1.78571 
4 *141:19 *848:A 21.8491 
5 *141:19 *844:B 9.3 
*END

*D_NET *142 0.000523806
*CONN
*I *847:A I *D sky130_fd_sc_hd__nand2_1
*I *844:Y O *D sky130_fd_sc_hd__nand2_1
*CAP
1 *847:A 0.00011113
2 *844:Y 0.00011113
3 *848:A *847:A 0.000150773
4 *18:39 *847:A 0.000150773
*RES
1 *844:Y *847:A 30.4929 
*END

*D_NET *143 0.00035602
*CONN
*I *847:B I *D sky130_fd_sc_hd__nand2_1
*I *845:Y O *D sky130_fd_sc_hd__nand2_1
*CAP
1 *847:B 0.000116321
2 *845:Y 0.000116321
3 *1146:A *847:B 5.66971e-05
4 *18:39 *847:B 6.66813e-05
*RES
1 *845:Y *847:B 30.2071 
*END

*D_NET *144 0.000787189
*CONN
*I *906:A I *D sky130_fd_sc_hd__nand2_1
*I *905:A I *D sky130_fd_sc_hd__nand2_1
*I *847:Y O *D sky130_fd_sc_hd__nand2_1
*CAP
1 *906:A 6.81129e-05
2 *905:A 0
3 *847:Y 0.000143185
4 *144:16 0.000211298
5 *906:A *905:B 4.4226e-05
6 *906:A *200:6 9.84729e-05
7 *906:A *200:21 1.87331e-05
8 *1146:A *906:A 5.46383e-06
9 *1146:A *144:16 7.89362e-05
10 *18:39 *144:16 0.000118761
*RES
1 *847:Y *144:16 21.55 
2 *144:16 *905:A 9.3 
3 *144:16 *906:A 11.5143 
*END

*D_NET *145 0.000816458
*CONN
*I *916:A I *D sky130_fd_sc_hd__nand2_1
*I *915:A I *D sky130_fd_sc_hd__nand2_1
*I *848:Y O *D sky130_fd_sc_hd__inv_1
*CAP
1 *916:A 0.000175735
2 *915:A 0
3 *848:Y 0.000192417
4 *145:10 0.000368152
5 *916:A *210:8 8.01554e-05
*RES
1 *848:Y *145:10 16.5946 
2 *145:10 *915:A 13.8 
3 *145:10 *916:A 17.1929 
*END

*D_NET *146 0.000878711
*CONN
*I *853:A I *D sky130_fd_sc_hd__inv_1
*I *850:B I *D sky130_fd_sc_hd__nand2_1
*I *851:B I *D sky130_fd_sc_hd__nand2_1
*I *849:Y O *D sky130_fd_sc_hd__nand2_1
*CAP
1 *853:A 0.000165512
2 *850:B 1.3525e-05
3 *851:B 6.56018e-05
4 *849:Y 0.000233789
5 *146:6 0.000147404
6 *850:B *851:A 1.02301e-05
7 *851:B *851:A 3.65727e-05
8 *851:B *852:B 5.23735e-05
9 *146:6 *851:A 7.01807e-05
10 *146:6 *852:A 2.85234e-05
11 *850:A *146:6 5.49995e-05
*RES
1 *849:Y *146:6 11.0679 
2 *146:6 *851:B 11.0857 
3 *146:6 *850:B 9.72857 
4 *849:Y *853:A 30.3455 
*END

*D_NET *147 0.000403696
*CONN
*I *852:A I *D sky130_fd_sc_hd__nand2_1
*I *850:Y O *D sky130_fd_sc_hd__nand2_1
*CAP
1 *852:A 0.00011055
2 *850:Y 0.00011055
3 *852:A *852:B 7.66665e-05
4 *792:B *852:A 0
5 *11:48 *852:A 0
6 *90:12 *852:A 7.74068e-05
7 *146:6 *852:A 2.85234e-05
*RES
1 *850:Y *852:A 30.0821 
*END

*D_NET *148 0.000845937
*CONN
*I *784:A I *D sky130_fd_sc_hd__nand2_1
*I *785:A I *D sky130_fd_sc_hd__nand2_1
*I *1190:Y O *D sky130_fd_sc_hd__inv_1
*CAP
1 *784:A 1.10882e-05
2 *785:A 0.00014285
3 *1190:Y 5.7555e-05
4 *148:10 0.000211494
5 *785:A *784:B 5.49544e-05
6 *785:A *299:12 3.27461e-05
7 *1079:B *784:A 4.90803e-05
8 *1079:B *785:A 2.6304e-05
9 *1079:B *148:10 7.6644e-05
10 *3:32 *148:10 3.4792e-05
11 *5:9 *785:A 0
12 *13:25 *784:A 5.83304e-05
13 *13:25 *148:10 7.6644e-05
14 *83:8 *785:A 1.34548e-05
*RES
1 *1190:Y *148:10 15.1661 
2 *148:10 *785:A 24.8893 
3 *148:10 *784:A 14.5321 
*END

*D_NET *149 0.000440891
*CONN
*I *852:B I *D sky130_fd_sc_hd__nand2_1
*I *851:Y O *D sky130_fd_sc_hd__nand2_1
*CAP
1 *852:B 0.000155926
2 *851:Y 0.000155926
3 p[2] *852:B 0
4 *851:B *852:B 5.23735e-05
5 *852:A *852:B 7.66665e-05
*RES
1 *851:Y *852:B 30.4929 
*END

*D_NET *150 0.000357719
*CONN
*I *860:B I *D sky130_fd_sc_hd__nand2_1
*I *862:A I *D sky130_fd_sc_hd__nand2_1
*I *853:Y O *D sky130_fd_sc_hd__inv_1
*CAP
1 *860:B 8.33198e-05
2 *862:A 0
3 *853:Y 4.08661e-05
4 *150:6 0.000124186
5 *860:B *861:B 1.32293e-05
6 *860:B *862:B 4.89922e-05
7 *860:B *863:B 2.34612e-05
8 *860:B *154:8 1.87331e-05
9 *150:6 *863:B 4.93118e-06
*RES
1 *853:Y *150:6 10.0411 
2 *150:6 *862:A 9.3 
3 *150:6 *860:B 11.6393 
*END

*D_NET *151 0.000895064
*CONN
*I *855:B I *D sky130_fd_sc_hd__nand2_1
*I *864:A I *D sky130_fd_sc_hd__nand2_1
*I *856:B I *D sky130_fd_sc_hd__nand2_1
*I *854:Y O *D sky130_fd_sc_hd__nand2_1
*CAP
1 *855:B 0
2 *864:A 0
3 *856:B 7.94239e-05
4 *854:Y 0.000102724
5 *151:10 0.000109534
6 *151:8 0.000132834
7 *856:B *856:A 0.000144732
8 *856:B *1024:A 0.000172147
9 *151:8 *859:A 6.51845e-05
10 *151:8 *864:B 3.49456e-06
11 *151:10 *859:A 2.6269e-05
12 *855:A *151:8 5.87203e-05
*RES
1 *854:Y *151:8 11.4964 
2 *151:8 *151:10 0.535714 
3 *151:10 *856:B 20.55 
4 *151:10 *864:A 9.3 
5 *151:8 *855:B 9.3 
*END

*D_NET *152 0.000708319
*CONN
*I *859:A I *D sky130_fd_sc_hd__nand2_1
*I *855:Y O *D sky130_fd_sc_hd__nand2_1
*CAP
1 *859:A 0.000265425
2 *855:Y 0.000265425
3 *859:A *864:B 4.4545e-05
4 *859:A *154:8 3.20266e-05
5 *859:A *160:14 9.44309e-06
6 *151:8 *859:A 6.51845e-05
7 *151:10 *859:A 2.6269e-05
*RES
1 *855:Y *859:A 22.9929 
*END

*D_NET *153 0.000438477
*CONN
*I *859:B I *D sky130_fd_sc_hd__nand2_1
*I *856:Y O *D sky130_fd_sc_hd__nand2_1
*CAP
1 *859:B 0.000128617
2 *856:Y 0.000128617
3 *859:B *856:A 1.32293e-05
4 *859:B *1024:A 4.77896e-05
5 *991:A *859:B 5.66971e-05
6 *12:46 *859:B 6.35274e-05
*RES
1 *856:Y *859:B 30.1893 
*END

*D_NET *154 0.000769512
*CONN
*I *860:A I *D sky130_fd_sc_hd__nand2_1
*I *861:A I *D sky130_fd_sc_hd__nand2_1
*I *859:Y O *D sky130_fd_sc_hd__nand2_1
*CAP
1 *860:A 0
2 *861:A 0.000105506
3 *859:Y 7.44336e-05
4 *154:8 0.00017994
5 *861:A *861:B 8.82684e-05
6 *154:8 *864:B 0.000182811
7 *859:A *154:8 3.20266e-05
8 *860:B *154:8 1.87331e-05
9 *11:37 *861:A 1.50223e-05
10 *12:46 *861:A 7.27704e-05
*RES
1 *859:Y *154:8 11.4964 
2 *154:8 *861:A 21.1571 
3 *154:8 *860:A 9.3 
*END

*D_NET *155 0.00129357
*CONN
*I *864:B I *D sky130_fd_sc_hd__nand2_1
*I *861:B I *D sky130_fd_sc_hd__nand2_1
*I *862:B I *D sky130_fd_sc_hd__nand2_1
*I *860:Y O *D sky130_fd_sc_hd__nand2_1
*CAP
1 *864:B 0.00021188
2 *861:B 8.46149e-05
3 *862:B 6.57319e-05
4 *860:Y 6.57319e-05
5 *155:18 0.000296495
6 *864:B *160:14 1.32293e-05
7 *859:A *864:B 4.4545e-05
8 *860:B *861:B 1.32293e-05
9 *860:B *862:B 4.89922e-05
10 *861:A *861:B 8.82684e-05
11 *11:37 *861:B 0.000174544
12 *151:8 *864:B 3.49456e-06
13 *154:8 *864:B 0.000182811
*RES
1 *860:Y *862:B 19.975 
2 *860:Y *155:18 9.3 
3 *155:18 *861:B 21.0857 
4 *155:18 *864:B 13.4429 
*END

*D_NET *156 0.000181744
*CONN
*I *863:A I *D sky130_fd_sc_hd__nand2_1
*I *861:Y O *D sky130_fd_sc_hd__nand2_1
*CAP
1 *863:A 9.08718e-05
2 *861:Y 9.08718e-05
*RES
1 *861:Y *863:A 19.975 
*END

*D_NET *157 0.000357913
*CONN
*I *863:B I *D sky130_fd_sc_hd__nand2_1
*I *862:Y O *D sky130_fd_sc_hd__nand2_1
*CAP
1 *863:B 0.000124486
2 *862:Y 0.000124486
3 *863:B *925:B 2.53112e-06
4 *860:B *863:B 2.34612e-05
5 *11:37 *863:B 7.80183e-05
6 *150:6 *863:B 4.93118e-06
*RES
1 *862:Y *863:B 30.0821 
*END

*D_NET *158 0.000319628
*CONN
*I *1312:A I *D sky130_fd_sc_hd__inv_1
*I *1301:Y O *D sky130_fd_sc_hd__nand2_1
*CAP
1 *1312:A 8.42517e-05
2 *1301:Y 8.42517e-05
3 *1312:A *794:B 0
4 *4:39 *1312:A 0.000151125
*RES
1 *1301:Y *1312:A 20.667 
*END

*D_NET *159 0.00098319
*CONN
*I *925:A I *D sky130_fd_sc_hd__nand2_1
*I *926:A I *D sky130_fd_sc_hd__nand2_1
*I *863:Y O *D sky130_fd_sc_hd__nand2_1
*CAP
1 *925:A 0
2 *926:A 0.000122852
3 *863:Y 0.000216173
4 *159:10 0.000339024
5 *159:10 *925:B 0.000157711
6 *159:10 *928:B 0.00014743
*RES
1 *863:Y *159:10 18.3357 
2 *159:10 *926:A 15.1571 
3 *159:10 *925:A 13.8 
*END

*D_NET *160 0.00155583
*CONN
*I *872:A I *D sky130_fd_sc_hd__nand2_1
*I *870:B I *D sky130_fd_sc_hd__nand2_1
*I *864:Y O *D sky130_fd_sc_hd__nand2_1
*CAP
1 *872:A 1.69187e-05
2 *870:B 0.000285635
3 *864:Y 0.00021908
4 *160:14 0.000521633
5 *870:B *871:B 3.41517e-06
6 *870:B *872:B 2.71197e-05
7 *870:B *873:A 0.000140985
8 *870:B *873:B 0.0001034
9 *870:B *165:24 3.18747e-05
10 *872:A *872:B 5.38444e-06
11 *872:A *873:B 8.29398e-06
12 *160:14 *1024:A 0.000152823
13 *160:14 *473:10 1.65984e-05
14 *859:A *160:14 9.44309e-06
15 *864:B *160:14 1.32293e-05
*RES
1 *864:Y *160:14 22.2464 
2 *160:14 *870:B 14.6929 
3 *160:14 *872:A 9.72857 
*END

*D_NET *161 0.000583918
*CONN
*I *866:B I *D sky130_fd_sc_hd__nand2_1
*I *874:A I *D sky130_fd_sc_hd__nand2_1
*I *867:B I *D sky130_fd_sc_hd__nand2_1
*I *865:Y O *D sky130_fd_sc_hd__nand2_1
*CAP
1 *866:B 0
2 *874:A 1.5859e-05
3 *867:B 3.97461e-05
4 *865:Y 2.48679e-05
5 *161:23 9.66497e-05
6 *161:6 0.000145405
7 *867:B *865:B 4.68028e-05
8 *874:A *868:A 5.49995e-05
9 *874:A *170:12 1.84776e-05
10 *161:23 *868:B 6.35274e-05
11 *866:A *161:23 6.13812e-05
12 *5:28 *161:6 1.62025e-05
*RES
1 *865:Y *161:6 9.83571 
2 *161:6 *867:B 10.2643 
3 *161:6 *161:23 11.0714 
4 *161:23 *874:A 9.83571 
5 *161:23 *866:B 9.3 
*END

*D_NET *162 0.000524019
*CONN
*I *868:A I *D sky130_fd_sc_hd__nand2_1
*I *866:Y O *D sky130_fd_sc_hd__nand2_1
*CAP
1 *868:A 0.00019692
2 *866:Y 0.00019692
3 *868:A *868:B 5.7758e-05
4 *868:A *170:12 1.74211e-05
5 *874:A *868:A 5.49995e-05
*RES
1 *866:Y *868:A 22.0286 
*END

*D_NET *163 0.000462995
*CONN
*I *868:B I *D sky130_fd_sc_hd__nand2_1
*I *867:Y O *D sky130_fd_sc_hd__nand2_1
*CAP
1 *868:B 0.000151367
2 *867:Y 0.000151367
3 *868:B *874:B 3.2923e-05
4 *868:B *170:12 6.05161e-06
5 *868:A *868:B 5.7758e-05
6 *161:23 *868:B 6.35274e-05
*RES
1 *867:Y *868:B 30.9214 
*END

*D_NET *164 0.000481413
*CONN
*I *870:A I *D sky130_fd_sc_hd__nand2_1
*I *871:A I *D sky130_fd_sc_hd__nand2_1
*I *868:Y O *D sky130_fd_sc_hd__nand2_1
*CAP
1 *870:A 0
2 *871:A 0.000115123
3 *868:Y 0.000107419
4 *164:8 0.000222542
5 *164:8 *874:B 3.63281e-05
*RES
1 *868:Y *164:8 15.7464 
2 *164:8 *871:A 15.1571 
3 *164:8 *870:A 13.8 
*END

*D_NET *165 0.00121979
*CONN
*I *871:B I *D sky130_fd_sc_hd__nand2_1
*I *872:B I *D sky130_fd_sc_hd__nand2_1
*I *874:B I *D sky130_fd_sc_hd__nand2_1
*I *870:Y O *D sky130_fd_sc_hd__nand2_1
*CAP
1 *871:B 1.4928e-05
2 *872:B 0.000108799
3 *874:B 0.000233758
4 *870:Y 0.000328661
5 *165:24 0.00021863
6 *871:B *873:A 5.46383e-06
7 *872:B *873:A 5.23735e-05
8 *872:B *873:B 4.10796e-05
9 *872:B *168:16 5.66971e-05
10 *165:24 *873:A 2.23592e-05
11 *868:B *874:B 3.2923e-05
12 *870:B *871:B 3.41517e-06
13 *870:B *872:B 2.71197e-05
14 *870:B *165:24 3.18747e-05
15 *872:A *872:B 5.38444e-06
16 *164:8 *874:B 3.63281e-05
*RES
1 *870:Y *874:B 30.9036 
2 *870:Y *165:24 11.0679 
3 *165:24 *872:B 11.9071 
4 *165:24 *871:B 9.72857 
*END

*D_NET *166 0.000328055
*CONN
*I *873:A I *D sky130_fd_sc_hd__nand2_1
*I *871:Y O *D sky130_fd_sc_hd__nand2_1
*CAP
1 *873:A 4.42061e-05
2 *871:Y 4.42061e-05
3 *873:A *873:B 1.8461e-05
4 *870:B *873:A 0.000140985
5 *871:B *873:A 5.46383e-06
6 *872:B *873:A 5.23735e-05
7 *165:24 *873:A 2.23592e-05
*RES
1 *871:Y *873:A 20.3857 
*END

*D_NET *167 0.00024217
*CONN
*I *873:B I *D sky130_fd_sc_hd__nand2_1
*I *872:Y O *D sky130_fd_sc_hd__nand2_1
*CAP
1 *873:B 3.54674e-05
2 *872:Y 3.54674e-05
3 *870:B *873:B 0.0001034
4 *872:A *873:B 8.29398e-06
5 *872:B *873:B 4.10796e-05
6 *873:A *873:B 1.8461e-05
*RES
1 *872:Y *873:B 19.975 
*END

*D_NET *168 0.00175202
*CONN
*I *930:A I *D sky130_fd_sc_hd__nand2_1
*I *931:A I *D sky130_fd_sc_hd__nand2_1
*I *873:Y O *D sky130_fd_sc_hd__nand2_1
*CAP
1 *930:A 0
2 *931:A 7.34995e-06
3 *873:Y 0.000424737
4 *168:16 0.000432087
5 *931:A *932:A 5.71472e-05
6 *931:A *225:8 2.44318e-05
7 *168:16 *930:B 5.7661e-06
8 *168:16 *932:A 4.75955e-05
9 *168:16 *933:A 0
10 *168:16 *942:A 0
11 *168:16 *1202:A 0.000308589
12 *168:16 *225:8 1.33343e-05
13 *168:16 *586:6 4.26986e-05
14 *872:B *168:16 5.66971e-05
15 *6:36 *168:16 8.38952e-06
16 *13:67 *168:16 0.000293278
17 *13:83 *168:16 2.99168e-05
*RES
1 *873:Y *168:16 27.3536 
2 *168:16 *931:A 9.83571 
3 *168:16 *930:A 9.3 
*END

*D_NET *169 0.000424482
*CONN
*I *795:A I *D sky130_fd_sc_hd__nand2_1
*I *794:A I *D sky130_fd_sc_hd__nand2_1
*I *1312:Y O *D sky130_fd_sc_hd__inv_1
*CAP
1 *795:A 0.000116109
2 *794:A 2.39345e-05
3 *1312:Y 1.4664e-05
4 *169:6 0.000154707
5 *803:A *795:A 1.02504e-05
6 *4:39 *794:A 3.18676e-05
7 *4:39 *169:6 1.22159e-05
8 *14:35 *795:A 0
9 *92:8 *795:A 6.07328e-05
*RES
1 *1312:Y *169:6 9.63036 
2 *169:6 *794:A 9.83571 
3 *169:6 *795:A 20.55 
*END

*D_NET *170 0.00123319
*CONN
*I *882:A I *D sky130_fd_sc_hd__nand2_1
*I *879:B I *D sky130_fd_sc_hd__nand2_1
*I *874:Y O *D sky130_fd_sc_hd__nand2_1
*CAP
1 *882:A 0
2 *879:B 0.000189926
3 *874:Y 0.000316877
4 *170:12 0.000506802
5 *879:B *882:B 0.000100165
6 *879:B *175:28 7.747e-05
7 *868:A *170:12 1.74211e-05
8 *868:B *170:12 6.05161e-06
9 *874:A *170:12 1.84776e-05
*RES
1 *874:Y *170:12 22.425 
2 *170:12 *879:B 13.3357 
3 *170:12 *882:A 9.3 
*END

*D_NET *171 0.000971635
*CONN
*I *876:B I *D sky130_fd_sc_hd__nand2_1
*I *884:A I *D sky130_fd_sc_hd__nand2_1
*I *877:B I *D sky130_fd_sc_hd__nand2_1
*I *875:Y O *D sky130_fd_sc_hd__nand2_1
*CAP
1 *876:B 0
2 *884:A 1.9912e-05
3 *877:B 0.000105605
4 *875:Y 4.85595e-05
5 *171:21 1.9912e-05
6 *171:8 0.000154164
7 *877:B *877:A 0.000219758
8 *877:B *892:A 4.90023e-05
9 *877:B *179:10 0.000101915
10 *884:A *878:A 5.49995e-05
11 *884:A *179:10 1.58163e-05
12 *171:8 *877:A 5.79792e-05
13 *876:A *171:8 0.000124012
*RES
1 *875:Y *171:8 15.4429 
2 *171:8 *877:B 17.1929 
3 *171:8 *171:21 4.5 
4 *171:21 *884:A 9.83571 
5 *171:21 *876:B 9.3 
*END

*D_NET *172 0.000537245
*CONN
*I *878:A I *D sky130_fd_sc_hd__nand2_1
*I *876:Y O *D sky130_fd_sc_hd__nand2_1
*CAP
1 *878:A 0.000195246
2 *876:Y 0.000195246
3 *878:A *884:B 8.23036e-05
4 *878:A *179:10 9.45048e-06
5 *884:A *878:A 5.49995e-05
*RES
1 *876:Y *878:A 22.0286 
*END

*D_NET *173 0.000460827
*CONN
*I *878:B I *D sky130_fd_sc_hd__nand2_1
*I *877:Y O *D sky130_fd_sc_hd__nand2_1
*CAP
1 *878:B 0.000157438
2 *877:Y 0.000157438
3 *878:B *877:A 9.3333e-05
4 *878:B *879:A 3.75959e-05
5 *878:B *884:B 1.50223e-05
*RES
1 *877:Y *878:B 30.4929 
*END

*D_NET *174 0.000982565
*CONN
*I *879:A I *D sky130_fd_sc_hd__nand2_1
*I *881:A I *D sky130_fd_sc_hd__nand2_1
*I *878:Y O *D sky130_fd_sc_hd__nand2_1
*CAP
1 *879:A 7.17874e-05
2 *881:A 0.000206942
3 *878:Y 3.70355e-05
4 *174:6 0.000315765
5 *879:A *884:B 7.74135e-05
6 *881:A *884:B 2.85321e-05
7 *174:6 *884:B 2.38501e-05
8 *878:B *879:A 3.75959e-05
9 *14:46 *879:A 3.51224e-05
10 *14:46 *881:A 0.00014852
*RES
1 *878:Y *174:6 9.83571 
2 *174:6 *881:A 21.6036 
3 *174:6 *879:A 20.2464 
*END

*D_NET *175 0.00110404
*CONN
*I *881:B I *D sky130_fd_sc_hd__nand2_1
*I *882:B I *D sky130_fd_sc_hd__nand2_1
*I *884:B I *D sky130_fd_sc_hd__nand2_1
*I *879:Y O *D sky130_fd_sc_hd__nand2_1
*CAP
1 *881:B 0
2 *882:B 3.14829e-05
3 *884:B 0.000130145
4 *879:Y 0.00025532
5 *175:28 0.000156658
6 *878:A *884:B 8.23036e-05
7 *878:B *884:B 1.50223e-05
8 *879:A *884:B 7.74135e-05
9 *879:B *882:B 0.000100165
10 *879:B *175:28 7.747e-05
11 *881:A *884:B 2.85321e-05
12 *14:46 *884:B 0.000125679
13 *174:6 *884:B 2.38501e-05
*RES
1 *879:Y *884:B 31.4393 
2 *879:Y *175:28 11.4964 
3 *175:28 *882:B 10.2464 
4 *175:28 *881:B 9.3 
*END

*D_NET *176 0.000328538
*CONN
*I *883:A I *D sky130_fd_sc_hd__nand2_1
*I *881:Y O *D sky130_fd_sc_hd__nand2_1
*CAP
1 *883:A 0.000132037
2 *881:Y 0.000132037
3 *14:46 *883:A 6.44649e-05
*RES
1 *881:Y *883:A 30.1893 
*END

*D_NET *177 0.000182482
*CONN
*I *883:B I *D sky130_fd_sc_hd__nand2_1
*I *882:Y O *D sky130_fd_sc_hd__nand2_1
*CAP
1 *883:B 9.12412e-05
2 *882:Y 9.12412e-05
*RES
1 *882:Y *883:B 29.2429 
*END

*D_NET *178 0.000821448
*CONN
*I *940:A I *D sky130_fd_sc_hd__nand2_1
*I *941:A I *D sky130_fd_sc_hd__nand2_1
*I *883:Y O *D sky130_fd_sc_hd__nand2_1
*CAP
1 *940:A 0
2 *941:A 0.000128185
3 *883:Y 0.000282539
4 *178:10 0.000410724
5 *178:10 *942:A 0
6 *14:46 *178:10 0
*RES
1 *883:Y *178:10 17.5143 
2 *178:10 *941:A 15.1571 
3 *178:10 *940:A 13.8 
*END

*D_NET *179 0.0012508
*CONN
*I *892:A I *D sky130_fd_sc_hd__nand2_1
*I *889:B I *D sky130_fd_sc_hd__nand2_1
*I *884:Y O *D sky130_fd_sc_hd__nand2_1
*CAP
1 *892:A 3.36268e-05
2 *889:B 0.000226331
3 *884:Y 0.000145498
4 *179:10 0.000405455
5 *889:B *890:B 3.49456e-06
6 *889:B *892:B 2.74737e-05
7 *889:B *893:A 0.000100165
8 *889:B *893:B 0.000100165
9 *889:B *185:24 3.24049e-05
10 *877:B *892:A 4.90023e-05
11 *877:B *179:10 0.000101915
12 *878:A *179:10 9.45048e-06
13 *884:A *179:10 1.58163e-05
*RES
1 *884:Y *179:10 16.0857 
2 *179:10 *889:B 18.3536 
3 *179:10 *892:A 14.5321 
*END

*D_NET *180 0.000231264
*CONN
*I *1334:A I *D sky130_fd_sc_hd__inv_1
*I *1323:Y O *D sky130_fd_sc_hd__nand2_1
*CAP
1 *1334:A 7.84681e-05
2 *1323:Y 7.84681e-05
3 *1334:A *804:B 0
4 *4:48 *1334:A 7.43279e-05
*RES
1 *1323:Y *1334:A 20.2563 
*END

*D_NET *181 0.000867341
*CONN
*I *887:B I *D sky130_fd_sc_hd__nand2_1
*I *894:A I *D sky130_fd_sc_hd__nand2_1
*I *886:B I *D sky130_fd_sc_hd__nand2_1
*I *885:Y O *D sky130_fd_sc_hd__nand2_1
*CAP
1 *887:B 1.99454e-05
2 *894:A 1.5859e-05
3 *886:B 3.7478e-05
4 *885:Y 3.80769e-05
5 *181:21 0.000169866
6 *181:6 0.000209617
7 *886:B *1091:A 5.88536e-05
8 *887:B *888:B 4.25684e-05
9 *887:B *189:12 3.69047e-06
10 *894:A *888:B 5.49995e-05
11 *894:A *189:12 1.84776e-05
12 *181:6 *888:A 0.000100165
13 *181:6 *1091:A 3.90718e-05
14 *181:21 *894:B 3.67279e-06
15 *885:A *181:6 5.49995e-05
16 *1080:A *886:B 0
*RES
1 *885:Y *181:6 10.6571 
2 *181:6 *886:B 10.233 
3 *181:6 *181:21 10.9464 
4 *181:21 *894:A 9.83571 
5 *181:21 *887:B 9.83571 
*END

*D_NET *182 0.000758354
*CONN
*I *888:A I *D sky130_fd_sc_hd__nand2_1
*I *886:Y O *D sky130_fd_sc_hd__nand2_1
*CAP
1 *888:A 0.000229438
2 *886:Y 0.000229438
3 *888:A *1091:A 2.34113e-05
4 *1080:A *888:A 5.49995e-05
5 *15:47 *888:A 0.000120902
6 *181:6 *888:A 0.000100165
*RES
1 *886:Y *888:A 31.4214 
*END

*D_NET *183 0.00057219
*CONN
*I *888:B I *D sky130_fd_sc_hd__nand2_1
*I *887:Y O *D sky130_fd_sc_hd__nand2_1
*CAP
1 *888:B 9.66104e-05
2 *887:Y 9.66104e-05
3 *888:B *887:A 0.000269747
4 *888:B *189:12 1.16543e-05
5 *887:B *888:B 4.25684e-05
6 *894:A *888:B 5.49995e-05
*RES
1 *887:Y *888:B 21.6179 
*END

*D_NET *184 0.000527808
*CONN
*I *889:A I *D sky130_fd_sc_hd__nand2_1
*I *890:A I *D sky130_fd_sc_hd__nand2_1
*I *888:Y O *D sky130_fd_sc_hd__nand2_1
*CAP
1 *889:A 0
2 *890:A 0.000106692
3 *888:Y 9.0392e-05
4 *184:8 0.000197084
5 *15:47 *184:8 0.00013364
*RES
1 *888:Y *184:8 15.7464 
2 *184:8 *890:A 15.1571 
3 *184:8 *889:A 13.8 
*END

*D_NET *185 0.00118476
*CONN
*I *890:B I *D sky130_fd_sc_hd__nand2_1
*I *892:B I *D sky130_fd_sc_hd__nand2_1
*I *894:B I *D sky130_fd_sc_hd__nand2_1
*I *889:Y O *D sky130_fd_sc_hd__nand2_1
*CAP
1 *890:B 1.38437e-05
2 *892:B 6.95557e-05
3 *894:B 0.000197338
4 *889:Y 0.000285203
5 *185:24 0.000171264
6 *890:B *893:A 1.02301e-05
7 *892:B *893:A 3.11088e-05
8 *892:B *893:B 4.13389e-05
9 *892:B *188:10 0.000100165
10 *894:B *189:12 2.29031e-05
11 *185:24 *893:A 2.38501e-05
12 *889:B *890:B 3.49456e-06
13 *889:B *892:B 2.74737e-05
14 *889:B *185:24 3.24049e-05
15 *15:47 *894:B 0.00015091
16 *181:21 *894:B 3.67279e-06
*RES
1 *889:Y *894:B 30.9036 
2 *889:Y *185:24 11.0679 
3 *185:24 *892:B 11.4964 
4 *185:24 *890:B 9.72857 
*END

*D_NET *186 0.000238442
*CONN
*I *893:A I *D sky130_fd_sc_hd__nand2_1
*I *890:Y O *D sky130_fd_sc_hd__nand2_1
*CAP
1 *893:A 2.71776e-05
2 *890:Y 2.71776e-05
3 *893:A *893:B 1.87331e-05
4 *889:B *893:A 0.000100165
5 *890:B *893:A 1.02301e-05
6 *892:B *893:A 3.11088e-05
7 *185:24 *893:A 2.38501e-05
*RES
1 *890:Y *893:A 19.975 
*END

*D_NET *187 0.000232561
*CONN
*I *893:B I *D sky130_fd_sc_hd__nand2_1
*I *892:Y O *D sky130_fd_sc_hd__nand2_1
*CAP
1 *893:B 2.8061e-05
2 *892:Y 2.8061e-05
3 *893:B *188:10 1.62025e-05
4 *889:B *893:B 0.000100165
5 *892:B *893:B 4.13389e-05
6 *893:A *893:B 1.87331e-05
*RES
1 *892:Y *893:B 19.975 
*END

*D_NET *188 0.00105958
*CONN
*I *950:A I *D sky130_fd_sc_hd__nand2_1
*I *951:A I *D sky130_fd_sc_hd__nand2_1
*I *893:Y O *D sky130_fd_sc_hd__nand2_1
*CAP
1 *950:A 1.81927e-05
2 *951:A 0.000131227
3 *893:Y 0.000314156
4 *188:10 0.000463575
5 *950:A *952:A 5.80706e-06
6 *950:A *1268:A 0
7 *951:A *952:A 1.02504e-05
8 *188:10 *1268:A 0
9 *892:B *188:10 0.000100165
10 *893:B *188:10 1.62025e-05
11 *14:46 *951:A 0
12 *14:46 *188:10 0
*RES
1 *893:Y *188:10 19.0768 
2 *188:10 *951:A 15.7375 
3 *188:10 *950:A 14.3804 
*END

*D_NET *189 0.000704328
*CONN
*I *899:B I *D sky130_fd_sc_hd__nand2_1
*I *901:A I *D sky130_fd_sc_hd__nand2_1
*I *894:Y O *D sky130_fd_sc_hd__nand2_1
*CAP
1 *899:B 0.000109607
2 *901:A 0
3 *894:Y 0.000182267
4 *189:12 0.000291874
5 *899:B *901:B 4.68028e-05
6 *887:B *189:12 3.69047e-06
7 *888:B *189:12 1.16543e-05
8 *894:A *189:12 1.84776e-05
9 *894:B *189:12 2.29031e-05
10 *15:47 *189:12 1.70522e-05
*RES
1 *894:Y *189:12 21.1929 
2 *189:12 *901:A 9.3 
3 *189:12 *899:B 11.5143 
*END

*D_NET *190 0.00170601
*CONN
*I *896:B I *D sky130_fd_sc_hd__nand2_1
*I *904:A I *D sky130_fd_sc_hd__nand2_1
*I *897:B I *D sky130_fd_sc_hd__nand2_1
*I *895:Y O *D sky130_fd_sc_hd__nand2_1
*CAP
1 *896:B 0
2 *904:A 0.000179485
3 *897:B 7.8462e-05
4 *895:Y 5.36783e-05
5 *190:14 0.000409024
6 *190:8 0.000204755
7 *897:B *898:B 5.44984e-05
8 *897:B *194:12 0.000100074
9 *904:A *199:8 2.85321e-05
10 *190:8 *895:B 2.74737e-05
11 *190:8 *1113:A 3.49456e-06
12 *190:14 *895:B 5.50052e-05
13 *190:14 *897:A 6.13903e-05
14 *190:14 *898:A 0.000127939
15 *896:A *190:8 0.000118898
16 *5:56 *190:8 0.0001871
17 *5:56 *190:14 1.62025e-05
*RES
1 *895:Y *190:8 11.8 
2 *190:8 *190:14 7.58929 
3 *190:14 *897:B 15.9964 
4 *190:14 *904:A 17.0143 
5 *190:8 *896:B 9.3 
*END

*D_NET *191 0.000515451
*CONN
*I *805:A I *D sky130_fd_sc_hd__nand2_1
*I *804:A I *D sky130_fd_sc_hd__nand2_1
*I *1334:Y O *D sky130_fd_sc_hd__inv_1
*CAP
1 *805:A 0.000129996
2 *804:A 3.79164e-05
3 *1334:Y 1.41365e-05
4 *191:6 0.000182049
5 *812:B *805:A 0
6 *1323:A *805:A 2.8266e-06
7 *4:48 *804:A 0.00010096
8 *4:48 *191:6 2.19064e-05
9 *15:28 *805:A 0
10 *102:10 *805:A 2.56601e-05
*RES
1 *1334:Y *191:6 9.63036 
2 *191:6 *804:A 10.2464 
3 *191:6 *805:A 20.55 
*END

*D_NET *192 0.000387339
*CONN
*I *898:A I *D sky130_fd_sc_hd__nand2_1
*I *896:Y O *D sky130_fd_sc_hd__nand2_1
*CAP
1 *898:A 0.000101352
2 *896:Y 0.000101352
3 *898:A *895:B 5.66971e-05
4 *190:14 *898:A 0.000127939
*RES
1 *896:Y *898:A 29.7786 
*END

*D_NET *193 0.000200882
*CONN
*I *898:B I *D sky130_fd_sc_hd__nand2_1
*I *897:Y O *D sky130_fd_sc_hd__nand2_1
*CAP
1 *898:B 7.31916e-05
2 *897:Y 7.31916e-05
3 *897:B *898:B 5.44984e-05
*RES
1 *897:Y *898:B 19.975 
*END

*D_NET *194 0.000991561
*CONN
*I *900:A I *D sky130_fd_sc_hd__nand2_1
*I *899:A I *D sky130_fd_sc_hd__nand2_1
*I *898:Y O *D sky130_fd_sc_hd__nand2_1
*CAP
1 *900:A 0
2 *899:A 2.50978e-05
3 *898:Y 0.000370689
4 *194:12 0.000395787
5 *899:A *195:17 5.49995e-05
6 *897:B *194:12 0.000100074
7 *16:47 *194:12 4.49141e-05
*RES
1 *898:Y *194:12 23.6571 
2 *194:12 *899:A 9.83571 
3 *194:12 *900:A 9.3 
*END

*D_NET *195 0.000703195
*CONN
*I *904:B I *D sky130_fd_sc_hd__nand2_1
*I *900:B I *D sky130_fd_sc_hd__nand2_1
*I *901:B I *D sky130_fd_sc_hd__nand2_1
*I *899:Y O *D sky130_fd_sc_hd__nand2_1
*CAP
1 *904:B 0.00013198
2 *900:B 0
3 *901:B 5.85513e-05
4 *899:Y 0
5 *195:17 0.000242145
6 *195:4 0.000168717
7 *899:A *195:17 5.49995e-05
8 *899:B *901:B 4.68028e-05
*RES
1 *899:Y *195:4 9.3 
2 *195:4 *901:B 10.675 
3 *195:4 *195:17 2.19643 
4 *195:17 *900:B 9.3 
5 *195:17 *904:B 11.4786 
*END

*D_NET *196 0.000270927
*CONN
*I *903:A I *D sky130_fd_sc_hd__nand2_1
*I *900:Y O *D sky130_fd_sc_hd__nand2_1
*CAP
1 *903:A 0.000115115
2 *900:Y 0.000115115
3 *16:47 *903:A 4.0698e-05
*RES
1 *900:Y *903:A 29.7786 
*END

*D_NET *197 0.000318224
*CONN
*I *903:B I *D sky130_fd_sc_hd__nand2_1
*I *901:Y O *D sky130_fd_sc_hd__nand2_1
*CAP
1 *903:B 0.000148545
2 *901:Y 0.000148545
3 *903:B *198:12 2.11336e-05
*RES
1 *901:Y *903:B 30.1893 
*END

*D_NET *198 0.000760479
*CONN
*I *960:A I *D sky130_fd_sc_hd__nand2_1
*I *961:A I *D sky130_fd_sc_hd__nand2_1
*I *903:Y O *D sky130_fd_sc_hd__nand2_1
*CAP
1 *960:A 0
2 *961:A 6.42414e-05
3 *903:Y 0.000210305
4 *198:12 0.000274547
5 *961:A *960:B 4.80569e-05
6 *961:A *254:8 0.00012073
7 *903:B *198:12 2.11336e-05
8 *6:71 *961:A 2.14658e-05
9 *15:51 *198:12 0
10 *16:47 *198:12 0
*RES
1 *903:Y *198:12 21.1929 
2 *198:12 *961:A 11.5143 
3 *198:12 *960:A 9.3 
*END

*D_NET *199 0.000777489
*CONN
*I *911:A I *D sky130_fd_sc_hd__nand2_1
*I *909:B I *D sky130_fd_sc_hd__nand2_1
*I *904:Y O *D sky130_fd_sc_hd__nand2_1
*CAP
1 *911:A 0
2 *909:B 0.000148662
3 *904:Y 0.00014825
4 *199:8 0.000296911
5 *909:B *909:A 5.46383e-06
6 *909:B *910:A 4.13389e-05
7 *909:B *911:B 5.66971e-05
8 *909:B *205:24 5.16351e-05
9 *904:A *199:8 2.85321e-05
*RES
1 *904:Y *199:8 11.9071 
2 *199:8 *909:B 12.7464 
3 *199:8 *911:A 9.3 
*END

*D_NET *200 0.000903553
*CONN
*I *906:B I *D sky130_fd_sc_hd__nand2_1
*I *907:B I *D sky130_fd_sc_hd__nand2_1
*I *914:A I *D sky130_fd_sc_hd__nand2_1
*I *905:Y O *D sky130_fd_sc_hd__nand2_1
*CAP
1 *906:B 0
2 *907:B 5.67628e-06
3 *914:A 0.000118088
4 *905:Y 8.48856e-05
5 *200:21 3.44252e-05
6 *200:6 0.000231723
7 *907:B *905:B 5.66971e-05
8 *914:A *908:B 0.000205922
9 *200:6 *905:B 2.60585e-05
10 *200:6 *908:B 1.32293e-05
11 *200:21 *905:B 3.49456e-06
12 *906:A *200:6 9.84729e-05
13 *906:A *200:21 1.87331e-05
14 *17:46 *914:A 6.14702e-06
*RES
1 *905:Y *200:6 11.0679 
2 *200:6 *914:A 21.0857 
3 *200:6 *200:21 0.732143 
4 *200:21 *907:B 9.83571 
5 *200:21 *906:B 9.3 
*END

*D_NET *201 0.000476366
*CONN
*I *908:A I *D sky130_fd_sc_hd__nand2_1
*I *906:Y O *D sky130_fd_sc_hd__nand2_1
*CAP
1 *908:A 8.11195e-05
2 *906:Y 8.11195e-05
3 *908:A *908:B 0.000150917
4 *908:A *204:8 1.24368e-05
5 *17:46 *908:A 0.000150773
*RES
1 *906:Y *908:A 30.0821 
*END

*D_NET *202 0.00027224
*CONN
*I *758:A I *D sky130_fd_sc_hd__inv_1
*I *747:Y O *D sky130_fd_sc_hd__nand2_1
*CAP
1 *758:A 4.77382e-05
2 *747:Y 4.77382e-05
3 *758:A *814:B 0
4 *747:A *758:A 6.29133e-05
5 *4:67 *758:A 4.69983e-05
6 *16:34 *758:A 6.68521e-05
*RES
1 *747:Y *758:A 20.2563 
*END

*D_NET *203 0.000609356
*CONN
*I *908:B I *D sky130_fd_sc_hd__nand2_1
*I *907:Y O *D sky130_fd_sc_hd__nand2_1
*CAP
1 *908:B 0.000113817
2 *907:Y 0.000113817
3 *908:B *905:B 1.16543e-05
4 *908:A *908:B 0.000150917
5 *914:A *908:B 0.000205922
6 *200:6 *908:B 1.32293e-05
*RES
1 *907:Y *908:B 30.4929 
*END

*D_NET *204 0.000744454
*CONN
*I *909:A I *D sky130_fd_sc_hd__nand2_1
*I *910:A I *D sky130_fd_sc_hd__nand2_1
*I *908:Y O *D sky130_fd_sc_hd__nand2_1
*CAP
1 *909:A 1.05779e-05
2 *910:A 4.41424e-05
3 *908:Y 0.000178131
4 *204:8 0.000232851
5 *909:A *914:B 5.46383e-06
6 *910:A *914:B 3.11088e-05
7 *910:A *205:24 0.000135239
8 *204:8 *914:B 4.77002e-05
9 *908:A *204:8 1.24368e-05
10 *909:B *909:A 5.46383e-06
11 *909:B *910:A 4.13389e-05
*RES
1 *908:Y *204:8 12.3179 
2 *204:8 *910:A 11.0857 
3 *204:8 *909:A 9.72857 
*END

*D_NET *205 0.000808088
*CONN
*I *910:B I *D sky130_fd_sc_hd__nand2_1
*I *911:B I *D sky130_fd_sc_hd__nand2_1
*I *914:B I *D sky130_fd_sc_hd__nand2_1
*I *909:Y O *D sky130_fd_sc_hd__nand2_1
*CAP
1 *910:B 0
2 *911:B 1.97813e-05
3 *914:B 7.33768e-05
4 *909:Y 0.00022034
5 *205:24 0.000166745
6 *909:A *914:B 5.46383e-06
7 *909:B *911:B 5.66971e-05
8 *909:B *205:24 5.16351e-05
9 *910:A *914:B 3.11088e-05
10 *910:A *205:24 0.000135239
11 *204:8 *914:B 4.77002e-05
*RES
1 *909:Y *914:B 20.3857 
2 *909:Y *205:24 11.925 
3 *205:24 *911:B 9.83571 
4 *205:24 *910:B 9.3 
*END

*D_NET *206 0.000488159
*CONN
*I *912:A I *D sky130_fd_sc_hd__nand2_1
*I *910:Y O *D sky130_fd_sc_hd__nand2_1
*CAP
1 *912:A 0.000222739
2 *910:Y 0.000222739
3 *912:A *912:B 4.26814e-05
*RES
1 *910:Y *912:A 30.9929 
*END

*D_NET *207 0.000188464
*CONN
*I *912:B I *D sky130_fd_sc_hd__nand2_1
*I *911:Y O *D sky130_fd_sc_hd__nand2_1
*CAP
1 *912:B 7.28913e-05
2 *911:Y 7.28913e-05
3 *912:A *912:B 4.26814e-05
*RES
1 *911:Y *912:B 29.2429 
*END

*D_NET *208 0.000922467
*CONN
*I *972:A I *D sky130_fd_sc_hd__nand2_1
*I *971:A I *D sky130_fd_sc_hd__nand2_1
*I *912:Y O *D sky130_fd_sc_hd__nand2_1
*CAP
1 *972:A 0.000146138
2 *971:A 0
3 *912:Y 0.000204443
4 *208:10 0.000350581
5 *972:A *973:A 1.40849e-05
6 *972:A *974:A 7.43578e-06
7 *972:A *985:B 6.05161e-06
8 *972:A *987:A 2.94103e-05
9 *972:A *1303:A 0
10 *972:A *264:10 0.000123288
11 *972:A *273:6 2.89016e-05
12 *208:10 *973:A 2.8266e-06
13 *16:47 *208:10 0
14 *16:64 *972:A 9.30603e-06
*RES
1 *912:Y *208:10 16.6929 
2 *208:10 *971:A 13.8 
3 *208:10 *972:A 17.1214 
*END

*D_NET *209 0.00149829
*CONN
*I *921:A I *D sky130_fd_sc_hd__nand2_1
*I *919:B I *D sky130_fd_sc_hd__nand2_1
*I *914:Y O *D sky130_fd_sc_hd__nand2_1
*CAP
1 *921:A 0
2 *919:B 0.000338469
3 *914:Y 0.00024192
4 *209:12 0.000580388
5 *919:B *920:B 3.49456e-06
6 *919:B *921:B 1.53198e-05
7 *919:B *922:A 9.84729e-05
8 *919:B *922:B 0.000143633
9 *919:B *923:A 0
10 *919:B *923:B 3.49456e-06
11 *919:B *215:6 3.24049e-05
12 *17:46 *209:12 4.0698e-05
*RES
1 *914:Y *209:12 22.5321 
2 *209:12 *919:B 14.5857 
3 *209:12 *921:A 9.3 
*END

*D_NET *210 0.00141758
*CONN
*I *923:A I *D sky130_fd_sc_hd__nand2_1
*I *916:B I *D sky130_fd_sc_hd__nand2_1
*I *917:B I *D sky130_fd_sc_hd__nand2_1
*I *915:Y O *D sky130_fd_sc_hd__nand2_1
*CAP
1 *923:A 0.00024964
2 *916:B 0.000118829
3 *917:B 7.21617e-05
4 *915:Y 0.000120596
5 *210:10 0.000190991
6 *210:8 0.000370236
7 *916:B *918:A 5.44984e-05
8 *917:B *918:B 4.13389e-05
9 *923:A *923:B 3.23857e-05
10 *923:A *214:8 7.74068e-05
11 *923:A *215:6 3.69047e-06
12 *923:A *219:10 5.64835e-06
13 *916:A *210:8 8.01554e-05
14 *919:B *923:A 0
*RES
1 *915:Y *210:8 16.05 
2 *210:8 *210:10 4.5 
3 *210:10 *917:B 10.675 
4 *210:10 *916:B 11.4964 
5 *210:8 *923:A 17.6393 
*END

*D_NET *211 0.000195007
*CONN
*I *918:A I *D sky130_fd_sc_hd__nand2_1
*I *916:Y O *D sky130_fd_sc_hd__nand2_1
*CAP
1 *918:A 6.08877e-05
2 *916:Y 6.08877e-05
3 *918:A *918:B 1.87331e-05
4 *916:B *918:A 5.44984e-05
*RES
1 *916:Y *918:A 19.975 
*END

*D_NET *212 0.000175981
*CONN
*I *918:B I *D sky130_fd_sc_hd__nand2_1
*I *917:Y O *D sky130_fd_sc_hd__nand2_1
*CAP
1 *918:B 5.79544e-05
2 *917:Y 5.79544e-05
3 *917:B *918:B 4.13389e-05
4 *918:A *918:B 1.87331e-05
*RES
1 *917:Y *918:B 19.975 
*END

*D_NET *213 0.000709212
*CONN
*I *814:A I *D sky130_fd_sc_hd__nand2_1
*I *815:A I *D sky130_fd_sc_hd__nand2_1
*I *758:Y O *D sky130_fd_sc_hd__inv_1
*CAP
1 *814:A 0
2 *815:A 9.16686e-05
3 *758:Y 4.73457e-05
4 *213:6 0.000139014
5 *815:A *816:A 0.000150632
6 *213:6 *816:A 5.52302e-05
7 *4:67 *213:6 0.000166679
8 *15:28 *815:A 0
9 *111:12 *815:A 5.86416e-05
*RES
1 *758:Y *213:6 10.8625 
2 *213:6 *815:A 20.55 
3 *213:6 *814:A 9.3 
*END

*D_NET *214 0.00051425
*CONN
*I *919:A I *D sky130_fd_sc_hd__nand2_1
*I *920:A I *D sky130_fd_sc_hd__nand2_1
*I *918:Y O *D sky130_fd_sc_hd__nand2_1
*CAP
1 *919:A 1.10405e-05
2 *920:A 0.000119351
3 *918:Y 8.42585e-05
4 *214:8 0.00021465
5 *923:A *214:8 7.74068e-05
6 *18:50 *920:A 7.54369e-06
*RES
1 *918:Y *214:8 15.2911 
2 *214:8 *920:A 15.4339 
3 *214:8 *919:A 14.0768 
*END

*D_NET *215 0.000747954
*CONN
*I *923:B I *D sky130_fd_sc_hd__nand2_1
*I *920:B I *D sky130_fd_sc_hd__nand2_1
*I *921:B I *D sky130_fd_sc_hd__nand2_1
*I *919:Y O *D sky130_fd_sc_hd__nand2_1
*CAP
1 *923:B 5.9119e-05
2 *920:B 1.03395e-05
3 *921:B 7.55242e-05
4 *919:Y 0
5 *215:6 0.000167002
6 *215:4 0.000140257
7 *920:B *922:A 1.02301e-05
8 *921:B *922:A 2.85321e-05
9 *921:B *922:B 8.6011e-05
10 *921:B *218:10 5.62995e-05
11 *215:6 *922:A 2.38501e-05
12 *919:B *920:B 3.49456e-06
13 *919:B *921:B 1.53198e-05
14 *919:B *923:B 3.49456e-06
15 *919:B *215:6 3.24049e-05
16 *923:A *923:B 3.23857e-05
17 *923:A *215:6 3.69047e-06
*RES
1 *919:Y *215:4 9.3 
2 *215:4 *215:6 1.76786 
3 *215:6 *921:B 11.4964 
4 *215:6 *920:B 9.72857 
5 *215:4 *923:B 10.675 
*END

*D_NET *216 0.000260065
*CONN
*I *922:A I *D sky130_fd_sc_hd__nand2_1
*I *920:Y O *D sky130_fd_sc_hd__nand2_1
*CAP
1 *922:A 3.19525e-05
2 *920:Y 3.19525e-05
3 *922:A *922:B 3.50746e-05
4 *919:B *922:A 9.84729e-05
5 *920:B *922:A 1.02301e-05
6 *921:B *922:A 2.85321e-05
7 *215:6 *922:A 2.38501e-05
*RES
1 *920:Y *922:A 19.975 
*END

*D_NET *217 0.000346583
*CONN
*I *922:B I *D sky130_fd_sc_hd__nand2_1
*I *921:Y O *D sky130_fd_sc_hd__nand2_1
*CAP
1 *922:B 4.09323e-05
2 *921:Y 4.09323e-05
3 *919:B *922:B 0.000143633
4 *921:B *922:B 8.6011e-05
5 *922:A *922:B 3.50746e-05
*RES
1 *921:Y *922:B 20.9214 
*END

*D_NET *218 0.00137614
*CONN
*I *982:A I *D sky130_fd_sc_hd__nand2_1
*I *981:A I *D sky130_fd_sc_hd__nand2_1
*I *922:Y O *D sky130_fd_sc_hd__nand2_1
*CAP
1 *982:A 9.63547e-05
2 *981:A 4.21538e-05
3 *922:Y 0.000151319
4 *218:10 0.000289828
5 *982:A *1305:A 1.08359e-05
6 *218:10 *1305:A 4.46186e-06
7 *921:B *218:10 5.62995e-05
8 *1304:A *981:A 0.000183713
9 *1304:A *982:A 0.00015134
10 *17:46 *218:10 0
11 *17:61 *981:A 0.00014285
12 *17:61 *982:A 0.000164554
13 *17:61 *218:10 3.17148e-05
14 *18:50 *218:10 5.07157e-05
*RES
1 *922:Y *218:10 16.6929 
2 *218:10 *981:A 15.5679 
3 *218:10 *982:A 16.5857 
*END

*D_NET *219 0.000832356
*CONN
*I *990:A I *D sky130_fd_sc_hd__nand2_1
*I *992:A I *D sky130_fd_sc_hd__nand2_1
*I *923:Y O *D sky130_fd_sc_hd__nand2_1
*CAP
1 *990:A 0.000148217
2 *992:A 0
3 *923:Y 0.000160019
4 *219:10 0.000308237
5 *990:A *992:B 5.26184e-05
6 *990:A *993:B 7.43578e-06
7 *990:A *994:A 0.000127439
8 *990:A *284:22 2.27416e-05
9 *923:A *219:10 5.64835e-06
10 *18:50 *990:A 0
11 *18:50 *219:10 0
*RES
1 *923:Y *219:10 16.2821 
2 *219:10 *992:A 13.8 
3 *219:10 *990:A 17.1214 
*END

*D_NET *220 0.00118113
*CONN
*I *929:A I *D sky130_fd_sc_hd__inv_1
*I *926:B I *D sky130_fd_sc_hd__nand2_1
*I *927:B I *D sky130_fd_sc_hd__nand2_1
*I *925:Y O *D sky130_fd_sc_hd__nand2_1
*CAP
1 *929:A 0.000160817
2 *926:B 0
3 *927:B 0.000105397
4 *925:Y 0
5 *220:10 0.000250194
6 *220:4 0.000305613
7 *927:B *1179:A 4.27842e-06
8 *927:B *584:14 0.000126409
9 *929:A *1179:A 0
10 *220:10 *925:B 3.49456e-06
11 *220:10 *928:A 0.000144773
12 *220:10 *584:14 8.25843e-06
13 *1168:A *929:A 0
14 *6:28 *929:A 0
15 *11:37 *929:A 7.18982e-05
*RES
1 *925:Y *220:4 9.3 
2 *220:4 *220:10 2.92857 
3 *220:10 *927:B 20.55 
4 *220:10 *926:B 9.3 
5 *220:4 *929:A 20.9384 
*END

*D_NET *221 0.000422352
*CONN
*I *928:A I *D sky130_fd_sc_hd__nand2_1
*I *926:Y O *D sky130_fd_sc_hd__nand2_1
*CAP
1 *928:A 9.82791e-05
2 *926:Y 9.82791e-05
3 *928:A *925:B 7.73303e-05
4 *928:A *584:14 3.69047e-06
5 *220:10 *928:A 0.000144773
*RES
1 *926:Y *928:A 21.2071 
*END

*D_NET *222 0.000845531
*CONN
*I *928:B I *D sky130_fd_sc_hd__nand2_1
*I *927:Y O *D sky130_fd_sc_hd__nand2_1
*CAP
1 *928:B 0.000253226
2 *927:Y 0.000253226
3 *928:B *925:B 0.000171798
4 *928:B *584:14 7.25873e-06
5 *6:28 *928:B 1.25924e-05
6 *159:10 *928:B 0.00014743
*RES
1 *927:Y *928:B 31.8321 
*END

*D_NET *223 0.000260413
*CONN
*I *780:A I *D sky130_fd_sc_hd__inv_1
*I *769:Y O *D sky130_fd_sc_hd__nand2_1
*CAP
1 *780:A 8.97633e-05
2 *769:Y 8.97633e-05
3 *780:A *823:B 0
4 *780:A *825:A 0
5 *769:A *780:A 1.04232e-05
6 *791:A *780:A 3.18676e-05
7 *3:71 *780:A 3.85956e-05
*RES
1 *769:Y *780:A 20.667 
*END

*D_NET *224 0.00119554
*CONN
*I *934:B I *D sky130_fd_sc_hd__nand2_1
*I *937:A I *D sky130_fd_sc_hd__nand2_1
*I *929:Y O *D sky130_fd_sc_hd__inv_1
*CAP
1 *934:B 0.000226442
2 *937:A 0.000108188
3 *929:Y 9.89198e-05
4 *224:12 0.00043355
5 *934:B *936:A 4.3588e-05
6 *934:B *936:B 9.73306e-05
7 *934:B *937:B 9.90431e-05
8 *934:B *938:A 1.74352e-05
9 *934:B *229:8 9.22103e-06
10 *937:A *937:B 3.22063e-05
11 *937:A *938:B 1.55885e-05
12 *11:37 *224:12 1.4024e-05
*RES
1 *929:Y *224:12 19.6661 
2 *224:12 *937:A 10.9786 
3 *224:12 *934:B 13.0321 
*END

*D_NET *225 0.00135655
*CONN
*I *939:A I *D sky130_fd_sc_hd__nand2_1
*I *931:B I *D sky130_fd_sc_hd__nand2_1
*I *932:B I *D sky130_fd_sc_hd__nand2_1
*I *930:Y O *D sky130_fd_sc_hd__nand2_1
*CAP
1 *939:A 0.000125459
2 *931:B 0
3 *932:B 0.000193152
4 *930:Y 9.50036e-05
5 *225:10 0.000241835
6 *225:8 0.000269145
7 *932:B *932:A 0.000222399
8 *932:B *933:B 2.54632e-05
9 *939:A *944:B 4.46186e-06
10 *939:A *228:14 0
11 *939:A *233:8 1.92789e-05
12 *225:8 *932:A 1.21289e-05
13 *225:8 *933:A 5.52302e-05
14 *931:A *225:8 2.44318e-05
15 *6:36 *932:B 5.52302e-05
16 *12:42 *932:B 0
17 *12:42 *225:10 0
18 *13:83 *932:B 0
19 *13:83 *939:A 0
20 *13:83 *225:10 0
21 *168:16 *225:8 1.33343e-05
*RES
1 *930:Y *225:8 15.1571 
2 *225:8 *225:10 0.732143 
3 *225:10 *932:B 17.9786 
4 *225:10 *931:B 13.8 
5 *225:8 *939:A 15.9786 
*END

*D_NET *226 0.000230266
*CONN
*I *933:A I *D sky130_fd_sc_hd__nand2_1
*I *931:Y O *D sky130_fd_sc_hd__nand2_1
*CAP
1 *933:A 5.17525e-05
2 *931:Y 5.17525e-05
3 *933:A *932:A 5.17614e-05
4 *933:A *933:B 1.97695e-05
5 *168:16 *933:A 0
6 *225:8 *933:A 5.52302e-05
*RES
1 *931:Y *933:A 19.975 
*END

*D_NET *227 0.000224705
*CONN
*I *933:B I *D sky130_fd_sc_hd__nand2_1
*I *932:Y O *D sky130_fd_sc_hd__nand2_1
*CAP
1 *933:B 4.00171e-05
2 *932:Y 4.00171e-05
3 *933:B *932:A 4.22908e-05
4 *933:B *228:14 5.71472e-05
5 *932:B *933:B 2.54632e-05
6 *933:A *933:B 1.97695e-05
*RES
1 *932:Y *933:B 19.975 
*END

*D_NET *228 0.000828484
*CONN
*I *934:A I *D sky130_fd_sc_hd__nand2_1
*I *936:A I *D sky130_fd_sc_hd__nand2_1
*I *933:Y O *D sky130_fd_sc_hd__nand2_1
*CAP
1 *934:A 0
2 *936:A 6.47468e-05
3 *933:Y 0.00016668
4 *228:14 0.000231426
5 *936:A *936:B 5.7661e-06
6 *936:A *938:A 9.7049e-06
7 *936:A *939:B 3.65609e-05
8 *936:A *229:8 9.90367e-05
9 *228:14 *932:A 1.74352e-05
10 *228:14 *939:B 2.89016e-05
11 *933:B *228:14 5.71472e-05
12 *934:B *936:A 4.3588e-05
13 *939:A *228:14 0
14 *12:42 *228:14 6.74911e-05
*RES
1 *933:Y *228:14 21.425 
2 *228:14 *936:A 11.6393 
3 *228:14 *934:A 9.3 
*END

*D_NET *229 0.00128399
*CONN
*I *939:B I *D sky130_fd_sc_hd__nand2_1
*I *936:B I *D sky130_fd_sc_hd__nand2_1
*I *937:B I *D sky130_fd_sc_hd__nand2_1
*I *934:Y O *D sky130_fd_sc_hd__nand2_1
*CAP
1 *939:B 0.000112469
2 *936:B 1.92844e-05
3 *937:B 2.74195e-05
4 *934:Y 0
5 *229:8 0.00018571
6 *229:4 0.000251474
7 *936:B *938:A 4.22908e-05
8 *937:B *938:B 4.22908e-05
9 *937:B *232:12 9.22103e-06
10 *229:8 *938:A 0.000136697
11 *229:8 *938:B 3.57366e-05
12 *229:8 *232:12 1.33343e-05
13 *934:B *936:B 9.73306e-05
14 *934:B *937:B 9.90431e-05
15 *934:B *229:8 9.22103e-06
16 *936:A *936:B 5.7661e-06
17 *936:A *939:B 3.65609e-05
18 *936:A *229:8 9.90367e-05
19 *937:A *937:B 3.22063e-05
20 *228:14 *939:B 2.89016e-05
*RES
1 *934:Y *229:4 9.3 
2 *229:4 *229:8 3.625 
3 *229:8 *937:B 10.675 
4 *229:8 *936:B 10.675 
5 *229:4 *939:B 11.3893 
*END

*D_NET *230 0.000249649
*CONN
*I *938:A I *D sky130_fd_sc_hd__nand2_1
*I *936:Y O *D sky130_fd_sc_hd__nand2_1
*CAP
1 *938:A 2.17608e-05
2 *936:Y 2.17608e-05
3 *934:B *938:A 1.74352e-05
4 *936:A *938:A 9.7049e-06
5 *936:B *938:A 4.22908e-05
6 *229:8 *938:A 0.000136697
*RES
1 *936:Y *938:A 19.975 
*END

*D_NET *231 0.00020598
*CONN
*I *938:B I *D sky130_fd_sc_hd__nand2_1
*I *937:Y O *D sky130_fd_sc_hd__nand2_1
*CAP
1 *938:B 4.02485e-05
2 *937:Y 4.02485e-05
3 *938:B *232:12 3.18676e-05
4 *937:A *938:B 1.55885e-05
5 *937:B *938:B 4.22908e-05
6 *229:8 *938:B 3.57366e-05
*RES
1 *937:Y *938:B 19.975 
*END

*D_NET *232 0.000955049
*CONN
*I *1001:A I *D sky130_fd_sc_hd__nand2_1
*I *1000:A I *D sky130_fd_sc_hd__nand2_1
*I *938:Y O *D sky130_fd_sc_hd__nand2_1
*CAP
1 *1001:A 0
2 *1000:A 0.00010051
3 *938:Y 0.000312265
4 *232:12 0.000412775
5 *1000:A *1001:B 4.80569e-05
6 *1000:A *1003:A 9.58318e-06
7 *1000:A *1004:A 1.74352e-05
8 *232:12 *1003:B 0
9 *937:B *232:12 9.22103e-06
10 *938:B *232:12 3.18676e-05
11 *12:42 *232:12 0
12 *229:8 *232:12 1.33343e-05
*RES
1 *938:Y *232:12 23.3179 
2 *232:12 *1000:A 11.5143 
3 *232:12 *1001:A 9.3 
*END

*D_NET *233 0.0009812
*CONN
*I *947:A I *D sky130_fd_sc_hd__nand2_1
*I *944:B I *D sky130_fd_sc_hd__nand2_1
*I *939:Y O *D sky130_fd_sc_hd__nand2_1
*CAP
1 *947:A 0.000114067
2 *944:B 0.000216271
3 *939:Y 0.000148391
4 *233:8 0.000478729
5 *944:B *945:A 0
6 *947:A *945:A 0
7 *939:A *944:B 4.46186e-06
8 *939:A *233:8 1.92789e-05
9 *12:42 *944:B 0
10 *12:42 *947:A 0
11 *13:83 *944:B 0
*RES
1 *939:Y *233:8 15.5679 
2 *233:8 *944:B 17.425 
3 *233:8 *947:A 15.7464 
*END

*D_NET *234 0.000381367
*CONN
*I *823:A I *D sky130_fd_sc_hd__nand2_1
*I *825:A I *D sky130_fd_sc_hd__nand2_1
*I *780:Y O *D sky130_fd_sc_hd__inv_1
*CAP
1 *823:A 0
2 *825:A 5.58625e-05
3 *780:Y 2.96984e-05
4 *234:6 8.5561e-05
5 *825:A *823:B 3.89309e-05
6 *769:A *825:A 0
7 *780:A *825:A 0
8 *3:71 *825:A 2.44318e-05
9 *3:71 *234:6 2.61528e-05
10 *121:8 *825:A 0.00012073
*RES
1 *780:Y *234:6 10.0411 
2 *234:6 *825:A 11.5143 
3 *234:6 *823:A 9.3 
*END

*D_NET *235 0.000977841
*CONN
*I *942:B I *D sky130_fd_sc_hd__nand2_1
*I *949:A I *D sky130_fd_sc_hd__nand2_1
*I *941:B I *D sky130_fd_sc_hd__nand2_1
*I *940:Y O *D sky130_fd_sc_hd__nand2_1
*CAP
1 *942:B 0
2 *949:A 7.00861e-05
3 *941:B 6.73727e-05
4 *940:Y 2.53249e-05
5 *235:23 0.000189573
6 *235:6 0.000212184
7 *941:B *940:B 4.4173e-05
8 *941:B *943:A 5.52238e-05
9 *941:B *1224:A 1.17091e-05
10 *941:B *588:6 2.27416e-05
11 *949:A *943:B 4.87953e-05
12 *949:A *949:B 1.8461e-05
13 *949:A *954:B 0.000137983
14 *235:23 *942:A 6.09572e-05
15 *235:23 *955:A 0
16 *6:45 *235:6 1.32552e-05
*RES
1 *940:Y *235:6 9.83571 
2 *235:6 *941:B 11.0857 
3 *235:6 *235:23 11.0714 
4 *235:23 *949:A 11.5143 
5 *235:23 *942:B 9.3 
*END

*D_NET *236 0.00100596
*CONN
*I *943:A I *D sky130_fd_sc_hd__nand2_1
*I *941:Y O *D sky130_fd_sc_hd__nand2_1
*CAP
1 *943:A 0.000320739
2 *941:Y 0.000320739
3 *943:A *949:B 5.49544e-05
4 *943:A *1224:A 0.000108988
5 *943:A *238:8 5.49544e-05
6 *943:A *239:14 3.34366e-05
7 *943:A *588:6 1.77359e-05
8 *941:B *943:A 5.52238e-05
9 *1213:B *943:A 4.62997e-06
10 *6:36 *943:A 2.54558e-06
11 *6:45 *943:A 3.45362e-06
12 *13:67 *943:A 8.97655e-07
13 *13:83 *943:A 2.76657e-05
*RES
1 *941:Y *943:A 32.7786 
*END

*D_NET *237 0.000362912
*CONN
*I *943:B I *D sky130_fd_sc_hd__nand2_1
*I *942:Y O *D sky130_fd_sc_hd__nand2_1
*CAP
1 *943:B 0.000136518
2 *942:Y 0.000136518
3 *943:B *949:B 4.10796e-05
4 *943:B *238:8 0
5 *949:A *943:B 4.87953e-05
*RES
1 *942:Y *943:B 21.2071 
*END

*D_NET *238 0.000936548
*CONN
*I *944:A I *D sky130_fd_sc_hd__nand2_1
*I *945:A I *D sky130_fd_sc_hd__nand2_1
*I *943:Y O *D sky130_fd_sc_hd__nand2_1
*CAP
1 *944:A 0
2 *945:A 0.000127274
3 *943:Y 8.85366e-05
4 *238:8 0.000215811
5 *945:A *239:14 0.000224592
6 *238:8 *949:B 4.35482e-05
7 *238:8 *239:6 2.89016e-05
8 *943:A *238:8 5.49544e-05
9 *943:B *238:8 0
10 *944:B *945:A 0
11 *947:A *945:A 0
12 *13:83 *945:A 5.71124e-05
13 *13:83 *238:8 9.58181e-05
*RES
1 *943:Y *238:8 11.4964 
2 *238:8 *945:A 21.1571 
3 *238:8 *944:A 9.3 
*END

*D_NET *239 0.00183458
*CONN
*I *949:B I *D sky130_fd_sc_hd__nand2_1
*I *945:B I *D sky130_fd_sc_hd__nand2_1
*I *947:B I *D sky130_fd_sc_hd__nand2_1
*I *944:Y O *D sky130_fd_sc_hd__nand2_1
*CAP
1 *949:B 0.000140476
2 *945:B 1.60999e-05
3 *947:B 8.46694e-05
4 *944:Y 5.50876e-05
5 *239:14 0.000283332
6 *239:6 0.000378126
7 *945:B *948:A 1.02132e-05
8 *947:B *948:A 3.08664e-05
9 *947:B *948:B 4.10796e-05
10 *947:B *242:12 9.99853e-05
11 *239:14 *948:A 2.36643e-05
12 *239:14 *956:A 0
13 *943:A *949:B 5.49544e-05
14 *943:A *239:14 3.34366e-05
15 *943:B *949:B 4.10796e-05
16 *945:A *239:14 0.000224592
17 *949:A *949:B 1.8461e-05
18 *13:83 *239:6 1.39841e-05
19 *13:83 *239:14 0.000212021
20 *238:8 *949:B 4.35482e-05
21 *238:8 *239:6 2.89016e-05
*RES
1 *944:Y *239:6 10.2464 
2 *239:6 *239:14 13.8214 
3 *239:14 *947:B 11.4964 
4 *239:14 *945:B 9.72857 
5 *239:6 *949:B 11.9071 
*END

*D_NET *240 0.000191377
*CONN
*I *948:A I *D sky130_fd_sc_hd__nand2_1
*I *945:Y O *D sky130_fd_sc_hd__nand2_1
*CAP
1 *948:A 5.40862e-05
2 *945:Y 5.40862e-05
3 *948:A *948:B 1.8461e-05
4 *945:B *948:A 1.02132e-05
5 *947:B *948:A 3.08664e-05
6 *239:14 *948:A 2.36643e-05
*RES
1 *945:Y *948:A 19.975 
*END

*D_NET *241 0.000180762
*CONN
*I *948:B I *D sky130_fd_sc_hd__nand2_1
*I *947:Y O *D sky130_fd_sc_hd__nand2_1
*CAP
1 *948:B 6.06105e-05
2 *947:Y 6.06105e-05
3 *947:B *948:B 4.10796e-05
4 *948:A *948:B 1.8461e-05
*RES
1 *947:Y *948:B 19.975 
*END

*D_NET *242 0.00106783
*CONN
*I *1007:A I *D sky130_fd_sc_hd__nand2_1
*I *1006:A I *D sky130_fd_sc_hd__nand2_1
*I *948:Y O *D sky130_fd_sc_hd__nand2_1
*CAP
1 *1007:A 0.00010835
2 *1006:A 0
3 *948:Y 0.000285955
4 *242:12 0.000394305
5 *1007:A *298:8 5.68098e-05
6 *1007:A *307:12 1.33343e-05
7 *242:12 *1008:A 0.000104487
8 *242:12 *1008:B 0
9 *242:12 *602:10 4.6025e-06
10 *947:B *242:12 9.99853e-05
11 *7:42 *242:12 0
12 *12:42 *242:12 0
*RES
1 *948:Y *242:12 23.6214 
2 *242:12 *1006:A 9.3 
3 *242:12 *1007:A 11.5143 
*END

*D_NET *243 0.00134251
*CONN
*I *954:B I *D sky130_fd_sc_hd__nand2_1
*I *956:A I *D sky130_fd_sc_hd__nand2_1
*I *949:Y O *D sky130_fd_sc_hd__nand2_1
*CAP
1 *954:B 0.000312938
2 *956:A 0.000240647
3 *949:Y 0
4 *243:4 0.000553584
5 *954:B *248:8 5.7661e-06
6 *954:B *249:26 6.78055e-06
7 *956:A *942:A 5.59013e-05
8 *956:A *955:A 0
9 *956:A *249:26 0
10 *956:A *252:12 2.89114e-05
11 *949:A *954:B 0.000137983
12 *239:14 *956:A 0
*RES
1 *949:Y *243:4 9.3 
2 *243:4 *956:A 22.3 
3 *243:4 *954:B 13.4429 
*END

*D_NET *244 0.000974986
*CONN
*I *952:B I *D sky130_fd_sc_hd__nand2_1
*I *959:A I *D sky130_fd_sc_hd__nand2_1
*I *951:B I *D sky130_fd_sc_hd__nand2_1
*I *950:Y O *D sky130_fd_sc_hd__nand2_1
*CAP
1 *952:B 0
2 *959:A 0.00010046
3 *951:B 9.66251e-05
4 *950:Y 0
5 *244:19 0.000192305
6 *244:4 0.00018847
7 *951:B *953:A 5.71472e-05
8 *951:B *1246:A 1.06722e-05
9 *951:B *590:8 8.01893e-05
10 *959:A *953:B 5.33334e-05
11 *959:A *959:B 1.97695e-05
12 *959:A *964:B 1.21258e-05
13 *244:19 *952:A 0.000150632
14 *244:19 *965:A 0
15 *6:56 *951:B 1.32552e-05
*RES
1 *950:Y *244:4 9.3 
2 *244:4 *951:B 11.4964 
3 *244:4 *244:19 10.9464 
4 *244:19 *959:A 11.5143 
5 *244:19 *952:B 9.3 
*END

*D_NET *245 0.000839153
*CONN
*I *802:A I *D sky130_fd_sc_hd__inv_1
*I *791:Y O *D sky130_fd_sc_hd__nand2_1
*CAP
1 *802:A 0.000168146
2 *791:Y 0.000168146
3 *802:A *833:A 8.48822e-06
4 *802:A *834:A 3.75052e-05
5 *802:A *980:A 0
6 *802:A *408:14 0.000148189
7 *842:A *802:A 0.000267814
8 *17:33 *802:A 3.48139e-05
9 *140:12 *802:A 6.05161e-06
*RES
1 *791:Y *802:A 32.2562 
*END

*D_NET *246 0.000740209
*CONN
*I *953:A I *D sky130_fd_sc_hd__nand2_1
*I *951:Y O *D sky130_fd_sc_hd__nand2_1
*CAP
1 *953:A 0.000231997
2 *951:Y 0.000231997
3 *953:A *955:A 0
4 *953:A *1246:A 6.29465e-05
5 *953:A *590:8 2.61528e-05
6 *951:B *953:A 5.71472e-05
7 *6:56 *953:A 4.23784e-06
8 *14:59 *953:A 0.000125731
*RES
1 *951:Y *953:A 31.4214 
*END

*D_NET *247 0.000367739
*CONN
*I *953:B I *D sky130_fd_sc_hd__nand2_1
*I *952:Y O *D sky130_fd_sc_hd__nand2_1
*CAP
1 *953:B 9.27427e-05
2 *952:Y 9.27427e-05
3 *953:B *959:B 4.22908e-05
4 *953:B *964:B 1.33343e-05
5 *953:B *248:8 0
6 *953:B *253:6 7.32955e-05
7 *959:A *953:B 5.33334e-05
*RES
1 *952:Y *953:B 21.2071 
*END

*D_NET *248 0.000820152
*CONN
*I *954:A I *D sky130_fd_sc_hd__nand2_1
*I *955:A I *D sky130_fd_sc_hd__nand2_1
*I *953:Y O *D sky130_fd_sc_hd__nand2_1
*CAP
1 *954:A 0
2 *955:A 0.000197967
3 *953:Y 0.000121876
4 *248:8 0.000319843
5 *955:A *249:26 5.26184e-05
6 *248:8 *959:B 0.000122081
7 *953:A *955:A 0
8 *953:B *248:8 0
9 *954:B *248:8 5.7661e-06
10 *956:A *955:A 0
11 *14:59 *955:A 0
12 *235:23 *955:A 0
*RES
1 *953:Y *248:8 11.9071 
2 *248:8 *955:A 21.6929 
3 *248:8 *954:A 9.3 
*END

*D_NET *249 0.00139876
*CONN
*I *956:B I *D sky130_fd_sc_hd__nand2_1
*I *955:B I *D sky130_fd_sc_hd__nand2_1
*I *959:B I *D sky130_fd_sc_hd__nand2_1
*I *954:Y O *D sky130_fd_sc_hd__nand2_1
*CAP
1 *956:B 0.000100269
2 *955:B 0
3 *959:B 0.000200761
4 *954:Y 0.000386053
5 *249:26 0.000285561
6 *956:B *958:A 3.93247e-05
7 *956:B *958:B 4.22908e-05
8 *956:B *252:12 0.00010096
9 *953:B *959:B 4.22908e-05
10 *954:B *249:26 6.78055e-06
11 *955:A *249:26 5.26184e-05
12 *956:A *249:26 0
13 *959:A *959:B 1.97695e-05
14 *248:8 *959:B 0.000122081
*RES
1 *954:Y *959:B 22.4393 
2 *954:Y *249:26 21.1929 
3 *249:26 *955:B 9.3 
4 *249:26 *956:B 11.925 
*END

*D_NET *250 0.000194994
*CONN
*I *958:A I *D sky130_fd_sc_hd__nand2_1
*I *955:Y O *D sky130_fd_sc_hd__nand2_1
*CAP
1 *958:A 6.79499e-05
2 *955:Y 6.79499e-05
3 *958:A *958:B 1.97695e-05
4 *956:B *958:A 3.93247e-05
*RES
1 *955:Y *958:A 19.975 
*END

*D_NET *251 0.000182631
*CONN
*I *958:B I *D sky130_fd_sc_hd__nand2_1
*I *956:Y O *D sky130_fd_sc_hd__nand2_1
*CAP
1 *958:B 5.15677e-05
2 *956:Y 5.15677e-05
3 *958:B *252:12 1.74352e-05
4 *956:B *958:B 4.22908e-05
5 *958:A *958:B 1.97695e-05
*RES
1 *956:Y *958:B 19.975 
*END

*D_NET *252 0.0012057
*CONN
*I *1017:A I *D sky130_fd_sc_hd__nand2_1
*I *1016:A I *D sky130_fd_sc_hd__nand2_1
*I *958:Y O *D sky130_fd_sc_hd__nand2_1
*CAP
1 *1017:A 0
2 *1016:A 1.47323e-05
3 *958:Y 0.000448171
4 *252:12 0.000462904
5 *1016:A *1016:B 2.84026e-05
6 *1016:A *1019:B 5.49489e-05
7 *252:12 *308:10 2.41972e-05
8 *252:12 *604:12 2.50408e-05
9 *956:A *252:12 2.89114e-05
10 *956:B *252:12 0.00010096
11 *958:B *252:12 1.74352e-05
*RES
1 *958:Y *252:12 25.2643 
2 *252:12 *1016:A 9.83571 
3 *252:12 *1017:A 9.3 
*END

*D_NET *253 0.000909929
*CONN
*I *966:A I *D sky130_fd_sc_hd__nand2_1
*I *964:B I *D sky130_fd_sc_hd__nand2_1
*I *959:Y O *D sky130_fd_sc_hd__nand2_1
*CAP
1 *966:A 0.000118994
2 *964:B 0.000187274
3 *959:Y 9.24671e-05
4 *253:6 0.000398736
5 *964:B *258:8 1.3701e-05
6 *966:A *259:10 0
7 *953:B *964:B 1.33343e-05
8 *953:B *253:6 7.32955e-05
9 *959:A *964:B 1.21258e-05
10 *14:59 *966:A 0
*RES
1 *959:Y *253:6 10.6571 
2 *253:6 *964:B 12.6393 
3 *253:6 *966:A 20.2464 
*END

*D_NET *254 0.000996705
*CONN
*I *970:A I *D sky130_fd_sc_hd__nand2_1
*I *962:B I *D sky130_fd_sc_hd__nand2_1
*I *961:B I *D sky130_fd_sc_hd__nand2_1
*I *960:Y O *D sky130_fd_sc_hd__nand2_1
*CAP
1 *970:A 0.000110379
2 *962:B 2.12368e-05
3 *961:B 0
4 *960:Y 5.6263e-05
5 *254:8 0.000187879
6 *962:B *960:B 5.52238e-05
7 *970:A *960:B 5.33005e-05
8 *254:8 *960:B 1.6125e-05
9 *254:8 *1268:A 0
10 *961:A *254:8 0.00012073
11 *6:56 *962:B 3.69047e-06
12 *6:71 *962:B 1.21258e-05
13 *6:71 *254:8 0.000186669
14 *15:51 *970:A 0.000173083
*RES
1 *960:Y *254:8 11.8 
2 *254:8 *961:B 9.3 
3 *254:8 *962:B 9.83571 
4 *254:8 *970:A 21.0857 
*END

*D_NET *255 0.00080449
*CONN
*I *963:A I *D sky130_fd_sc_hd__nand2_1
*I *961:Y O *D sky130_fd_sc_hd__nand2_1
*CAP
1 *963:A 0.000251321
2 *961:Y 0.000251321
3 *963:A *960:B 9.60875e-05
4 *963:A *963:B 7.83587e-05
5 *963:A *970:B 2.2251e-05
6 *963:A *258:8 2.85077e-05
7 *15:51 *963:A 7.6644e-05
*RES
1 *961:Y *963:A 31.6714 
*END

*D_NET *256 0.00144011
*CONN
*I *834:A I *D sky130_fd_sc_hd__nand2_1
*I *833:A I *D sky130_fd_sc_hd__nand2_1
*I *802:Y O *D sky130_fd_sc_hd__inv_1
*CAP
1 *834:A 0.000175008
2 *833:A 0.000373912
3 *802:Y 0
4 *256:4 0.00054892
5 *833:A *833:B 5.52302e-05
6 *834:A *980:A 0
7 *834:A *408:14 1.76039e-05
8 *802:A *833:A 8.48822e-06
9 *802:A *834:A 3.75052e-05
10 *837:A *833:A 2.84494e-05
11 *969:A *834:A 4.1331e-06
12 *17:33 *833:A 5.90443e-06
13 *18:39 *834:A 0
14 *130:12 *833:A 0
15 *131:6 *833:A 7.43578e-06
16 *134:12 *833:A 7.83587e-05
17 *135:14 *833:A 9.60939e-05
18 *140:12 *833:A 3.06878e-06
*RES
1 *802:Y *256:4 9.3 
2 *256:4 *833:A 23.5768 
3 *256:4 *834:A 20.9875 
*END

*D_NET *257 0.000283466
*CONN
*I *963:B I *D sky130_fd_sc_hd__nand2_1
*I *962:Y O *D sky130_fd_sc_hd__nand2_1
*CAP
1 *963:B 8.89265e-05
2 *962:Y 8.89265e-05
3 *963:A *963:B 7.83587e-05
4 *15:51 *963:B 2.72545e-05
*RES
1 *962:Y *963:B 29.2429 
*END

*D_NET *258 0.000764478
*CONN
*I *965:A I *D sky130_fd_sc_hd__nand2_1
*I *964:A I *D sky130_fd_sc_hd__nand2_1
*I *963:Y O *D sky130_fd_sc_hd__nand2_1
*CAP
1 *965:A 0.000157846
2 *964:A 2.33265e-05
3 *963:Y 5.08848e-05
4 *258:8 0.000232057
5 *964:A *970:B 2.28499e-05
6 *965:A *259:10 9.24491e-05
7 *258:8 *970:B 0.000142856
8 *963:A *258:8 2.85077e-05
9 *964:B *258:8 1.3701e-05
10 *15:51 *965:A 0
11 *244:19 *965:A 0
*RES
1 *963:Y *258:8 11.0857 
2 *258:8 *964:A 9.83571 
3 *258:8 *965:A 21.1571 
*END

*D_NET *259 0.00131073
*CONN
*I *970:B I *D sky130_fd_sc_hd__nand2_1
*I *966:B I *D sky130_fd_sc_hd__nand2_1
*I *965:B I *D sky130_fd_sc_hd__nand2_1
*I *964:Y O *D sky130_fd_sc_hd__nand2_1
*CAP
1 *970:B 0.000204862
2 *966:B 0.000100269
3 *965:B 0
4 *964:Y 0
5 *259:10 0.000219014
6 *259:4 0.000323607
7 *966:B *967:A 3.93247e-05
8 *966:B *967:B 4.22908e-05
9 *966:B *262:12 0.00010096
10 *963:A *970:B 2.2251e-05
11 *964:A *970:B 2.28499e-05
12 *965:A *259:10 9.24491e-05
13 *966:A *259:10 0
14 *258:8 *970:B 0.000142856
*RES
1 *964:Y *259:4 9.3 
2 *259:4 *259:10 11.25 
3 *259:10 *965:B 9.3 
4 *259:10 *966:B 11.925 
5 *259:4 *970:B 13.0321 
*END

*D_NET *260 0.000194994
*CONN
*I *967:A I *D sky130_fd_sc_hd__nand2_1
*I *965:Y O *D sky130_fd_sc_hd__nand2_1
*CAP
1 *967:A 6.79499e-05
2 *965:Y 6.79499e-05
3 *967:A *967:B 1.97695e-05
4 *966:B *967:A 3.93247e-05
*RES
1 *965:Y *967:A 19.975 
*END

*D_NET *261 0.000182631
*CONN
*I *967:B I *D sky130_fd_sc_hd__nand2_1
*I *966:Y O *D sky130_fd_sc_hd__nand2_1
*CAP
1 *967:B 5.15677e-05
2 *966:Y 5.15677e-05
3 *967:B *262:12 1.74352e-05
4 *966:B *967:B 4.22908e-05
5 *967:A *967:B 1.97695e-05
*RES
1 *966:Y *967:B 19.975 
*END

*D_NET *262 0.00151357
*CONN
*I *1027:A I *D sky130_fd_sc_hd__nand2_1
*I *1026:A I *D sky130_fd_sc_hd__nand2_1
*I *967:Y O *D sky130_fd_sc_hd__nand2_1
*CAP
1 *1027:A 0
2 *1026:A 6.21296e-05
3 *967:Y 0.00045312
4 *262:12 0.000515249
5 *1026:A *318:17 4.80569e-05
6 *1026:A *606:8 0.000162619
7 *262:12 *1034:A 5.80706e-06
8 *262:12 *1314:A 0.000148196
9 *966:B *262:12 0.00010096
10 *967:B *262:12 1.74352e-05
11 *14:59 *262:12 0
12 *14:72 *262:12 0
*RES
1 *967:Y *262:12 25.2643 
2 *262:12 *1026:A 11.5143 
3 *262:12 *1027:A 9.3 
*END

*D_NET *263 0.00125782
*CONN
*I *975:B I *D sky130_fd_sc_hd__nand2_1
*I *977:A I *D sky130_fd_sc_hd__nand2_1
*I *970:Y O *D sky130_fd_sc_hd__nand2_1
*CAP
1 *975:B 0.000384276
2 *977:A 7.24596e-05
3 *970:Y 9.22066e-05
4 *263:6 0.000548943
5 *975:B *268:12 7.83366e-05
6 *15:51 *977:A 8.15939e-05
*RES
1 *970:Y *263:6 10.2464 
2 *263:6 *977:A 20.2464 
3 *263:6 *975:B 24.0679 
*END

*D_NET *264 0.000791357
*CONN
*I *972:B I *D sky130_fd_sc_hd__nand2_1
*I *973:B I *D sky130_fd_sc_hd__nand2_1
*I *979:A I *D sky130_fd_sc_hd__nand2_1
*I *971:Y O *D sky130_fd_sc_hd__nand2_1
*CAP
1 *972:B 2.21289e-05
2 *973:B 0
3 *979:A 7.04198e-05
4 *971:Y 5.78443e-05
5 *264:10 0.000150393
6 *972:B *974:A 2.59355e-05
7 *972:B *273:6 1.98839e-05
8 *979:A *974:A 8.43535e-06
9 *979:A *974:B 5.27816e-05
10 *979:A *985:B 0
11 *979:A *273:6 0.000136951
12 *972:A *264:10 0.000123288
13 *16:64 *264:10 0.000123295
*RES
1 *971:Y *264:10 19.9429 
2 *264:10 *979:A 11.5143 
3 *264:10 *973:B 9.3 
4 *264:10 *972:B 9.83571 
*END

*D_NET *265 0.000860743
*CONN
*I *974:A I *D sky130_fd_sc_hd__nand2_1
*I *972:Y O *D sky130_fd_sc_hd__nand2_1
*CAP
1 *974:A 0.000253497
2 *972:Y 0.000253497
3 *974:A *974:B 0.000247302
4 *974:A *268:12 5.71472e-05
5 *974:A *273:6 7.49387e-06
6 *972:A *974:A 7.43578e-06
7 *972:B *974:A 2.59355e-05
8 *979:A *974:A 8.43535e-06
*RES
1 *972:Y *974:A 23.5643 
*END

*D_NET *266 0.000470198
*CONN
*I *974:B I *D sky130_fd_sc_hd__nand2_1
*I *973:Y O *D sky130_fd_sc_hd__nand2_1
*CAP
1 *974:B 8.50572e-05
2 *973:Y 8.50572e-05
3 *974:A *974:B 0.000247302
4 *979:A *974:B 5.27816e-05
*RES
1 *973:Y *974:B 21.2071 
*END

*D_NET *267 0.000778019
*CONN
*I *824:A I *D sky130_fd_sc_hd__inv_1
*I *813:Y O *D sky130_fd_sc_hd__nand2_1
*CAP
1 *824:A 0.000256823
2 *813:Y 0.000256823
3 *778:A *824:A 2.80789e-05
4 *779:A *824:A 0.000126439
5 *779:B *824:A 5.48581e-05
6 *782:A *824:A 7.43578e-06
7 *813:B *824:A 4.75617e-05
*RES
1 *813:Y *824:A 32.0062 
*END

*D_NET *268 0.000698424
*CONN
*I *975:A I *D sky130_fd_sc_hd__nand2_1
*I *976:A I *D sky130_fd_sc_hd__nand2_1
*I *974:Y O *D sky130_fd_sc_hd__nand2_1
*CAP
1 *975:A 0
2 *976:A 8.77832e-05
3 *974:Y 0.000128878
4 *268:12 0.000216661
5 *976:A *977:B 1.97695e-05
6 *976:A *979:B 2.89016e-05
7 *976:A *269:26 5.75275e-05
8 *268:12 *979:B 2.34204e-05
9 *974:A *268:12 5.71472e-05
10 *975:B *268:12 7.83366e-05
11 *16:64 *268:12 0
*RES
1 *974:Y *268:12 20.7821 
2 *268:12 *976:A 11.5143 
3 *268:12 *975:A 9.3 
*END

*D_NET *269 0.00127507
*CONN
*I *976:B I *D sky130_fd_sc_hd__nand2_1
*I *977:B I *D sky130_fd_sc_hd__nand2_1
*I *979:B I *D sky130_fd_sc_hd__nand2_1
*I *975:Y O *D sky130_fd_sc_hd__nand2_1
*CAP
1 *976:B 0
2 *977:B 9.92323e-05
3 *979:B 0.000279879
4 *975:Y 0.000373544
5 *269:26 0.000192898
6 *977:B *978:A 2.78584e-05
7 *977:B *978:B 7.46452e-05
8 *977:B *272:10 1.08023e-05
9 *979:B *973:A 4.1331e-06
10 *269:26 *978:A 8.24606e-05
11 *976:A *977:B 1.97695e-05
12 *976:A *979:B 2.89016e-05
13 *976:A *269:26 5.75275e-05
14 *16:64 *979:B 0
15 *268:12 *979:B 2.34204e-05
*RES
1 *975:Y *979:B 31.3143 
2 *975:Y *269:26 11.4964 
3 *269:26 *977:B 12.175 
4 *269:26 *976:B 9.3 
*END

*D_NET *270 0.000305508
*CONN
*I *978:A I *D sky130_fd_sc_hd__nand2_1
*I *976:Y O *D sky130_fd_sc_hd__nand2_1
*CAP
1 *978:A 8.60297e-05
2 *976:Y 8.60297e-05
3 *978:A *978:B 2.31293e-05
4 *977:B *978:A 2.78584e-05
5 *269:26 *978:A 8.24606e-05
*RES
1 *976:Y *978:A 20.2786 
*END

*D_NET *271 0.000286676
*CONN
*I *978:B I *D sky130_fd_sc_hd__nand2_1
*I *977:Y O *D sky130_fd_sc_hd__nand2_1
*CAP
1 *978:B 3.56369e-05
2 *977:Y 3.56369e-05
3 *978:B *272:10 0.000117628
4 *977:B *978:B 7.46452e-05
5 *978:A *978:B 2.31293e-05
*RES
1 *977:Y *978:B 20.3098 
*END

*D_NET *272 0.00130882
*CONN
*I *1037:A I *D sky130_fd_sc_hd__nand2_1
*I *1036:A I *D sky130_fd_sc_hd__nand2_1
*I *978:Y O *D sky130_fd_sc_hd__nand2_1
*CAP
1 *1037:A 2.19508e-05
2 *1036:A 0.000115014
3 *978:Y 0.000299845
4 *272:10 0.00043681
5 *1036:A *1044:A 1.02504e-05
6 *1037:A *1044:A 5.80706e-06
7 *1037:A *1052:A 0
8 *1037:A *1316:A 6.0038e-05
9 *272:10 *1316:A 7.83659e-05
10 *977:B *272:10 1.08023e-05
11 *978:B *272:10 0.000117628
12 *15:51 *1036:A 0
13 *15:51 *272:10 6.97972e-05
14 *15:60 *1036:A 8.25098e-05
15 *15:60 *272:10 0
*RES
1 *978:Y *272:10 19.0321 
2 *272:10 *1036:A 16.1929 
3 *272:10 *1037:A 14.8357 
*END

*D_NET *273 0.00137097
*CONN
*I *985:B I *D sky130_fd_sc_hd__nand2_1
*I *987:A I *D sky130_fd_sc_hd__nand2_1
*I *979:Y O *D sky130_fd_sc_hd__nand2_1
*CAP
1 *985:B 0.00011077
2 *987:A 0.000176832
3 *979:Y 0.000205763
4 *273:6 0.000493366
5 *985:B *984:A 0
6 *985:B *277:8 5.7661e-06
7 *987:A *986:A 0
8 *987:A *1303:A 0
9 *987:A *279:10 4.79842e-05
10 *972:A *985:B 6.05161e-06
11 *972:A *987:A 2.94103e-05
12 *972:A *273:6 2.89016e-05
13 *972:B *273:6 1.98839e-05
14 *974:A *273:6 7.49387e-06
15 *979:A *985:B 0
16 *979:A *273:6 0.000136951
17 *16:64 *987:A 0.000101797
*RES
1 *979:Y *273:6 11.8893 
2 *273:6 *987:A 22.3 
3 *273:6 *985:B 10.9786 
*END

*D_NET *274 0.000836232
*CONN
*I *989:A I *D sky130_fd_sc_hd__nand2_1
*I *982:B I *D sky130_fd_sc_hd__nand2_1
*I *983:B I *D sky130_fd_sc_hd__nand2_1
*I *981:Y O *D sky130_fd_sc_hd__nand2_1
*CAP
1 *989:A 0.000172287
2 *982:B 2.61003e-05
3 *983:B 0
4 *981:Y 6.2592e-05
5 *274:10 2.61003e-05
6 *274:8 0.000234879
7 *982:B *984:A 2.89114e-05
8 *989:A *986:A 0
9 *989:A *283:10 9.90367e-05
10 *274:8 *981:B 6.32633e-05
11 *17:61 *989:A 8.04913e-05
12 *17:61 *274:8 4.25716e-05
*RES
1 *981:Y *274:8 15.4429 
2 *274:8 *274:10 4.5 
3 *274:10 *983:B 9.3 
4 *274:10 *982:B 9.83571 
5 *274:8 *989:A 17.6036 
*END

*D_NET *275 0.000700153
*CONN
*I *984:A I *D sky130_fd_sc_hd__nand2_1
*I *982:Y O *D sky130_fd_sc_hd__nand2_1
*CAP
1 *984:A 0.000260746
2 *982:Y 0.000260746
3 *984:A *984:B 0.000117787
4 *984:A *277:8 2.27416e-05
5 *984:A *596:12 9.22103e-06
6 *982:B *984:A 2.89114e-05
7 *985:B *984:A 0
*RES
1 *982:Y *984:A 22.3321 
*END

*D_NET *276 0.000243986
*CONN
*I *984:B I *D sky130_fd_sc_hd__nand2_1
*I *983:Y O *D sky130_fd_sc_hd__nand2_1
*CAP
1 *984:B 4.34374e-05
2 *983:Y 4.34374e-05
3 *984:B *596:12 3.93247e-05
4 *984:A *984:B 0.000117787
*RES
1 *983:Y *984:B 19.975 
*END

*D_NET *277 0.000919829
*CONN
*I *985:A I *D sky130_fd_sc_hd__nand2_1
*I *986:A I *D sky130_fd_sc_hd__nand2_1
*I *984:Y O *D sky130_fd_sc_hd__nand2_1
*CAP
1 *985:A 0
2 *986:A 0.000158781
3 *984:Y 0.000127805
4 *277:8 0.000286586
5 *986:A *1303:A 0
6 *986:A *279:10 0.000128154
7 *277:8 *1303:A 6.71295e-05
8 *277:8 *596:12 0.000122866
9 *984:A *277:8 2.27416e-05
10 *985:B *277:8 5.7661e-06
11 *987:A *986:A 0
12 *989:A *986:A 0
*RES
1 *984:Y *277:8 12.3179 
2 *277:8 *986:A 21.1571 
3 *277:8 *985:A 9.3 
*END

*D_NET *278 0.000374821
*CONN
*I *778:B I *D sky130_fd_sc_hd__nand2_1
*I *781:A I *D sky130_fd_sc_hd__nand2_1
*I *824:Y O *D sky130_fd_sc_hd__inv_1
*CAP
1 *778:B 0
2 *781:A 1.68269e-05
3 *824:Y 0.000104349
4 *278:8 0.000121176
5 *745:B *278:8 0
6 *778:A *278:8 4.68935e-05
7 *781:B *781:A 5.71472e-05
8 *781:B *278:8 2.8428e-05
*RES
1 *824:Y *278:8 11.2911 
2 *278:8 *781:A 9.83571 
3 *278:8 *778:B 9.3 
*END

*D_NET *279 0.000861225
*CONN
*I *989:B I *D sky130_fd_sc_hd__nand2_1
*I *986:B I *D sky130_fd_sc_hd__nand2_1
*I *987:B I *D sky130_fd_sc_hd__nand2_1
*I *985:Y O *D sky130_fd_sc_hd__nand2_1
*CAP
1 *989:B 0.000209473
2 *986:B 0
3 *987:B 2.83799e-05
4 *985:Y 4.77808e-05
5 *279:14 8.52896e-05
6 *279:10 0.000314164
7 *989:B *283:10 0
8 *986:A *279:10 0.000128154
9 *987:A *279:10 4.79842e-05
*RES
1 *985:Y *279:10 19.9429 
2 *279:10 *279:14 0.964286 
3 *279:14 *987:B 9.83571 
4 *279:14 *986:B 9.3 
5 *279:10 *989:B 12.7286 
*END

*D_NET *280 0.000320477
*CONN
*I *988:A I *D sky130_fd_sc_hd__nand2_1
*I *986:Y O *D sky130_fd_sc_hd__nand2_1
*CAP
1 *988:A 0.000141882
2 *986:Y 0.000141882
3 *988:A *988:B 0
4 *7:81 *988:A 3.67142e-05
*RES
1 *986:Y *988:A 30.1893 
*END

*D_NET *281 0.000255084
*CONN
*I *988:B I *D sky130_fd_sc_hd__nand2_1
*I *987:Y O *D sky130_fd_sc_hd__nand2_1
*CAP
1 *988:B 6.26081e-05
2 *987:Y 6.26081e-05
3 *988:A *988:B 0
4 *16:64 *988:B 0.000129868
*RES
1 *987:Y *988:B 29.2429 
*END

*D_NET *282 0.000841153
*CONN
*I *1045:A I *D sky130_fd_sc_hd__nand2_1
*I *1047:A I *D sky130_fd_sc_hd__nand2_1
*I *988:Y O *D sky130_fd_sc_hd__nand2_1
*CAP
1 *1045:A 0
2 *1047:A 0.000115378
3 *988:Y 8.39185e-05
4 *282:8 0.000199296
5 *1047:A *1045:B 0
6 *1047:A *1054:A 4.46186e-06
7 *1047:A *338:10 7.6021e-05
8 *7:64 *282:8 0.000139907
9 *16:64 *1047:A 0.00022217
*RES
1 *988:Y *282:8 11.0857 
2 *282:8 *1047:A 21.1571 
3 *282:8 *1045:A 9.3 
*END

*D_NET *283 0.00112012
*CONN
*I *997:A I *D sky130_fd_sc_hd__nand2_1
*I *995:B I *D sky130_fd_sc_hd__nand2_1
*I *989:Y O *D sky130_fd_sc_hd__nand2_1
*CAP
1 *997:A 0
2 *995:B 0.000135326
3 *989:Y 0.000300557
4 *283:10 0.000435883
5 *995:B *997:B 5.71472e-05
6 *995:B *999:B 1.08785e-05
7 *995:B *288:22 8.12878e-05
8 *989:A *283:10 9.90367e-05
9 *989:B *283:10 0
*RES
1 *989:Y *283:10 14.4964 
2 *283:10 *995:B 12.7464 
3 *283:10 *997:A 9.3 
*END

*D_NET *284 0.0016014
*CONN
*I *999:A I *D sky130_fd_sc_hd__nand2_1
*I *992:B I *D sky130_fd_sc_hd__nand2_1
*I *993:B I *D sky130_fd_sc_hd__nand2_1
*I *990:Y O *D sky130_fd_sc_hd__nand2_1
*CAP
1 *999:A 8.91176e-05
2 *992:B 0.000321088
3 *993:B 0.000209601
4 *990:Y 0.000286766
5 *284:22 0.000487371
6 *992:B *994:B 0
7 *992:B *287:10 2.8266e-06
8 *993:B *990:B 7.20413e-05
9 *999:A *287:10 4.97918e-05
10 *990:A *992:B 5.26184e-05
11 *990:A *993:B 7.43578e-06
12 *990:A *284:22 2.27416e-05
*RES
1 *990:Y *993:B 21.5107 
2 *990:Y *284:22 14.7464 
3 *284:22 *992:B 19.2643 
4 *284:22 *999:A 15.7464 
*END

*D_NET *285 0.000265076
*CONN
*I *994:A I *D sky130_fd_sc_hd__nand2_1
*I *992:Y O *D sky130_fd_sc_hd__nand2_1
*CAP
1 *994:A 6.59152e-05
2 *992:Y 6.59152e-05
3 *994:A *994:B 5.80706e-06
4 *994:A *598:12 0
5 *990:A *994:A 0.000127439
*RES
1 *992:Y *994:A 29.2429 
*END

*D_NET *286 0.000287133
*CONN
*I *994:B I *D sky130_fd_sc_hd__nand2_1
*I *993:Y O *D sky130_fd_sc_hd__nand2_1
*CAP
1 *994:B 8.90779e-05
2 *993:Y 8.90779e-05
3 *994:B *990:B 9.90367e-05
4 *994:B *598:12 4.1331e-06
5 *992:B *994:B 0
6 *994:A *994:B 5.80706e-06
7 *18:71 *994:B 0
*RES
1 *993:Y *994:B 29.2786 
*END

*D_NET *287 0.000667464
*CONN
*I *995:A I *D sky130_fd_sc_hd__nand2_1
*I *996:A I *D sky130_fd_sc_hd__nand2_1
*I *994:Y O *D sky130_fd_sc_hd__nand2_1
*CAP
1 *995:A 0
2 *996:A 0.000111275
3 *994:Y 0.000167998
4 *287:10 0.000279273
5 *287:10 *990:B 5.62995e-05
6 *992:B *287:10 2.8266e-06
7 *999:A *287:10 4.97918e-05
8 *18:71 *287:10 0
*RES
1 *994:Y *287:10 16.6929 
2 *287:10 *996:A 15.1571 
3 *287:10 *995:A 13.8 
*END

*D_NET *288 0.000557305
*CONN
*I *996:B I *D sky130_fd_sc_hd__nand2_1
*I *997:B I *D sky130_fd_sc_hd__nand2_1
*I *999:B I *D sky130_fd_sc_hd__nand2_1
*I *995:Y O *D sky130_fd_sc_hd__nand2_1
*CAP
1 *996:B 0
2 *997:B 1.68269e-05
3 *999:B 8.01635e-05
4 *995:Y 0.000184516
5 *288:22 0.000121179
6 *999:B *293:10 5.30637e-06
7 *995:B *997:B 5.71472e-05
8 *995:B *999:B 1.08785e-05
9 *995:B *288:22 8.12878e-05
*RES
1 *995:Y *999:B 19.975 
2 *995:Y *288:22 11.4964 
3 *288:22 *997:B 9.83571 
4 *288:22 *996:B 9.3 
*END

*D_NET *289 0.000840896
*CONN
*I *846:A I *D sky130_fd_sc_hd__inv_1
*I *835:Y O *D sky130_fd_sc_hd__nand2_1
*CAP
1 *846:A 0.000317042
2 *835:Y 0.000317042
3 *846:A *786:A 9.86146e-05
4 *846:A *299:12 3.63281e-05
5 *787:A *846:A 1.32552e-05
6 *835:A *846:A 2.89016e-05
7 *4:24 *846:A 2.97126e-05
8 *5:9 *846:A 0
9 *13:25 *846:A 0
*RES
1 *835:Y *846:A 32.1134 
*END

*D_NET *290 0.000314511
*CONN
*I *998:A I *D sky130_fd_sc_hd__nand2_1
*I *996:Y O *D sky130_fd_sc_hd__nand2_1
*CAP
1 *998:A 0.000157255
2 *996:Y 0.000157255
3 *998:A *998:B 0
4 *998:A *293:10 0
*RES
1 *996:Y *998:A 30.1893 
*END

*D_NET *291 0.000255084
*CONN
*I *998:B I *D sky130_fd_sc_hd__nand2_1
*I *997:Y O *D sky130_fd_sc_hd__nand2_1
*CAP
1 *998:B 6.26081e-05
2 *997:Y 6.26081e-05
3 *998:A *998:B 0
4 *18:71 *998:B 0.000129868
*RES
1 *997:Y *998:B 29.2429 
*END

*D_NET *292 0.00144452
*CONN
*I *1055:A I *D sky130_fd_sc_hd__nand2_1
*I *1056:A I *D sky130_fd_sc_hd__nand2_1
*I *998:Y O *D sky130_fd_sc_hd__nand2_1
*CAP
1 *1055:A 0.00015484
2 *1056:A 0.000277781
3 *998:Y 8.93546e-05
4 *292:6 0.000521976
5 *1055:A *293:10 0
6 *1056:A *1058:A 7.83659e-05
7 *1321:A *1055:A 9.54798e-06
8 *7:81 *1056:A 0.00020099
9 *17:61 *1055:A 0
10 *17:61 *1056:A 1.08359e-05
11 *17:67 *1055:A 0
12 *18:71 *1055:A 0.000100831
*RES
1 *998:Y *292:6 10.2464 
2 *292:6 *1056:A 23.5679 
3 *292:6 *1055:A 20.2464 
*END

*D_NET *293 0.000959594
*CONN
*I *1066:A I *D sky130_fd_sc_hd__nand2_1
*I *1065:A I *D sky130_fd_sc_hd__nand2_1
*I *999:Y O *D sky130_fd_sc_hd__nand2_1
*CAP
1 *1066:A 0.000115869
2 *1065:A 0
3 *999:Y 0.000298409
4 *293:10 0.000414278
5 *1066:A *1067:A 0
6 *1066:A *358:10 0.000125731
7 *998:A *293:10 0
8 *999:B *293:10 5.30637e-06
9 *1055:A *293:10 0
10 *18:71 *293:10 0
11 *18:75 *1066:A 0
12 *18:75 *293:10 0
*RES
1 *999:Y *293:10 18.7107 
2 *293:10 *1065:A 13.8 
3 *293:10 *1066:A 16.05 
*END

*D_NET *294 0.00121685
*CONN
*I *1005:A I *D sky130_fd_sc_hd__inv_1
*I *1003:B I *D sky130_fd_sc_hd__nand2_1
*I *1001:B I *D sky130_fd_sc_hd__nand2_1
*I *1000:Y O *D sky130_fd_sc_hd__nand2_1
*CAP
1 *1005:A 0.000103335
2 *1003:B 0.000133549
3 *1001:B 3.95236e-05
4 *1000:Y 7.87449e-05
5 *294:22 0.000276106
6 *1001:B *1004:A 0.00010096
7 *1001:B *1307:A 0
8 *1003:B *1003:A 2.82057e-05
9 *1003:B *1004:B 0.000197276
10 *1005:A *1004:B 0.00014209
11 *1005:A *302:10 0
12 *294:22 *1004:A 5.52302e-05
13 *1000:A *1001:B 4.80569e-05
14 *7:24 *1005:A 1.37743e-05
15 *232:12 *1003:B 0
*RES
1 *1000:Y *1001:B 19.975 
2 *1000:Y *294:22 14.3357 
3 *294:22 *1003:B 16.9607 
4 *294:22 *1005:A 16.0277 
*END

*D_NET *295 0.000911803
*CONN
*I *1004:A I *D sky130_fd_sc_hd__nand2_1
*I *1001:Y O *D sky130_fd_sc_hd__nand2_1
*CAP
1 *1004:A 0.000220542
2 *1001:Y 0.000220542
3 *1004:A *1000:B 3.65695e-05
4 *1004:A *1003:A 4.12921e-06
5 *1004:A *1004:B 8.91726e-05
6 *1004:A *1307:A 2.26291e-05
7 *1000:A *1004:A 1.74352e-05
8 *1001:B *1004:A 0.00010096
9 *7:24 *1004:A 0.000124518
10 *11:21 *1004:A 2.00751e-05
11 *294:22 *1004:A 5.52302e-05
*RES
1 *1001:Y *1004:A 32.85 
*END

*D_NET *296 0.000819592
*CONN
*I *1004:B I *D sky130_fd_sc_hd__nand2_1
*I *1003:Y O *D sky130_fd_sc_hd__nand2_1
*CAP
1 *1004:B 0.000148323
2 *1003:Y 0.000148323
3 *1004:B *1003:A 7.83587e-05
4 *1003:B *1004:B 0.000197276
5 *1004:A *1004:B 8.91726e-05
6 *1005:A *1004:B 0.00014209
7 *1306:A *1004:B 1.30905e-05
8 *7:24 *1004:B 2.95746e-06
9 *11:29 *1004:B 0
*RES
1 *1003:Y *1004:B 31.975 
*END

*D_NET *297 0.000409763
*CONN
*I *1012:A I *D sky130_fd_sc_hd__nand2_1
*I *1010:B I *D sky130_fd_sc_hd__nand2_1
*I *1005:Y O *D sky130_fd_sc_hd__inv_1
*CAP
1 *1012:A 0
2 *1010:B 5.47329e-05
3 *1005:Y 2.85595e-05
4 *297:6 8.32923e-05
5 *1010:B *1012:B 4.80569e-05
6 *1308:B *1010:B 1.3701e-05
7 *7:24 *1010:B 0.000144773
8 *7:24 *297:6 3.66478e-05
*RES
1 *1005:Y *297:6 10.0411 
2 *297:6 *1010:B 11.5143 
3 *297:6 *1012:A 9.3 
*END

*D_NET *298 0.000772793
*CONN
*I *1007:B I *D sky130_fd_sc_hd__nand2_1
*I *1015:A I *D sky130_fd_sc_hd__nand2_1
*I *1008:B I *D sky130_fd_sc_hd__nand2_1
*I *1006:Y O *D sky130_fd_sc_hd__nand2_1
*CAP
1 *1007:B 0
2 *1015:A 0
3 *1008:B 0.000159875
4 *1006:Y 8.7422e-05
5 *298:10 0.000175284
6 *298:8 0.000102831
7 *1008:B *1008:A 0
8 *1008:B *1009:B 5.03894e-05
9 *298:8 *1009:A 5.71472e-05
10 *298:8 *1015:B 3.08382e-06
11 *298:8 *307:12 2.95641e-05
12 *298:10 *1009:A 2.14757e-05
13 *298:10 *307:12 2.89114e-05
14 *1007:A *298:8 5.68098e-05
15 *12:42 *1008:B 0
16 *242:12 *1008:B 0
*RES
1 *1006:Y *298:8 11.4964 
2 *298:8 *298:10 0.535714 
3 *298:10 *1008:B 21.1571 
4 *298:10 *1015:A 9.3 
5 *298:8 *1007:B 9.3 
*END

*D_NET *299 0.000856542
*CONN
*I *784:B I *D sky130_fd_sc_hd__nand2_1
*I *786:A I *D sky130_fd_sc_hd__nand2_1
*I *846:Y O *D sky130_fd_sc_hd__inv_1
*CAP
1 *784:B 4.89867e-05
2 *786:A 8.49206e-05
3 *846:Y 8.43785e-05
4 *299:12 0.000218286
5 *785:A *784:B 5.49544e-05
6 *785:A *299:12 3.27461e-05
7 *786:B *786:A 5.65955e-05
8 *787:A *786:A 3.28516e-05
9 *846:A *786:A 9.86146e-05
10 *846:A *299:12 3.63281e-05
11 *1079:B *299:12 1.81548e-05
12 *4:24 *299:12 1.28192e-05
13 *5:9 *299:12 0
14 *83:8 *784:B 5.17099e-05
15 *83:8 *786:A 2.51966e-05
*RES
1 *846:Y *299:12 19.9696 
2 *299:12 *786:A 11.4964 
3 *299:12 *784:B 10.675 
*END

*D_NET *300 0.000622783
*CONN
*I *1009:A I *D sky130_fd_sc_hd__nand2_1
*I *1007:Y O *D sky130_fd_sc_hd__nand2_1
*CAP
1 *1009:A 0.000189199
2 *1007:Y 0.000189199
3 *1009:A *1015:B 5.00886e-05
4 *1009:A *302:10 5.52238e-05
5 *7:24 *1009:A 6.04503e-05
6 *298:8 *1009:A 5.71472e-05
7 *298:10 *1009:A 2.14757e-05
*RES
1 *1007:Y *1009:A 22.3321 
*END

*D_NET *301 0.000521752
*CONN
*I *1009:B I *D sky130_fd_sc_hd__nand2_1
*I *1008:Y O *D sky130_fd_sc_hd__nand2_1
*CAP
1 *1009:B 0.000140773
2 *1008:Y 0.000140773
3 *1009:B *1008:A 3.18676e-05
4 *1008:B *1009:B 5.03894e-05
5 *12:21 *1009:B 7.95909e-05
6 *12:42 *1009:B 7.83587e-05
*RES
1 *1008:Y *1009:B 30.4929 
*END

*D_NET *302 0.00109722
*CONN
*I *1011:A I *D sky130_fd_sc_hd__nand2_1
*I *1010:A I *D sky130_fd_sc_hd__nand2_1
*I *1009:Y O *D sky130_fd_sc_hd__nand2_1
*CAP
1 *1011:A 0.000137211
2 *1010:A 0
3 *1009:Y 0.000209318
4 *302:10 0.000346529
5 *1011:A *1011:B 0.00010326
6 *1011:A *1014:A 1.91004e-05
7 *1011:A *1309:A 3.5707e-05
8 *302:10 *1015:B 9.22103e-06
9 *1005:A *302:10 0
10 *1009:A *302:10 5.52238e-05
11 *1308:B *302:10 2.84494e-05
12 *7:24 *302:10 0.000139913
13 *7:36 *1011:A 9.15186e-06
14 *7:36 *302:10 4.1331e-06
15 *12:21 *1011:A 0
16 *12:21 *302:10 0
*RES
1 *1009:Y *302:10 17.0143 
2 *302:10 *1010:A 13.8 
3 *302:10 *1011:A 16.7107 
*END

*D_NET *303 0.00111653
*CONN
*I *1015:B I *D sky130_fd_sc_hd__nand2_1
*I *1011:B I *D sky130_fd_sc_hd__nand2_1
*I *1012:B I *D sky130_fd_sc_hd__nand2_1
*I *1010:Y O *D sky130_fd_sc_hd__nand2_1
*CAP
1 *1015:B 0.00025737
2 *1011:B 6.41722e-05
3 *1012:B 6.97943e-05
4 *1010:Y 0
5 *303:4 0.000391337
6 *1011:B *1014:B 4.79842e-05
7 *1011:B *1309:A 0
8 *1009:A *1015:B 5.00886e-05
9 *1010:B *1012:B 4.80569e-05
10 *1011:A *1011:B 0.00010326
11 *1308:B *1015:B 2.16401e-05
12 *7:24 *1012:B 1.74352e-05
13 *7:24 *1015:B 3.30903e-05
14 *298:8 *1015:B 3.08382e-06
15 *302:10 *1015:B 9.22103e-06
*RES
1 *1010:Y *303:4 9.3 
2 *303:4 *1012:B 11.1036 
3 *303:4 *1011:B 19.9429 
4 *303:4 *1015:B 13.6929 
*END

*D_NET *304 0.000178818
*CONN
*I *1014:A I *D sky130_fd_sc_hd__nand2_1
*I *1011:Y O *D sky130_fd_sc_hd__nand2_1
*CAP
1 *1014:A 7.98586e-05
2 *1011:Y 7.98586e-05
3 *1011:A *1014:A 1.91004e-05
*RES
1 *1011:Y *1014:A 19.975 
*END

*D_NET *305 0.000198841
*CONN
*I *1014:B I *D sky130_fd_sc_hd__nand2_1
*I *1012:Y O *D sky130_fd_sc_hd__nand2_1
*CAP
1 *1014:B 7.08035e-05
2 *1012:Y 7.08035e-05
3 *1014:B *1078:B 9.25014e-06
4 *1011:B *1014:B 4.79842e-05
5 *11:21 *1014:B 0
*RES
1 *1012:Y *1014:B 29.2429 
*END

*D_NET *306 0.000828047
*CONN
*I *1075:A I *D sky130_fd_sc_hd__nand2_1
*I *1076:A I *D sky130_fd_sc_hd__nand2_1
*I *1014:Y O *D sky130_fd_sc_hd__nand2_1
*CAP
1 *1075:A 0
2 *1076:A 2.36895e-05
3 *1014:Y 0.000305056
4 *306:12 0.000328745
5 *1076:A *1076:B 5.52238e-05
6 *306:12 *1078:A 3.92854e-05
7 *306:12 *1078:B 7.15846e-05
8 *306:12 *616:12 4.46186e-06
9 *11:21 *306:12 0
*RES
1 *1014:Y *306:12 22.8357 
2 *306:12 *1076:A 9.83571 
3 *306:12 *1075:A 9.3 
*END

*D_NET *307 0.000801038
*CONN
*I *1020:B I *D sky130_fd_sc_hd__nand2_1
*I *1022:A I *D sky130_fd_sc_hd__nand2_1
*I *1015:Y O *D sky130_fd_sc_hd__nand2_1
*CAP
1 *1020:B 7.78539e-05
2 *1022:A 0
3 *1015:Y 0.000188852
4 *307:12 0.000266706
5 *1020:B *1022:B 4.75563e-05
6 *1020:B *1023:B 5.57989e-05
7 *1020:B *602:10 1.58163e-05
8 *307:12 *312:12 0
9 *307:12 *602:10 7.6644e-05
10 *1007:A *307:12 1.33343e-05
11 *12:21 *307:12 0
12 *298:8 *307:12 2.95641e-05
13 *298:10 *307:12 2.89114e-05
*RES
1 *1015:Y *307:12 21.3 
2 *307:12 *1022:A 9.3 
3 *307:12 *1020:B 11.5143 
*END

*D_NET *308 0.00137655
*CONN
*I *1018:B I *D sky130_fd_sc_hd__nand2_1
*I *1025:A I *D sky130_fd_sc_hd__nand2_1
*I *1017:B I *D sky130_fd_sc_hd__nand2_1
*I *1016:Y O *D sky130_fd_sc_hd__nand2_1
*CAP
1 *1018:B 0.000109906
2 *1025:A 0.000197561
3 *1017:B 0
4 *1016:Y 4.62747e-05
5 *308:10 0.000224533
6 *308:6 0.000183153
7 *1018:B *1016:B 5.7661e-06
8 *1018:B *1019:B 9.60939e-05
9 *1018:B *1028:B 0
10 *1025:A *317:6 9.87617e-05
11 *1025:A *604:12 1.02504e-05
12 *308:6 *1019:A 0.000141132
13 *308:6 *1019:B 0.000183022
14 *308:10 *604:12 5.59013e-05
15 *13:98 *1025:A 0
16 *252:12 *308:10 2.41972e-05
*RES
1 *1016:Y *308:6 11.0679 
2 *308:6 *308:10 5.23214 
3 *308:10 *1017:B 13.8 
4 *308:10 *1025:A 16.9964 
5 *308:6 *1018:B 11.3893 
*END

*D_NET *309 0.000772322
*CONN
*I *1019:A I *D sky130_fd_sc_hd__nand2_1
*I *1017:Y O *D sky130_fd_sc_hd__nand2_1
*CAP
1 *1019:A 0.000268859
2 *1017:Y 0.000268859
3 *1019:A *1019:B 8.23451e-05
4 *1019:A *1311:A 3.69047e-06
5 *1019:A *312:12 7.43578e-06
6 *308:6 *1019:A 0.000141132
*RES
1 *1017:Y *1019:A 22.7607 
*END

*D_NET *310 0.000233595
*CONN
*I *869:A I *D sky130_fd_sc_hd__inv_1
*I *858:Y O *D sky130_fd_sc_hd__nand2_1
*CAP
1 *869:A 6.17179e-05
2 *858:Y 6.17179e-05
3 *869:A *794:B 1.3701e-05
4 *869:A *796:A 2.26291e-05
5 *858:A *869:A 4.81894e-05
6 *4:24 *869:A 1.02936e-05
7 *4:39 *869:A 9.29472e-06
8 *13:15 *869:A 6.05161e-06
*RES
1 *858:Y *869:A 20.2563 
*END

*D_NET *311 0.000766475
*CONN
*I *1019:B I *D sky130_fd_sc_hd__nand2_1
*I *1018:Y O *D sky130_fd_sc_hd__nand2_1
*CAP
1 *1019:B 0.00011259
2 *1018:Y 0.00011259
3 *1019:B *1016:B 0.000124884
4 *1016:A *1019:B 5.49489e-05
5 *1018:B *1019:B 9.60939e-05
6 *1019:A *1019:B 8.23451e-05
7 *308:6 *1019:B 0.000183022
*RES
1 *1018:Y *1019:B 22.4393 
*END

*D_NET *312 0.000673037
*CONN
*I *1021:A I *D sky130_fd_sc_hd__nand2_1
*I *1020:A I *D sky130_fd_sc_hd__nand2_1
*I *1019:Y O *D sky130_fd_sc_hd__nand2_1
*CAP
1 *1021:A 0
2 *1020:A 2.39758e-05
3 *1019:Y 0.000262278
4 *312:12 0.000286253
5 *1020:A *313:17 5.49489e-05
6 *312:12 *1311:A 5.61182e-06
7 *312:12 *602:10 0
8 *1019:A *312:12 7.43578e-06
9 *1310:B *312:12 3.25339e-05
10 *307:12 *312:12 0
*RES
1 *1019:Y *312:12 21.7107 
2 *312:12 *1020:A 9.83571 
3 *312:12 *1021:A 9.3 
*END

*D_NET *313 0.000831667
*CONN
*I *1025:B I *D sky130_fd_sc_hd__nand2_1
*I *1021:B I *D sky130_fd_sc_hd__nand2_1
*I *1022:B I *D sky130_fd_sc_hd__nand2_1
*I *1020:Y O *D sky130_fd_sc_hd__nand2_1
*CAP
1 *1025:B 0.000164105
2 *1021:B 0
3 *1022:B 7.02455e-05
4 *1020:Y 0
5 *313:17 0.000277757
6 *313:4 0.000183898
7 *1025:B *1023:A 2.1768e-05
8 *313:17 *1023:A 1.13883e-05
9 *1020:A *313:17 5.49489e-05
10 *1020:B *1022:B 4.75563e-05
*RES
1 *1020:Y *313:4 9.3 
2 *313:4 *1022:B 10.675 
3 *313:4 *313:17 2.19643 
4 *313:17 *1021:B 9.3 
5 *313:17 *1025:B 11.8893 
*END

*D_NET *314 0.000738466
*CONN
*I *1023:A I *D sky130_fd_sc_hd__nand2_1
*I *1021:Y O *D sky130_fd_sc_hd__nand2_1
*CAP
1 *1023:A 0.000276989
2 *1021:Y 0.000276989
3 *1025:B *1023:A 2.1768e-05
4 *13:98 *1023:A 0.000151333
5 *313:17 *1023:A 1.13883e-05
*RES
1 *1021:Y *1023:A 32.2607 
*END

*D_NET *315 0.00041419
*CONN
*I *1023:B I *D sky130_fd_sc_hd__nand2_1
*I *1022:Y O *D sky130_fd_sc_hd__nand2_1
*CAP
1 *1023:B 0.000179196
2 *1022:Y 0.000179196
3 *1020:B *1023:B 5.57989e-05
4 *12:21 *1023:B 0
*RES
1 *1022:Y *1023:B 30.4929 
*END

*D_NET *316 0.000828144
*CONN
*I *1082:A I *D sky130_fd_sc_hd__nand2_1
*I *1083:A I *D sky130_fd_sc_hd__nand2_1
*I *1023:Y O *D sky130_fd_sc_hd__nand2_1
*CAP
1 *1082:A 0
2 *1083:A 5.30745e-05
3 *1023:Y 0.000165152
4 *316:12 0.000218227
5 *1083:A *1082:B 0.000103568
6 *1083:A *372:6 1.74352e-05
7 *1326:A *316:12 0
8 *8:43 *1083:A 0.000199009
9 *8:43 *316:12 7.1678e-05
*RES
1 *1023:Y *316:12 20.8893 
2 *316:12 *1083:A 11.925 
3 *316:12 *1082:A 9.3 
*END

*D_NET *317 0.000533061
*CONN
*I *1030:B I *D sky130_fd_sc_hd__nand2_1
*I *1032:A I *D sky130_fd_sc_hd__nand2_1
*I *1025:Y O *D sky130_fd_sc_hd__nand2_1
*CAP
1 *1030:B 5.52353e-05
2 *1032:A 1.60352e-05
3 *1025:Y 9.17028e-05
4 *317:6 0.000162973
5 *1030:B *1031:B 0
6 *1030:B *1032:B 4.22908e-05
7 *1030:B *1033:B 5.62995e-05
8 *1030:B *322:8 3.99614e-06
9 *1032:A *1032:B 5.7661e-06
10 *1025:A *317:6 9.87617e-05
*RES
1 *1025:Y *317:6 11.0679 
2 *317:6 *1032:A 9.72857 
3 *317:6 *1030:B 11.0857 
*END

*D_NET *318 0.000862399
*CONN
*I *1027:B I *D sky130_fd_sc_hd__nand2_1
*I *1034:A I *D sky130_fd_sc_hd__nand2_1
*I *1028:B I *D sky130_fd_sc_hd__nand2_1
*I *1026:Y O *D sky130_fd_sc_hd__nand2_1
*CAP
1 *1027:B 0
2 *1034:A 9.87235e-05
3 *1028:B 0.000125696
4 *1026:Y 0
5 *318:17 0.000154584
6 *318:4 0.000181556
7 *1028:B *1028:A 5.52238e-05
8 *1028:B *606:8 1.95962e-05
9 *1034:A *1029:A 0.000101545
10 *318:17 *606:8 1.21289e-05
11 *1018:B *1028:B 0
12 *1026:A *318:17 4.80569e-05
13 *14:72 *1034:A 5.9483e-05
14 *262:12 *1034:A 5.80706e-06
*RES
1 *1026:Y *318:4 9.3 
2 *318:4 *1028:B 11.4964 
3 *318:4 *318:17 1.375 
4 *318:17 *1034:A 20.55 
5 *318:17 *1027:B 9.3 
*END

*D_NET *319 0.000699398
*CONN
*I *1029:A I *D sky130_fd_sc_hd__nand2_1
*I *1027:Y O *D sky130_fd_sc_hd__nand2_1
*CAP
1 *1029:A 0.000236026
2 *1027:Y 0.000236026
3 *1029:A *1031:B 0
4 *1029:A *1034:B 2.97137e-05
5 *1029:A *1042:A 0
6 *1029:A *322:8 0
7 *1029:A *327:6 9.60875e-05
8 *1034:A *1029:A 0.000101545
*RES
1 *1027:Y *1029:A 31.4393 
*END

*D_NET *320 0.000217512
*CONN
*I *1029:B I *D sky130_fd_sc_hd__nand2_1
*I *1028:Y O *D sky130_fd_sc_hd__nand2_1
*CAP
1 *1029:B 7.54862e-05
2 *1028:Y 7.54862e-05
3 *14:72 *1029:B 6.65398e-05
*RES
1 *1028:Y *1029:B 29.2429 
*END

*D_NET *321 0.000569836
*CONN
*I *794:B I *D sky130_fd_sc_hd__nand2_1
*I *796:A I *D sky130_fd_sc_hd__nand2_1
*I *869:Y O *D sky130_fd_sc_hd__inv_1
*CAP
1 *794:B 8.33406e-05
2 *796:A 0.000166051
3 *869:Y 0
4 *321:4 0.000249391
5 *869:A *794:B 1.3701e-05
6 *869:A *796:A 2.26291e-05
7 *1312:A *794:B 0
8 *4:39 *794:B 1.98828e-05
9 *4:39 *796:A 1.48401e-05
10 *92:8 *796:A 0
*RES
1 *869:Y *321:4 9.3 
2 *321:4 *796:A 20.6839 
3 *321:4 *794:B 10.7732 
*END

*D_NET *322 0.000474628
*CONN
*I *1031:A I *D sky130_fd_sc_hd__nand2_1
*I *1030:A I *D sky130_fd_sc_hd__nand2_1
*I *1029:Y O *D sky130_fd_sc_hd__nand2_1
*CAP
1 *1031:A 0
2 *1030:A 1.60925e-05
3 *1029:Y 0.000128956
4 *322:8 0.000145049
5 *1030:A *323:20 5.71472e-05
6 *322:8 *1031:B 5.7661e-06
7 *322:8 *1032:B 0
8 *322:8 *1034:B 6.87574e-05
9 *322:8 *323:20 4.88637e-05
10 *1029:A *322:8 0
11 *1030:B *322:8 3.99614e-06
*RES
1 *1029:Y *322:8 11.9071 
2 *322:8 *1030:A 9.83571 
3 *322:8 *1031:A 9.3 
*END

*D_NET *323 0.00082108
*CONN
*I *1034:B I *D sky130_fd_sc_hd__nand2_1
*I *1031:B I *D sky130_fd_sc_hd__nand2_1
*I *1032:B I *D sky130_fd_sc_hd__nand2_1
*I *1030:Y O *D sky130_fd_sc_hd__nand2_1
*CAP
1 *1034:B 0.000119977
2 *1031:B 2.03441e-05
3 *1032:B 6.72666e-05
4 *1030:Y 0.000141067
5 *323:20 0.000214121
6 *1034:B *1042:A 0
7 *1029:A *1031:B 0
8 *1029:A *1034:B 2.97137e-05
9 *1030:A *323:20 5.71472e-05
10 *1030:B *1031:B 0
11 *1030:B *1032:B 4.22908e-05
12 *1032:A *1032:B 5.7661e-06
13 *322:8 *1031:B 5.7661e-06
14 *322:8 *1032:B 0
15 *322:8 *1034:B 6.87574e-05
16 *322:8 *323:20 4.88637e-05
*RES
1 *1030:Y *1032:B 19.975 
2 *1030:Y *323:20 11.0679 
3 *323:20 *1031:B 9.72857 
4 *323:20 *1034:B 11.9071 
*END

*D_NET *324 0.000348767
*CONN
*I *1033:A I *D sky130_fd_sc_hd__nand2_1
*I *1031:Y O *D sky130_fd_sc_hd__nand2_1
*CAP
1 *1033:A 0.000174383
2 *1031:Y 0.000174383
3 *1033:A *1033:B 0
4 *14:72 *1033:A 0
*RES
1 *1031:Y *1033:A 30.4929 
*END

*D_NET *325 0.000413079
*CONN
*I *1033:B I *D sky130_fd_sc_hd__nand2_1
*I *1032:Y O *D sky130_fd_sc_hd__nand2_1
*CAP
1 *1033:B 0.00017839
2 *1032:Y 0.00017839
3 *1030:B *1033:B 5.62995e-05
4 *1033:A *1033:B 0
*RES
1 *1032:Y *1033:B 30.4929 
*END

*D_NET *326 0.00116426
*CONN
*I *1093:A I *D sky130_fd_sc_hd__nand2_1
*I *1092:A I *D sky130_fd_sc_hd__nand2_1
*I *1033:Y O *D sky130_fd_sc_hd__nand2_1
*CAP
1 *1093:A 7.70167e-05
2 *1092:A 1.13923e-05
3 *1033:Y 0.000159971
4 *326:12 0.00024838
5 *1092:B *1093:A 0.00020368
6 *1329:A *1092:A 2.89016e-05
7 *1329:A *1093:A 0.000175526
8 *1329:A *326:12 2.89114e-05
9 *8:54 *1092:A 5.71472e-05
10 *8:54 *326:12 0.000173328
11 *14:72 *326:12 0
*RES
1 *1033:Y *326:12 21.7107 
2 *326:12 *1092:A 9.83571 
3 *326:12 *1093:A 21.1571 
*END

*D_NET *327 0.000596359
*CONN
*I *1040:B I *D sky130_fd_sc_hd__nand2_1
*I *1042:A I *D sky130_fd_sc_hd__nand2_1
*I *1034:Y O *D sky130_fd_sc_hd__nand2_1
*CAP
1 *1040:B 7.33449e-05
2 *1042:A 1.60352e-05
3 *1034:Y 0.000123249
4 *327:6 0.000212629
5 *1040:B *1042:B 4.22908e-05
6 *1040:B *1043:B 1.32552e-05
7 *1040:B *331:8 1.3701e-05
8 *1042:A *1042:B 5.7661e-06
9 *1029:A *1042:A 0
10 *1029:A *327:6 9.60875e-05
11 *1034:B *1042:A 0
*RES
1 *1034:Y *327:6 11.4786 
2 *327:6 *1042:A 9.72857 
3 *327:6 *1040:B 11.0857 
*END

*D_NET *328 0.000783734
*CONN
*I *1037:B I *D sky130_fd_sc_hd__nand2_1
*I *1044:A I *D sky130_fd_sc_hd__nand2_1
*I *1038:B I *D sky130_fd_sc_hd__nand2_1
*I *1036:Y O *D sky130_fd_sc_hd__nand2_1
*CAP
1 *1037:B 0
2 *1044:A 0.000103037
3 *1038:B 0.000112184
4 *1036:Y 0
5 *328:17 0.000154272
6 *328:4 0.000163419
7 *1038:B *1038:A 5.71472e-05
8 *1038:B *608:8 2.54619e-05
9 *1044:A *1052:A 0
10 *1044:A *1053:B 0
11 *328:17 *1316:A 1.3701e-05
12 *328:17 *608:8 5.27915e-05
13 *1036:A *1044:A 1.02504e-05
14 *1037:A *1044:A 5.80706e-06
15 *15:60 *1044:A 8.5662e-05
*RES
1 *1036:Y *328:4 9.3 
2 *328:4 *1038:B 11.4964 
3 *328:4 *328:17 1.375 
4 *328:17 *1044:A 20.55 
5 *328:17 *1037:B 9.3 
*END

*D_NET *329 0.00072524
*CONN
*I *1039:A I *D sky130_fd_sc_hd__nand2_1
*I *1037:Y O *D sky130_fd_sc_hd__nand2_1
*CAP
1 *1039:A 0.000173923
2 *1037:Y 0.000173923
3 *1039:A *1039:B 6.65398e-05
4 *1039:A *608:8 0.0001827
5 *15:60 *1039:A 0.000128154
*RES
1 *1037:Y *1039:A 31.0107 
*END

*D_NET *330 0.000229823
*CONN
*I *1039:B I *D sky130_fd_sc_hd__nand2_1
*I *1038:Y O *D sky130_fd_sc_hd__nand2_1
*CAP
1 *1039:B 8.16414e-05
2 *1038:Y 8.16414e-05
3 *1039:A *1039:B 6.65398e-05
*RES
1 *1038:Y *1039:B 29.2429 
*END

*D_NET *331 0.000412979
*CONN
*I *1041:A I *D sky130_fd_sc_hd__nand2_1
*I *1040:A I *D sky130_fd_sc_hd__nand2_1
*I *1039:Y O *D sky130_fd_sc_hd__nand2_1
*CAP
1 *1041:A 0
2 *1040:A 1.60925e-05
3 *1039:Y 0.000105495
4 *331:8 0.000121588
5 *1040:A *333:15 5.71472e-05
6 *331:8 *1041:B 5.7661e-06
7 *331:8 *1044:B 4.43256e-05
8 *331:8 *333:15 4.88637e-05
9 *1040:B *331:8 1.3701e-05
*RES
1 *1039:Y *331:8 11.4964 
2 *331:8 *1040:A 9.83571 
3 *331:8 *1041:A 9.3 
*END

*D_NET *332 0.000233436
*CONN
*I *891:A I *D sky130_fd_sc_hd__inv_1
*I *880:Y O *D sky130_fd_sc_hd__nand2_1
*CAP
1 *891:A 5.74068e-05
2 *880:Y 5.74068e-05
3 *891:A *804:B 1.3701e-05
4 *891:A *806:A 2.26291e-05
5 *880:A *891:A 1.04232e-05
6 *4:39 *891:A 1.74352e-05
7 *4:48 *891:A 5.44341e-05
*RES
1 *880:Y *891:A 20.2563 
*END

*D_NET *333 0.000730573
*CONN
*I *1044:B I *D sky130_fd_sc_hd__nand2_1
*I *1041:B I *D sky130_fd_sc_hd__nand2_1
*I *1042:B I *D sky130_fd_sc_hd__nand2_1
*I *1040:Y O *D sky130_fd_sc_hd__nand2_1
*CAP
1 *1044:B 0.000112364
2 *1041:B 1.24159e-05
3 *1042:B 6.09086e-05
4 *1040:Y 0
5 *333:15 0.00019858
6 *333:4 0.000134709
7 *1042:B *1043:B 7.43578e-06
8 *1040:A *333:15 5.71472e-05
9 *1040:B *1042:B 4.22908e-05
10 *1042:A *1042:B 5.7661e-06
11 *331:8 *1041:B 5.7661e-06
12 *331:8 *1044:B 4.43256e-05
13 *331:8 *333:15 4.88637e-05
*RES
1 *1040:Y *333:4 9.3 
2 *333:4 *1042:B 10.675 
3 *333:4 *333:15 1.76786 
4 *333:15 *1041:B 9.72857 
5 *333:15 *1044:B 11.4964 
*END

*D_NET *334 0.000397647
*CONN
*I *1043:A I *D sky130_fd_sc_hd__nand2_1
*I *1041:Y O *D sky130_fd_sc_hd__nand2_1
*CAP
1 *1043:A 0.000198823
2 *1041:Y 0.000198823
3 *1043:A *1043:B 0
4 *15:60 *1043:A 0
*RES
1 *1041:Y *1043:A 30.9036 
*END

*D_NET *335 0.000320145
*CONN
*I *1043:B I *D sky130_fd_sc_hd__nand2_1
*I *1042:Y O *D sky130_fd_sc_hd__nand2_1
*CAP
1 *1043:B 0.000149727
2 *1042:Y 0.000149727
3 *1040:B *1043:B 1.32552e-05
4 *1042:B *1043:B 7.43578e-06
5 *1043:A *1043:B 0
6 *14:72 *1043:B 0
*RES
1 *1042:Y *1043:B 30.0821 
*END

*D_NET *336 0.000931821
*CONN
*I *1101:A I *D sky130_fd_sc_hd__nand2_1
*I *1103:A I *D sky130_fd_sc_hd__nand2_1
*I *1043:Y O *D sky130_fd_sc_hd__nand2_1
*CAP
1 *1101:A 0
2 *1103:A 6.82327e-05
3 *1043:Y 0.000208535
4 *336:10 0.000276767
5 *1103:A *1114:B 0
6 *1103:A *392:8 5.75275e-05
7 *336:10 *1104:B 0
8 *1104:A *336:10 0.000103285
9 *1330:A *1103:A 0.000139907
10 *1332:A *336:10 1.59782e-05
11 *1332:B *1103:A 0
12 *1333:A *336:10 0
13 *8:58 *336:10 5.5782e-05
14 *14:72 *336:10 0
15 *15:60 *336:10 0
16 *38:10 *336:10 5.80706e-06
*RES
1 *1043:Y *336:10 22.675 
2 *336:10 *1103:A 11.5143 
3 *336:10 *1101:A 9.3 
*END

*D_NET *337 0.000898243
*CONN
*I *1052:A I *D sky130_fd_sc_hd__nand2_1
*I *1050:B I *D sky130_fd_sc_hd__nand2_1
*I *1044:Y O *D sky130_fd_sc_hd__nand2_1
*CAP
1 *1052:A 0.00017438
2 *1050:B 0
3 *1044:Y 0.000200788
4 *337:8 0.000375168
5 *1052:A *1052:B 0
6 *1052:A *1053:B 0.000128154
7 *1052:A *342:6 6.05161e-06
8 *337:8 *341:8 1.3701e-05
9 *1037:A *1052:A 0
10 *1044:A *1052:A 0
*RES
1 *1044:Y *337:8 12.7286 
2 *337:8 *1050:B 9.3 
3 *337:8 *1052:A 21.6214 
*END

*D_NET *338 0.000821743
*CONN
*I *1054:A I *D sky130_fd_sc_hd__nand2_1
*I *1047:B I *D sky130_fd_sc_hd__nand2_1
*I *1048:B I *D sky130_fd_sc_hd__nand2_1
*I *1045:Y O *D sky130_fd_sc_hd__nand2_1
*CAP
1 *1054:A 8.25493e-05
2 *1047:B 0
3 *1048:B 2.52229e-05
4 *1045:Y 0.000106328
5 *338:12 2.52229e-05
6 *338:10 0.000188877
7 *1048:B *1318:A 5.52238e-05
8 *1054:A *1049:A 0.00010326
9 *1054:A *1049:B 4.48206e-05
10 *1054:A *1052:B 0
11 *338:10 *1045:B 5.26091e-05
12 *1047:A *1054:A 4.46186e-06
13 *1047:A *338:10 7.6021e-05
14 *7:64 *338:10 5.71472e-05
15 *16:81 *1054:A 0
*RES
1 *1045:Y *338:10 16.2821 
2 *338:10 *338:12 4.5 
3 *338:12 *1048:B 9.83571 
4 *338:12 *1047:B 9.3 
5 *338:10 *1054:A 16.05 
*END

*D_NET *339 0.0006828
*CONN
*I *1049:A I *D sky130_fd_sc_hd__nand2_1
*I *1047:Y O *D sky130_fd_sc_hd__nand2_1
*CAP
1 *1049:A 0.000214806
2 *1047:Y 0.000214806
3 *1049:A *1054:B 3.35687e-05
4 *1049:A *341:8 3.18676e-05
5 *1049:A *347:6 4.87854e-05
6 *1054:A *1049:A 0.00010326
7 *16:81 *1049:A 3.5707e-05
*RES
1 *1047:Y *1049:A 31.9571 
*END

*D_NET *340 0.000218932
*CONN
*I *1049:B I *D sky130_fd_sc_hd__nand2_1
*I *1048:Y O *D sky130_fd_sc_hd__nand2_1
*CAP
1 *1049:B 8.70555e-05
2 *1048:Y 8.70555e-05
3 *1049:B *1052:B 0
4 *1049:B *342:10 0
5 *1054:A *1049:B 4.48206e-05
*RES
1 *1048:Y *1049:B 29.2429 
*END

*D_NET *341 0.000582453
*CONN
*I *1051:A I *D sky130_fd_sc_hd__nand2_1
*I *1050:A I *D sky130_fd_sc_hd__nand2_1
*I *1049:Y O *D sky130_fd_sc_hd__nand2_1
*CAP
1 *1051:A 0
2 *1050:A 2.10873e-05
3 *1049:Y 9.85047e-05
4 *341:8 0.000119592
5 *1050:A *342:6 2.44318e-05
6 *341:8 *1054:B 0.000174232
7 *341:8 *342:6 9.90367e-05
8 *1049:A *341:8 3.18676e-05
9 *337:8 *341:8 1.3701e-05
*RES
1 *1049:Y *341:8 12.3179 
2 *341:8 *1050:A 9.83571 
3 *341:8 *1051:A 9.3 
*END

*D_NET *342 0.00138532
*CONN
*I *1054:B I *D sky130_fd_sc_hd__nand2_1
*I *1051:B I *D sky130_fd_sc_hd__nand2_1
*I *1052:B I *D sky130_fd_sc_hd__nand2_1
*I *1050:Y O *D sky130_fd_sc_hd__nand2_1
*CAP
1 *1054:B 0.000163609
2 *1051:B 0
3 *1052:B 0.000220624
4 *1050:Y 9.34757e-05
5 *342:10 0.000266914
6 *342:6 0.000303375
7 *342:10 *1053:B 0
8 *1049:A *1054:B 3.35687e-05
9 *1049:B *1052:B 0
10 *1049:B *342:10 0
11 *1050:A *342:6 2.44318e-05
12 *1052:A *1052:B 0
13 *1052:A *342:6 6.05161e-06
14 *1054:A *1052:B 0
15 *341:8 *1054:B 0.000174232
16 *341:8 *342:6 9.90367e-05
*RES
1 *1050:Y *342:6 11.0679 
2 *342:6 *342:10 5.23214 
3 *342:10 *1052:B 17.4071 
4 *342:10 *1051:B 13.8 
5 *342:6 *1054:B 12.6214 
*END

*D_NET *343 0.000770912
*CONN
*I *804:B I *D sky130_fd_sc_hd__nand2_1
*I *806:A I *D sky130_fd_sc_hd__nand2_1
*I *891:Y O *D sky130_fd_sc_hd__inv_1
*CAP
1 *804:B 8.23805e-05
2 *806:A 0.000181526
3 *891:Y 0
4 *343:4 0.000263906
5 *806:B *806:A 0.000118806
6 *807:B *806:A 4.22908e-05
7 *891:A *804:B 1.3701e-05
8 *891:A *806:A 2.26291e-05
9 *1334:A *804:B 0
10 *4:48 *804:B 2.61528e-05
11 *4:48 *806:A 1.95199e-05
12 *14:35 *806:A 0
13 *102:21 *806:A 0
*RES
1 *891:Y *343:4 9.3 
2 *343:4 *806:A 21.7554 
3 *343:4 *804:B 10.7732 
*END

*D_NET *344 0.000344218
*CONN
*I *1053:A I *D sky130_fd_sc_hd__nand2_1
*I *1051:Y O *D sky130_fd_sc_hd__nand2_1
*CAP
1 *1053:A 0.000172109
2 *1051:Y 0.000172109
3 *1053:A *1053:B 0
*RES
1 *1051:Y *1053:A 30.4929 
*END

*D_NET *345 0.000607307
*CONN
*I *1053:B I *D sky130_fd_sc_hd__nand2_1
*I *1052:Y O *D sky130_fd_sc_hd__nand2_1
*CAP
1 *1053:B 0.000239577
2 *1052:Y 0.000239577
3 *1044:A *1053:B 0
4 *1052:A *1053:B 0.000128154
5 *1053:A *1053:B 0
6 *15:60 *1053:B 0
7 *342:10 *1053:B 0
*RES
1 *1052:Y *1053:B 31.975 
*END

*D_NET *346 0.00100691
*CONN
*I *1111:A I *D sky130_fd_sc_hd__nand2_1
*I *1112:A I *D sky130_fd_sc_hd__nand2_1
*I *1053:Y O *D sky130_fd_sc_hd__nand2_1
*CAP
1 *1111:A 0
2 *1112:A 7.96369e-05
3 *1053:Y 0.000318257
4 *346:12 0.000397894
5 *1112:A *1112:B 3.57366e-05
6 *1112:A *402:6 9.90431e-05
7 *1112:A *402:8 1.24368e-05
8 *346:12 *1120:A 1.88048e-05
9 *1111:B *1112:A 4.51007e-05
10 *1336:A *346:12 0
11 *15:60 *346:12 0
*RES
1 *1053:Y *346:12 23.2107 
2 *346:12 *1112:A 11.5143 
3 *346:12 *1111:A 9.3 
*END

*D_NET *347 0.000895869
*CONN
*I *1060:B I *D sky130_fd_sc_hd__nand2_1
*I *1062:A I *D sky130_fd_sc_hd__nand2_1
*I *1054:Y O *D sky130_fd_sc_hd__nand2_1
*CAP
1 *1060:B 0.000173878
2 *1062:A 0.000105414
3 *1054:Y 7.57433e-05
4 *347:6 0.000355034
5 *1060:B *351:8 1.97695e-05
6 *1060:B *352:26 7.43578e-06
7 *1049:A *347:6 4.87854e-05
8 *16:81 *1062:A 0.000109809
*RES
1 *1054:Y *347:6 10.6571 
2 *347:6 *1062:A 20.8536 
3 *347:6 *1060:B 12.3179 
*END

*D_NET *348 0.00156205
*CONN
*I *1064:A I *D sky130_fd_sc_hd__nand2_1
*I *1058:B I *D sky130_fd_sc_hd__nand2_1
*I *1056:B I *D sky130_fd_sc_hd__nand2_1
*I *1055:Y O *D sky130_fd_sc_hd__nand2_1
*CAP
1 *1064:A 0
2 *1058:B 0.000100258
3 *1056:B 0
4 *1055:Y 0.000135371
5 *348:21 0.000212532
6 *348:10 0.000247645
7 *1058:B *1059:B 4.87953e-05
8 *1058:B *1064:B 1.97695e-05
9 *1058:B *357:12 1.32552e-05
10 *348:10 *1055:B 0.000322594
11 *348:10 *1058:A 5.59013e-05
12 *348:10 *1320:A 0.000175892
13 *348:10 *612:6 5.52238e-05
14 *348:21 *1058:A 0.000174812
15 *348:21 *1059:A 0
*RES
1 *1055:Y *348:10 17.5321 
2 *348:10 *1056:B 13.8 
3 *348:10 *348:21 6.75 
4 *348:21 *1058:B 11.5143 
5 *348:21 *1064:A 9.3 
*END

*D_NET *349 0.00065476
*CONN
*I *1059:A I *D sky130_fd_sc_hd__nand2_1
*I *1056:Y O *D sky130_fd_sc_hd__nand2_1
*CAP
1 *1059:A 0.000270112
2 *1056:Y 0.000270112
3 *1059:A *1061:A 4.1331e-06
4 *1059:A *1320:A 0.000110402
5 *16:81 *1059:A 0
6 *348:21 *1059:A 0
*RES
1 *1056:Y *1059:A 32.1357 
*END

*D_NET *350 0.000372408
*CONN
*I *1059:B I *D sky130_fd_sc_hd__nand2_1
*I *1058:Y O *D sky130_fd_sc_hd__nand2_1
*CAP
1 *1059:B 0.000100295
2 *1058:Y 0.000100295
3 *1059:B *1064:B 4.22908e-05
4 *1059:B *351:8 0
5 *1059:B *357:12 8.07313e-05
6 *1058:B *1059:B 4.87953e-05
*RES
1 *1058:Y *1059:B 21.2071 
*END

*D_NET *351 0.000678408
*CONN
*I *1060:A I *D sky130_fd_sc_hd__nand2_1
*I *1061:A I *D sky130_fd_sc_hd__nand2_1
*I *1059:Y O *D sky130_fd_sc_hd__nand2_1
*CAP
1 *1060:A 0
2 *1061:A 0.000143527
3 *1059:Y 9.42454e-05
4 *351:8 0.000237772
5 *1061:A *352:26 7.83366e-05
6 *351:8 *1064:B 0.000100625
7 *1059:A *1061:A 4.1331e-06
8 *1059:B *351:8 0
9 *1060:B *351:8 1.97695e-05
10 *16:81 *1061:A 0
*RES
1 *1059:Y *351:8 11.4964 
2 *351:8 *1061:A 21.1571 
3 *351:8 *1060:A 9.3 
*END

*D_NET *352 0.001266
*CONN
*I *1062:B I *D sky130_fd_sc_hd__nand2_1
*I *1061:B I *D sky130_fd_sc_hd__nand2_1
*I *1064:B I *D sky130_fd_sc_hd__nand2_1
*I *1060:Y O *D sky130_fd_sc_hd__nand2_1
*CAP
1 *1062:B 0.000106634
2 *1061:B 0
3 *1064:B 0.000172802
4 *1060:Y 0.000313289
5 *352:26 0.00024712
6 *1062:B *1063:A 3.93247e-05
7 *1062:B *1063:B 3.93346e-05
8 *1062:B *356:12 9.90431e-05
9 *1058:B *1064:B 1.97695e-05
10 *1059:B *1064:B 4.22908e-05
11 *1060:B *352:26 7.43578e-06
12 *1061:A *352:26 7.83366e-05
13 *16:81 *352:26 0
14 *351:8 *1064:B 0.000100625
*RES
1 *1060:Y *1064:B 22.0286 
2 *1060:Y *352:26 20.7821 
3 *352:26 *1061:B 9.3 
4 *352:26 *1062:B 11.925 
*END

*D_NET *353 0.000194994
*CONN
*I *1063:A I *D sky130_fd_sc_hd__nand2_1
*I *1061:Y O *D sky130_fd_sc_hd__nand2_1
*CAP
1 *1063:A 6.79499e-05
2 *1061:Y 6.79499e-05
3 *1063:A *1063:B 1.97695e-05
4 *1062:B *1063:A 3.93247e-05
*RES
1 *1061:Y *1063:A 19.975 
*END

*D_NET *354 0.000241121
*CONN
*I *913:A I *D sky130_fd_sc_hd__inv_1
*I *902:Y O *D sky130_fd_sc_hd__nand2_1
*CAP
1 *913:A 6.53473e-05
2 *902:Y 6.53473e-05
3 *913:A *814:B 1.3701e-05
4 *902:A *913:A 1.04232e-05
5 *4:48 *913:A 3.18676e-05
6 *4:67 *913:A 5.44341e-05
*RES
1 *902:Y *913:A 20.2563 
*END

*D_NET *355 0.000197516
*CONN
*I *1063:B I *D sky130_fd_sc_hd__nand2_1
*I *1062:Y O *D sky130_fd_sc_hd__nand2_1
*CAP
1 *1063:B 6.14119e-05
2 *1062:Y 6.14119e-05
3 *1063:B *356:12 1.55885e-05
4 *1062:B *1063:B 3.93346e-05
5 *1063:A *1063:B 1.97695e-05
*RES
1 *1062:Y *1063:B 19.975 
*END

*D_NET *356 0.00121091
*CONN
*I *1122:A I *D sky130_fd_sc_hd__nand2_1
*I *1121:A I *D sky130_fd_sc_hd__nand2_1
*I *1063:Y O *D sky130_fd_sc_hd__nand2_1
*CAP
1 *1122:A 0.000192452
2 *1121:A 0
3 *1063:Y 0.000176711
4 *356:12 0.000369163
5 *1122:A *1130:A 2.8266e-06
6 *1122:A *412:10 5.35423e-05
7 *1122:A *425:12 0
8 *1062:B *356:12 9.90431e-05
9 *1063:B *356:12 1.55885e-05
10 *1121:B *1122:A 0
11 *1121:B *356:12 5.80706e-06
12 *1338:A *1122:A 0
13 *8:95 *1122:A 0.000140933
14 *16:81 *1122:A 5.33005e-05
15 *16:81 *356:12 0.000101545
*RES
1 *1063:Y *356:12 21.3 
2 *356:12 *1121:A 9.3 
3 *356:12 *1122:A 22.5143 
*END

*D_NET *357 0.00179783
*CONN
*I *1070:B I *D sky130_fd_sc_hd__nand2_1
*I *1072:A I *D sky130_fd_sc_hd__nand2_1
*I *1064:Y O *D sky130_fd_sc_hd__nand2_1
*CAP
1 *1070:B 0.000336973
2 *1072:A 4.77479e-05
3 *1064:Y 0.000293833
4 *357:12 0.000678554
5 *1070:B *1072:B 5.35466e-05
6 *1070:B *1073:B 5.62995e-05
7 *1070:B *361:12 3.92854e-05
8 *1070:B *362:8 0.00014285
9 *1072:A *1072:B 5.7661e-06
10 *1072:A *1073:B 9.7049e-06
11 *1072:A *362:8 0
12 *1058:B *357:12 1.32552e-05
13 *1059:B *357:12 8.07313e-05
14 *17:67 *357:12 3.92854e-05
15 *18:75 *1070:B 0
*RES
1 *1064:Y *357:12 22.3357 
2 *357:12 *1072:A 10.3357 
3 *357:12 *1070:B 23.1571 
*END

*D_NET *358 0.00139088
*CONN
*I *1066:B I *D sky130_fd_sc_hd__nand2_1
*I *1067:B I *D sky130_fd_sc_hd__nand2_1
*I *1074:A I *D sky130_fd_sc_hd__nand2_1
*I *1065:Y O *D sky130_fd_sc_hd__nand2_1
*CAP
1 *1066:B 0
2 *1067:B 0.000187928
3 *1074:A 0.000190159
4 *1065:Y 0.000125596
5 *358:25 0.000225122
6 *358:10 0.00035295
7 *1067:B *1069:A 5.27816e-05
8 *1067:B *1069:B 4.22908e-05
9 *1067:B *361:12 1.32552e-05
10 *1074:A *361:12 7.50697e-05
11 *1066:A *358:10 0.000125731
12 *18:75 *1074:A 0
*RES
1 *1065:Y *358:10 15.9786 
2 *358:10 *1074:A 17.1929 
3 *358:10 *358:25 5.03571 
4 *358:25 *1067:B 12.7464 
5 *358:25 *1066:B 9.3 
*END

*D_NET *359 0.000200992
*CONN
*I *1069:A I *D sky130_fd_sc_hd__nand2_1
*I *1066:Y O *D sky130_fd_sc_hd__nand2_1
*CAP
1 *1069:A 6.05026e-05
2 *1066:Y 6.05026e-05
3 *1069:A *1069:B 1.97695e-05
4 *1069:A *361:12 7.43578e-06
5 *1067:B *1069:A 5.27816e-05
*RES
1 *1066:Y *1069:A 19.975 
*END

*D_NET *360 0.000179731
*CONN
*I *1069:B I *D sky130_fd_sc_hd__nand2_1
*I *1067:Y O *D sky130_fd_sc_hd__nand2_1
*CAP
1 *1069:B 5.88353e-05
2 *1067:Y 5.88353e-05
3 *1067:B *1069:B 4.22908e-05
4 *1069:A *1069:B 1.97695e-05
*RES
1 *1067:Y *1069:B 19.975 
*END

*D_NET *361 0.000763688
*CONN
*I *1070:A I *D sky130_fd_sc_hd__nand2_1
*I *1071:A I *D sky130_fd_sc_hd__nand2_1
*I *1069:Y O *D sky130_fd_sc_hd__nand2_1
*CAP
1 *1070:A 0
2 *1071:A 7.42211e-05
3 *1069:Y 0.000132843
4 *361:12 0.000207064
5 *1071:A *1071:B 1.97695e-05
6 *1071:A *1074:B 9.09605e-05
7 *1071:A *362:8 0.000103783
8 *1067:B *361:12 1.32552e-05
9 *1069:A *361:12 7.43578e-06
10 *1070:B *361:12 3.92854e-05
11 *1074:A *361:12 7.50697e-05
12 *18:75 *361:12 0
*RES
1 *1069:Y *361:12 20.7821 
2 *361:12 *1071:A 11.5143 
3 *361:12 *1070:A 9.3 
*END

*D_NET *362 0.00109636
*CONN
*I *1074:B I *D sky130_fd_sc_hd__nand2_1
*I *1071:B I *D sky130_fd_sc_hd__nand2_1
*I *1072:B I *D sky130_fd_sc_hd__nand2_1
*I *1070:Y O *D sky130_fd_sc_hd__nand2_1
*CAP
1 *1074:B 7.52591e-05
2 *1071:B 5.05864e-06
3 *1072:B 8.00812e-05
4 *1070:Y 0
5 *362:8 0.000150742
6 *362:4 0.000140861
7 *1071:B *1073:A 1.04232e-05
8 *1072:B *1073:A 6.46481e-05
9 *1072:B *1073:B 7.80274e-05
10 *1072:B *366:12 5.71472e-05
11 *362:8 *1073:A 1.74352e-05
12 *1070:B *1072:B 5.35466e-05
13 *1070:B *362:8 0.00014285
14 *1071:A *1071:B 1.97695e-05
15 *1071:A *1074:B 9.09605e-05
16 *1071:A *362:8 0.000103783
17 *1072:A *1072:B 5.7661e-06
18 *1072:A *362:8 0
*RES
1 *1070:Y *362:4 9.3 
2 *362:4 *362:8 2.19643 
3 *362:8 *1072:B 12.3536 
4 *362:8 *1071:B 9.72857 
5 *362:4 *1074:B 10.9786 
*END

*D_NET *363 0.000217687
*CONN
*I *1073:A I *D sky130_fd_sc_hd__nand2_1
*I *1071:Y O *D sky130_fd_sc_hd__nand2_1
*CAP
1 *1073:A 6.25902e-05
2 *1071:Y 6.25902e-05
3 *1071:B *1073:A 1.04232e-05
4 *1072:B *1073:A 6.46481e-05
5 *362:8 *1073:A 1.74352e-05
*RES
1 *1071:Y *1073:A 19.975 
*END

*D_NET *364 0.000206951
*CONN
*I *1073:B I *D sky130_fd_sc_hd__nand2_1
*I *1072:Y O *D sky130_fd_sc_hd__nand2_1
*CAP
1 *1073:B 3.14598e-05
2 *1072:Y 3.14598e-05
3 *1070:B *1073:B 5.62995e-05
4 *1072:A *1073:B 9.7049e-06
5 *1072:B *1073:B 7.80274e-05
*RES
1 *1072:Y *1073:B 19.975 
*END

*D_NET *365 0.000741202
*CONN
*I *816:A I *D sky130_fd_sc_hd__nand2_1
*I *814:B I *D sky130_fd_sc_hd__nand2_1
*I *913:Y O *D sky130_fd_sc_hd__inv_1
*CAP
1 *816:A 0.000136002
2 *814:B 1.63023e-05
3 *913:Y 3.05181e-05
4 *365:6 0.000182823
5 *758:A *814:B 0
6 *815:A *816:A 0.000150632
7 *913:A *814:B 1.3701e-05
8 *4:67 *816:A 4.14279e-05
9 *4:67 *365:6 4.40835e-05
10 *16:34 *816:A 0
11 *111:12 *816:A 5.71472e-05
12 *111:12 *365:6 1.33343e-05
13 *213:6 *816:A 5.52302e-05
*RES
1 *913:Y *365:6 10.0411 
2 *365:6 *814:B 9.72857 
3 *365:6 *816:A 21.6036 
*END

*D_NET *366 0.00109246
*CONN
*I *1132:A I *D sky130_fd_sc_hd__nand2_1
*I *1131:A I *D sky130_fd_sc_hd__nand2_1
*I *1073:Y O *D sky130_fd_sc_hd__nand2_1
*CAP
1 *1132:A 7.62541e-05
2 *1131:A 0
3 *1073:Y 0.000228627
4 *366:12 0.000304881
5 *1132:A *1134:A 3.99614e-06
6 *1132:A *1134:B 0
7 *1132:A *422:10 0.00010096
8 *1072:B *366:12 5.71472e-05
9 *1131:B *1132:A 3.89309e-05
10 *1133:A *1132:A 0
11 *1339:A *366:12 0.000202842
12 *1339:B *1132:A 3.99614e-06
13 *1340:A *1132:A 0
14 *17:67 *366:12 0
15 *17:78 *366:12 0
16 *18:75 *366:12 7.4826e-05
*RES
1 *1073:Y *366:12 23.2107 
2 *366:12 *1131:A 9.3 
3 *366:12 *1132:A 11.5143 
*END

*D_NET *367 0.00122294
*CONN
*I *1142:A I *D sky130_fd_sc_hd__nand2_1
*I *1141:A I *D sky130_fd_sc_hd__nand2_1
*I *1074:Y O *D sky130_fd_sc_hd__nand2_1
*CAP
1 *1142:A 0.000300099
2 *1141:A 0
3 *1074:Y 9.22058e-05
4 *367:8 0.000392305
5 *1142:A *1142:B 3.54798e-05
6 *1142:A *1144:A 7.48301e-06
7 *1142:A *1144:B 1.74352e-05
8 *1142:A *1150:A 1.46624e-05
9 *1142:A *432:10 4.94455e-05
10 *1142:A *435:12 2.8266e-06
11 *1141:B *1142:A 0.000236814
12 *1141:B *367:8 9.25014e-06
13 *1143:A *1142:A 6.49351e-05
14 *18:75 *367:8 0
15 *18:92 *1142:A 0
*RES
1 *1074:Y *367:8 15.4429 
2 *367:8 *1141:A 13.8 
3 *367:8 *1142:A 19.7643 
*END

*D_NET *368 0.00115557
*CONN
*I *1081:A I *D sky130_fd_sc_hd__inv_1
*I *1077:B I *D sky130_fd_sc_hd__nand2_1
*I *1076:B I *D sky130_fd_sc_hd__nand2_1
*I *1075:Y O *D sky130_fd_sc_hd__nand2_1
*CAP
1 *1081:A 0.000123887
2 *1077:B 0.000130052
3 *1076:B 0.000134868
4 *1075:Y 0
5 *368:6 0.000284041
6 *368:4 0.000143008
7 *1077:B *1077:A 5.52302e-05
8 *1081:A *616:12 0.000104294
9 *1076:A *1076:B 5.52238e-05
10 *1324:B *1081:A 9.25014e-06
11 *8:24 *1081:A 0.000115711
12 *11:21 *1081:A 0
*RES
1 *1075:Y *368:4 9.3 
2 *368:4 *368:6 0.428571 
3 *368:6 *1076:B 11.4964 
4 *368:6 *1077:B 11.4964 
5 *368:4 *1081:A 21.0455 
*END

*D_NET *369 0.000244964
*CONN
*I *1078:A I *D sky130_fd_sc_hd__nand2_1
*I *1076:Y O *D sky130_fd_sc_hd__nand2_1
*CAP
1 *1078:A 7.54151e-05
2 *1076:Y 7.54151e-05
3 *1078:A *1078:B 0
4 *11:21 *1078:A 5.48488e-05
5 *306:12 *1078:A 3.92854e-05
*RES
1 *1076:Y *1078:A 29.5464 
*END

*D_NET *370 0.000466065
*CONN
*I *1078:B I *D sky130_fd_sc_hd__nand2_1
*I *1077:Y O *D sky130_fd_sc_hd__nand2_1
*CAP
1 *1078:B 0.000192615
2 *1077:Y 0.000192615
3 *1014:B *1078:B 9.25014e-06
4 *1078:A *1078:B 0
5 *12:21 *1078:B 0
6 *306:12 *1078:B 7.15846e-05
*RES
1 *1077:Y *1078:B 31.3143 
*END

*D_NET *371 0.000447156
*CONN
*I *1086:B I *D sky130_fd_sc_hd__nand2_1
*I *1088:A I *D sky130_fd_sc_hd__nand2_1
*I *1081:Y O *D sky130_fd_sc_hd__inv_1
*CAP
1 *1086:B 2.52056e-05
2 *1088:A 0
3 *1081:Y 0.000127952
4 *371:12 0.000153158
5 *1086:B *1088:B 5.52302e-05
6 *11:15 *371:12 8.56101e-05
*RES
1 *1081:Y *371:12 20.5768 
2 *371:12 *1088:A 9.3 
3 *371:12 *1086:B 9.83571 
*END

*D_NET *372 0.0013352
*CONN
*I *1090:A I *D sky130_fd_sc_hd__nand2_1
*I *1083:B I *D sky130_fd_sc_hd__nand2_1
*I *1084:B I *D sky130_fd_sc_hd__nand2_1
*I *1082:Y O *D sky130_fd_sc_hd__nand2_1
*CAP
1 *1090:A 0.000158268
2 *1083:B 6.22973e-06
3 *1084:B 0.000115584
4 *1082:Y 6.31097e-05
5 *372:10 0.000165693
6 *372:6 0.000265257
7 *1083:B *1082:B 3.57366e-05
8 *1083:B *1084:A 0
9 *1084:B *1082:B 4.66931e-05
10 *1084:B *1084:A 4.46096e-05
11 *1084:B *1085:A 4.88637e-05
12 *1084:B *1327:A 2.79827e-05
13 *1090:A *1085:A 0
14 *1090:A *381:6 5.52238e-05
15 *372:6 *1082:B 8.76257e-05
16 *372:10 *1082:B 7.96992e-05
17 *372:10 *1085:A 5.71472e-05
18 *1083:A *372:6 1.74352e-05
19 *8:24 *1084:B 6.00426e-05
20 *12:19 *1090:A 0
*RES
1 *1082:Y *372:6 10.6571 
2 *372:6 *372:10 1.375 
3 *372:10 *1084:B 12.3179 
4 *372:10 *1083:B 9.72857 
5 *372:6 *1090:A 21.0857 
*END

*D_NET *373 0.000603427
*CONN
*I *1085:A I *D sky130_fd_sc_hd__nand2_1
*I *1083:Y O *D sky130_fd_sc_hd__nand2_1
*CAP
1 *1085:A 0.000172538
2 *1083:Y 0.000172538
3 *1084:B *1085:A 4.88637e-05
4 *1090:A *1085:A 0
5 *12:19 *1085:A 0.00015234
6 *372:10 *1085:A 5.71472e-05
*RES
1 *1083:Y *1085:A 30.9036 
*END

*D_NET *374 0.000404054
*CONN
*I *1085:B I *D sky130_fd_sc_hd__nand2_1
*I *1084:Y O *D sky130_fd_sc_hd__nand2_1
*CAP
1 *1085:B 0.000107633
2 *1084:Y 0.000107633
3 *1085:B *1090:B 5.52302e-05
4 *1085:B *376:8 5.52302e-05
5 *11:15 *1085:B 0
6 *12:19 *1085:B 7.8327e-05
*RES
1 *1084:Y *1085:B 30.0821 
*END

*D_NET *375 0.000555427
*CONN
*I *935:A I *D sky130_fd_sc_hd__inv_1
*I *924:Y O *D sky130_fd_sc_hd__nand2_1
*CAP
1 *935:A 0.000230054
2 *924:Y 0.000230054
3 *935:A *386:8 1.66856e-05
4 *827:A *935:A 0
5 *827:B *935:A 6.05161e-06
6 *832:A *935:A 2.8266e-06
7 *3:71 *935:A 1.34554e-05
8 *16:21 *935:A 5.62995e-05
*RES
1 *924:Y *935:A 31.1402 
*END

*D_NET *376 0.000578457
*CONN
*I *1087:A I *D sky130_fd_sc_hd__nand2_1
*I *1086:A I *D sky130_fd_sc_hd__nand2_1
*I *1085:Y O *D sky130_fd_sc_hd__nand2_1
*CAP
1 *1087:A 0
2 *1086:A 2.20002e-05
3 *1085:Y 0.000150309
4 *376:8 0.000172309
5 *1086:A *377:15 5.52302e-05
6 *376:8 *1087:B 5.7661e-06
7 *376:8 *1088:B 0
8 *376:8 *1090:B 6.87476e-05
9 *376:8 *377:15 4.88637e-05
10 *1085:B *376:8 5.52302e-05
*RES
1 *1085:Y *376:8 12.3179 
2 *376:8 *1086:A 9.83571 
3 *376:8 *1087:A 9.3 
*END

*D_NET *377 0.00104282
*CONN
*I *1090:B I *D sky130_fd_sc_hd__nand2_1
*I *1087:B I *D sky130_fd_sc_hd__nand2_1
*I *1088:B I *D sky130_fd_sc_hd__nand2_1
*I *1086:Y O *D sky130_fd_sc_hd__nand2_1
*CAP
1 *1090:B 0.00015132
2 *1087:B 2.03441e-05
3 *1088:B 0.000123797
4 *1086:Y 0
5 *377:15 0.000253081
6 *377:4 0.000205214
7 *1085:B *1090:B 5.52302e-05
8 *1086:A *377:15 5.52302e-05
9 *1086:B *1088:B 5.52302e-05
10 *376:8 *1087:B 5.7661e-06
11 *376:8 *1088:B 0
12 *376:8 *1090:B 6.87476e-05
13 *376:8 *377:15 4.88637e-05
*RES
1 *1086:Y *377:4 9.3 
2 *377:4 *1088:B 11.4964 
3 *377:4 *377:15 1.76786 
4 *377:15 *1087:B 9.72857 
5 *377:15 *1090:B 12.3179 
*END

*D_NET *378 0.000347637
*CONN
*I *1089:A I *D sky130_fd_sc_hd__nand2_1
*I *1087:Y O *D sky130_fd_sc_hd__nand2_1
*CAP
1 *1089:A 0.000109742
2 *1087:Y 0.000109742
3 *11:15 *1089:A 0.000128154
4 *12:19 *1089:A 0
*RES
1 *1087:Y *1089:A 29.7786 
*END

*D_NET *379 0.000275291
*CONN
*I *1089:B I *D sky130_fd_sc_hd__nand2_1
*I *1088:Y O *D sky130_fd_sc_hd__nand2_1
*CAP
1 *1089:B 0.000105128
2 *1088:Y 0.000105128
3 *1089:B *1154:A 0
4 *1089:B *380:12 1.92905e-05
5 *11:15 *1089:B 4.57445e-05
*RES
1 *1088:Y *1089:B 29.7786 
*END

*D_NET *380 0.000707021
*CONN
*I *1151:A I *D sky130_fd_sc_hd__nand2_1
*I *1152:A I *D sky130_fd_sc_hd__nand2_1
*I *1089:Y O *D sky130_fd_sc_hd__nand2_1
*CAP
1 *1151:A 0
2 *1152:A 1.1624e-05
3 *1089:Y 0.000256222
4 *380:12 0.000267846
5 *1152:A *442:6 5.52238e-05
6 *380:12 *1154:A 4.15914e-05
7 *1089:B *380:12 1.92905e-05
8 *1153:A *1152:A 5.52238e-05
9 *11:15 *380:12 0
*RES
1 *1089:Y *380:12 22.0143 
2 *380:12 *1152:A 9.83571 
3 *380:12 *1151:A 9.3 
*END

*D_NET *381 0.0010181
*CONN
*I *1096:B I *D sky130_fd_sc_hd__nand2_1
*I *1098:A I *D sky130_fd_sc_hd__nand2_1
*I *1090:Y O *D sky130_fd_sc_hd__nand2_1
*CAP
1 *1096:B 0.000114273
2 *1098:A 0.000134646
3 *1090:Y 0.000219686
4 *381:6 0.000468605
5 *1096:B *1095:A 7.20217e-06
6 *1096:B *1096:A 1.8461e-05
7 *1090:A *381:6 5.52238e-05
*RES
1 *1090:Y *381:6 12.7107 
2 *381:6 *1098:A 20.2464 
3 *381:6 *1096:B 11.0857 
*END

*D_NET *382 0.000918451
*CONN
*I *1094:B I *D sky130_fd_sc_hd__nand2_1
*I *1093:B I *D sky130_fd_sc_hd__nand2_1
*I *1100:A I *D sky130_fd_sc_hd__nand2_1
*I *1092:Y O *D sky130_fd_sc_hd__nand2_1
*CAP
1 *1094:B 0.000123851
2 *1093:B 0
3 *1100:A 2.49951e-05
4 *1092:Y 9.65524e-05
5 *382:10 2.49951e-05
6 *382:8 0.000220403
7 *1094:B *1095:B 7.6997e-05
8 *1100:A *1095:B 1.32056e-05
9 *1100:A *391:6 2.84026e-05
10 *1092:B *1094:B 5.83304e-05
11 *1092:B *382:8 0.000148189
12 *1094:A *1094:B 0.00010253
13 *13:113 *1094:B 0
14 *13:113 *382:8 0
*RES
1 *1092:Y *382:8 15.7464 
2 *382:8 *382:10 4.5 
3 *382:10 *1100:A 9.83571 
4 *382:10 *1093:B 9.3 
5 *382:8 *1094:B 16.5857 
*END

*D_NET *383 0.00149944
*CONN
*I *1095:A I *D sky130_fd_sc_hd__nand2_1
*I *1093:Y O *D sky130_fd_sc_hd__nand2_1
*CAP
1 *1095:A 0.000430879
2 *1093:Y 0.000430879
3 *1095:A *1095:B 1.33067e-05
4 *1095:A *1096:A 5.70269e-05
5 *1095:A *1100:B 0.000420941
6 *1095:A *391:6 0.000139202
7 *1096:B *1095:A 7.20217e-06
*RES
1 *1093:Y *1095:A 26.1714 
*END

*D_NET *384 0.000598984
*CONN
*I *1095:B I *D sky130_fd_sc_hd__nand2_1
*I *1094:Y O *D sky130_fd_sc_hd__nand2_1
*CAP
1 *1095:B 0.000194175
2 *1094:Y 0.000194175
3 *1095:B *1096:A 5.38444e-06
4 *1095:B *1100:B 3.1001e-05
5 *1095:B *391:6 1.59373e-05
6 *1094:A *1095:B 5.48009e-05
7 *1094:B *1095:B 7.6997e-05
8 *1095:A *1095:B 1.33067e-05
9 *1100:A *1095:B 1.32056e-05
*RES
1 *1094:Y *1095:B 31.3857 
*END

*D_NET *385 0.000596989
*CONN
*I *1097:A I *D sky130_fd_sc_hd__nand2_1
*I *1096:A I *D sky130_fd_sc_hd__nand2_1
*I *1095:Y O *D sky130_fd_sc_hd__nand2_1
*CAP
1 *1097:A 0.000110864
2 *1096:A 8.31179e-05
3 *1095:Y 0
4 *385:4 0.000193982
5 *1095:A *1096:A 5.70269e-05
6 *1095:B *1096:A 5.38444e-06
7 *1096:B *1096:A 1.8461e-05
8 *13:113 *1097:A 0.000128154
*RES
1 *1095:Y *385:4 9.3 
2 *385:4 *1096:A 11.1036 
3 *385:4 *1097:A 20.4786 
*END

*D_NET *386 0.000798725
*CONN
*I *823:B I *D sky130_fd_sc_hd__nand2_1
*I *826:A I *D sky130_fd_sc_hd__nand2_1
*I *935:Y O *D sky130_fd_sc_hd__inv_1
*CAP
1 *823:B 0.000228227
2 *826:A 0
3 *935:Y 4.89995e-05
4 *386:8 0.000277226
5 *747:A *386:8 0
6 *780:A *823:B 0
7 *825:A *823:B 3.89309e-05
8 *827:B *823:B 7.43578e-06
9 *827:B *386:8 7.49387e-06
10 *935:A *386:8 1.66856e-05
11 *3:71 *823:B 2.10515e-05
12 *3:71 *386:8 7.61109e-05
13 *16:34 *823:B 0
14 *16:34 *386:8 0
15 *121:8 *823:B 2.82423e-05
16 *121:8 *386:8 1.94098e-05
17 *121:10 *823:B 2.89114e-05
*RES
1 *935:Y *386:8 10.7732 
2 *386:8 *826:A 9.3 
3 *386:8 *823:B 13.4786 
*END

*D_NET *387 0.00103479
*CONN
*I *1097:B I *D sky130_fd_sc_hd__nand2_1
*I *1098:B I *D sky130_fd_sc_hd__nand2_1
*I *1100:B I *D sky130_fd_sc_hd__nand2_1
*I *1096:Y O *D sky130_fd_sc_hd__nand2_1
*CAP
1 *1097:B 0
2 *1098:B 3.83244e-05
3 *1100:B 9.10682e-05
4 *1096:Y 0.000174255
5 *387:24 0.000121511
6 *1098:B *1099:A 9.83388e-05
7 *1095:A *1100:B 0.000420941
8 *1095:B *1100:B 3.1001e-05
9 *13:113 *387:24 5.93525e-05
*RES
1 *1096:Y *1100:B 21.9214 
2 *1096:Y *387:24 19.9429 
3 *387:24 *1098:B 10.2464 
4 *387:24 *1097:B 9.3 
*END

*D_NET *388 0.000495569
*CONN
*I *1099:A I *D sky130_fd_sc_hd__nand2_1
*I *1097:Y O *D sky130_fd_sc_hd__nand2_1
*CAP
1 *1099:A 0.000170351
2 *1097:Y 0.000170351
3 *1099:A *1099:B 5.6528e-05
4 *1098:B *1099:A 9.83388e-05
*RES
1 *1097:Y *1099:A 21.6179 
*END

*D_NET *389 0.000291249
*CONN
*I *1099:B I *D sky130_fd_sc_hd__nand2_1
*I *1098:Y O *D sky130_fd_sc_hd__nand2_1
*CAP
1 *1099:B 0.000101677
2 *1098:Y 0.000101677
3 *1099:B *390:12 3.1367e-05
4 *1099:A *1099:B 5.6528e-05
*RES
1 *1098:Y *1099:B 20.7964 
*END

*D_NET *390 0.000836557
*CONN
*I *1158:A I *D sky130_fd_sc_hd__nand2_1
*I *1156:A I *D sky130_fd_sc_hd__nand2_1
*I *1099:Y O *D sky130_fd_sc_hd__nand2_1
*CAP
1 *1158:A 1.96283e-05
2 *1156:A 0
3 *1099:Y 0.000224729
4 *390:12 0.000244358
5 *1158:A *1158:B 1.24368e-05
6 *1158:A *446:6 1.98839e-05
7 *390:12 *1159:B 0.000124083
8 *390:12 *1165:A 4.6355e-05
9 *1099:B *390:12 3.1367e-05
10 *1159:A *390:12 6.04162e-05
11 *9:58 *1158:A 5.33005e-05
12 *12:19 *390:12 0
*RES
1 *1099:Y *390:12 22.9071 
2 *390:12 *1156:A 9.3 
3 *390:12 *1158:A 9.83571 
*END

*D_NET *391 0.00175737
*CONN
*I *1106:B I *D sky130_fd_sc_hd__nand2_1
*I *1108:A I *D sky130_fd_sc_hd__nand2_1
*I *1100:Y O *D sky130_fd_sc_hd__nand2_1
*CAP
1 *1106:B 0.000238334
2 *1108:A 0.000146928
3 *1100:Y 0.000134535
4 *391:6 0.000519796
5 *1106:B *1107:A 1.51018e-05
6 *1106:B *1109:A 2.49484e-05
7 *1106:B *1109:B 5.41494e-05
8 *1106:B *395:12 6.42242e-05
9 *1106:B *396:8 1.51018e-05
10 *1106:B *400:14 0.000127446
11 *1108:A *1109:A 7.80714e-06
12 *1108:A *1109:B 5.61633e-05
13 *1108:A *400:14 0
14 *1092:B *1108:A 1.5942e-05
15 *1094:A *1108:A 5.10822e-05
16 *1095:A *391:6 0.000139202
17 *1095:B *391:6 1.59373e-05
18 *1100:A *391:6 2.84026e-05
19 *1329:A *1106:B 1.14548e-05
20 *1329:A *1108:A 5.66157e-05
21 *1329:A *391:6 2.59355e-05
22 *14:72 *1106:B 0
23 *36:8 *391:6 8.25843e-06
*RES
1 *1100:Y *391:6 11.8893 
2 *391:6 *1108:A 21.6929 
3 *391:6 *1106:B 23.4875 
*END

*D_NET *392 0.00086312
*CONN
*I *1103:B I *D sky130_fd_sc_hd__nand2_1
*I *1110:A I *D sky130_fd_sc_hd__nand2_1
*I *1104:B I *D sky130_fd_sc_hd__nand2_1
*I *1101:Y O *D sky130_fd_sc_hd__nand2_1
*CAP
1 *1103:B 0
2 *1110:A 0
3 *1104:B 0.00015744
4 *1101:Y 8.07911e-05
5 *392:10 0.000171155
6 *392:8 9.45055e-05
7 *1104:B *1105:B 3.15739e-05
8 *392:8 *1105:A 2.44318e-05
9 *392:8 *401:14 0.00010096
10 *392:10 *1105:A 5.52302e-05
11 *392:10 *401:14 2.14757e-05
12 *1103:A *392:8 5.75275e-05
13 *1104:A *1104:B 0
14 *1330:A *1104:B 5.59013e-05
15 *1330:A *392:8 1.21289e-05
16 *14:72 *1104:B 0
17 *336:10 *1104:B 0
*RES
1 *1101:Y *392:8 11.4964 
2 *392:8 *392:10 0.535714 
3 *392:10 *1104:B 21.1571 
4 *392:10 *1110:A 9.3 
5 *392:8 *1103:B 9.3 
*END

*D_NET *393 0.000576771
*CONN
*I *1105:A I *D sky130_fd_sc_hd__nand2_1
*I *1103:Y O *D sky130_fd_sc_hd__nand2_1
*CAP
1 *1105:A 0.000175948
2 *1103:Y 0.000175948
3 *1105:A *1109:B 0
4 *1105:A *395:12 5.30637e-06
5 *1330:A *1105:A 0.000139907
6 *392:8 *1105:A 2.44318e-05
7 *392:10 *1105:A 5.52302e-05
*RES
1 *1103:Y *1105:A 22.0286 
*END

*D_NET *394 0.00050809
*CONN
*I *1105:B I *D sky130_fd_sc_hd__nand2_1
*I *1104:Y O *D sky130_fd_sc_hd__nand2_1
*CAP
1 *1105:B 0.000121927
2 *1104:Y 0.000121927
3 *1105:B *1110:B 1.02504e-05
4 *1104:A *1105:B 3.18676e-05
5 *1104:B *1105:B 3.15739e-05
6 *1330:A *1105:B 2.49484e-05
7 *8:54 *1105:B 1.32552e-05
8 *14:72 *1105:B 0.00015234
*RES
1 *1104:Y *1105:B 30.4929 
*END

*D_NET *395 0.000668772
*CONN
*I *1107:A I *D sky130_fd_sc_hd__nand2_1
*I *1106:A I *D sky130_fd_sc_hd__nand2_1
*I *1105:Y O *D sky130_fd_sc_hd__nand2_1
*CAP
1 *1107:A 9.38888e-05
2 *1106:A 0
3 *1105:Y 0.000144593
4 *395:12 0.000238482
5 *1107:A *1110:B 3.69047e-06
6 *1107:A *396:8 4.7213e-05
7 *1105:A *395:12 5.30637e-06
8 *1106:B *1107:A 1.51018e-05
9 *1106:B *395:12 6.42242e-05
10 *14:72 *395:12 4.25716e-05
11 *14:85 *1107:A 1.3701e-05
*RES
1 *1105:Y *395:12 20.8893 
2 *395:12 *1106:A 9.3 
3 *395:12 *1107:A 11.5143 
*END

*D_NET *396 0.00113363
*CONN
*I *1110:B I *D sky130_fd_sc_hd__nand2_1
*I *1107:B I *D sky130_fd_sc_hd__nand2_1
*I *1108:B I *D sky130_fd_sc_hd__nand2_1
*I *1106:Y O *D sky130_fd_sc_hd__nand2_1
*CAP
1 *1110:B 0.000227212
2 *1107:B 0
3 *1108:B 2.04463e-05
4 *1106:Y 0.000361084
5 *396:8 0.000154319
6 *1108:B *1109:B 2.28499e-05
7 *396:8 *1109:B 1.24368e-05
8 *1105:B *1110:B 1.02504e-05
9 *1106:B *396:8 1.51018e-05
10 *1107:A *1110:B 3.69047e-06
11 *1107:A *396:8 4.7213e-05
12 *1330:A *1110:B 0.000128146
13 *1331:A *1110:B 5.52238e-05
14 *14:72 *1110:B 6.16744e-05
15 *14:85 *1110:B 1.39841e-05
*RES
1 *1106:Y *396:8 11.4964 
2 *396:8 *1108:B 9.83571 
3 *396:8 *1107:B 9.3 
4 *1106:Y *1110:B 31.4214 
*END

*D_NET *397 0.000543808
*CONN
*I *957:A I *D sky130_fd_sc_hd__inv_1
*I *946:Y O *D sky130_fd_sc_hd__nand2_1
*CAP
1 *957:A 0.000220338
2 *946:Y 0.000220338
3 *791:B *957:A 6.71359e-05
4 *946:B *957:A 0
5 *969:A *957:A 2.27416e-05
6 *4:73 *957:A 1.32552e-05
*RES
1 *946:Y *957:A 31.1402 
*END

*D_NET *398 0.000306403
*CONN
*I *1109:A I *D sky130_fd_sc_hd__nand2_1
*I *1107:Y O *D sky130_fd_sc_hd__nand2_1
*CAP
1 *1109:A 4.60109e-05
2 *1107:Y 4.60109e-05
3 *1109:A *1109:B 0.000101545
4 *1109:A *400:14 8.00806e-05
5 *1106:B *1109:A 2.49484e-05
6 *1108:A *1109:A 7.80714e-06
*RES
1 *1107:Y *1109:A 29.2429 
*END

*D_NET *399 0.000694456
*CONN
*I *1109:B I *D sky130_fd_sc_hd__nand2_1
*I *1108:Y O *D sky130_fd_sc_hd__nand2_1
*CAP
1 *1109:B 0.000223656
2 *1108:Y 0.000223656
3 *1105:A *1109:B 0
4 *1106:B *1109:B 5.41494e-05
5 *1108:A *1109:B 5.61633e-05
6 *1108:B *1109:B 2.28499e-05
7 *1109:A *1109:B 0.000101545
8 *396:8 *1109:B 1.24368e-05
*RES
1 *1108:Y *1109:B 31.6714 
*END

*D_NET *400 0.00166497
*CONN
*I *1166:A I *D sky130_fd_sc_hd__nand2_1
*I *1167:A I *D sky130_fd_sc_hd__nand2_1
*I *1109:Y O *D sky130_fd_sc_hd__nand2_1
*CAP
1 *1166:A 0
2 *1167:A 1.22537e-05
3 *1109:Y 0.000499846
4 *400:14 0.0005121
5 *1167:A *1167:B 2.28499e-05
6 *400:14 *1167:B 6.53408e-05
7 *400:14 *1169:B 5.72433e-05
8 *400:14 *456:19 4.13496e-05
9 *749:A *1167:A 5.52238e-05
10 *749:A *400:14 6.37518e-05
11 *751:A *400:14 0
12 *1106:B *400:14 0.000127446
13 *1108:A *400:14 0
14 *1109:A *400:14 8.00806e-05
15 *1169:A *400:14 5.33005e-05
16 *52:6 *400:14 7.41875e-05
*RES
1 *1109:Y *400:14 28.1214 
2 *400:14 *1167:A 9.83571 
3 *400:14 *1166:A 9.3 
*END

*D_NET *401 0.00124351
*CONN
*I *1116:B I *D sky130_fd_sc_hd__nand2_1
*I *1118:A I *D sky130_fd_sc_hd__nand2_1
*I *1110:Y O *D sky130_fd_sc_hd__nand2_1
*CAP
1 *1116:B 0.00023653
2 *1118:A 0
3 *1110:Y 0.000221501
4 *401:14 0.000458032
5 *1116:B *1118:B 3.18676e-05
6 *1116:B *1119:A 4.26531e-05
7 *1116:B *1119:B 8.92267e-06
8 *1116:B *1120:B 0
9 *1116:B *406:8 1.89833e-05
10 *401:14 *405:10 0
11 *1330:A *401:14 0
12 *1331:A *1116:B 0
13 *38:10 *401:14 0.00010258
14 *392:8 *401:14 0.00010096
15 *392:10 *401:14 2.14757e-05
*RES
1 *1110:Y *401:14 21.8357 
2 *401:14 *1118:A 9.3 
3 *401:14 *1116:B 13.4786 
*END

*D_NET *402 0.00154974
*CONN
*I *1120:A I *D sky130_fd_sc_hd__nand2_1
*I *1112:B I *D sky130_fd_sc_hd__nand2_1
*I *1114:B I *D sky130_fd_sc_hd__nand2_1
*I *1111:Y O *D sky130_fd_sc_hd__nand2_1
*CAP
1 *1120:A 0.000192879
2 *1112:B 3.29219e-05
3 *1114:B 0.000160089
4 *1111:Y 3.95842e-05
5 *402:8 0.000220737
6 *402:6 0.000260189
7 *1112:B *1115:B 0
8 *1114:B *1115:A 9.71197e-05
9 *1114:B *1115:B 0.000108742
10 *1120:A *411:6 5.52238e-05
11 *1103:A *1114:B 0
12 *1111:B *402:8 8.43535e-06
13 *1112:A *1112:B 3.57366e-05
14 *1112:A *402:6 9.90431e-05
15 *1112:A *402:8 1.24368e-05
16 *1114:A *1112:B 5.52238e-05
17 *1114:A *1114:B 4.56323e-05
18 *1332:B *1114:B 2.78584e-05
19 *15:79 *1120:A 0
20 *40:12 *1120:A 7.90803e-05
21 *346:12 *1120:A 1.88048e-05
*RES
1 *1111:Y *402:6 10.2464 
2 *402:6 *402:8 0.535714 
3 *402:8 *1114:B 13.0321 
4 *402:8 *1112:B 10.5679 
5 *402:6 *1120:A 21.6929 
*END

*D_NET *403 0.000382579
*CONN
*I *1115:A I *D sky130_fd_sc_hd__nand2_1
*I *1112:Y O *D sky130_fd_sc_hd__nand2_1
*CAP
1 *1115:A 0.000100658
2 *1112:Y 0.000100658
3 *1114:B *1115:A 9.71197e-05
4 *15:60 *1115:A 4.15914e-05
5 *40:12 *1115:A 4.25523e-05
*RES
1 *1112:Y *1115:A 29.5821 
*END

*D_NET *404 0.000241977
*CONN
*I *1115:B I *D sky130_fd_sc_hd__nand2_1
*I *1114:Y O *D sky130_fd_sc_hd__nand2_1
*CAP
1 *1115:B 3.74025e-05
2 *1114:Y 3.74025e-05
3 *1115:B *405:10 1.21289e-05
4 *1112:B *1115:B 0
5 *1114:A *1115:B 3.88658e-05
6 *1114:B *1115:B 0.000108742
7 *1332:B *1115:B 7.43578e-06
*RES
1 *1114:Y *1115:B 19.975 
*END

*D_NET *405 0.000883474
*CONN
*I *1116:A I *D sky130_fd_sc_hd__nand2_1
*I *1117:A I *D sky130_fd_sc_hd__nand2_1
*I *1115:Y O *D sky130_fd_sc_hd__nand2_1
*CAP
1 *1116:A 0
2 *1117:A 0.000118342
3 *1115:Y 0.000219424
4 *405:10 0.000337766
5 *1114:A *405:10 9.80173e-05
6 *1115:B *405:10 1.21289e-05
7 *1332:B *405:10 5.52238e-05
8 *15:79 *405:10 4.25716e-05
9 *38:10 *405:10 0
10 *401:14 *405:10 0
*RES
1 *1115:Y *405:10 17.2107 
2 *405:10 *1117:A 15.1571 
3 *405:10 *1116:A 13.8 
*END

*D_NET *406 0.00101648
*CONN
*I *1120:B I *D sky130_fd_sc_hd__nand2_1
*I *1117:B I *D sky130_fd_sc_hd__nand2_1
*I *1118:B I *D sky130_fd_sc_hd__nand2_1
*I *1116:Y O *D sky130_fd_sc_hd__nand2_1
*CAP
1 *1120:B 0.000217282
2 *1117:B 0
3 *1118:B 9.80653e-06
4 *1116:Y 0.000273455
5 *406:8 6.59788e-05
6 *1118:B *1119:B 1.74352e-05
7 *1120:B *1119:A 1.92905e-05
8 *1120:B *1119:B 2.90178e-05
9 *406:8 *1119:A 0.000144773
10 *406:8 *1119:B 0.000188586
11 *1116:B *1118:B 3.18676e-05
12 *1116:B *1120:B 0
13 *1116:B *406:8 1.89833e-05
*RES
1 *1116:Y *406:8 11.8 
2 *406:8 *1118:B 9.83571 
3 *406:8 *1117:B 9.3 
4 *1116:Y *1120:B 21.5107 
*END

*D_NET *407 0.000422929
*CONN
*I *1119:A I *D sky130_fd_sc_hd__nand2_1
*I *1117:Y O *D sky130_fd_sc_hd__nand2_1
*CAP
1 *1119:A 7.08402e-05
2 *1117:Y 7.08402e-05
3 *1119:A *1119:B 7.45317e-05
4 *1116:B *1119:A 4.26531e-05
5 *1120:B *1119:A 1.92905e-05
6 *406:8 *1119:A 0.000144773
*RES
1 *1117:Y *1119:A 21.2071 
*END

*D_NET *408 0.00123239
*CONN
*I *836:A I *D sky130_fd_sc_hd__nand2_1
*I *833:B I *D sky130_fd_sc_hd__nand2_1
*I *957:Y O *D sky130_fd_sc_hd__inv_1
*CAP
1 *836:A 8.11845e-06
2 *833:B 0.000128525
3 *957:Y 0.000170631
4 *408:14 0.000307275
5 *791:B *408:14 7.90536e-05
6 *802:A *408:14 0.000148189
7 *833:A *833:B 5.52302e-05
8 *834:A *408:14 1.76039e-05
9 *836:B *836:A 5.7661e-06
10 *837:A *833:B 0.000135028
11 *837:A *836:A 4.72938e-06
12 *837:A *408:14 5.33005e-05
13 *837:B *833:B 2.59355e-05
14 *837:B *836:A 1.04232e-05
15 *837:B *408:14 1.98839e-05
16 *969:A *408:14 0
17 *131:6 *833:B 3.98431e-05
18 *134:12 *833:B 2.28499e-05
*RES
1 *957:Y *408:14 21.5232 
2 *408:14 *833:B 12.3179 
3 *408:14 *836:A 9.72857 
*END

*D_NET *409 0.000968766
*CONN
*I *1119:B I *D sky130_fd_sc_hd__nand2_1
*I *1118:Y O *D sky130_fd_sc_hd__nand2_1
*CAP
1 *1119:B 0.000325136
2 *1118:Y 0.000325136
3 *1116:B *1119:B 8.92267e-06
4 *1118:B *1119:B 1.74352e-05
5 *1119:A *1119:B 7.45317e-05
6 *1120:B *1119:B 2.90178e-05
7 *406:8 *1119:B 0.000188586
*RES
1 *1118:Y *1119:B 24.1179 
*END

*D_NET *410 0.00152526
*CONN
*I *1176:A I *D sky130_fd_sc_hd__nand2_1
*I *1177:A I *D sky130_fd_sc_hd__nand2_1
*I *1119:Y O *D sky130_fd_sc_hd__nand2_1
*CAP
1 *1176:A 0
2 *1177:A 1.54093e-05
3 *1119:Y 0.000396088
4 *410:16 0.000411497
5 *1177:A *1177:B 2.14757e-05
6 *410:16 *1177:B 7.08482e-05
7 *410:16 *1178:B 5.71472e-05
8 *410:16 *1180:B 7.49387e-06
9 *410:16 *466:19 9.90367e-05
10 *752:A *410:16 1.97695e-05
11 *752:B *410:16 4.0342e-06
12 *1178:A *410:16 4.18895e-05
13 *15:79 *410:16 0.000271958
14 *54:10 *1177:A 2.89114e-05
15 *54:10 *410:16 7.96992e-05
*RES
1 *1119:Y *410:16 27.2643 
2 *410:16 *1177:A 9.83571 
3 *410:16 *1176:A 9.3 
*END

*D_NET *411 0.000634779
*CONN
*I *1126:B I *D sky130_fd_sc_hd__nand2_1
*I *1128:A I *D sky130_fd_sc_hd__nand2_1
*I *1120:Y O *D sky130_fd_sc_hd__nand2_1
*CAP
1 *1126:B 7.88477e-05
2 *1128:A 1.60352e-05
3 *1120:Y 0.000170866
4 *411:6 0.000265749
5 *1126:B *1128:B 4.22908e-05
6 *1126:B *416:17 0
7 *1128:A *1128:B 5.7661e-06
8 *1120:A *411:6 5.52238e-05
*RES
1 *1120:Y *411:6 12.3 
2 *411:6 *1128:A 9.72857 
3 *411:6 *1126:B 11.0857 
*END

*D_NET *412 0.000921398
*CONN
*I *1130:A I *D sky130_fd_sc_hd__nand2_1
*I *1122:B I *D sky130_fd_sc_hd__nand2_1
*I *1123:B I *D sky130_fd_sc_hd__nand2_1
*I *1121:Y O *D sky130_fd_sc_hd__nand2_1
*CAP
1 *1130:A 0.00017338
2 *1122:B 2.61003e-05
3 *1123:B 0
4 *1121:Y 0.000126433
5 *412:12 2.61003e-05
6 *412:10 0.000299812
7 *1122:B *1125:A 2.89114e-05
8 *1130:A *421:6 9.90367e-05
9 *1130:A *425:12 0
10 *1121:B *412:10 5.33882e-05
11 *1122:A *1130:A 2.8266e-06
12 *1122:A *412:10 5.35423e-05
13 *8:95 *412:10 3.18676e-05
14 *16:91 *1130:A 0
15 *16:91 *412:10 0
*RES
1 *1121:Y *412:10 16.2821 
2 *412:10 *412:12 4.5 
3 *412:12 *1123:B 9.3 
4 *412:12 *1122:B 9.83571 
5 *412:10 *1130:A 16.9964 
*END

*D_NET *413 0.000708511
*CONN
*I *1125:A I *D sky130_fd_sc_hd__nand2_1
*I *1122:Y O *D sky130_fd_sc_hd__nand2_1
*CAP
1 *1125:A 0.000249536
2 *1122:Y 0.000249536
3 *1125:A *1125:B 0.000136697
4 *1125:A *415:12 7.43578e-06
5 *1122:B *1125:A 2.89114e-05
6 *42:6 *1125:A 3.63954e-05
*RES
1 *1122:Y *1125:A 22.4571 
*END

*D_NET *414 0.000245716
*CONN
*I *1125:B I *D sky130_fd_sc_hd__nand2_1
*I *1123:Y O *D sky130_fd_sc_hd__nand2_1
*CAP
1 *1125:B 3.96586e-05
2 *1123:Y 3.96586e-05
3 *1123:A *1125:B 1.04232e-05
4 *1125:A *1125:B 0.000136697
5 *42:6 *1125:B 1.92789e-05
*RES
1 *1123:Y *1125:B 19.975 
*END

*D_NET *415 0.000582441
*CONN
*I *1127:A I *D sky130_fd_sc_hd__nand2_1
*I *1126:A I *D sky130_fd_sc_hd__nand2_1
*I *1125:Y O *D sky130_fd_sc_hd__nand2_1
*CAP
1 *1127:A 0
2 *1126:A 2.36895e-05
3 *1125:Y 0.000214684
4 *415:12 0.000238373
5 *1126:A *416:17 5.52238e-05
6 *1125:A *415:12 7.43578e-06
7 *1336:A *415:12 3.55406e-05
8 *16:91 *415:12 0
9 *42:6 *415:12 7.49387e-06
*RES
1 *1125:Y *415:12 21.3 
2 *415:12 *1126:A 9.83571 
3 *415:12 *1127:A 9.3 
*END

*D_NET *416 0.000594455
*CONN
*I *1130:B I *D sky130_fd_sc_hd__nand2_1
*I *1127:B I *D sky130_fd_sc_hd__nand2_1
*I *1128:B I *D sky130_fd_sc_hd__nand2_1
*I *1126:Y O *D sky130_fd_sc_hd__nand2_1
*CAP
1 *1130:B 5.77887e-05
2 *1127:B 0
3 *1128:B 6.95368e-05
4 *1126:Y 0
5 *416:17 0.00017605
6 *416:4 0.000187798
7 *1126:A *416:17 5.52238e-05
8 *1126:B *1128:B 4.22908e-05
9 *1126:B *416:17 0
10 *1128:A *1128:B 5.7661e-06
*RES
1 *1126:Y *416:4 9.3 
2 *416:4 *1128:B 10.675 
3 *416:4 *416:17 2.19643 
4 *416:17 *1127:B 9.3 
5 *416:17 *1130:B 10.2464 
*END

*D_NET *417 0.000447901
*CONN
*I *1129:A I *D sky130_fd_sc_hd__nand2_1
*I *1127:Y O *D sky130_fd_sc_hd__nand2_1
*CAP
1 *1129:A 0.00019606
2 *1127:Y 0.00019606
3 *1129:A *1129:B 0
4 *16:91 *1129:A 5.5782e-05
*RES
1 *1127:Y *1129:A 31.3143 
*END

*D_NET *418 0.000216212
*CONN
*I *1129:B I *D sky130_fd_sc_hd__nand2_1
*I *1128:Y O *D sky130_fd_sc_hd__nand2_1
*CAP
1 *1129:B 0.000108106
2 *1128:Y 0.000108106
3 *1129:A *1129:B 0
*RES
1 *1128:Y *1129:B 29.5464 
*END

*D_NET *419 0.000356371
*CONN
*I *980:A I *D sky130_fd_sc_hd__inv_1
*I *969:Y O *D sky130_fd_sc_hd__nand2_1
*CAP
1 *980:A 0.000101662
2 *969:Y 0.000101662
3 *802:A *980:A 0
4 *834:A *980:A 0
5 *18:39 *980:A 0.000153047
*RES
1 *969:Y *980:A 29.8277 
*END

*D_NET *420 0.000629014
*CONN
*I *1186:A I *D sky130_fd_sc_hd__nand2_1
*I *1187:A I *D sky130_fd_sc_hd__nand2_1
*I *1129:Y O *D sky130_fd_sc_hd__nand2_1
*CAP
1 *1186:A 6.38341e-05
2 *1187:A 0
3 *1129:Y 0.00016046
4 *420:12 0.000224295
5 *1186:A *1187:B 4.80569e-05
6 *1186:A *1189:A 0.00010096
7 *753:A *1186:A 0
8 *9:23 *1186:A 3.14078e-05
9 *9:33 *420:12 0
10 *16:91 *420:12 0
*RES
1 *1129:Y *420:12 20.4786 
2 *420:12 *1187:A 9.3 
3 *420:12 *1186:A 11.5143 
*END

*D_NET *421 0.000667572
*CONN
*I *1136:B I *D sky130_fd_sc_hd__nand2_1
*I *1138:A I *D sky130_fd_sc_hd__nand2_1
*I *1130:Y O *D sky130_fd_sc_hd__nand2_1
*CAP
1 *1136:B 6.64865e-05
2 *1138:A 1.60352e-05
3 *1130:Y 0.000161784
4 *421:6 0.000244306
5 *1136:B *1138:B 4.22908e-05
6 *1136:B *1139:A 3.18676e-05
7 *1136:B *426:17 0
8 *1138:A *1138:B 5.7661e-06
9 *1130:A *421:6 9.90367e-05
*RES
1 *1130:Y *421:6 12.3 
2 *421:6 *1138:A 9.72857 
3 *421:6 *1136:B 11.0857 
*END

*D_NET *422 0.00119215
*CONN
*I *1140:A I *D sky130_fd_sc_hd__nand2_1
*I *1132:B I *D sky130_fd_sc_hd__nand2_1
*I *1133:B I *D sky130_fd_sc_hd__nand2_1
*I *1131:Y O *D sky130_fd_sc_hd__nand2_1
*CAP
1 *1140:A 0.000118007
2 *1132:B 1.03267e-05
3 *1133:B 0
4 *1131:Y 0.000162045
5 *422:14 5.4222e-05
6 *422:10 0.000323948
7 *1132:B *1134:A 5.52302e-05
8 *1140:A *431:10 9.60875e-05
9 *422:10 *1134:A 5.71472e-05
10 *1131:B *1132:B 3.18676e-05
11 *1131:B *422:10 9.22103e-06
12 *1132:A *422:10 0.00010096
13 *17:78 *1140:A 0.000117189
14 *17:78 *422:14 5.58941e-05
15 *18:92 *1140:A 0
*RES
1 *1131:Y *422:10 16.1036 
2 *422:10 *422:14 5.23214 
3 *422:14 *1133:B 9.3 
4 *422:14 *1132:B 9.83571 
5 *422:10 *1140:A 16.3893 
*END

*D_NET *423 0.000751126
*CONN
*I *1134:A I *D sky130_fd_sc_hd__nand2_1
*I *1132:Y O *D sky130_fd_sc_hd__nand2_1
*CAP
1 *1134:A 0.000227529
2 *1132:Y 0.000227529
3 *1134:A *1134:B 0.000122802
4 *1134:A *425:12 2.27416e-05
5 *1131:B *1134:A 2.49291e-05
6 *1132:A *1134:A 3.99614e-06
7 *1132:B *1134:A 5.52302e-05
8 *44:6 *1134:A 9.22103e-06
9 *422:10 *1134:A 5.71472e-05
*RES
1 *1132:Y *1134:A 22.8857 
*END

*D_NET *424 0.000244692
*CONN
*I *1134:B I *D sky130_fd_sc_hd__nand2_1
*I *1133:Y O *D sky130_fd_sc_hd__nand2_1
*CAP
1 *1134:B 3.4723e-05
2 *1133:Y 3.4723e-05
3 *1131:B *1134:B 1.92789e-05
4 *1132:A *1134:B 0
5 *1133:A *1134:B 1.04232e-05
6 *1134:A *1134:B 0.000122802
7 *44:6 *1134:B 2.27416e-05
*RES
1 *1133:Y *1134:B 19.975 
*END

*D_NET *425 0.000803494
*CONN
*I *1137:A I *D sky130_fd_sc_hd__nand2_1
*I *1136:A I *D sky130_fd_sc_hd__nand2_1
*I *1134:Y O *D sky130_fd_sc_hd__nand2_1
*CAP
1 *1137:A 1.55603e-05
2 *1136:A 0
3 *1134:Y 0.000238059
4 *425:12 0.000253619
5 *1137:A *1139:A 1.92905e-05
6 *1137:A *426:17 5.52302e-05
7 *1122:A *425:12 0
8 *1130:A *425:12 0
9 *1134:A *425:12 2.27416e-05
10 *1338:A *425:12 7.90697e-05
11 *17:78 *425:12 0
12 *44:6 *425:12 0.000119924
*RES
1 *1134:Y *425:12 23.0321 
2 *425:12 *1136:A 9.3 
3 *425:12 *1137:A 9.83571 
*END

*D_NET *426 0.000586824
*CONN
*I *1140:B I *D sky130_fd_sc_hd__nand2_1
*I *1137:B I *D sky130_fd_sc_hd__nand2_1
*I *1138:B I *D sky130_fd_sc_hd__nand2_1
*I *1136:Y O *D sky130_fd_sc_hd__nand2_1
*CAP
1 *1140:B 5.23787e-05
2 *1137:B 0
3 *1138:B 6.34769e-05
4 *1136:Y 0
5 *426:17 0.000159278
6 *426:4 0.000170376
7 *1138:B *1139:A 1.32552e-05
8 *426:17 *1139:A 2.47724e-05
9 *426:17 *431:10 0
10 *1136:B *1138:B 4.22908e-05
11 *1136:B *426:17 0
12 *1137:A *426:17 5.52302e-05
13 *1138:A *1138:B 5.7661e-06
*RES
1 *1136:Y *426:4 9.3 
2 *426:4 *1138:B 10.675 
3 *426:4 *426:17 2.19643 
4 *426:17 *1137:B 9.3 
5 *426:17 *1140:B 10.2464 
*END

*D_NET *427 0.000718793
*CONN
*I *1139:A I *D sky130_fd_sc_hd__nand2_1
*I *1137:Y O *D sky130_fd_sc_hd__nand2_1
*CAP
1 *1139:A 0.00023828
2 *1137:Y 0.00023828
3 *1139:A *1139:B 0.000153047
4 *1136:B *1139:A 3.18676e-05
5 *1137:A *1139:A 1.92905e-05
6 *1138:B *1139:A 1.32552e-05
7 *426:17 *1139:A 2.47724e-05
*RES
1 *1137:Y *1139:A 31.725 
*END

*D_NET *428 0.000403688
*CONN
*I *1139:B I *D sky130_fd_sc_hd__nand2_1
*I *1138:Y O *D sky130_fd_sc_hd__nand2_1
*CAP
1 *1139:B 9.77087e-05
2 *1138:Y 9.77087e-05
3 *1139:B *1198:A 5.52238e-05
4 *1139:B *1198:B 0
5 *1139:A *1139:B 0.000153047
6 *16:91 *1139:B 0
*RES
1 *1138:Y *1139:B 30.0821 
*END

*D_NET *429 0.000536942
*CONN
*I *1197:A I *D sky130_fd_sc_hd__nand2_1
*I *1198:A I *D sky130_fd_sc_hd__nand2_1
*I *1139:Y O *D sky130_fd_sc_hd__nand2_1
*CAP
1 *1197:A 0.000121635
2 *1198:A 0.000119224
3 *1139:Y 0
4 *429:4 0.000240859
5 *1197:A *1208:B 0
6 *1139:B *1198:A 5.52238e-05
*RES
1 *1139:Y *429:4 9.3 
2 *429:4 *1198:A 11.5143 
3 *429:4 *1197:A 19.9429 
*END

*D_NET *430 0.000687734
*CONN
*I *843:A I *D sky130_fd_sc_hd__nand2_1
*I *844:A I *D sky130_fd_sc_hd__nand2_1
*I *980:Y O *D sky130_fd_sc_hd__inv_1
*CAP
1 *843:A 0.000103617
2 *844:A 0
3 *980:Y 0.000130564
4 *430:12 0.000234181
5 *845:A *843:A 4.80569e-05
6 *845:B *843:A 1.04232e-05
7 *18:39 *430:12 9.66597e-05
8 *140:12 *430:12 0
9 *141:8 *843:A 2.95641e-05
10 *141:19 *843:A 3.46677e-05
*RES
1 *980:Y *430:12 20.2732 
2 *430:12 *844:A 9.3 
3 *430:12 *843:A 11.925 
*END

*D_NET *431 0.000869498
*CONN
*I *1145:B I *D sky130_fd_sc_hd__nand2_1
*I *1148:A I *D sky130_fd_sc_hd__nand2_1
*I *1140:Y O *D sky130_fd_sc_hd__nand2_1
*CAP
1 *1145:B 6.84402e-05
2 *1148:A 0
3 *1140:Y 0.000263852
4 *431:10 0.000332292
5 *1145:B *1148:B 4.80569e-05
6 *1145:B *1149:A 3.18676e-05
7 *1145:B *1149:B 2.89016e-05
8 *1145:B *436:17 0
9 *1140:A *431:10 9.60875e-05
10 *426:17 *431:10 0
*RES
1 *1140:Y *431:10 14.0857 
2 *431:10 *1148:A 9.3 
3 *431:10 *1145:B 11.5143 
*END

*D_NET *432 0.00130087
*CONN
*I *1150:A I *D sky130_fd_sc_hd__nand2_1
*I *1143:B I *D sky130_fd_sc_hd__nand2_1
*I *1142:B I *D sky130_fd_sc_hd__nand2_1
*I *1141:Y O *D sky130_fd_sc_hd__nand2_1
*CAP
1 *1150:A 0.00017592
2 *1143:B 0
3 *1142:B 7.56511e-05
4 *1141:Y 0.000280328
5 *432:12 7.56511e-05
6 *432:10 0.000456248
7 *1142:B *1144:A 9.90431e-05
8 *1142:B *1144:B 9.7049e-06
9 *1150:A *435:12 0
10 *1150:A *440:12 1.92789e-05
11 *1141:B *432:10 3.69047e-06
12 *1142:A *1142:B 3.54798e-05
13 *1142:A *1150:A 1.46624e-05
14 *1142:A *432:10 4.94455e-05
15 *1143:A *1142:B 5.7661e-06
*RES
1 *1141:Y *432:10 17.5143 
2 *432:10 *432:12 4.5 
3 *432:12 *1142:B 11.5143 
4 *432:12 *1143:B 9.3 
5 *432:10 *1150:A 16.5857 
*END

*D_NET *433 0.000644181
*CONN
*I *1144:A I *D sky130_fd_sc_hd__nand2_1
*I *1142:Y O *D sky130_fd_sc_hd__nand2_1
*CAP
1 *1144:A 0.000195564
2 *1142:Y 0.000195564
3 *1144:A *1144:B 0.000118813
4 *1142:A *1144:A 7.48301e-06
5 *1142:B *1144:A 9.90431e-05
6 *1143:A *1144:A 8.43535e-06
7 *1339:B *1144:A 0
8 *1340:A *1144:A 0
9 *46:6 *1144:A 1.92789e-05
*RES
1 *1142:Y *1144:A 22.3321 
*END

*D_NET *434 0.000243995
*CONN
*I *1144:B I *D sky130_fd_sc_hd__nand2_1
*I *1143:Y O *D sky130_fd_sc_hd__nand2_1
*CAP
1 *1144:B 2.93539e-05
2 *1143:Y 2.93539e-05
3 *1142:A *1144:B 1.74352e-05
4 *1142:B *1144:B 9.7049e-06
5 *1143:A *1144:B 3.93346e-05
6 *1144:A *1144:B 0.000118813
*RES
1 *1143:Y *1144:B 19.975 
*END

*D_NET *435 0.000438224
*CONN
*I *1147:A I *D sky130_fd_sc_hd__nand2_1
*I *1145:A I *D sky130_fd_sc_hd__nand2_1
*I *1144:Y O *D sky130_fd_sc_hd__nand2_1
*CAP
1 *1147:A 0
2 *1145:A 1.55834e-05
3 *1144:Y 0.000136291
4 *435:12 0.000151874
5 *1145:A *1149:A 1.92789e-05
6 *1145:A *436:17 5.52238e-05
7 *1142:A *435:12 2.8266e-06
8 *1150:A *435:12 0
9 *18:92 *435:12 0
10 *46:6 *435:12 5.71472e-05
*RES
1 *1144:Y *435:12 20.4786 
2 *435:12 *1145:A 9.83571 
3 *435:12 *1147:A 9.3 
*END

*D_NET *436 0.000537936
*CONN
*I *1150:B I *D sky130_fd_sc_hd__nand2_1
*I *1147:B I *D sky130_fd_sc_hd__nand2_1
*I *1148:B I *D sky130_fd_sc_hd__nand2_1
*I *1145:Y O *D sky130_fd_sc_hd__nand2_1
*CAP
1 *1150:B 2.79386e-05
2 *1147:B 0
3 *1148:B 6.34769e-05
4 *1145:Y 0
5 *436:17 0.000134831
6 *436:4 0.00017037
7 *1148:B *1149:A 1.32552e-05
8 *436:17 *1149:A 2.47833e-05
9 *1145:A *436:17 5.52238e-05
10 *1145:B *1148:B 4.80569e-05
11 *1145:B *436:17 0
*RES
1 *1145:Y *436:4 9.3 
2 *436:4 *1148:B 10.675 
3 *436:4 *436:17 2.19643 
4 *436:17 *1147:B 9.3 
5 *436:17 *1150:B 9.83571 
*END

*D_NET *437 0.000718791
*CONN
*I *1149:A I *D sky130_fd_sc_hd__nand2_1
*I *1147:Y O *D sky130_fd_sc_hd__nand2_1
*CAP
1 *1149:A 0.000238279
2 *1147:Y 0.000238279
3 *1145:A *1149:A 1.92789e-05
4 *1145:B *1149:A 3.18676e-05
5 *1148:B *1149:A 1.32552e-05
6 *1219:A *1149:A 0
7 *18:92 *1149:A 0.000153047
8 *436:17 *1149:A 2.47833e-05
*RES
1 *1147:Y *1149:A 31.725 
*END

*D_NET *438 0.00041673
*CONN
*I *1149:B I *D sky130_fd_sc_hd__nand2_1
*I *1148:Y O *D sky130_fd_sc_hd__nand2_1
*CAP
1 *1149:B 0.000117391
2 *1148:Y 0.000117391
3 *1145:B *1149:B 2.89016e-05
4 *17:78 *1149:B 0
5 *18:92 *1149:B 0.000153047
*RES
1 *1148:Y *1149:B 30.0821 
*END

*D_NET *439 0.001217
*CONN
*I *1207:A I *D sky130_fd_sc_hd__nand2_1
*I *1208:A I *D sky130_fd_sc_hd__nand2_1
*I *1149:Y O *D sky130_fd_sc_hd__nand2_1
*CAP
1 *1207:A 0.000165089
2 *1208:A 0.000240841
3 *1149:Y 5.07312e-05
4 *439:6 0.00045666
5 *1207:A *1210:A 0
6 *9:9 *1207:A 4.90803e-05
7 *9:13 *1207:A 0.00015134
8 *17:78 *1207:A 0
9 *17:78 *1208:A 0
10 *18:92 *1207:A 0.00010326
*RES
1 *1149:Y *439:6 9.83571 
2 *439:6 *1208:A 21.7107 
3 *439:6 *1207:A 22.675 
*END

*D_NET *440 0.00107432
*CONN
*I *1218:A I *D sky130_fd_sc_hd__nand2_1
*I *1217:A I *D sky130_fd_sc_hd__nand2_1
*I *1150:Y O *D sky130_fd_sc_hd__nand2_1
*CAP
1 *1218:A 1.55603e-05
2 *1217:A 0
3 *1150:Y 0.00038328
4 *440:12 0.000398841
5 *1218:A *1220:A 1.92905e-05
6 *1218:A *505:21 5.52302e-05
7 *440:12 *1219:B 0.000148903
8 *440:12 *1220:B 7.79781e-06
9 *776:B *440:12 2.61337e-05
10 *1150:A *440:12 1.92789e-05
*RES
1 *1150:Y *440:12 24.55 
2 *440:12 *1217:A 9.3 
3 *440:12 *1218:A 9.83571 
*END

*D_NET *441 0.000279612
*CONN
*I *1002:A I *D sky130_fd_sc_hd__inv_1
*I *991:Y O *D sky130_fd_sc_hd__nand2_1
*CAP
1 *1002:A 0.000138642
2 *991:Y 0.000138642
3 *991:A *1002:A 2.32837e-06
*RES
1 *991:Y *1002:A 21.0777 
*END

*D_NET *442 0.000830202
*CONN
*I *1155:A I *D sky130_fd_sc_hd__inv_1
*I *1152:B I *D sky130_fd_sc_hd__nand2_1
*I *1153:B I *D sky130_fd_sc_hd__nand2_1
*I *1151:Y O *D sky130_fd_sc_hd__nand2_1
*CAP
1 *1155:A 0.00014437
2 *1152:B 1.20576e-05
3 *1153:B 7.90227e-05
4 *1151:Y 0.000222068
5 *442:6 0.000168779
6 *1153:B *1154:B 2.89016e-05
7 *1152:A *442:6 5.52238e-05
8 *1153:A *1152:B 1.04232e-05
9 *1153:A *1153:B 3.76337e-05
10 *1153:A *442:6 7.17235e-05
11 *11:15 *1155:A 0
*RES
1 *1151:Y *442:6 11.0679 
2 *442:6 *1153:B 11.0857 
3 *442:6 *1152:B 9.72857 
4 *1151:Y *1155:A 29.9348 
*END

*D_NET *443 0.000259749
*CONN
*I *1154:A I *D sky130_fd_sc_hd__nand2_1
*I *1152:Y O *D sky130_fd_sc_hd__nand2_1
*CAP
1 *1154:A 6.99199e-05
2 *1152:Y 6.99199e-05
3 *1154:A *1154:B 7.83174e-05
4 *1089:B *1154:A 0
5 *11:15 *1154:A 0
6 *380:12 *1154:A 4.15914e-05
*RES
1 *1152:Y *1154:A 29.5464 
*END

*D_NET *444 0.000354274
*CONN
*I *1154:B I *D sky130_fd_sc_hd__nand2_1
*I *1153:Y O *D sky130_fd_sc_hd__nand2_1
*CAP
1 *1154:B 0.000123527
2 *1153:Y 0.000123527
3 p[6] *1154:B 0
4 *1153:B *1154:B 2.89016e-05
5 *1154:A *1154:B 7.83174e-05
*RES
1 *1153:Y *1154:B 30.0821 
*END

*D_NET *445 0.000939866
*CONN
*I *1161:B I *D sky130_fd_sc_hd__nand2_1
*I *1163:A I *D sky130_fd_sc_hd__nand2_1
*I *1155:Y O *D sky130_fd_sc_hd__inv_1
*CAP
1 *1161:B 0
2 *1163:A 0.000191676
3 *1155:Y 0.000154598
4 *445:8 0.000346274
5 *1163:A *1161:A 0.000111178
6 *1163:A *1162:A 5.70877e-06
7 *1163:A *1164:A 2.27304e-05
8 *1163:A *1164:B 4.22908e-05
9 *1163:A *450:12 0
10 *1163:A *450:21 5.7661e-06
11 *1341:A *445:8 4.59429e-05
12 *11:9 *1163:A 0
13 *11:15 *1163:A 0
14 *12:15 *445:8 1.3701e-05
*RES
1 *1155:Y *445:8 12.1125 
2 *445:8 *1163:A 22.2286 
3 *445:8 *1161:B 9.3 
*END

*D_NET *446 0.00135489
*CONN
*I *1158:B I *D sky130_fd_sc_hd__nand2_1
*I *1165:A I *D sky130_fd_sc_hd__nand2_1
*I *1159:B I *D sky130_fd_sc_hd__nand2_1
*I *1156:Y O *D sky130_fd_sc_hd__nand2_1
*CAP
1 *1158:B 8.33447e-05
2 *1165:A 0.000249311
3 *1159:B 0.000172225
4 *1156:Y 4.52896e-05
5 *446:8 0.000421536
6 *446:6 0.000128634
7 *1165:A *1160:B 0
8 *1158:A *1158:B 1.24368e-05
9 *1158:A *446:6 1.98839e-05
10 *9:58 *1158:B 5.17896e-05
11 *390:12 *1159:B 0.000124083
12 *390:12 *1165:A 4.6355e-05
*RES
1 *1156:Y *446:6 9.83571 
2 *446:6 *446:8 4.5 
3 *446:8 *1159:B 16.8 
4 *446:8 *1165:A 18.5857 
5 *446:6 *1158:B 11.1036 
*END

*D_NET *447 0.0012011
*CONN
*I *1160:A I *D sky130_fd_sc_hd__nand2_1
*I *1158:Y O *D sky130_fd_sc_hd__nand2_1
*CAP
1 *1160:A 0.000435819
2 *1158:Y 0.000435819
3 *1160:A *1161:A 0
4 *1160:A *1162:A 0
5 *1160:A *1162:B 0
6 *1160:A *1165:B 4.22908e-05
7 *1160:A *1170:A 0
8 *1160:A *1171:B 4.01264e-05
9 *1160:A *1173:B 5.68722e-05
10 *1160:A *455:8 5.20751e-05
11 *1160:A *460:10 3.57366e-05
12 *9:58 *1160:A 0.000102362
*RES
1 *1158:Y *1160:A 34.975 
*END

*D_NET *448 0.000687097
*CONN
*I *1160:B I *D sky130_fd_sc_hd__nand2_1
*I *1159:Y O *D sky130_fd_sc_hd__nand2_1
*CAP
1 *1160:B 0.000192923
2 *1159:Y 0.000192923
3 *1160:B *1161:A 0
4 *1159:A *1160:B 0.000125724
5 *1165:A *1160:B 0
6 *12:15 *1160:B 0.000175526
7 *12:19 *1160:B 0
*RES
1 *1159:Y *1160:B 31.975 
*END

*D_NET *449 0.000968844
*CONN
*I *1162:A I *D sky130_fd_sc_hd__nand2_1
*I *1161:A I *D sky130_fd_sc_hd__nand2_1
*I *1160:Y O *D sky130_fd_sc_hd__nand2_1
*CAP
1 *1162:A 1.21452e-05
2 *1161:A 0.000194026
3 *1160:Y 0.000102259
4 *449:6 0.000308429
5 *1161:A *1164:A 7.48301e-06
6 *1161:A *1164:B 1.56e-05
7 *1161:A *450:12 5.10822e-05
8 *1161:A *450:21 1.39841e-05
9 *1162:A *1162:B 5.7661e-06
10 *1162:A *450:21 1.04232e-05
11 *449:6 *1165:B 6.42095e-05
12 *449:6 *450:21 5.62995e-05
13 *1160:A *1161:A 0
14 *1160:A *1162:A 0
15 *1160:B *1161:A 0
16 *1163:A *1161:A 0.000111178
17 *1163:A *1162:A 5.70877e-06
18 *12:15 *1161:A 0
19 *12:19 *1161:A 1.02504e-05
*RES
1 *1160:Y *449:6 11.4786 
2 *449:6 *1161:A 22.3357 
3 *449:6 *1162:A 9.72857 
*END

*D_NET *450 0.00125522
*CONN
*I *1165:B I *D sky130_fd_sc_hd__nand2_1
*I *1162:B I *D sky130_fd_sc_hd__nand2_1
*I *1163:B I *D sky130_fd_sc_hd__nand2_1
*I *1161:Y O *D sky130_fd_sc_hd__nand2_1
*CAP
1 *1165:B 0.000130563
2 *1162:B 1.24159e-05
3 *1163:B 0
4 *1161:Y 0.000229704
5 *450:21 0.000203283
6 *450:12 0.000290008
7 *1165:B *1173:A 0
8 *1165:B *455:8 5.7661e-06
9 *450:21 *1164:A 5.71472e-05
10 *450:21 *1164:B 9.7049e-06
11 *1160:A *1162:B 0
12 *1160:A *1165:B 4.22908e-05
13 *1161:A *450:12 5.10822e-05
14 *1161:A *450:21 1.39841e-05
15 *1162:A *1162:B 5.7661e-06
16 *1162:A *450:21 1.04232e-05
17 *1163:A *450:12 0
18 *1163:A *450:21 5.7661e-06
19 *1341:A *450:12 9.6561e-06
20 *11:9 *450:12 0
21 *12:15 *450:12 5.71472e-05
22 *449:6 *1165:B 6.42095e-05
23 *449:6 *450:21 5.62995e-05
*RES
1 *1161:Y *450:12 21.6036 
2 *450:12 *1163:B 9.3 
3 *450:12 *450:21 1.78571 
4 *450:21 *1162:B 9.72857 
5 *450:21 *1165:B 11.9071 
*END

*D_NET *451 0.000571736
*CONN
*I *851:A I *D sky130_fd_sc_hd__nand2_1
*I *849:B I *D sky130_fd_sc_hd__nand2_1
*I *1002:Y O *D sky130_fd_sc_hd__inv_1
*CAP
1 *851:A 0.000160474
2 *849:B 0
3 *1002:Y 3.94025e-05
4 *451:6 0.000199876
5 *850:A *851:A 5.49995e-05
6 *850:B *851:A 1.02301e-05
7 *851:B *851:A 3.65727e-05
8 *146:6 *851:A 7.01807e-05
*RES
1 *1002:Y *451:6 10.0411 
2 *451:6 *849:B 9.3 
3 *451:6 *851:A 12.7464 
*END

*D_NET *452 0.000641171
*CONN
*I *1164:A I *D sky130_fd_sc_hd__nand2_1
*I *1162:Y O *D sky130_fd_sc_hd__nand2_1
*CAP
1 *1164:A 0.000204839
2 *1162:Y 0.000204839
3 *1164:A *1164:B 0.000136697
4 *1164:A *454:12 7.43578e-06
5 *1161:A *1164:A 7.48301e-06
6 *1163:A *1164:A 2.27304e-05
7 *450:21 *1164:A 5.71472e-05
*RES
1 *1162:Y *1164:A 22.0464 
*END

*D_NET *453 0.000252327
*CONN
*I *1164:B I *D sky130_fd_sc_hd__nand2_1
*I *1163:Y O *D sky130_fd_sc_hd__nand2_1
*CAP
1 *1164:B 2.40173e-05
2 *1163:Y 2.40173e-05
3 *1161:A *1164:B 1.56e-05
4 *1163:A *1164:B 4.22908e-05
5 *1164:A *1164:B 0.000136697
6 *450:21 *1164:B 9.7049e-06
*RES
1 *1163:Y *1164:B 19.975 
*END

*D_NET *454 0.00102771
*CONN
*I *1227:A I *D sky130_fd_sc_hd__nand2_1
*I *1228:A I *D sky130_fd_sc_hd__nand2_1
*I *1164:Y O *D sky130_fd_sc_hd__nand2_1
*CAP
1 *1227:A 9.85016e-05
2 *1228:A 0
3 *1164:Y 0.000269808
4 *454:12 0.000368309
5 *1227:A *1228:B 4.80569e-05
6 *1227:A *1230:A 3.29076e-05
7 *454:12 *1230:B 0.000150625
8 *761:B *454:12 2.05484e-05
9 *1164:A *454:12 7.43578e-06
10 *1229:A *454:12 0
11 *11:9 *454:12 3.15196e-05
12 *12:15 *454:12 0
*RES
1 *1164:Y *454:12 23.2107 
2 *454:12 *1228:A 9.3 
3 *454:12 *1227:A 11.5143 
*END

*D_NET *455 0.000708351
*CONN
*I *1171:B I *D sky130_fd_sc_hd__nand2_1
*I *1173:A I *D sky130_fd_sc_hd__nand2_1
*I *1165:Y O *D sky130_fd_sc_hd__nand2_1
*CAP
1 *1171:B 0.000136187
2 *1173:A 1.58497e-05
3 *1165:Y 6.71096e-05
4 *455:8 0.000219146
5 *1171:B *1171:A 5.38444e-06
6 *1171:B *1172:A 4.10796e-05
7 *1171:B *1173:B 5.68722e-05
8 *1171:B *460:10 6.8755e-05
9 *1160:A *1171:B 4.01264e-05
10 *1160:A *455:8 5.20751e-05
11 *1165:B *1173:A 0
12 *1165:B *455:8 5.7661e-06
*RES
1 *1165:Y *455:8 10.675 
2 *455:8 *1173:A 9.72857 
3 *455:8 *1171:B 12.3179 
*END

*D_NET *456 0.00170625
*CONN
*I *1175:A I *D sky130_fd_sc_hd__nand2_1
*I *1169:B I *D sky130_fd_sc_hd__nand2_1
*I *1167:B I *D sky130_fd_sc_hd__nand2_1
*I *1166:Y O *D sky130_fd_sc_hd__nand2_1
*CAP
1 *1175:A 8.0547e-05
2 *1169:B 0.000220587
3 *1167:B 0.000140813
4 *1166:Y 0
5 *456:19 0.000377852
6 *456:4 0.000217531
7 *1175:A *1183:A 0
8 *749:A *1167:B 3.14193e-05
9 *765:B *1169:B 0.00012401
10 *765:B *1175:A 0.000141375
11 *1167:A *1167:B 2.28499e-05
12 *1169:A *1169:B 4.66203e-05
13 *9:45 *1169:B 0.000105163
14 *9:58 *1167:B 3.35484e-05
15 *400:14 *1167:B 6.53408e-05
16 *400:14 *1169:B 5.72433e-05
17 *400:14 *456:19 4.13496e-05
*RES
1 *1166:Y *456:4 9.3 
2 *456:4 *1167:B 12.2286 
3 *456:4 *456:19 5.44643 
4 *456:19 *1169:B 18.8536 
5 *456:19 *1175:A 15.7464 
*END

*D_NET *457 0.000261611
*CONN
*I *1170:A I *D sky130_fd_sc_hd__nand2_1
*I *1167:Y O *D sky130_fd_sc_hd__nand2_1
*CAP
1 *1170:A 9.04843e-05
2 *1167:Y 9.04843e-05
3 *1170:A *1170:B 8.06427e-05
4 *1160:A *1170:A 0
*RES
1 *1167:Y *1170:A 29.5464 
*END

*D_NET *458 0.000685645
*CONN
*I *1170:B I *D sky130_fd_sc_hd__nand2_1
*I *1169:Y O *D sky130_fd_sc_hd__nand2_1
*CAP
1 *1170:B 0.000166855
2 *1169:Y 0.000166855
3 *765:B *1170:B 0.000112916
4 *1169:A *1170:B 0.000123288
5 *1170:A *1170:B 8.06427e-05
6 *9:45 *1170:B 3.50885e-05
*RES
1 *1169:Y *1170:B 31.975 
*END

*D_NET *459 0.000585818
*CONN
*I *1171:A I *D sky130_fd_sc_hd__nand2_1
*I *1172:A I *D sky130_fd_sc_hd__nand2_1
*I *1170:Y O *D sky130_fd_sc_hd__nand2_1
*CAP
1 *1171:A 1.47559e-05
2 *1172:A 4.43281e-05
3 *1170:Y 7.80033e-05
4 *459:6 0.000137087
5 *1172:A *1175:B 3.08664e-05
6 *1172:A *460:10 0.000135722
7 *459:6 *1175:B 9.8591e-05
8 *1171:B *1171:A 5.38444e-06
9 *1171:B *1172:A 4.10796e-05
*RES
1 *1170:Y *459:6 11.0679 
2 *459:6 *1172:A 11.0857 
3 *459:6 *1171:A 9.72857 
*END

*D_NET *460 0.00107634
*CONN
*I *1175:B I *D sky130_fd_sc_hd__nand2_1
*I *1172:B I *D sky130_fd_sc_hd__nand2_1
*I *1173:B I *D sky130_fd_sc_hd__nand2_1
*I *1171:Y O *D sky130_fd_sc_hd__nand2_1
*CAP
1 *1175:B 0.000191917
2 *1172:B 0
3 *1173:B 6.85132e-06
4 *1171:Y 0.000289611
5 *460:10 0.000104546
6 *1160:A *1173:B 5.68722e-05
7 *1160:A *460:10 3.57366e-05
8 *1171:B *1173:B 5.68722e-05
9 *1171:B *460:10 6.8755e-05
10 *1172:A *1175:B 3.08664e-05
11 *1172:A *460:10 0.000135722
12 *459:6 *1175:B 9.8591e-05
*RES
1 *1171:Y *460:10 11.925 
2 *460:10 *1173:B 9.83571 
3 *460:10 *1172:B 9.3 
4 *1171:Y *1175:B 22.0286 
*END

*D_NET *461 0.000225676
*CONN
*I *1174:A I *D sky130_fd_sc_hd__nand2_1
*I *1172:Y O *D sky130_fd_sc_hd__nand2_1
*CAP
1 *1174:A 0.000112838
2 *1172:Y 0.000112838
*RES
1 *1172:Y *1174:A 29.2429 
*END

*D_NET *462 0.00120451
*CONN
*I *1024:A I *D sky130_fd_sc_hd__inv_1
*I *1013:Y O *D sky130_fd_sc_hd__nand2_1
*CAP
1 *1024:A 0.000307623
2 *1013:Y 0.000307623
3 *1024:A *856:A 2.59355e-05
4 *1024:A *473:10 7.15235e-05
5 *856:B *1024:A 0.000172147
6 *859:B *1024:A 4.77896e-05
7 *991:A *1024:A 3.11088e-05
8 *5:28 *1024:A 5.50052e-05
9 *5:93 *1024:A 3.29297e-05
10 *160:14 *1024:A 0.000152823
*RES
1 *1013:Y *1024:A 34.5241 
*END

*D_NET *463 0.00063893
*CONN
*I *1174:B I *D sky130_fd_sc_hd__nand2_1
*I *1173:Y O *D sky130_fd_sc_hd__nand2_1
*CAP
1 *1174:B 0.000247216
2 *1173:Y 0.000247216
3 *761:A *1174:B 0.000144499
4 *12:15 *1174:B 0
*RES
1 *1173:Y *1174:B 31.9571 
*END

*D_NET *464 0.000712184
*CONN
*I *1233:A I *D sky130_fd_sc_hd__nand2_1
*I *1232:A I *D sky130_fd_sc_hd__nand2_1
*I *1174:Y O *D sky130_fd_sc_hd__nand2_1
*CAP
1 *1233:A 0
2 *1232:A 2.52229e-05
3 *1174:Y 0.000285758
4 *464:12 0.000310981
5 *1232:A *520:17 5.52238e-05
6 *464:12 *1241:A 4.13122e-06
7 *761:A *464:12 3.08664e-05
*RES
1 *1174:Y *464:12 22.9071 
2 *464:12 *1232:A 9.83571 
3 *464:12 *1233:A 9.3 
*END

*D_NET *465 0.000905726
*CONN
*I *1181:B I *D sky130_fd_sc_hd__nand2_1
*I *1183:A I *D sky130_fd_sc_hd__nand2_1
*I *1175:Y O *D sky130_fd_sc_hd__nand2_1
*CAP
1 *1181:B 7.55971e-05
2 *1183:A 0.000132442
3 *1175:Y 0.00021953
4 *465:6 0.00042757
5 *1181:B *1181:A 5.7661e-06
6 *1183:A *1180:A 0
7 *1183:A *1182:A 0
8 *1183:A *470:24 4.48206e-05
9 *765:B *1183:A 0
10 *767:B *1183:A 0
11 *1175:A *1183:A 0
12 *10:42 *1183:A 0
*RES
1 *1175:Y *465:6 12.7107 
2 *465:6 *1183:A 20.8536 
3 *465:6 *1181:B 10.675 
*END

*D_NET *466 0.00125749
*CONN
*I *1178:B I *D sky130_fd_sc_hd__nand2_1
*I *1185:A I *D sky130_fd_sc_hd__nand2_1
*I *1177:B I *D sky130_fd_sc_hd__nand2_1
*I *1176:Y O *D sky130_fd_sc_hd__nand2_1
*CAP
1 *1178:B 5.19557e-05
2 *1185:A 0.000144282
3 *1177:B 0.00016191
4 *1176:Y 0
5 *466:19 0.000301235
6 *466:4 0.000266907
7 *1178:B *1180:B 5.30637e-06
8 *1185:A *1180:B 5.26184e-05
9 *1185:A *1189:A 0
10 *1185:A *1194:A 0
11 *767:B *1185:A 0
12 *767:B *466:19 0
13 *1177:A *1177:B 2.14757e-05
14 *15:79 *1185:A 0
15 *54:10 *1177:B 2.47724e-05
16 *410:16 *1177:B 7.08482e-05
17 *410:16 *1178:B 5.71472e-05
18 *410:16 *466:19 9.90367e-05
*RES
1 *1176:Y *466:4 9.3 
2 *466:4 *1177:B 11.8 
3 *466:4 *466:19 6.17857 
4 *466:19 *1185:A 16.6571 
5 *466:19 *1178:B 14.8714 
*END

*D_NET *467 0.000308586
*CONN
*I *1180:A I *D sky130_fd_sc_hd__nand2_1
*I *1177:Y O *D sky130_fd_sc_hd__nand2_1
*CAP
1 *1180:A 7.81231e-05
2 *1177:Y 7.81231e-05
3 *767:B *1180:A 0.00015234
4 *1183:A *1180:A 0
*RES
1 *1177:Y *1180:A 29.5464 
*END

*D_NET *468 0.000717328
*CONN
*I *1180:B I *D sky130_fd_sc_hd__nand2_1
*I *1178:Y O *D sky130_fd_sc_hd__nand2_1
*CAP
1 *1180:B 0.000202854
2 *1178:Y 0.000202854
3 *767:B *1180:B 0.00015234
4 *1178:A *1180:B 1.92789e-05
5 *1178:B *1180:B 5.30637e-06
6 *1185:A *1180:B 5.26184e-05
7 *54:10 *1180:B 7.45824e-05
8 *410:16 *1180:B 7.49387e-06
*RES
1 *1178:Y *1180:B 31.3143 
*END

*D_NET *469 0.000605051
*CONN
*I *1182:A I *D sky130_fd_sc_hd__nand2_1
*I *1181:A I *D sky130_fd_sc_hd__nand2_1
*I *1180:Y O *D sky130_fd_sc_hd__nand2_1
*CAP
1 *1182:A 6.54876e-05
2 *1181:A 4.75633e-05
3 *1180:Y 7.61257e-05
4 *469:6 0.000189177
5 *1181:A *1185:B 3.18676e-05
6 *1182:A *470:24 6.74911e-05
7 *469:6 *1185:B 6.57815e-05
8 *767:B *1182:A 5.57914e-05
9 *1181:B *1181:A 5.7661e-06
10 *1183:A *1182:A 0
*RES
1 *1180:Y *469:6 10.6571 
2 *469:6 *1181:A 10.2643 
3 *469:6 *1182:A 20.2464 
*END

*D_NET *470 0.000810659
*CONN
*I *1182:B I *D sky130_fd_sc_hd__nand2_1
*I *1183:B I *D sky130_fd_sc_hd__nand2_1
*I *1185:B I *D sky130_fd_sc_hd__nand2_1
*I *1181:Y O *D sky130_fd_sc_hd__nand2_1
*CAP
1 *1182:B 0
2 *1183:B 2.52229e-05
3 *1185:B 0.000193343
4 *1181:Y 0.000247514
5 *470:24 7.93943e-05
6 *1183:B *1184:A 5.52238e-05
7 *1181:A *1185:B 3.18676e-05
8 *1182:A *470:24 6.74911e-05
9 *1183:A *470:24 4.48206e-05
10 *469:6 *1185:B 6.57815e-05
*RES
1 *1181:Y *1185:B 22.0286 
2 *1181:Y *470:24 19.9429 
3 *470:24 *1183:B 9.83571 
4 *470:24 *1182:B 9.3 
*END

*D_NET *471 0.000378949
*CONN
*I *1184:A I *D sky130_fd_sc_hd__nand2_1
*I *1182:Y O *D sky130_fd_sc_hd__nand2_1
*CAP
1 *1184:A 0.000117165
2 *1182:Y 0.000117165
3 *1184:A *1184:B 5.75275e-05
4 *1184:A *474:12 3.18676e-05
5 *761:A *1184:A 0
6 *1183:B *1184:A 5.52238e-05
*RES
1 *1182:Y *1184:A 21.2071 
*END

*D_NET *472 0.000312299
*CONN
*I *1184:B I *D sky130_fd_sc_hd__nand2_1
*I *1183:Y O *D sky130_fd_sc_hd__nand2_1
*CAP
1 *1184:B 0.000120758
2 *1183:Y 0.000120758
3 *1184:B *474:12 1.32552e-05
4 *761:A *1184:B 0
5 *1184:A *1184:B 5.75275e-05
*RES
1 *1183:Y *1184:B 20.7964 
*END

*D_NET *473 0.00120313
*CONN
*I *854:B I *D sky130_fd_sc_hd__nand2_1
*I *856:A I *D sky130_fd_sc_hd__nand2_1
*I *1024:Y O *D sky130_fd_sc_hd__inv_1
*CAP
1 *854:B 0.000115153
2 *856:A 0.000198362
3 *1024:Y 0.000119136
4 *473:10 0.000432651
5 *856:B *856:A 0.000144732
6 *859:B *856:A 1.32293e-05
7 *991:A *856:A 3.35774e-05
8 *1024:A *856:A 2.59355e-05
9 *1024:A *473:10 7.15235e-05
10 *5:28 *856:A 3.22347e-05
11 *160:14 *473:10 1.65984e-05
*RES
1 *1024:Y *473:10 16.0768 
2 *473:10 *856:A 17.5321 
3 *473:10 *854:B 15.1571 
*END

*D_NET *474 0.000752837
*CONN
*I *1243:A I *D sky130_fd_sc_hd__nand2_1
*I *1242:A I *D sky130_fd_sc_hd__nand2_1
*I *1184:Y O *D sky130_fd_sc_hd__nand2_1
*CAP
1 *1243:A 2.76349e-05
2 *1242:A 0
3 *1184:Y 0.000311767
4 *474:12 0.000339402
5 *1243:A *1245:A 2.89114e-05
6 *767:B *474:12 0
7 *1184:A *474:12 3.18676e-05
8 *1184:B *474:12 1.32552e-05
9 *10:42 *474:12 0
10 *68:12 *474:12 0
*RES
1 *1184:Y *474:12 23.3179 
2 *474:12 *1242:A 9.3 
3 *474:12 *1243:A 9.83571 
*END

*D_NET *475 0.000804784
*CONN
*I *1192:B I *D sky130_fd_sc_hd__nand2_1
*I *1194:A I *D sky130_fd_sc_hd__nand2_1
*I *1185:Y O *D sky130_fd_sc_hd__nand2_1
*CAP
1 *1192:B 0
2 *1194:A 0.000146505
3 *1185:Y 0.000219734
4 *475:8 0.000366239
5 *1194:A *480:28 6.65398e-05
6 *475:8 *1192:A 5.7661e-06
7 *475:8 *1196:B 0
8 *767:B *1194:A 0
9 *770:B *1194:A 0
10 *1185:A *1194:A 0
*RES
1 *1185:Y *475:8 13.1393 
2 *475:8 *1194:A 21.0857 
3 *475:8 *1192:B 9.3 
*END

*D_NET *476 0.000870831
*CONN
*I *1196:A I *D sky130_fd_sc_hd__nand2_1
*I *1188:B I *D sky130_fd_sc_hd__nand2_1
*I *1187:B I *D sky130_fd_sc_hd__nand2_1
*I *1186:Y O *D sky130_fd_sc_hd__nand2_1
*CAP
1 *1196:A 4.23558e-05
2 *1188:B 6.70787e-05
3 *1187:B 3.22559e-05
4 *1186:Y 0.000149535
5 *476:26 0.000226713
6 *1187:B *1189:A 1.74352e-05
7 *1188:B *1189:B 1.3701e-05
8 *1188:B *1196:B 3.93346e-05
9 *1196:A *1196:B 5.7661e-06
10 *1196:A *485:10 5.30637e-06
11 *476:26 *1189:A 5.71472e-05
12 *770:B *476:26 6.5185e-05
13 *1186:A *1187:B 4.80569e-05
14 *9:23 *1187:B 0.00010096
*RES
1 *1186:Y *1187:B 19.975 
2 *1186:Y *476:26 20.4786 
3 *476:26 *1188:B 10.675 
4 *476:26 *1196:A 10.2643 
*END

*D_NET *477 0.00110196
*CONN
*I *1189:A I *D sky130_fd_sc_hd__nand2_1
*I *1187:Y O *D sky130_fd_sc_hd__nand2_1
*CAP
1 *1189:A 0.000224734
2 *1187:Y 0.000224734
3 *753:A *1189:A 6.64419e-05
4 *770:B *1189:A 0.000227539
5 *1185:A *1189:A 0
6 *1186:A *1189:A 0.00010096
7 *1186:B *1189:A 5.33433e-05
8 *1187:B *1189:A 1.74352e-05
9 *1188:A *1189:A 5.9483e-05
10 *9:23 *1189:A 2.00269e-05
11 *15:79 *1189:A 3.34295e-05
12 *56:6 *1189:A 1.66856e-05
13 *476:26 *1189:A 5.71472e-05
*RES
1 *1187:Y *1189:A 33.6714 
*END

*D_NET *478 0.000212108
*CONN
*I *1189:B I *D sky130_fd_sc_hd__nand2_1
*I *1188:Y O *D sky130_fd_sc_hd__nand2_1
*CAP
1 *1189:B 5.54546e-05
2 *1188:Y 5.54546e-05
3 *1189:B *1196:B 8.7498e-05
4 *1188:B *1189:B 1.3701e-05
*RES
1 *1188:Y *1189:B 19.975 
*END

*D_NET *479 0.000470194
*CONN
*I *1193:A I *D sky130_fd_sc_hd__nand2_1
*I *1192:A I *D sky130_fd_sc_hd__nand2_1
*I *1189:Y O *D sky130_fd_sc_hd__nand2_1
*CAP
1 *1193:A 7.65754e-05
2 *1192:A 2.92015e-05
3 *1189:Y 4.31896e-05
4 *479:6 0.000148967
5 *1192:A *1196:B 1.97695e-05
6 *1193:A *480:28 0.000127446
7 *479:6 *1196:B 1.92789e-05
8 *770:B *1193:A 0
9 *475:8 *1192:A 5.7661e-06
*RES
1 *1189:Y *479:6 9.83571 
2 *479:6 *1192:A 10.0321 
3 *479:6 *1193:A 19.9429 
*END

*D_NET *480 0.00118183
*CONN
*I *1193:B I *D sky130_fd_sc_hd__nand2_1
*I *1194:B I *D sky130_fd_sc_hd__nand2_1
*I *1196:B I *D sky130_fd_sc_hd__nand2_1
*I *1192:Y O *D sky130_fd_sc_hd__nand2_1
*CAP
1 *1193:B 9.73971e-05
2 *1194:B 0
3 *1196:B 0.000236909
4 *1192:Y 0.000284304
5 *480:28 0.000144792
6 *1193:B *1195:A 5.27915e-05
7 *1193:B *1195:B 0
8 *1188:B *1196:B 3.93346e-05
9 *1189:B *1196:B 8.7498e-05
10 *1192:A *1196:B 1.97695e-05
11 *1193:A *480:28 0.000127446
12 *1194:A *480:28 6.65398e-05
13 *1196:A *1196:B 5.7661e-06
14 *475:8 *1196:B 0
15 *479:6 *1196:B 1.92789e-05
*RES
1 *1192:Y *1196:B 23.2964 
2 *1192:Y *480:28 19.9429 
3 *480:28 *1194:B 9.3 
4 *480:28 *1193:B 11.5143 
*END

*D_NET *481 0.000415096
*CONN
*I *1195:A I *D sky130_fd_sc_hd__nand2_1
*I *1193:Y O *D sky130_fd_sc_hd__nand2_1
*CAP
1 *1195:A 0.000152389
2 *1193:Y 0.000152389
3 *1195:A *1195:B 5.75275e-05
4 *1193:B *1195:A 5.27915e-05
*RES
1 *1193:Y *1195:A 21.2071 
*END

*D_NET *482 0.000290151
*CONN
*I *1195:B I *D sky130_fd_sc_hd__nand2_1
*I *1194:Y O *D sky130_fd_sc_hd__nand2_1
*CAP
1 *1195:B 0.000100378
2 *1194:Y 0.000100378
3 *1195:B *483:12 3.18676e-05
4 *1193:B *1195:B 0
5 *1195:A *1195:B 5.75275e-05
*RES
1 *1194:Y *1195:B 20.7964 
*END

*D_NET *483 0.000718761
*CONN
*I *1253:A I *D sky130_fd_sc_hd__nand2_1
*I *1252:A I *D sky130_fd_sc_hd__nand2_1
*I *1195:Y O *D sky130_fd_sc_hd__nand2_1
*CAP
1 *1253:A 2.52056e-05
2 *1252:A 0
3 *1195:Y 0.000290626
4 *483:12 0.000315831
5 *1253:A *1254:B 5.52302e-05
6 *767:B *483:12 0
7 *770:B *483:12 0
8 *1195:B *483:12 3.18676e-05
9 *70:12 *483:12 0
*RES
1 *1195:Y *483:12 22.9071 
2 *483:12 *1252:A 9.3 
3 *483:12 *1253:A 9.83571 
*END

*D_NET *484 0.000661386
*CONN
*I *1046:A I *D sky130_fd_sc_hd__inv_1
*I *1035:Y O *D sky130_fd_sc_hd__nand2_1
*CAP
1 *1046:A 0.00027187
2 *1035:Y 0.00027187
3 *1035:B *1046:A 0.000103897
4 *5:28 *1046:A 1.37493e-05
*RES
1 *1035:Y *1046:A 31.5955 
*END

*D_NET *485 0.000932196
*CONN
*I *1201:B I *D sky130_fd_sc_hd__nand2_1
*I *1204:A I *D sky130_fd_sc_hd__nand2_1
*I *1196:Y O *D sky130_fd_sc_hd__nand2_1
*CAP
1 *1201:B 0.000109152
2 *1204:A 0
3 *1196:Y 0.000346197
4 *485:10 0.000455349
5 *1201:B *1204:B 1.61917e-05
6 *485:10 *489:10 0
7 *770:B *485:10 0
8 *1196:A *485:10 5.30637e-06
*RES
1 *1196:Y *485:10 18.0321 
2 *485:10 *1204:A 13.8 
3 *485:10 *1201:B 15.3089 
*END

*D_NET *486 0.00148505
*CONN
*I *1206:A I *D sky130_fd_sc_hd__nand2_1
*I *1199:B I *D sky130_fd_sc_hd__nand2_1
*I *1198:B I *D sky130_fd_sc_hd__nand2_1
*I *1197:Y O *D sky130_fd_sc_hd__nand2_1
*CAP
1 *1206:A 0.0001179
2 *1199:B 0
3 *1198:B 9.86329e-05
4 *1197:Y 0.000119419
5 *486:21 0.000305594
6 *486:8 0.000405745
7 *1198:B *1200:A 2.34204e-05
8 *1206:A *1200:B 0
9 *1206:A *494:12 1.33343e-05
10 *486:21 *1200:A 3.09963e-05
11 *486:21 *1206:B 1.02504e-05
12 *772:B *486:21 0.00017309
13 *1139:B *1198:B 0
14 *9:19 *486:8 0.000186669
15 *16:91 *1198:B 0
*RES
1 *1197:Y *486:8 15.5679 
2 *486:8 *1198:B 15.4429 
3 *486:8 *486:21 7.96429 
4 *486:21 *1199:B 9.3 
5 *486:21 *1206:A 11.5143 
*END

*D_NET *487 0.00108303
*CONN
*I *1200:A I *D sky130_fd_sc_hd__nand2_1
*I *1198:Y O *D sky130_fd_sc_hd__nand2_1
*CAP
1 *1200:A 0.000369369
2 *1198:Y 0.000369369
3 *772:B *1200:A 1.18064e-05
4 *1198:B *1200:A 2.34204e-05
5 *1199:A *1200:A 0.00015234
6 *16:91 *1200:A 0.000125724
7 *486:21 *1200:A 3.09963e-05
*RES
1 *1198:Y *1200:A 33.7429 
*END

*D_NET *488 0.00029917
*CONN
*I *1200:B I *D sky130_fd_sc_hd__nand2_1
*I *1199:Y O *D sky130_fd_sc_hd__nand2_1
*CAP
1 *1200:B 0.000149585
2 *1199:Y 0.000149585
3 *1206:A *1200:B 0
*RES
1 *1199:Y *1200:B 20.7964 
*END

*D_NET *489 0.000327433
*CONN
*I *1203:A I *D sky130_fd_sc_hd__nand2_1
*I *1201:A I *D sky130_fd_sc_hd__nand2_1
*I *1200:Y O *D sky130_fd_sc_hd__nand2_1
*CAP
1 *1203:A 2.3671e-05
2 *1201:A 0
3 *1200:Y 9.27359e-05
4 *489:10 0.000116407
5 *1203:A *490:19 5.52302e-05
6 *772:B *489:10 3.93893e-05
7 *485:10 *489:10 0
*RES
1 *1200:Y *489:10 19.9429 
2 *489:10 *1201:A 9.3 
3 *489:10 *1203:A 9.83571 
*END

*D_NET *490 0.000989629
*CONN
*I *1206:B I *D sky130_fd_sc_hd__nand2_1
*I *1203:B I *D sky130_fd_sc_hd__nand2_1
*I *1204:B I *D sky130_fd_sc_hd__nand2_1
*I *1201:Y O *D sky130_fd_sc_hd__nand2_1
*CAP
1 *1206:B 0.000168555
2 *1203:B 0
3 *1204:B 4.46581e-05
4 *1201:Y 0
5 *490:19 0.000264522
6 *490:4 0.000140625
7 *1204:B *1205:A 0.00011829
8 *1206:B *494:12 0
9 *490:19 *1205:A 8.46829e-05
10 *772:B *1206:B 8.66228e-05
11 *1201:B *1204:B 1.61917e-05
12 *1203:A *490:19 5.52302e-05
13 *486:21 *1206:B 1.02504e-05
*RES
1 *1201:Y *490:4 9.3 
2 *490:4 *1204:B 10.8313 
3 *490:4 *490:19 2.19643 
4 *490:19 *1203:B 9.3 
5 *490:19 *1206:B 21.4964 
*END

*D_NET *491 0.000739827
*CONN
*I *1205:A I *D sky130_fd_sc_hd__nand2_1
*I *1203:Y O *D sky130_fd_sc_hd__nand2_1
*CAP
1 *1205:A 0.000243293
2 *1203:Y 0.000243293
3 *1205:A *1205:B 5.02677e-05
4 *1204:B *1205:A 0.00011829
5 *490:19 *1205:A 8.46829e-05
*RES
1 *1203:Y *1205:A 22.5821 
*END

*D_NET *492 0.000295934
*CONN
*I *1205:B I *D sky130_fd_sc_hd__nand2_1
*I *1204:Y O *D sky130_fd_sc_hd__nand2_1
*CAP
1 *1205:B 8.24677e-05
2 *1204:Y 8.24677e-05
3 *1205:B *493:12 8.07313e-05
4 *1205:A *1205:B 5.02677e-05
*RES
1 *1204:Y *1205:B 20.7964 
*END

*D_NET *493 0.000867162
*CONN
*I *1263:A I *D sky130_fd_sc_hd__nand2_1
*I *1262:A I *D sky130_fd_sc_hd__nand2_1
*I *1205:Y O *D sky130_fd_sc_hd__nand2_1
*CAP
1 *1263:A 2.52056e-05
2 *1262:A 0
3 *1205:Y 0.000340394
4 *493:12 0.0003656
5 *1263:A *547:15 5.52302e-05
6 *770:B *493:12 0
7 *772:B *493:12 0
8 *1205:B *493:12 8.07313e-05
9 *72:12 *493:12 0
*RES
1 *1205:Y *493:12 23.7286 
2 *493:12 *1262:A 9.3 
3 *493:12 *1263:A 9.83571 
*END

*D_NET *494 0.00100102
*CONN
*I *1211:B I *D sky130_fd_sc_hd__nand2_1
*I *1214:A I *D sky130_fd_sc_hd__nand2_1
*I *1206:Y O *D sky130_fd_sc_hd__nand2_1
*CAP
1 *1211:B 9.92144e-05
2 *1214:A 0
3 *1206:Y 0.000367719
4 *494:12 0.000466934
5 *1211:B *1211:A 5.7661e-06
6 *1211:B *1214:B 4.80569e-05
7 *1211:B *1216:B 0
8 *494:12 *1210:B 0
9 *1206:A *494:12 1.33343e-05
10 *1206:B *494:12 0
*RES
1 *1206:Y *494:12 22.9429 
2 *494:12 *1214:A 9.3 
3 *494:12 *1211:B 11.5143 
*END

*D_NET *495 0.000403372
*CONN
*I *867:A I *D sky130_fd_sc_hd__nand2_1
*I *865:B I *D sky130_fd_sc_hd__nand2_1
*I *1046:Y O *D sky130_fd_sc_hd__inv_1
*CAP
1 *867:A 0
2 *865:B 5.97939e-05
3 *1046:Y 2.87999e-05
4 *495:6 8.85938e-05
5 *867:B *865:B 4.68028e-05
6 *5:28 *865:B 0.000143633
7 *5:28 *495:6 3.57486e-05
*RES
1 *1046:Y *495:6 10.0411 
2 *495:6 *865:B 11.5143 
3 *495:6 *867:A 9.3 
*END

*D_NET *496 0.00204612
*CONN
*I *1216:A I *D sky130_fd_sc_hd__nand2_1
*I *1209:B I *D sky130_fd_sc_hd__nand2_1
*I *1208:B I *D sky130_fd_sc_hd__nand2_1
*I *1207:Y O *D sky130_fd_sc_hd__nand2_1
*CAP
1 *1216:A 0.00011787
2 *1209:B 0
3 *1208:B 0.00022287
4 *1207:Y 0
5 *496:12 0.000557646
6 *496:4 0.000452646
7 *1216:A *1210:A 0
8 *1216:A *504:6 9.90367e-05
9 *756:A *496:12 2.40611e-05
10 *757:A *496:12 0.000110756
11 *1197:A *1208:B 0
12 *1207:B *496:12 4.40835e-05
13 *1209:A *496:12 4.49613e-05
14 *9:9 *1216:A 6.19181e-05
15 *9:19 *1208:B 0.000227539
16 *17:78 *1208:B 8.2731e-05
*RES
1 *1207:Y *496:4 9.3 
2 *496:4 *496:12 5.21429 
3 *496:12 *1208:B 23.3357 
4 *496:12 *1209:B 9.3 
5 *496:4 *1216:A 20.8893 
*END

*D_NET *497 0.000658469
*CONN
*I *1210:A I *D sky130_fd_sc_hd__nand2_1
*I *1208:Y O *D sky130_fd_sc_hd__nand2_1
*CAP
1 *1210:A 0.000273655
2 *1208:Y 0.000273655
3 *774:B *1210:A 5.63007e-05
4 *1207:A *1210:A 0
5 *1216:A *1210:A 0
6 *17:78 *1210:A 5.48581e-05
*RES
1 *1208:Y *1210:A 32.2071 
*END

*D_NET *498 0.000423878
*CONN
*I *1210:B I *D sky130_fd_sc_hd__nand2_1
*I *1209:Y O *D sky130_fd_sc_hd__nand2_1
*CAP
1 *1210:B 9.57762e-05
2 *1209:Y 9.57762e-05
3 *1210:B *1211:A 5.33005e-05
4 *1210:B *1216:B 5.33005e-05
5 *774:B *1210:B 0.000125724
6 *494:12 *1210:B 0
*RES
1 *1209:Y *1210:B 29.7786 
*END

*D_NET *499 0.00084091
*CONN
*I *1212:A I *D sky130_fd_sc_hd__nand2_1
*I *1211:A I *D sky130_fd_sc_hd__nand2_1
*I *1210:Y O *D sky130_fd_sc_hd__nand2_1
*CAP
1 *1212:A 0.000129246
2 *1211:A 9.40865e-05
3 *1210:Y 0.000223333
4 *1211:A *1214:B 9.7049e-06
5 *1211:A *1216:B 4.57098e-05
6 *1212:A *1212:B 7.73758e-05
7 *1212:A *1216:B 5.17614e-05
8 *774:B *1212:A 0.000150625
9 *1210:B *1211:A 5.33005e-05
10 *1211:B *1211:A 5.7661e-06
*RES
1 *1210:Y *1211:A 20.3857 
2 *1210:Y *1212:A 30.4929 
*END

*D_NET *500 0.000914427
*CONN
*I *1212:B I *D sky130_fd_sc_hd__nand2_1
*I *1216:B I *D sky130_fd_sc_hd__nand2_1
*I *1214:B I *D sky130_fd_sc_hd__nand2_1
*I *1211:Y O *D sky130_fd_sc_hd__nand2_1
*CAP
1 *1212:B 8.00344e-05
2 *1216:B 0.000143838
3 *1214:B 6.29577e-05
4 *1211:Y 0.00028683
5 *1212:B *1215:B 5.48581e-05
6 *1210:B *1216:B 5.33005e-05
7 *1211:A *1214:B 9.7049e-06
8 *1211:A *1216:B 4.57098e-05
9 *1211:B *1214:B 4.80569e-05
10 *1211:B *1216:B 0
11 *1212:A *1212:B 7.73758e-05
12 *1212:A *1216:B 5.17614e-05
*RES
1 *1211:Y *1214:B 19.975 
2 *1211:Y *1216:B 21.6179 
3 *1211:Y *1212:B 29.5464 
*END

*D_NET *501 0.000223865
*CONN
*I *1215:A I *D sky130_fd_sc_hd__nand2_1
*I *1212:Y O *D sky130_fd_sc_hd__nand2_1
*CAP
1 *1215:A 6.29238e-05
2 *1212:Y 6.29238e-05
3 *10:17 *1215:A 9.80173e-05
*RES
1 *1212:Y *1215:A 19.975 
*END

*D_NET *502 0.000234801
*CONN
*I *1215:B I *D sky130_fd_sc_hd__nand2_1
*I *1214:Y O *D sky130_fd_sc_hd__nand2_1
*CAP
1 *1215:B 8.99714e-05
2 *1214:Y 8.99714e-05
3 *1212:B *1215:B 5.48581e-05
*RES
1 *1214:Y *1215:B 29.5464 
*END

*D_NET *503 0.000314161
*CONN
*I *1273:A I *D sky130_fd_sc_hd__nand2_1
*I *1272:A I *D sky130_fd_sc_hd__nand2_1
*I *1215:Y O *D sky130_fd_sc_hd__nand2_1
*CAP
1 *1273:A 0
2 *1272:A 2.52229e-05
3 *1215:Y 0.000104245
4 *503:10 0.000129468
5 *1272:A *555:17 5.52238e-05
6 *74:12 *503:10 0
*RES
1 *1215:Y *503:10 19.9429 
2 *503:10 *1272:A 9.83571 
3 *503:10 *1273:A 9.3 
*END

*D_NET *504 0.00122065
*CONN
*I *1223:A I *D sky130_fd_sc_hd__nand2_1
*I *1221:B I *D sky130_fd_sc_hd__nand2_1
*I *1216:Y O *D sky130_fd_sc_hd__nand2_1
*CAP
1 *1223:A 2.06112e-05
2 *1221:B 0.000169044
3 *1216:Y 0.000285931
4 *504:6 0.000475586
5 *1221:B *1220:B 4.1331e-06
6 *1221:B *1223:B 4.53274e-05
7 *1221:B *1225:A 2.79092e-05
8 *1221:B *1225:B 1.74352e-05
9 *1223:A *1225:B 3.99614e-06
10 *504:6 *1225:B 7.16452e-05
11 *776:A *1221:B 0
12 *1216:A *504:6 9.90367e-05
*RES
1 *1216:Y *504:6 13.9429 
2 *504:6 *1221:B 21.3179 
3 *504:6 *1223:A 9.72857 
*END

*D_NET *505 0.00125868
*CONN
*I *1226:A I *D sky130_fd_sc_hd__nand2_1
*I *1218:B I *D sky130_fd_sc_hd__nand2_1
*I *1219:B I *D sky130_fd_sc_hd__nand2_1
*I *1217:Y O *D sky130_fd_sc_hd__nand2_1
*CAP
1 *1226:A 0.000190848
2 *1218:B 0
3 *1219:B 8.87583e-05
4 *1217:Y 0
5 *505:21 0.000283246
6 *505:4 0.000181156
7 *1219:B *1220:B 5.24274e-05
8 *505:21 *1220:A 1.82549e-05
9 *776:B *1226:A 8.17978e-05
10 *776:B *505:21 0.000137983
11 *1218:A *505:21 5.52302e-05
12 *1219:A *1219:B 2.00751e-05
13 *440:12 *1219:B 0.000148903
*RES
1 *1217:Y *505:4 9.3 
2 *505:4 *1219:B 20.7821 
3 *505:4 *505:21 2.19643 
4 *505:21 *1218:B 9.3 
5 *505:21 *1226:A 22.1036 
*END

*D_NET *506 0.000221088
*CONN
*I *1068:A I *D sky130_fd_sc_hd__inv_1
*I *1057:Y O *D sky130_fd_sc_hd__nand2_1
*CAP
1 *1068:A 7.05197e-05
2 *1057:Y 7.05197e-05
3 *1057:A *1068:A 1.02301e-05
4 *5:28 *1068:A 1.62025e-05
5 *5:41 *1068:A 5.36161e-05
*RES
1 *1057:Y *1068:A 20.2563 
*END

*D_NET *507 0.000538947
*CONN
*I *1220:A I *D sky130_fd_sc_hd__nand2_1
*I *1218:Y O *D sky130_fd_sc_hd__nand2_1
*CAP
1 *1220:A 0.00018407
2 *1218:Y 0.00018407
3 *1220:A *1220:B 8.06427e-05
4 *776:B *1220:A 5.26184e-05
5 *1218:A *1220:A 1.92905e-05
6 *505:21 *1220:A 1.82549e-05
*RES
1 *1218:Y *1220:A 30.9036 
*END

*D_NET *508 0.000639172
*CONN
*I *1220:B I *D sky130_fd_sc_hd__nand2_1
*I *1219:Y O *D sky130_fd_sc_hd__nand2_1
*CAP
1 *1220:B 0.000184223
2 *1219:Y 0.000184223
3 *776:A *1220:B 0
4 *776:B *1220:B 0
5 *1219:A *1220:B 0.000125724
6 *1219:B *1220:B 5.24274e-05
7 *1220:A *1220:B 8.06427e-05
8 *1221:B *1220:B 4.1331e-06
9 *440:12 *1220:B 7.79781e-06
*RES
1 *1219:Y *1220:B 31.975 
*END

*D_NET *509 0.00059474
*CONN
*I *1221:A I *D sky130_fd_sc_hd__nand2_1
*I *1222:A I *D sky130_fd_sc_hd__nand2_1
*I *1220:Y O *D sky130_fd_sc_hd__nand2_1
*CAP
1 *1221:A 1.2683e-05
2 *1222:A 0.000122375
3 *1220:Y 1.81901e-05
4 *509:6 0.000153249
5 *1221:A *1222:B 3.99614e-06
6 *1221:A *1226:B 0
7 *1222:A *1222:B 6.20656e-05
8 *1222:A *1226:B 1.33343e-05
9 *509:6 *1226:B 0.00010096
10 *776:A *1221:A 0
11 *776:A *1222:A 6.35611e-05
12 *776:A *509:6 4.43256e-05
*RES
1 *1220:Y *509:6 10.2464 
2 *509:6 *1222:A 11.9071 
3 *509:6 *1221:A 9.72857 
*END

*D_NET *510 0.0012887
*CONN
*I *1226:B I *D sky130_fd_sc_hd__nand2_1
*I *1223:B I *D sky130_fd_sc_hd__nand2_1
*I *1222:B I *D sky130_fd_sc_hd__nand2_1
*I *1221:Y O *D sky130_fd_sc_hd__nand2_1
*CAP
1 *1226:B 0.000259009
2 *1223:B 0.000150641
3 *1222:B 2.79481e-05
4 *1221:Y 2.79481e-05
5 *510:18 0.00040965
6 *1223:B *1225:A 0
7 *776:A *1222:B 0.000115379
8 *776:A *1226:B 3.35687e-05
9 *777:A *1226:B 3.88751e-05
10 *1221:A *1222:B 3.99614e-06
11 *1221:A *1226:B 0
12 *1221:B *1223:B 4.53274e-05
13 *1222:A *1222:B 6.20656e-05
14 *1222:A *1226:B 1.33343e-05
15 *509:6 *1226:B 0.00010096
*RES
1 *1221:Y *1222:B 19.975 
2 *1221:Y *510:18 9.3 
3 *510:18 *1223:B 20.8893 
4 *510:18 *1226:B 13.0321 
*END

*D_NET *511 0.000324112
*CONN
*I *1225:A I *D sky130_fd_sc_hd__nand2_1
*I *1222:Y O *D sky130_fd_sc_hd__nand2_1
*CAP
1 *1225:A 8.43785e-05
2 *1222:Y 8.43785e-05
3 *776:A *1225:A 0.000127446
4 *1221:B *1225:A 2.79092e-05
5 *1223:B *1225:A 0
*RES
1 *1222:Y *1225:A 29.2429 
*END

*D_NET *512 0.000325169
*CONN
*I *1225:B I *D sky130_fd_sc_hd__nand2_1
*I *1223:Y O *D sky130_fd_sc_hd__nand2_1
*CAP
1 *1225:B 7.71586e-05
2 *1223:Y 7.71586e-05
3 *1225:B *513:12 7.77751e-05
4 *1221:B *1225:B 1.74352e-05
5 *1223:A *1225:B 3.99614e-06
6 *504:6 *1225:B 7.16452e-05
*RES
1 *1223:Y *1225:B 20.7964 
*END

*D_NET *513 0.000898437
*CONN
*I *1283:A I *D sky130_fd_sc_hd__nand2_1
*I *1282:A I *D sky130_fd_sc_hd__nand2_1
*I *1225:Y O *D sky130_fd_sc_hd__nand2_1
*CAP
1 *1283:A 2.52056e-05
2 *1282:A 0
3 *1225:Y 0.000299084
4 *513:12 0.00032429
5 *1283:A *1283:B 5.52302e-05
6 *776:A *513:12 5.26184e-05
7 *1225:B *513:12 7.77751e-05
8 *9:9 *513:12 0
9 *76:12 *513:12 6.42338e-05
*RES
1 *1225:Y *513:12 23.7286 
2 *513:12 *1282:A 9.3 
3 *513:12 *1283:A 9.83571 
*END

*D_NET *514 0.000719296
*CONN
*I *1293:A I *D sky130_fd_sc_hd__nand2_1
*I *1292:A I *D sky130_fd_sc_hd__nand2_1
*I *1226:Y O *D sky130_fd_sc_hd__nand2_1
*CAP
1 *1293:A 1.55603e-05
2 *1292:A 0
3 *1226:Y 0.000218853
4 *514:12 0.000234413
5 *1293:A *1295:B 5.52302e-05
6 *1293:A *573:22 1.92905e-05
7 *514:12 *1293:B 4.46186e-06
8 *777:A *514:12 7.43279e-05
9 *78:12 *514:12 9.71589e-05
*RES
1 *1226:Y *514:12 22.425 
2 *514:12 *1292:A 9.3 
3 *514:12 *1293:A 9.83571 
*END

*D_NET *515 0.00130806
*CONN
*I *1231:A I *D sky130_fd_sc_hd__inv_1
*I *1229:B I *D sky130_fd_sc_hd__nand2_1
*I *1228:B I *D sky130_fd_sc_hd__nand2_1
*I *1227:Y O *D sky130_fd_sc_hd__nand2_1
*CAP
1 *1231:A 0.00031545
2 *1229:B 0.000133905
3 *1228:B 7.92863e-05
4 *1227:Y 0.00031545
5 *515:4 0.000213191
6 *1228:B *1230:A 0
7 *762:A *1229:B 0
8 *763:B *1229:B 0
9 *1227:A *1228:B 4.80569e-05
10 *1229:A *1228:B 1.24368e-05
11 *1229:A *1229:B 0.000190282
12 *12:15 *1229:B 0
*RES
1 *1227:Y *515:4 9.3 
2 *515:4 *1228:B 11.1036 
3 *515:4 *1229:B 21.0857 
4 *1227:Y *1231:A 32.8098 
*END

*D_NET *516 0.000299284
*CONN
*I *1230:A I *D sky130_fd_sc_hd__nand2_1
*I *1228:Y O *D sky130_fd_sc_hd__nand2_1
*CAP
1 *1230:A 0.000130535
2 *1228:Y 0.000130535
3 p[7] *1230:A 5.30637e-06
4 *1227:A *1230:A 3.29076e-05
5 *1228:B *1230:A 0
*RES
1 *1228:Y *1230:A 20.7964 
*END

*D_NET *517 0.00101881
*CONN
*I *875:B I *D sky130_fd_sc_hd__nand2_1
*I *877:A I *D sky130_fd_sc_hd__nand2_1
*I *1068:Y O *D sky130_fd_sc_hd__inv_1
*CAP
1 *875:B 2.17281e-05
2 *877:A 0.000240074
3 *1068:Y 1.49221e-05
4 *517:6 0.000276725
5 *876:A *877:A 1.33329e-05
6 *877:B *877:A 0.000219758
7 *878:B *877:A 9.3333e-05
8 *5:41 *875:B 4.34677e-05
9 *5:41 *517:6 3.49632e-05
10 *119:10 *877:A 2.53112e-06
11 *171:8 *877:A 5.79792e-05
*RES
1 *1068:Y *517:6 9.63036 
2 *517:6 *877:A 23.8179 
3 *517:6 *875:B 9.83571 
*END

*D_NET *518 0.000725369
*CONN
*I *1230:B I *D sky130_fd_sc_hd__nand2_1
*I *1229:Y O *D sky130_fd_sc_hd__nand2_1
*CAP
1 *1230:B 0.000253715
2 *1229:Y 0.000253715
3 *761:B *1230:B 4.8035e-05
4 *1229:A *1230:B 1.92789e-05
5 *454:12 *1230:B 0.000150625
*RES
1 *1229:Y *1230:B 31.725 
*END

*D_NET *519 0.000609629
*CONN
*I *1239:A I *D sky130_fd_sc_hd__nand2_1
*I *1237:B I *D sky130_fd_sc_hd__nand2_1
*I *1231:Y O *D sky130_fd_sc_hd__inv_1
*CAP
1 *1239:A 0
2 *1237:B 9.90373e-05
3 *1231:Y 0.000173124
4 *519:12 0.000272161
5 *1237:B *1237:A 1.8461e-05
6 *1237:B *1239:B 4.68457e-05
7 *519:12 *1236:B 0
*RES
1 *1231:Y *519:12 20.5768 
2 *519:12 *1237:B 11.5143 
3 *519:12 *1239:A 9.3 
*END

*D_NET *520 0.00104116
*CONN
*I *1233:B I *D sky130_fd_sc_hd__nand2_1
*I *1241:A I *D sky130_fd_sc_hd__nand2_1
*I *1234:B I *D sky130_fd_sc_hd__nand2_1
*I *1232:Y O *D sky130_fd_sc_hd__nand2_1
*CAP
1 *1233:B 0
2 *1241:A 0.000175159
3 *1234:B 9.04897e-05
4 *1232:Y 0
5 *520:17 0.000277637
6 *520:4 0.000192968
7 *1234:B *1236:B 7.86973e-05
8 *1241:A *1236:A 4.94362e-05
9 *520:17 *1236:A 5.50313e-05
10 *520:17 *1236:B 7.43578e-06
11 *1232:A *520:17 5.52238e-05
12 *1232:B *1234:B 5.49544e-05
13 *464:12 *1241:A 4.13122e-06
*RES
1 *1232:Y *520:4 9.3 
2 *520:4 *1234:B 11.4964 
3 *520:4 *520:17 2.19643 
4 *520:17 *1241:A 21.1571 
5 *520:17 *1233:B 9.3 
*END

*D_NET *521 0.000530515
*CONN
*I *1236:A I *D sky130_fd_sc_hd__nand2_1
*I *1233:Y O *D sky130_fd_sc_hd__nand2_1
*CAP
1 *1236:A 0.000141005
2 *1233:Y 0.000141005
3 *1236:A *1236:B 0.000144038
4 *1241:A *1236:A 4.94362e-05
5 *520:17 *1236:A 5.50313e-05
*RES
1 *1233:Y *1236:A 30.4929 
*END

*D_NET *522 0.000777099
*CONN
*I *1236:B I *D sky130_fd_sc_hd__nand2_1
*I *1234:Y O *D sky130_fd_sc_hd__nand2_1
*CAP
1 *1236:B 0.000218515
2 *1234:Y 0.000218515
3 *1236:B *1237:A 5.49489e-05
4 *1236:B *1241:B 5.49489e-05
5 *1234:B *1236:B 7.86973e-05
6 *1236:A *1236:B 0.000144038
7 *519:12 *1236:B 0
8 *520:17 *1236:B 7.43578e-06
*RES
1 *1234:Y *1236:B 31.4393 
*END

*D_NET *523 0.000876972
*CONN
*I *1238:A I *D sky130_fd_sc_hd__nand2_1
*I *1237:A I *D sky130_fd_sc_hd__nand2_1
*I *1236:Y O *D sky130_fd_sc_hd__nand2_1
*CAP
1 *1238:A 8.89948e-05
2 *1237:A 5.54491e-05
3 *1236:Y 0
4 *523:4 0.000144444
5 *1237:A *1238:B 4.49861e-05
6 *1237:A *1241:B 2.36643e-05
7 *1238:A *1238:B 0.000326679
8 *1238:A *1240:A 7.92229e-06
9 *1238:A *1241:B 2.67489e-05
10 *1238:A *528:8 8.46734e-05
11 *1236:B *1237:A 5.49489e-05
12 *1237:B *1237:A 1.8461e-05
*RES
1 *1236:Y *523:4 9.3 
2 *523:4 *1237:A 11.1036 
3 *523:4 *1238:A 13.1571 
*END

*D_NET *524 0.00165734
*CONN
*I *1241:B I *D sky130_fd_sc_hd__nand2_1
*I *1239:B I *D sky130_fd_sc_hd__nand2_1
*I *1238:B I *D sky130_fd_sc_hd__nand2_1
*I *1237:Y O *D sky130_fd_sc_hd__nand2_1
*CAP
1 *1241:B 0.000115431
2 *1239:B 6.51322e-05
3 *1238:B 0.00034281
4 *1237:Y 0.00034281
5 *524:18 0.000180563
6 *1238:B *1247:B 1.8461e-05
7 *1238:B *528:8 1.13883e-05
8 *1241:B *1240:A 5.68713e-05
9 *1236:B *1241:B 5.49489e-05
10 *1237:A *1238:B 4.49861e-05
11 *1237:A *1241:B 2.36643e-05
12 *1237:B *1239:B 4.68457e-05
13 *1238:A *1238:B 0.000326679
14 *1238:A *1241:B 2.67489e-05
*RES
1 *1237:Y *1238:B 23.8679 
2 *1237:Y *524:18 9.3 
3 *524:18 *1239:B 10.675 
4 *524:18 *1241:B 11.9071 
*END

*D_NET *525 0.000643873
*CONN
*I *1240:A I *D sky130_fd_sc_hd__nand2_1
*I *1238:Y O *D sky130_fd_sc_hd__nand2_1
*CAP
1 *1240:A 0.000210382
2 *1238:Y 0.000210382
3 *1240:A *528:8 9.99853e-05
4 p[8] *1240:A 5.83304e-05
5 *1238:A *1240:A 7.92229e-06
6 *1241:B *1240:A 5.68713e-05
*RES
1 *1238:Y *1240:A 31.0107 
*END

*D_NET *526 0.000470733
*CONN
*I *1240:B I *D sky130_fd_sc_hd__nand2_1
*I *1239:Y O *D sky130_fd_sc_hd__nand2_1
*CAP
1 *1240:B 0.000235366
2 *1239:Y 0.000235366
*RES
1 *1239:Y *1240:B 31.4214 
*END

*D_NET *527 0.000742846
*CONN
*I *1091:A I *D sky130_fd_sc_hd__inv_1
*I *1080:Y O *D sky130_fd_sc_hd__nand2_1
*CAP
1 *1091:A 0.00010444
2 *1080:Y 0.00010444
3 *1091:A *536:10 0.00027882
4 *885:A *1091:A 5.49995e-05
5 *886:B *1091:A 5.88536e-05
6 *888:A *1091:A 2.34113e-05
7 *1080:A *1091:A 3.11088e-05
8 *5:45 *1091:A 4.77002e-05
9 *181:6 *1091:A 3.90718e-05
*RES
1 *1080:Y *1091:A 22.7205 
*END

*D_NET *528 0.000716062
*CONN
*I *1249:A I *D sky130_fd_sc_hd__nand2_1
*I *1247:B I *D sky130_fd_sc_hd__nand2_1
*I *1241:Y O *D sky130_fd_sc_hd__nand2_1
*CAP
1 *1249:A 0
2 *1247:B 8.24521e-05
3 *1241:Y 0.000125694
4 *528:8 0.000208146
5 *1247:B *1249:B 4.80569e-05
6 *1247:B *1250:B 1.74352e-05
7 *1247:B *533:17 0
8 *528:8 *1249:B 1.97695e-05
9 *1238:A *528:8 8.46734e-05
10 *1238:B *1247:B 1.8461e-05
11 *1238:B *528:8 1.13883e-05
12 *1240:A *528:8 9.99853e-05
*RES
1 *1241:Y *528:8 12.3179 
2 *528:8 *1247:B 11.5143 
3 *528:8 *1249:A 9.3 
*END

*D_NET *529 0.000965944
*CONN
*I *1243:B I *D sky130_fd_sc_hd__nand2_1
*I *1251:A I *D sky130_fd_sc_hd__nand2_1
*I *1244:B I *D sky130_fd_sc_hd__nand2_1
*I *1242:Y O *D sky130_fd_sc_hd__nand2_1
*CAP
1 *1243:B 0.000124975
2 *1251:A 0.000126724
3 *1244:B 6.28368e-05
4 *1242:Y 0.000126141
5 *529:20 0.000315003
6 *1243:B *1245:A 4.38128e-05
7 *1244:B *1245:A 1.74352e-05
8 *1244:B *1245:B 0
9 *1251:A *1259:A 0
10 *1251:A *532:12 0
11 *529:20 *1245:A 0.00010096
12 *1242:B *1243:B 0
13 *1242:B *1244:B 4.80569e-05
*RES
1 *1242:Y *1244:B 19.975 
2 *1242:Y *529:20 10.2464 
3 *529:20 *1251:A 20.2464 
4 *529:20 *1243:B 11.2821 
*END

*D_NET *530 0.000721197
*CONN
*I *1245:A I *D sky130_fd_sc_hd__nand2_1
*I *1243:Y O *D sky130_fd_sc_hd__nand2_1
*CAP
1 *1245:A 0.000157439
2 *1243:Y 0.000157439
3 *1245:A *1245:B 2.13546e-05
4 *1245:A *532:12 1.33343e-05
5 *1242:B *1245:A 0.00018051
6 *1243:A *1245:A 2.89114e-05
7 *1243:B *1245:A 4.38128e-05
8 *1244:B *1245:A 1.74352e-05
9 *529:20 *1245:A 0.00010096
*RES
1 *1243:Y *1245:A 22.7429 
*END

*D_NET *531 0.000307128
*CONN
*I *1245:B I *D sky130_fd_sc_hd__nand2_1
*I *1244:Y O *D sky130_fd_sc_hd__nand2_1
*CAP
1 *1245:B 0.000121803
2 *1244:Y 0.000121803
3 *1245:B *532:12 1.32552e-05
4 *1242:B *1245:B 2.89114e-05
5 *1244:B *1245:B 0
6 *1245:A *1245:B 2.13546e-05
*RES
1 *1244:Y *1245:B 20.7964 
*END

*D_NET *532 0.000458282
*CONN
*I *1248:A I *D sky130_fd_sc_hd__nand2_1
*I *1247:A I *D sky130_fd_sc_hd__nand2_1
*I *1245:Y O *D sky130_fd_sc_hd__nand2_1
*CAP
1 *1248:A 2.3671e-05
2 *1247:A 0
3 *1245:Y 0.00016456
4 *532:12 0.000188231
5 *1248:A *533:17 5.52302e-05
6 *1245:A *532:12 1.33343e-05
7 *1245:B *532:12 1.32552e-05
8 *1251:A *532:12 0
*RES
1 *1245:Y *532:12 20.7821 
2 *532:12 *1247:A 9.3 
3 *532:12 *1248:A 9.83571 
*END

*D_NET *533 0.000792642
*CONN
*I *1251:B I *D sky130_fd_sc_hd__nand2_1
*I *1248:B I *D sky130_fd_sc_hd__nand2_1
*I *1249:B I *D sky130_fd_sc_hd__nand2_1
*I *1247:Y O *D sky130_fd_sc_hd__nand2_1
*CAP
1 *1251:B 1.291e-05
2 *1248:B 0
3 *1249:B 3.52214e-05
4 *1247:Y 0
5 *533:17 6.18384e-05
6 *533:4 8.41499e-05
7 *1249:B *1250:B 0.00010096
8 *1251:B *1250:A 0.00010096
9 *1251:B *1250:B 5.47622e-05
10 *533:17 *1250:A 2.44318e-05
11 *533:17 *1250:B 0.000194352
12 *1247:B *1249:B 4.80569e-05
13 *1247:B *533:17 0
14 *1248:A *533:17 5.52302e-05
15 *528:8 *1249:B 1.97695e-05
*RES
1 *1247:Y *533:4 9.3 
2 *533:4 *1249:B 10.675 
3 *533:4 *533:17 2.19643 
4 *533:17 *1248:B 9.3 
5 *533:17 *1251:B 10.2464 
*END

*D_NET *534 0.000511708
*CONN
*I *1250:A I *D sky130_fd_sc_hd__nand2_1
*I *1248:Y O *D sky130_fd_sc_hd__nand2_1
*CAP
1 *1250:A 0.000106888
2 *1248:Y 0.000106888
3 *1250:A *1250:B 7.45235e-05
4 *1250:A *537:8 9.80173e-05
5 *1251:B *1250:A 0.00010096
6 *533:17 *1250:A 2.44318e-05
*RES
1 *1248:Y *1250:A 21.6179 
*END

*D_NET *535 0.00130554
*CONN
*I *1250:B I *D sky130_fd_sc_hd__nand2_1
*I *1249:Y O *D sky130_fd_sc_hd__nand2_1
*CAP
1 *1250:B 0.000361842
2 *1249:Y 0.000361842
3 *1250:B *1258:B 0
4 *1250:B *537:8 3.88666e-05
5 p[9] *1250:B 0.00010096
6 *1247:B *1250:B 1.74352e-05
7 *1249:B *1250:B 0.00010096
8 *1250:A *1250:B 7.45235e-05
9 *1251:B *1250:B 5.47622e-05
10 *533:17 *1250:B 0.000194352
*RES
1 *1249:Y *1250:B 25.4571 
*END

*D_NET *536 0.00186298
*CONN
*I *887:A I *D sky130_fd_sc_hd__nand2_1
*I *885:B I *D sky130_fd_sc_hd__nand2_1
*I *1091:Y O *D sky130_fd_sc_hd__inv_1
*CAP
1 *887:A 0.000325498
2 *885:B 0
3 *1091:Y 8.25404e-05
4 *536:10 0.000408038
5 *888:B *887:A 0.000269747
6 *1091:A *536:10 0.00027882
7 *5:45 *536:10 0.00033664
8 *15:28 *536:10 1.78393e-05
9 *15:47 *887:A 0.000113331
10 *15:47 *536:10 1.00887e-05
11 *129:12 *887:A 3.67279e-06
12 *129:12 *536:10 1.67642e-05
*RES
1 *1091:Y *536:10 17.7375 
2 *536:10 *885:B 13.8 
3 *536:10 *887:A 19.175 
*END

*D_NET *537 0.000986056
*CONN
*I *1256:B I *D sky130_fd_sc_hd__nand2_1
*I *1259:A I *D sky130_fd_sc_hd__nand2_1
*I *1251:Y O *D sky130_fd_sc_hd__nand2_1
*CAP
1 *1256:B 0
2 *1259:A 0.000216373
3 *1251:Y 0.000198329
4 *537:8 0.000414701
5 *1259:A *1255:B 0
6 *1259:A *1259:B 0
7 *537:8 *1256:A 1.97695e-05
8 p[9] *1259:A 0
9 *1250:A *537:8 9.80173e-05
10 *1250:B *537:8 3.88666e-05
11 *1251:A *1259:A 0
*RES
1 *1251:Y *537:8 13.0321 
2 *537:8 *1259:A 21.9071 
3 *537:8 *1256:B 9.3 
*END

*D_NET *538 0.000844645
*CONN
*I *1261:A I *D sky130_fd_sc_hd__nand2_1
*I *1253:B I *D sky130_fd_sc_hd__nand2_1
*I *1254:B I *D sky130_fd_sc_hd__nand2_1
*I *1252:Y O *D sky130_fd_sc_hd__nand2_1
*CAP
1 *1261:A 0.000117664
2 *1253:B 5.4595e-05
3 *1254:B 7.12745e-05
4 *1252:Y 8.22502e-06
5 *538:8 0.000142949
6 *538:6 0.000142968
7 *1253:B *1255:A 2.44318e-05
8 *1254:B *1255:A 2.44318e-05
9 *1261:A *1255:A 5.5782e-05
10 *538:6 *1255:A 9.90367e-05
11 *1252:B *1253:B 0
12 *1252:B *1254:B 4.80569e-05
13 *1253:A *1254:B 5.52302e-05
*RES
1 *1252:Y *538:6 10.2464 
2 *538:6 *538:8 0.428571 
3 *538:8 *1254:B 11.4964 
4 *538:8 *1253:B 10.675 
5 *538:6 *1261:A 20.55 
*END

*D_NET *539 0.000651703
*CONN
*I *1255:A I *D sky130_fd_sc_hd__nand2_1
*I *1253:Y O *D sky130_fd_sc_hd__nand2_1
*CAP
1 *1255:A 0.000183689
2 *1253:Y 0.000183689
3 *1255:A *1255:B 8.06427e-05
4 *1253:B *1255:A 2.44318e-05
5 *1254:B *1255:A 2.44318e-05
6 *1261:A *1255:A 5.5782e-05
7 *538:6 *1255:A 9.90367e-05
*RES
1 *1253:Y *1255:A 31.3143 
*END

*D_NET *540 0.000266603
*CONN
*I *1255:B I *D sky130_fd_sc_hd__nand2_1
*I *1254:Y O *D sky130_fd_sc_hd__nand2_1
*CAP
1 *1255:B 9.29804e-05
2 *1254:Y 9.29804e-05
3 *1255:A *1255:B 8.06427e-05
4 *1259:A *1255:B 0
*RES
1 *1254:Y *1255:B 29.5464 
*END

*D_NET *541 0.000405989
*CONN
*I *1258:A I *D sky130_fd_sc_hd__nand2_1
*I *1256:A I *D sky130_fd_sc_hd__nand2_1
*I *1255:Y O *D sky130_fd_sc_hd__nand2_1
*CAP
1 *1258:A 1.24159e-05
2 *1256:A 6.29126e-05
3 *1255:Y 4.34401e-05
4 *541:6 0.000118769
5 *1256:A *1258:B 1.04232e-05
6 *1256:A *1261:B 2.44318e-05
7 *1256:A *542:6 3.18676e-05
8 *1256:A *542:15 2.44318e-05
9 *1258:A *1258:B 5.7661e-06
10 *1258:A *1261:B 0
11 *541:6 *1261:B 5.17614e-05
12 *537:8 *1256:A 1.97695e-05
*RES
1 *1255:Y *541:6 10.2464 
2 *541:6 *1256:A 11.0857 
3 *541:6 *1258:A 9.72857 
*END

*D_NET *542 0.000992254
*CONN
*I *1261:B I *D sky130_fd_sc_hd__nand2_1
*I *1259:B I *D sky130_fd_sc_hd__nand2_1
*I *1258:B I *D sky130_fd_sc_hd__nand2_1
*I *1256:Y O *D sky130_fd_sc_hd__nand2_1
*CAP
1 *1261:B 9.97753e-05
2 *1259:B 0.000143402
3 *1258:B 1.79444e-05
4 *1256:Y 5.15924e-05
5 *542:15 0.000269341
6 *542:6 9.57004e-05
7 *1259:B *1260:A 2.10446e-05
8 *1261:B *1260:A 0.000144773
9 *1250:B *1258:B 0
10 *1256:A *1258:B 1.04232e-05
11 *1256:A *1261:B 2.44318e-05
12 *1256:A *542:6 3.18676e-05
13 *1256:A *542:15 2.44318e-05
14 *1258:A *1258:B 5.7661e-06
15 *1258:A *1261:B 0
16 *1259:A *1259:B 0
17 *541:6 *1261:B 5.17614e-05
*RES
1 *1256:Y *542:6 10.2464 
2 *542:6 *1258:B 9.72857 
3 *542:6 *542:15 0.535714 
4 *542:15 *1259:B 20.9071 
5 *542:15 *1261:B 11.9071 
*END

*D_NET *543 0.000562086
*CONN
*I *1260:A I *D sky130_fd_sc_hd__nand2_1
*I *1258:Y O *D sky130_fd_sc_hd__nand2_1
*CAP
1 *1260:A 0.000168969
2 *1258:Y 0.000168969
3 p[10] *1260:A 5.83304e-05
4 *1259:B *1260:A 2.10446e-05
5 *1261:B *1260:A 0.000144773
*RES
1 *1258:Y *1260:A 30.6 
*END

*D_NET *544 0.000181352
*CONN
*I *1260:B I *D sky130_fd_sc_hd__nand2_1
*I *1259:Y O *D sky130_fd_sc_hd__nand2_1
*CAP
1 *1260:B 9.06758e-05
2 *1259:Y 9.06758e-05
*RES
1 *1259:Y *1260:B 19.975 
*END

*D_NET *545 0.000665185
*CONN
*I *1266:B I *D sky130_fd_sc_hd__nand2_1
*I *1269:A I *D sky130_fd_sc_hd__nand2_1
*I *1261:Y O *D sky130_fd_sc_hd__nand2_1
*CAP
1 *1266:B 7.14075e-05
2 *1269:A 1.60352e-05
3 *1261:Y 0.000211237
4 *545:6 0.000298679
5 *1266:B *1266:A 1.97695e-05
6 *1266:B *1269:B 4.22908e-05
7 *1269:A *1269:B 5.7661e-06
*RES
1 *1261:Y *545:6 12.7107 
2 *545:6 *1269:A 9.72857 
3 *545:6 *1266:B 11.0857 
*END

*D_NET *546 0.000211186
*CONN
*I *1113:A I *D sky130_fd_sc_hd__inv_1
*I *1102:Y O *D sky130_fd_sc_hd__nand2_1
*CAP
1 *1113:A 6.50181e-05
2 *1102:Y 6.50181e-05
3 *1113:A *895:B 7.17133e-06
4 *1113:A *897:A 2.23027e-05
5 *1102:A *1113:A 1.02301e-05
6 *5:45 *1113:A 1.52013e-05
7 *5:56 *1113:A 2.27495e-05
8 *190:8 *1113:A 3.49456e-06
*RES
1 *1102:Y *1113:A 20.2563 
*END

*D_NET *547 0.000785072
*CONN
*I *1271:A I *D sky130_fd_sc_hd__nand2_1
*I *1263:B I *D sky130_fd_sc_hd__nand2_1
*I *1264:B I *D sky130_fd_sc_hd__nand2_1
*I *1262:Y O *D sky130_fd_sc_hd__nand2_1
*CAP
1 *1271:A 0.000126571
2 *1263:B 4.35716e-05
3 *1264:B 5.80244e-05
4 *1262:Y 0
5 *547:15 0.000208658
6 *547:4 9.65397e-05
7 *1264:B *1265:A 7.43578e-06
8 *1264:B *1265:B 7.43578e-06
9 *1271:A *1265:A 5.5782e-05
10 *547:15 *1265:A 7.77652e-05
11 *1262:B *1263:B 0
12 *1262:B *1264:B 4.80569e-05
13 *1263:A *547:15 5.52302e-05
*RES
1 *1262:Y *547:4 9.3 
2 *547:4 *1264:B 10.675 
3 *547:4 *547:15 1.35714 
4 *547:15 *1263:B 10.2643 
5 *547:15 *1271:A 20.8536 
*END

*D_NET *548 0.000544117
*CONN
*I *1265:A I *D sky130_fd_sc_hd__nand2_1
*I *1263:Y O *D sky130_fd_sc_hd__nand2_1
*CAP
1 *1265:A 0.000162399
2 *1263:Y 0.000162399
3 *1265:A *1265:B 7.83366e-05
4 *1264:B *1265:A 7.43578e-06
5 *1271:A *1265:A 5.5782e-05
6 *547:15 *1265:A 7.77652e-05
*RES
1 *1263:Y *1265:A 30.9036 
*END

*D_NET *549 0.000373944
*CONN
*I *1265:B I *D sky130_fd_sc_hd__nand2_1
*I *1264:Y O *D sky130_fd_sc_hd__nand2_1
*CAP
1 *1265:B 0.000137458
2 *1264:Y 0.000137458
3 *1262:B *1265:B 1.32552e-05
4 *1264:B *1265:B 7.43578e-06
5 *1265:A *1265:B 7.83366e-05
*RES
1 *1264:Y *1265:B 30.0821 
*END

*D_NET *550 0.000405989
*CONN
*I *1267:A I *D sky130_fd_sc_hd__nand2_1
*I *1266:A I *D sky130_fd_sc_hd__nand2_1
*I *1265:Y O *D sky130_fd_sc_hd__nand2_1
*CAP
1 *1267:A 1.24159e-05
2 *1266:A 6.29126e-05
3 *1265:Y 4.34401e-05
4 *550:6 0.000118769
5 *1266:A *1267:B 1.04232e-05
6 *1266:A *1271:B 4.88637e-05
7 *1266:A *551:15 3.18676e-05
8 *1267:A *1267:B 5.7661e-06
9 *1267:A *1271:B 0
10 *550:6 *1271:B 5.17614e-05
11 *1266:B *1266:A 1.97695e-05
*RES
1 *1265:Y *550:6 10.2464 
2 *550:6 *1266:A 11.0857 
3 *550:6 *1267:A 9.72857 
*END

*D_NET *551 0.000773475
*CONN
*I *1271:B I *D sky130_fd_sc_hd__nand2_1
*I *1267:B I *D sky130_fd_sc_hd__nand2_1
*I *1269:B I *D sky130_fd_sc_hd__nand2_1
*I *1266:Y O *D sky130_fd_sc_hd__nand2_1
*CAP
1 *1271:B 0.000160549
2 *1267:B 1.00162e-05
3 *1269:B 6.95368e-05
4 *1266:Y 0
5 *551:15 0.000218832
6 *551:4 0.000117803
7 *1266:A *1267:B 1.04232e-05
8 *1266:A *1271:B 4.88637e-05
9 *1266:A *551:15 3.18676e-05
10 *1266:B *1269:B 4.22908e-05
11 *1267:A *1267:B 5.7661e-06
12 *1267:A *1271:B 0
13 *1269:A *1269:B 5.7661e-06
14 *550:6 *1271:B 5.17614e-05
*RES
1 *1266:Y *551:4 9.3 
2 *551:4 *1269:B 10.675 
3 *551:4 *551:15 0.946429 
4 *551:15 *1267:B 9.72857 
5 *551:15 *1271:B 12.3179 
*END

*D_NET *552 0.000307
*CONN
*I *1270:A I *D sky130_fd_sc_hd__nand2_1
*I *1267:Y O *D sky130_fd_sc_hd__nand2_1
*CAP
1 *1270:A 0.000124338
2 *1267:Y 0.000124338
3 *1270:A *1270:B 0
4 p[11] *1270:A 5.83233e-05
*RES
1 *1267:Y *1270:A 29.7786 
*END

*D_NET *553 0.000514526
*CONN
*I *1270:B I *D sky130_fd_sc_hd__nand2_1
*I *1269:Y O *D sky130_fd_sc_hd__nand2_1
*CAP
1 *1270:B 0.000257263
2 *1269:Y 0.000257263
3 p[10] *1270:B 0
4 *1270:A *1270:B 0
*RES
1 *1269:Y *1270:B 31.8321 
*END

*D_NET *554 0.000815935
*CONN
*I *1276:B I *D sky130_fd_sc_hd__nand2_1
*I *1278:A I *D sky130_fd_sc_hd__nand2_1
*I *1271:Y O *D sky130_fd_sc_hd__nand2_1
*CAP
1 *1276:B 8.02357e-05
2 *1278:A 1.60352e-05
3 *1271:Y 0.00027895
4 *554:6 0.000375221
5 *1276:B *1277:B 0
6 *1276:B *1278:B 4.22908e-05
7 *1276:B *1280:B 1.74352e-05
8 *1278:A *1278:B 5.7661e-06
*RES
1 *1271:Y *554:6 13.5321 
2 *554:6 *1278:A 9.72857 
3 *554:6 *1276:B 11.0857 
*END

*D_NET *555 0.00111653
*CONN
*I *1281:A I *D sky130_fd_sc_hd__nand2_1
*I *1273:B I *D sky130_fd_sc_hd__nand2_1
*I *1274:B I *D sky130_fd_sc_hd__nand2_1
*I *1272:Y O *D sky130_fd_sc_hd__nand2_1
*CAP
1 *1281:A 0.000273489
2 *1273:B 0
3 *1274:B 3.52147e-05
4 *1272:Y 0
5 *555:17 0.000343693
6 *555:4 0.000105419
7 *1274:B *1275:A 0.000110665
8 *1281:A *1289:A 0
9 *1281:A *559:12 0
10 *555:17 *1275:A 0.000144773
11 *1272:A *555:17 5.52238e-05
12 *1272:B *1274:B 4.80569e-05
13 *1272:B *555:17 0
14 *10:5 *1281:A 0
*RES
1 *1272:Y *555:4 9.3 
2 *555:4 *1274:B 10.675 
3 *555:4 *555:17 2.19643 
4 *555:17 *1273:B 9.3 
5 *555:17 *1281:A 22.925 
*END

*D_NET *556 0.000776422
*CONN
*I *895:B I *D sky130_fd_sc_hd__nand2_1
*I *897:A I *D sky130_fd_sc_hd__nand2_1
*I *1113:Y O *D sky130_fd_sc_hd__inv_1
*CAP
1 *895:B 0.000111279
2 *897:A 0.000112491
3 *1113:Y 0
4 *556:4 0.00022377
5 *896:A *895:B 4.68028e-05
6 *898:A *895:B 5.66971e-05
7 *1113:A *895:B 7.17133e-06
8 *1113:A *897:A 2.23027e-05
9 *5:56 *895:B 5.82717e-06
10 *5:56 *897:A 3.53022e-06
11 *16:47 *897:A 4.26814e-05
12 *190:8 *895:B 2.74737e-05
13 *190:14 *895:B 5.50052e-05
14 *190:14 *897:A 6.13903e-05
*RES
1 *1113:Y *556:4 9.3 
2 *556:4 *897:A 20.6839 
3 *556:4 *895:B 12.1304 
*END

*D_NET *557 0.000758121
*CONN
*I *1275:A I *D sky130_fd_sc_hd__nand2_1
*I *1273:Y O *D sky130_fd_sc_hd__nand2_1
*CAP
1 *1275:A 0.000149392
2 *1273:Y 0.000149392
3 *1275:A *1275:B 1.72833e-05
4 *1275:A *559:12 0.000144773
5 *1272:B *1275:A 4.18425e-05
6 *1274:B *1275:A 0.000110665
7 *555:17 *1275:A 0.000144773
*RES
1 *1273:Y *1275:A 22.7429 
*END

*D_NET *558 0.000329146
*CONN
*I *1275:B I *D sky130_fd_sc_hd__nand2_1
*I *1274:Y O *D sky130_fd_sc_hd__nand2_1
*CAP
1 *1275:B 0.000142261
2 *1274:Y 0.000142261
3 *1275:B *559:12 5.19842e-06
4 *1272:B *1275:B 2.21417e-05
5 *1275:A *1275:B 1.72833e-05
*RES
1 *1274:Y *1275:B 20.6893 
*END

*D_NET *559 0.000842713
*CONN
*I *1277:A I *D sky130_fd_sc_hd__nand2_1
*I *1276:A I *D sky130_fd_sc_hd__nand2_1
*I *1275:Y O *D sky130_fd_sc_hd__nand2_1
*CAP
1 *1277:A 1.99167e-05
2 *1276:A 0
3 *1275:Y 0.000250261
4 *559:12 0.000270177
5 *1277:A *1280:B 5.33433e-05
6 *1277:A *560:20 9.90431e-05
7 *1275:A *559:12 0.000144773
8 *1275:B *559:12 5.19842e-06
9 *1281:A *559:12 0
*RES
1 *1275:Y *559:12 22.0143 
2 *559:12 *1276:A 9.3 
3 *559:12 *1277:A 10.2464 
*END

*D_NET *560 0.000989222
*CONN
*I *1281:B I *D sky130_fd_sc_hd__nand2_1
*I *1277:B I *D sky130_fd_sc_hd__nand2_1
*I *1278:B I *D sky130_fd_sc_hd__nand2_1
*I *1276:Y O *D sky130_fd_sc_hd__nand2_1
*CAP
1 *1281:B 8.51073e-05
2 *1277:B 1.99857e-05
3 *1278:B 3.70806e-05
4 *1276:Y 9.73141e-05
5 *560:20 0.000165327
6 *1277:B *1280:A 1.04232e-05
7 *1278:B *1280:B 0.00010096
8 *1281:B *1280:A 2.44318e-05
9 *1281:B *1280:B 4.52936e-05
10 *1281:B *1289:B 0
11 *560:20 *1280:A 3.18676e-05
12 *560:20 *1280:B 2.2411e-05
13 p[12] *1281:B 5.71472e-05
14 p[12] *560:20 0.000144773
15 *1276:B *1277:B 0
16 *1276:B *1278:B 4.22908e-05
17 *1277:A *560:20 9.90431e-05
18 *1278:A *1278:B 5.7661e-06
*RES
1 *1276:Y *1278:B 19.975 
2 *1276:Y *560:20 11.4786 
3 *560:20 *1277:B 9.72857 
4 *560:20 *1281:B 11.4964 
*END

*D_NET *561 0.00024053
*CONN
*I *1280:A I *D sky130_fd_sc_hd__nand2_1
*I *1277:Y O *D sky130_fd_sc_hd__nand2_1
*CAP
1 *1280:A 2.6539e-05
2 *1277:Y 2.6539e-05
3 *1280:A *1280:B 0.00012073
4 *1277:B *1280:A 1.04232e-05
5 *1281:B *1280:A 2.44318e-05
6 *560:20 *1280:A 3.18676e-05
*RES
1 *1277:Y *1280:A 19.975 
*END

*D_NET *562 0.000866615
*CONN
*I *1280:B I *D sky130_fd_sc_hd__nand2_1
*I *1278:Y O *D sky130_fd_sc_hd__nand2_1
*CAP
1 *1280:B 0.000253221
2 *1278:Y 0.000253221
3 *1276:B *1280:B 1.74352e-05
4 *1277:A *1280:B 5.33433e-05
5 *1278:B *1280:B 0.00010096
6 *1280:A *1280:B 0.00012073
7 *1281:B *1280:B 4.52936e-05
8 *560:20 *1280:B 2.2411e-05
*RES
1 *1278:Y *1280:B 23.975 
*END

*D_NET *563 0.000681412
*CONN
*I *1286:B I *D sky130_fd_sc_hd__nand2_1
*I *1288:A I *D sky130_fd_sc_hd__nand2_1
*I *1281:Y O *D sky130_fd_sc_hd__nand2_1
*CAP
1 *1286:B 8.259e-05
2 *1288:A 1.4261e-05
3 *1281:Y 0.000160272
4 *563:6 0.000257123
5 *1286:B *1288:B 3.93346e-05
6 *1286:B *1289:B 2.89016e-05
7 *1286:B *1291:B 0
8 *1288:A *1288:B 5.7661e-06
9 *1288:A *1289:B 3.99614e-06
10 *563:6 *1289:B 8.07313e-05
11 p[13] *1286:B 8.43535e-06
*RES
1 *1281:Y *563:6 12.3 
2 *563:6 *1288:A 9.72857 
3 *563:6 *1286:B 11.0857 
*END

*D_NET *564 0.000899382
*CONN
*I *1291:A I *D sky130_fd_sc_hd__nand2_1
*I *1283:B I *D sky130_fd_sc_hd__nand2_1
*I *1284:B I *D sky130_fd_sc_hd__nand2_1
*I *1282:Y O *D sky130_fd_sc_hd__nand2_1
*CAP
1 *1291:A 0.000120107
2 *1283:B 7.37038e-05
3 *1284:B 4.04644e-05
4 *1282:Y 0.000120107
5 *564:4 0.000114168
6 *1283:B *1285:A 0.000144773
7 *1284:B *1285:A 0.000110665
8 *1291:A *568:10 5.5782e-05
9 *1291:A *572:12 1.92905e-05
10 *1283:A *1283:B 5.52302e-05
11 *1284:A *1283:B 0
12 *1284:A *1284:B 4.50908e-05
*RES
1 *1282:Y *564:4 9.3 
2 *564:4 *1284:B 10.675 
3 *564:4 *1283:B 11.4964 
4 *1282:Y *1291:A 30.0821 
*END

*D_NET *565 0.000732738
*CONN
*I *1285:A I *D sky130_fd_sc_hd__nand2_1
*I *1283:Y O *D sky130_fd_sc_hd__nand2_1
*CAP
1 *1285:A 0.000156013
2 *1283:Y 0.000156013
3 *1285:A *1285:B 1.90213e-05
4 *1285:A *568:10 0.00010096
5 *1283:B *1285:A 0.000144773
6 *1284:A *1285:A 4.52936e-05
7 *1284:B *1285:A 0.000110665
*RES
1 *1283:Y *1285:A 22.7429 
*END

*D_NET *566 0.000640933
*CONN
*I *1135:A I *D sky130_fd_sc_hd__inv_1
*I *1124:Y O *D sky130_fd_sc_hd__nand2_1
*CAP
1 *1135:A 0.000303026
2 *1124:Y 0.000303026
3 *1146:A *1135:A 1.32293e-05
4 *5:56 *1135:A 2.1652e-05
*RES
1 *1124:Y *1135:A 31.7027 
*END

*D_NET *567 0.00034562
*CONN
*I *1285:B I *D sky130_fd_sc_hd__nand2_1
*I *1284:Y O *D sky130_fd_sc_hd__nand2_1
*CAP
1 *1285:B 0.000149873
2 *1284:Y 0.000149873
3 *1285:B *568:10 3.81416e-06
4 *1284:A *1285:B 2.30392e-05
5 *1285:A *1285:B 1.90213e-05
*RES
1 *1284:Y *1285:B 20.6893 
*END

*D_NET *568 0.00103175
*CONN
*I *1286:A I *D sky130_fd_sc_hd__nand2_1
*I *1287:A I *D sky130_fd_sc_hd__nand2_1
*I *1285:Y O *D sky130_fd_sc_hd__nand2_1
*CAP
1 *1286:A 0
2 *1287:A 0.000105318
3 *1285:Y 0.000167465
4 *568:10 0.000272783
5 *1287:A *1287:B 0.000127439
6 p[13] *1287:A 0.000125724
7 *1285:A *568:10 0.00010096
8 *1285:B *568:10 3.81416e-06
9 *1291:A *568:10 5.5782e-05
10 *9:9 *1287:A 2.39779e-05
11 *9:9 *568:10 4.84853e-05
*RES
1 *1285:Y *568:10 17.1036 
2 *568:10 *1287:A 16.5857 
3 *568:10 *1286:A 13.8 
*END

*D_NET *569 0.000811301
*CONN
*I *1287:B I *D sky130_fd_sc_hd__nand2_1
*I *1291:B I *D sky130_fd_sc_hd__nand2_1
*I *1288:B I *D sky130_fd_sc_hd__nand2_1
*I *1286:Y O *D sky130_fd_sc_hd__nand2_1
*CAP
1 *1287:B 0.000110642
2 *1291:B 7.40946e-05
3 *1288:B 8.99494e-05
4 *1286:Y 0
5 *569:6 0.000181123
6 *569:4 0.000127722
7 *1288:B *1289:B 0
8 p[13] *1288:B 5.52302e-05
9 *1286:B *1288:B 3.93346e-05
10 *1286:B *1291:B 0
11 *1287:A *1287:B 0.000127439
12 *1288:A *1288:B 5.7661e-06
*RES
1 *1286:Y *569:4 9.3 
2 *569:4 *569:6 0.428571 
3 *569:6 *1288:B 11.0857 
4 *569:6 *1291:B 10.675 
5 *569:4 *1287:B 20.4786 
*END

*D_NET *570 0.000673034
*CONN
*I *1289:A I *D sky130_fd_sc_hd__nand2_1
*I *1287:Y O *D sky130_fd_sc_hd__nand2_1
*CAP
1 *1289:A 0.000306043
2 *1287:Y 0.000306043
3 *1281:A *1289:A 0
4 *10:5 *1289:A 6.09476e-05
*RES
1 *1287:Y *1289:A 31.4214 
*END

*D_NET *571 0.000378265
*CONN
*I *1289:B I *D sky130_fd_sc_hd__nand2_1
*I *1288:Y O *D sky130_fd_sc_hd__nand2_1
*CAP
1 *1289:B 8.37582e-05
2 *1288:Y 8.37582e-05
3 p[13] *1289:B 9.71197e-05
4 *1281:B *1289:B 0
5 *1286:B *1289:B 2.89016e-05
6 *1288:A *1289:B 3.99614e-06
7 *1288:B *1289:B 0
8 *563:6 *1289:B 8.07313e-05
*RES
1 *1288:Y *1289:B 20.7964 
*END

*D_NET *572 0.0017763
*CONN
*I *1296:B I *D sky130_fd_sc_hd__nand2_1
*I *1298:A I *D sky130_fd_sc_hd__nand2_1
*I *1291:Y O *D sky130_fd_sc_hd__nand2_1
*CAP
1 *1296:B 7.09473e-05
2 *1298:A 0
3 *1291:Y 0.000723162
4 *572:12 0.00079411
5 *1296:B *1296:A 1.97695e-05
6 *1296:B *1298:B 4.80569e-05
7 *1296:B *1299:B 0.00010096
8 *572:12 *1299:B 0
9 *572:12 *1300:A 0
10 *1291:A *572:12 1.92905e-05
*RES
1 *1291:Y *572:12 27.8357 
2 *572:12 *1298:A 9.3 
3 *572:12 *1296:B 11.5143 
*END

*D_NET *573 0.00105893
*CONN
*I *1300:A I *D sky130_fd_sc_hd__nand2_1
*I *1293:B I *D sky130_fd_sc_hd__nand2_1
*I *1294:B I *D sky130_fd_sc_hd__nand2_1
*I *1292:Y O *D sky130_fd_sc_hd__nand2_1
*CAP
1 *1300:A 9.62574e-05
2 *1293:B 0.000118899
3 *1294:B 0.000101437
4 *1292:Y 0.000205228
5 *573:22 0.000318948
6 *1293:B *577:10 2.8266e-06
7 *1294:B *1295:B 4.72917e-05
8 *1300:A *577:10 4.41105e-05
9 *573:22 *1295:A 6.05161e-06
10 *573:22 *1295:B 1.6704e-05
11 p[15] *1300:A 2.22043e-05
12 *1293:A *573:22 1.92905e-05
13 *1294:A *1294:B 5.52238e-05
14 *514:12 *1293:B 4.46186e-06
15 *572:12 *1300:A 0
*RES
1 *1292:Y *1294:B 20.7964 
2 *1292:Y *573:22 15.1571 
3 *573:22 *1293:B 15.3714 
4 *573:22 *1300:A 15.7464 
*END

*D_NET *574 0.000184831
*CONN
*I *1295:A I *D sky130_fd_sc_hd__nand2_1
*I *1293:Y O *D sky130_fd_sc_hd__nand2_1
*CAP
1 *1295:A 5.83567e-05
2 *1293:Y 5.83567e-05
3 *1295:A *1295:B 6.20656e-05
4 *573:22 *1295:A 6.05161e-06
*RES
1 *1293:Y *1295:A 19.975 
*END

*D_NET *575 0.000733227
*CONN
*I *1295:B I *D sky130_fd_sc_hd__nand2_1
*I *1294:Y O *D sky130_fd_sc_hd__nand2_1
*CAP
1 *1295:B 0.000248356
2 *1294:Y 0.000248356
3 *1293:A *1295:B 5.52302e-05
4 *1294:A *1295:B 5.52238e-05
5 *1294:B *1295:B 4.72917e-05
6 *1295:A *1295:B 6.20656e-05
7 *573:22 *1295:B 1.6704e-05
*RES
1 *1294:Y *1295:B 23.2607 
*END

*D_NET *576 0.000552478
*CONN
*I *907:A I *D sky130_fd_sc_hd__nand2_1
*I *905:B I *D sky130_fd_sc_hd__nand2_1
*I *1135:Y O *D sky130_fd_sc_hd__inv_1
*CAP
1 *907:A 0
2 *905:B 0.000165772
3 *1135:Y 3.94025e-05
4 *576:6 0.000205174
5 *906:A *905:B 4.4226e-05
6 *907:B *905:B 5.66971e-05
7 *908:B *905:B 1.16543e-05
8 *200:6 *905:B 2.60585e-05
9 *200:21 *905:B 3.49456e-06
*RES
1 *1135:Y *576:6 10.0411 
2 *576:6 *905:B 12.7464 
3 *576:6 *907:A 9.3 
*END

*D_NET *577 0.000692817
*CONN
*I *1296:A I *D sky130_fd_sc_hd__nand2_1
*I *1297:A I *D sky130_fd_sc_hd__nand2_1
*I *1295:Y O *D sky130_fd_sc_hd__nand2_1
*CAP
1 *1296:A 9.92261e-05
2 *1297:A 0
3 *1295:Y 0.000117814
4 *577:10 0.00021704
5 *1296:A *1297:B 3.46677e-05
6 *1296:A *1299:B 5.71472e-05
7 *1296:A *1300:B 1.44193e-05
8 *1296:A *578:15 7.61932e-05
9 p[15] *577:10 9.60337e-06
10 *1293:B *577:10 2.8266e-06
11 *1296:B *1296:A 1.97695e-05
12 *1300:A *577:10 4.41105e-05
*RES
1 *1295:Y *577:10 20.2464 
2 *577:10 *1297:A 9.3 
3 *577:10 *1296:A 11.925 
*END

*D_NET *578 0.000663017
*CONN
*I *1297:B I *D sky130_fd_sc_hd__nand2_1
*I *1300:B I *D sky130_fd_sc_hd__nand2_1
*I *1298:B I *D sky130_fd_sc_hd__nand2_1
*I *1296:Y O *D sky130_fd_sc_hd__nand2_1
*CAP
1 *1297:B 8.78793e-05
2 *1300:B 5.97445e-06
3 *1298:B 5.65252e-05
4 *1296:Y 0
5 *578:15 0.000170879
6 *578:4 0.000133551
7 *1298:B *1299:B 1.74352e-05
8 *578:15 *1299:B 1.74352e-05
9 *1296:A *1297:B 3.46677e-05
10 *1296:A *1300:B 1.44193e-05
11 *1296:A *578:15 7.61932e-05
12 *1296:B *1298:B 4.80569e-05
*RES
1 *1296:Y *578:4 9.3 
2 *578:4 *1298:B 10.675 
3 *578:4 *578:15 1.76786 
4 *578:15 *1300:B 9.72857 
5 *578:15 *1297:B 11.0857 
*END

*D_NET *579 0.000295542
*CONN
*I *1299:A I *D sky130_fd_sc_hd__nand2_1
*I *1297:Y O *D sky130_fd_sc_hd__nand2_1
*CAP
1 *1299:A 0.000118844
2 *1297:Y 0.000118844
3 *1299:A *1299:B 3.72365e-05
4 p[14] *1299:A 2.06178e-05
*RES
1 *1297:Y *1299:A 29.7786 
*END

*D_NET *580 0.000687082
*CONN
*I *1299:B I *D sky130_fd_sc_hd__nand2_1
*I *1298:Y O *D sky130_fd_sc_hd__nand2_1
*CAP
1 *1299:B 0.000222336
2 *1298:Y 0.000222336
3 p[14] *1299:B 1.21955e-05
4 *1296:A *1299:B 5.71472e-05
5 *1296:B *1299:B 0.00010096
6 *1298:B *1299:B 1.74352e-05
7 *1299:A *1299:B 3.72365e-05
8 *572:12 *1299:B 0
9 *578:15 *1299:B 1.74352e-05
*RES
1 *1298:Y *1299:B 31.4214 
*END

*D_NET *581 0.000257512
*CONN
*I *1157:A I *D sky130_fd_sc_hd__inv_1
*I *1146:Y O *D sky130_fd_sc_hd__nand2_1
*CAP
1 *1157:A 0.00012182
2 *1146:Y 0.00012182
3 *1157:A *915:B 0
4 *1157:A *917:A 1.10952e-05
5 *1146:A *1157:A 2.77809e-06
*RES
1 *1146:Y *1157:A 20.667 
*END

*D_NET *582 0.000661377
*CONN
*I *915:B I *D sky130_fd_sc_hd__nand2_1
*I *917:A I *D sky130_fd_sc_hd__nand2_1
*I *1157:Y O *D sky130_fd_sc_hd__inv_1
*CAP
1 *915:B 0.00011339
2 *917:A 0.000135531
3 *1157:Y 0
4 *582:4 0.000248921
5 *1157:A *915:B 0
6 *1157:A *917:A 1.10952e-05
7 *18:50 *917:A 0.00015244
*RES
1 *1157:Y *582:4 9.3 
2 *582:4 *917:A 20.9875 
3 *582:4 *915:B 11.0768 
*END

*D_NET *583 0.000519628
*CONN
*I *1179:A I *D sky130_fd_sc_hd__inv_1
*I *1168:Y O *D sky130_fd_sc_hd__nand2_1
*CAP
1 *1179:A 0.000236978
2 *1168:Y 0.000236978
3 *927:B *1179:A 4.27842e-06
4 *929:A *1179:A 0
5 *1168:A *1179:A 1.90936e-05
6 *11:29 *1179:A 2.22999e-05
*RES
1 *1168:Y *1179:A 30.7295 
*END

*D_NET *584 0.00151093
*CONN
*I *925:B I *D sky130_fd_sc_hd__nand2_1
*I *927:A I *D sky130_fd_sc_hd__nand2_1
*I *1179:Y O *D sky130_fd_sc_hd__inv_1
*CAP
1 *925:B 0.00027621
2 *927:A 0
3 *1179:Y 0.000200016
4 *584:14 0.000476226
5 *863:B *925:B 2.53112e-06
6 *927:B *584:14 0.000126409
7 *928:A *925:B 7.73303e-05
8 *928:A *584:14 3.69047e-06
9 *928:B *925:B 0.000171798
10 *928:B *584:14 7.25873e-06
11 *159:10 *925:B 0.000157711
12 *220:10 *925:B 3.49456e-06
13 *220:10 *584:14 8.25843e-06
*RES
1 *1179:Y *584:14 21.6304 
2 *584:14 *927:A 9.3 
3 *584:14 *925:B 24.6214 
*END

*D_NET *585 0.00130916
*CONN
*I *1202:A I *D sky130_fd_sc_hd__inv_1
*I *1191:Y O *D sky130_fd_sc_hd__nand2_1
*CAP
1 *1202:A 0.000432252
2 *1191:Y 0.000432252
3 *6:28 *1202:A 3.11088e-05
4 *6:36 *1202:A 2.04265e-05
5 *13:83 *1202:A 8.45364e-05
6 *168:16 *1202:A 0.000308589
*RES
1 *1191:Y *1202:A 36.3098 
*END

*D_NET *586 0.000899347
*CONN
*I *930:B I *D sky130_fd_sc_hd__nand2_1
*I *932:A I *D sky130_fd_sc_hd__nand2_1
*I *1202:Y O *D sky130_fd_sc_hd__inv_1
*CAP
1 *930:B 2.0258e-05
2 *932:A 8.76255e-05
3 *1202:Y 1.46205e-05
4 *586:6 0.000122504
5 *931:A *932:A 5.71472e-05
6 *932:B *932:A 0.000222399
7 *933:A *932:A 5.17614e-05
8 *933:B *932:A 4.22908e-05
9 *6:36 *932:A 0.000120893
10 *6:36 *586:6 3.4224e-05
11 *168:16 *930:B 5.7661e-06
12 *168:16 *932:A 4.75955e-05
13 *168:16 *586:6 4.26986e-05
14 *225:8 *932:A 1.21289e-05
15 *228:14 *932:A 1.74352e-05
*RES
1 *1202:Y *586:6 10.0411 
2 *586:6 *932:A 13.55 
3 *586:6 *930:B 9.72857 
*END

*D_NET *587 0.00024969
*CONN
*I *1224:A I *D sky130_fd_sc_hd__inv_1
*I *1213:Y O *D sky130_fd_sc_hd__nand2_1
*CAP
1 *1224:A 4.08119e-05
2 *1213:Y 4.08119e-05
3 *941:B *1224:A 1.17091e-05
4 *943:A *1224:A 0.000108988
5 *1213:A *1224:A 1.02132e-05
6 *6:36 *1224:A 1.48543e-05
7 *6:45 *1224:A 2.23019e-05
*RES
1 *1213:Y *1224:A 20.2563 
*END

*D_NET *588 0.000856355
*CONN
*I *940:B I *D sky130_fd_sc_hd__nand2_1
*I *942:A I *D sky130_fd_sc_hd__nand2_1
*I *1224:Y O *D sky130_fd_sc_hd__inv_1
*CAP
1 *940:B 4.1306e-05
2 *942:A 0.000159952
3 *1224:Y 2.11622e-05
4 *588:6 0.00022242
5 *941:B *940:B 4.4173e-05
6 *941:B *588:6 2.27416e-05
7 *943:A *588:6 1.77359e-05
8 *956:A *942:A 5.59013e-05
9 *6:45 *940:B 8.76257e-05
10 *6:45 *588:6 0.00012238
11 *168:16 *942:A 0
12 *178:10 *942:A 0
13 *235:23 *942:A 6.09572e-05
*RES
1 *1224:Y *588:6 10.4518 
2 *588:6 *942:A 21.2821 
3 *588:6 *940:B 10.9786 
*END

*D_NET *589 0.00024365
*CONN
*I *1246:A I *D sky130_fd_sc_hd__inv_1
*I *1235:Y O *D sky130_fd_sc_hd__nand2_1
*CAP
1 *1246:A 6.82838e-05
2 *1235:Y 6.82838e-05
3 *951:B *1246:A 1.06722e-05
4 *953:A *1246:A 6.29465e-05
5 *1235:A *1246:A 0
6 *6:56 *1246:A 3.34639e-05
*RES
1 *1235:Y *1246:A 20.2563 
*END

*D_NET *590 0.000824148
*CONN
*I *950:B I *D sky130_fd_sc_hd__nand2_1
*I *952:A I *D sky130_fd_sc_hd__nand2_1
*I *1246:Y O *D sky130_fd_sc_hd__inv_1
*CAP
1 *950:B 0
2 *952:A 0.00015485
3 *1246:Y 6.20189e-05
4 *590:8 0.000216869
5 *950:A *952:A 5.80706e-06
6 *951:A *952:A 1.02504e-05
7 *951:B *590:8 8.01893e-05
8 *953:A *590:8 2.61528e-05
9 *6:56 *590:8 0.000117379
10 *14:59 *952:A 0
11 *244:19 *952:A 0.000150632
*RES
1 *1246:Y *590:8 11.7018 
2 *590:8 *952:A 21.0857 
3 *590:8 *950:B 9.3 
*END

*D_NET *591 0.000828679
*CONN
*I *1268:A I *D sky130_fd_sc_hd__inv_1
*I *1257:Y O *D sky130_fd_sc_hd__nand2_1
*CAP
1 *1268:A 0.00023529
2 *1257:Y 0.00023529
3 *1268:A *960:B 2.54619e-05
4 *1268:A *592:6 7.90536e-05
5 *950:A *1268:A 0
6 *1257:A *1268:A 0.000126439
7 *6:56 *1268:A 0.000102197
8 *15:51 *1268:A 2.49484e-05
9 *188:10 *1268:A 0
10 *254:8 *1268:A 0
*RES
1 *1257:Y *1268:A 33.2741 
*END

*D_NET *592 0.000712523
*CONN
*I *960:B I *D sky130_fd_sc_hd__nand2_1
*I *962:A I *D sky130_fd_sc_hd__nand2_1
*I *1268:Y O *D sky130_fd_sc_hd__inv_1
*CAP
1 *960:B 0.000142229
2 *962:A 0
3 *1268:Y 2.45059e-05
4 *592:6 0.000166735
5 *961:A *960:B 4.80569e-05
6 *962:B *960:B 5.52238e-05
7 *963:A *960:B 9.60875e-05
8 *970:A *960:B 5.33005e-05
9 *1268:A *960:B 2.54619e-05
10 *1268:A *592:6 7.90536e-05
11 *6:56 *960:B 5.74499e-06
12 *254:8 *960:B 1.6125e-05
*RES
1 *1268:Y *592:6 10.0411 
2 *592:6 *962:A 9.3 
3 *592:6 *960:B 12.7464 
*END

*D_NET *593 0.00026463
*CONN
*I *1290:A I *D sky130_fd_sc_hd__inv_1
*I *1279:Y O *D sky130_fd_sc_hd__nand2_1
*CAP
1 *1290:A 3.32791e-05
2 *1279:Y 3.32791e-05
3 *1279:A *1290:A 1.04232e-05
4 *6:71 *1290:A 1.32552e-05
5 *6:82 *1290:A 5.44341e-05
6 *16:64 *1290:A 0.00011996
*RES
1 *1279:Y *1290:A 20.2563 
*END

*D_NET *594 0.000548022
*CONN
*I *971:B I *D sky130_fd_sc_hd__nand2_1
*I *973:A I *D sky130_fd_sc_hd__nand2_1
*I *1290:Y O *D sky130_fd_sc_hd__inv_1
*CAP
1 *971:B 1.06454e-05
2 *973:A 0.000120418
3 *1290:Y 8.45168e-06
4 *594:6 0.000139516
5 *972:A *973:A 1.40849e-05
6 *979:B *973:A 4.1331e-06
7 *6:82 *971:B 4.38128e-05
8 *6:82 *594:6 3.52408e-05
9 *16:64 *971:B 2.89114e-05
10 *16:64 *973:A 0.000123295
11 *16:64 *594:6 1.66856e-05
12 *208:10 *973:A 2.8266e-06
*RES
1 *1290:Y *594:6 9.63036 
2 *594:6 *973:A 20.55 
3 *594:6 *971:B 9.83571 
*END

*D_NET *595 0.000463248
*CONN
*I *1303:A I *D sky130_fd_sc_hd__inv_1
*I *1302:Y O *D sky130_fd_sc_hd__nand2_1
*CAP
1 *1303:A 0.000182675
2 *1302:Y 0.000182675
3 *1303:A *981:B 0
4 *972:A *1303:A 0
5 *986:A *1303:A 0
6 *987:A *1303:A 0
7 *1304:A *1303:A 1.33343e-05
8 *6:82 *1303:A 1.74352e-05
9 *277:8 *1303:A 6.71295e-05
*RES
1 *1302:Y *1303:A 30.4259 
*END

*D_NET *596 0.00076196
*CONN
*I *983:A I *D sky130_fd_sc_hd__nand2_1
*I *981:B I *D sky130_fd_sc_hd__nand2_1
*I *1303:Y O *D sky130_fd_sc_hd__inv_1
*CAP
1 *983:A 0
2 *981:B 0.00013519
3 *1303:Y 0.000128452
4 *596:12 0.000263642
5 *984:A *596:12 9.22103e-06
6 *984:B *596:12 3.93247e-05
7 *1303:A *981:B 0
8 *17:61 *981:B 0
9 *274:8 *981:B 6.32633e-05
10 *277:8 *596:12 0.000122866
*RES
1 *1303:Y *596:12 12.2554 
2 *596:12 *981:B 20.55 
3 *596:12 *983:A 9.3 
*END

*D_NET *597 0.000588449
*CONN
*I *1305:A I *D sky130_fd_sc_hd__inv_1
*I *1304:Y O *D sky130_fd_sc_hd__nand2_1
*CAP
1 *1305:A 0.000162497
2 *1304:Y 0.000162497
3 *1305:A *598:12 1.67305e-05
4 *982:A *1305:A 1.08359e-05
5 *1304:A *1305:A 0.000103267
6 *18:50 *1305:A 0.000128161
7 *218:10 *1305:A 4.46186e-06
*RES
1 *1304:Y *1305:A 31.167 
*END

*D_NET *598 0.000873392
*CONN
*I *990:B I *D sky130_fd_sc_hd__nand2_1
*I *993:A I *D sky130_fd_sc_hd__nand2_1
*I *1305:Y O *D sky130_fd_sc_hd__inv_1
*CAP
1 *990:B 0.000132112
2 *993:A 0
3 *1305:Y 0.000154405
4 *598:12 0.000286517
5 *993:B *990:B 7.20413e-05
6 *994:A *598:12 0
7 *994:B *990:B 9.90367e-05
8 *994:B *598:12 4.1331e-06
9 *1305:A *598:12 1.67305e-05
10 *18:50 *598:12 4.79842e-05
11 *18:71 *598:12 4.1331e-06
12 *287:10 *990:B 5.62995e-05
*RES
1 *1305:Y *598:12 20.6839 
2 *598:12 *993:A 9.3 
3 *598:12 *990:B 12.7464 
*END

*D_NET *599 0.000199385
*CONN
*I *1307:A I *D sky130_fd_sc_hd__inv_1
*I *1306:Y O *D sky130_fd_sc_hd__nand2_1
*CAP
1 *1307:A 8.47072e-05
2 *1306:Y 8.47072e-05
3 *1307:A *1003:A 7.34187e-06
4 *1001:B *1307:A 0
5 *1004:A *1307:A 2.26291e-05
*RES
1 *1306:Y *1307:A 20.2563 
*END

*D_NET *600 0.000507329
*CONN
*I *1000:B I *D sky130_fd_sc_hd__nand2_1
*I *1003:A I *D sky130_fd_sc_hd__nand2_1
*I *1307:Y O *D sky130_fd_sc_hd__inv_1
*CAP
1 *1000:B 4.23082e-05
2 *1003:A 0.000129262
3 *1307:Y 0
4 *600:4 0.00017157
5 *1000:A *1003:A 9.58318e-06
6 *1003:B *1003:A 2.82057e-05
7 *1004:A *1000:B 3.65695e-05
8 *1004:A *1003:A 4.12921e-06
9 *1004:B *1003:A 7.83587e-05
10 *1307:A *1003:A 7.34187e-06
11 *11:29 *1003:A 0
*RES
1 *1307:Y *600:4 9.3 
2 *600:4 *1003:A 21.0054 
3 *600:4 *1000:B 10.0411 
*END

*D_NET *601 0.000527398
*CONN
*I *1309:A I *D sky130_fd_sc_hd__inv_1
*I *1308:Y O *D sky130_fd_sc_hd__nand2_1
*CAP
1 *1309:A 0.0002121
2 *1308:Y 0.0002121
3 *1011:A *1309:A 3.5707e-05
4 *1011:B *1309:A 0
5 *12:21 *1309:A 6.74911e-05
*RES
1 *1308:Y *1309:A 31.5777 
*END

*D_NET *602 0.00128355
*CONN
*I *1006:B I *D sky130_fd_sc_hd__nand2_1
*I *1008:A I *D sky130_fd_sc_hd__nand2_1
*I *1309:Y O *D sky130_fd_sc_hd__inv_1
*CAP
1 *1006:B 0
2 *1008:A 0.000288686
3 *1309:Y 0.000236379
4 *602:10 0.000525064
5 *1008:B *1008:A 0
6 *1009:B *1008:A 3.18676e-05
7 *1020:B *602:10 1.58163e-05
8 *1310:B *602:10 0
9 *12:21 *602:10 0
10 *242:12 *1008:A 0.000104487
11 *242:12 *602:10 4.6025e-06
12 *307:12 *602:10 7.6644e-05
13 *312:12 *602:10 0
*RES
1 *1309:Y *602:10 17.0054 
2 *602:10 *1008:A 19.3714 
3 *602:10 *1006:B 13.8 
*END

*D_NET *603 0.00105139
*CONN
*I *1311:A I *D sky130_fd_sc_hd__inv_1
*I *1310:Y O *D sky130_fd_sc_hd__nand2_1
*CAP
1 *1311:A 0.000259864
2 *1310:Y 0.000259864
3 *1019:A *1311:A 3.69047e-06
4 *1310:B *1311:A 4.60837e-06
5 *7:42 *1311:A 0.000368852
6 *13:83 *1311:A 0.000148903
7 *312:12 *1311:A 5.61182e-06
*RES
1 *1310:Y *1311:A 32.8277 
*END

*D_NET *604 0.00119541
*CONN
*I *1016:B I *D sky130_fd_sc_hd__nand2_1
*I *1018:A I *D sky130_fd_sc_hd__nand2_1
*I *1311:Y O *D sky130_fd_sc_hd__inv_1
*CAP
1 *1016:B 0.000234845
2 *1018:A 0
3 *1311:Y 0.00020382
4 *604:12 0.000438665
5 *1016:A *1016:B 2.84026e-05
6 *1018:B *1016:B 5.7661e-06
7 *1019:B *1016:B 0.000124884
8 *1025:A *604:12 1.02504e-05
9 *7:42 *604:12 6.78332e-05
10 *252:12 *604:12 2.50408e-05
11 *308:10 *604:12 5.59013e-05
*RES
1 *1311:Y *604:12 21.3982 
2 *604:12 *1018:A 9.3 
3 *604:12 *1016:B 13.7286 
*END

*D_NET *605 0.000706653
*CONN
*I *1314:A I *D sky130_fd_sc_hd__inv_1
*I *1313:Y O *D sky130_fd_sc_hd__nand2_1
*CAP
1 *1314:A 0.000229066
2 *1313:Y 0.000229066
3 *1314:A *606:8 1.66955e-05
4 *7:42 *1314:A 3.18676e-05
5 *7:51 *1314:A 5.17614e-05
6 *262:12 *1314:A 0.000148196
*RES
1 *1313:Y *1314:A 31.5509 
*END

*D_NET *606 0.00067502
*CONN
*I *1026:B I *D sky130_fd_sc_hd__nand2_1
*I *1028:A I *D sky130_fd_sc_hd__nand2_1
*I *1314:Y O *D sky130_fd_sc_hd__inv_1
*CAP
1 *1026:B 0
2 *1028:A 2.02412e-05
3 *1314:Y 0.000184137
4 *606:8 0.000204378
5 *1026:A *606:8 0.000162619
6 *1028:B *1028:A 5.52238e-05
7 *1028:B *606:8 1.95962e-05
8 *1314:A *606:8 1.66955e-05
9 *318:17 *606:8 1.21289e-05
*RES
1 *1314:Y *606:8 12.8268 
2 *606:8 *1028:A 9.83571 
3 *606:8 *1026:B 9.3 
*END

*D_NET *607 0.000850599
*CONN
*I *1316:A I *D sky130_fd_sc_hd__inv_1
*I *1315:Y O *D sky130_fd_sc_hd__nand2_1
*CAP
1 *1316:A 0.000248495
2 *1315:Y 0.000248495
3 *1316:A *608:8 3.52408e-05
4 *1037:A *1316:A 6.0038e-05
5 *7:51 *1316:A 2.44318e-05
6 *7:64 *1316:A 0.00014183
7 *272:10 *1316:A 7.83659e-05
8 *328:17 *1316:A 1.3701e-05
*RES
1 *1315:Y *1316:A 32.158 
*END

*D_NET *608 0.000664955
*CONN
*I *1036:B I *D sky130_fd_sc_hd__nand2_1
*I *1038:A I *D sky130_fd_sc_hd__nand2_1
*I *1316:Y O *D sky130_fd_sc_hd__inv_1
*CAP
1 *1036:B 0
2 *1038:A 1.68269e-05
3 *1316:Y 0.00013898
4 *608:8 0.000155807
5 *1038:B *1038:A 5.71472e-05
6 *1038:B *608:8 2.54619e-05
7 *1039:A *608:8 0.0001827
8 *1316:A *608:8 3.52408e-05
9 *328:17 *608:8 5.27915e-05
*RES
1 *1316:Y *608:8 12.5232 
2 *608:8 *1038:A 9.83571 
3 *608:8 *1036:B 9.3 
*END

*D_NET *609 0.000695005
*CONN
*I *1318:A I *D sky130_fd_sc_hd__inv_1
*I *1317:Y O *D sky130_fd_sc_hd__nand2_1
*CAP
1 *1318:A 0.000281325
2 *1317:Y 0.000281325
3 *1318:A *610:6 7.71303e-05
4 *1048:B *1318:A 5.52238e-05
*RES
1 *1317:Y *1318:A 23.542 
*END

*D_NET *610 0.0007023
*CONN
*I *1048:A I *D sky130_fd_sc_hd__nand2_1
*I *1045:B I *D sky130_fd_sc_hd__nand2_1
*I *1318:Y O *D sky130_fd_sc_hd__inv_1
*CAP
1 *1048:A 0
2 *1045:B 0.000214491
3 *1318:Y 3.29019e-05
4 *610:6 0.000247393
5 *1047:A *1045:B 0
6 *1318:A *610:6 7.71303e-05
7 *7:64 *1045:B 7.77751e-05
8 *338:10 *1045:B 5.26091e-05
*RES
1 *1318:Y *610:6 10.0411 
2 *610:6 *1045:B 22.5143 
3 *610:6 *1048:A 9.3 
*END

*D_NET *611 0.00058637
*CONN
*I *1320:A I *D sky130_fd_sc_hd__inv_1
*I *1319:Y O *D sky130_fd_sc_hd__nand2_1
*CAP
1 *1320:A 0.000133463
2 *1319:Y 0.000133463
3 *1320:A *612:6 3.31495e-05
4 *1059:A *1320:A 0.000110402
5 *1319:B *1320:A 0
6 *348:10 *1320:A 0.000175892
*RES
1 *1319:Y *1320:A 21.8545 
*END

*D_NET *612 0.00178978
*CONN
*I *1055:B I *D sky130_fd_sc_hd__nand2_1
*I *1058:A I *D sky130_fd_sc_hd__nand2_1
*I *1320:Y O *D sky130_fd_sc_hd__inv_1
*CAP
1 *1055:B 0.000291846
2 *1058:A 9.90964e-05
3 *1320:Y 7.9594e-05
4 *612:6 0.000470537
5 *1056:A *1058:A 7.83659e-05
6 *1319:B *1055:B 3.33087e-05
7 *1320:A *612:6 3.31495e-05
8 *1321:A *1058:A 6.37883e-06
9 *17:67 *1058:A 5.32334e-05
10 *18:71 *1055:B 3.57366e-05
11 *348:10 *1055:B 0.000322594
12 *348:10 *1058:A 5.59013e-05
13 *348:10 *612:6 5.52238e-05
14 *348:21 *1058:A 0.000174812
*RES
1 *1320:Y *612:6 10.4518 
2 *612:6 *1058:A 21.4607 
3 *612:6 *1055:B 14.4071 
*END

*D_NET *613 0.000220192
*CONN
*I *1322:A I *D sky130_fd_sc_hd__inv_1
*I *1321:Y O *D sky130_fd_sc_hd__nand2_1
*CAP
1 *1322:A 7.76362e-05
2 *1321:Y 7.76362e-05
3 *1322:A *1065:B 0
4 *1322:A *1067:A 2.26291e-05
5 *18:71 *1322:A 4.22908e-05
*RES
1 *1321:Y *1322:A 20.2563 
*END

*D_NET *614 0.000689906
*CONN
*I *1065:B I *D sky130_fd_sc_hd__nand2_1
*I *1067:A I *D sky130_fd_sc_hd__nand2_1
*I *1322:Y O *D sky130_fd_sc_hd__inv_1
*CAP
1 *1065:B 0.000133258
2 *1067:A 0.000135446
3 *1322:Y 0
4 *614:4 0.000268704
5 *1066:A *1067:A 0
6 *1322:A *1065:B 0
7 *1322:A *1067:A 2.26291e-05
8 *18:75 *1067:A 0.000129868
*RES
1 *1322:Y *614:4 9.3 
2 *614:4 *1067:A 20.6839 
3 *614:4 *1065:B 11.1839 
*END

*D_NET *615 0.000307973
*CONN
*I *1325:A I *D sky130_fd_sc_hd__inv_1
*I *1324:Y O *D sky130_fd_sc_hd__nand2_1
*CAP
1 *1325:A 5.09353e-05
2 *1324:Y 5.09353e-05
3 *1325:A *616:12 0.000113176
4 *8:24 *1325:A 4.22908e-05
5 *11:21 *1325:A 5.06356e-05
*RES
1 *1324:Y *1325:A 20.6223 
*END

*D_NET *616 0.000880713
*CONN
*I *1077:A I *D sky130_fd_sc_hd__nand2_1
*I *1075:B I *D sky130_fd_sc_hd__nand2_1
*I *1325:Y O *D sky130_fd_sc_hd__inv_1
*CAP
1 *1077:A 2.07967e-05
2 *1075:B 0
3 *1325:Y 0.000265789
4 *616:12 0.000286586
5 *1077:B *1077:A 5.52302e-05
6 *1081:A *616:12 0.000104294
7 *1324:B *616:12 9.29472e-06
8 *1325:A *616:12 0.000113176
9 *8:24 *616:12 2.10844e-05
10 *11:21 *616:12 0
11 *306:12 *616:12 4.46186e-06
*RES
1 *1325:Y *616:12 22.3268 
2 *616:12 *1075:B 9.3 
3 *616:12 *1077:A 9.83571 
*END

*D_NET *617 0.000461669
*CONN
*I *1327:A I *D sky130_fd_sc_hd__inv_1
*I *1326:Y O *D sky130_fd_sc_hd__nand2_1
*CAP
1 *1327:A 0.0001029
2 *1326:Y 0.0001029
3 *1327:A *1082:B 2.99125e-05
4 *1084:B *1327:A 2.79827e-05
5 *1326:A *1327:A 7.83587e-05
6 *12:19 *1327:A 0.000119614
*RES
1 *1326:Y *1327:A 30.1848 
*END

*D_NET *618 0.00091531
*CONN
*I *1082:B I *D sky130_fd_sc_hd__nand2_1
*I *1084:A I *D sky130_fd_sc_hd__nand2_1
*I *1327:Y O *D sky130_fd_sc_hd__inv_1
*CAP
1 *1082:B 7.71713e-05
2 *1084:A 3.91056e-05
3 *1327:Y 0
4 *618:4 0.000116277
5 *1083:A *1082:B 0.000103568
6 *1083:B *1082:B 3.57366e-05
7 *1083:B *1084:A 0
8 *1084:B *1082:B 4.66931e-05
9 *1084:B *1084:A 4.46096e-05
10 *1327:A *1082:B 2.99125e-05
11 *8:24 *1082:B 6.12955e-05
12 *8:24 *1084:A 8.24438e-05
13 *8:43 *1082:B 0.000111172
14 *372:6 *1082:B 8.76257e-05
15 *372:10 *1082:B 7.96992e-05
*RES
1 *1327:Y *618:4 9.3 
2 *618:4 *1084:A 10.4696 
3 *618:4 *1082:B 13.3804 
*END
