*SPEF "ieee 1481-1999"
*DESIGN "dadda_nand9"
*DATE "16:12:20 Sunday September 06, 2026"
*VENDOR "The OpenROAD Project"
*PROGRAM "OpenROAD"
*VERSION "dcf36133a369abc8f3c5e5738cd4d82e4903c0e0"
*DESIGN_FLOW "NAME_SCOPE LOCAL" "PIN_CAP NONE"
*DIVIDER /
*DELIMITER :
*BUS_DELIMITER []
*T_UNIT 1 NS
*C_UNIT 1 PF
*R_UNIT 1 OHM
*L_UNIT 1 HENRY

*NAME_MAP
*3 a[0]
*4 a[1]
*5 a[2]
*6 a[3]
*7 b[0]
*8 b[1]
*9 b[2]
*10 b[3]
*11 p[0]
*12 p[1]
*13 p[2]
*14 p[3]
*15 p[4]
*16 p[5]
*17 p[6]
*18 p[7]
*19 n10
*20 n100
*21 n101
*22 n102
*23 n104
*24 n105
*25 n106
*26 n107
*27 n108
*28 n109
*29 n11
*30 n110
*31 n111
*32 n113
*33 n114
*34 n115
*35 n116
*36 n117
*37 n118
*38 n119
*39 n12
*40 n120
*41 n122
*42 n123
*43 n124
*44 n125
*45 n126
*46 n127
*47 n128
*48 n129
*49 n13
*50 n14
*51 n15
*52 n16
*53 n17
*54 n18
*55 n19
*56 n20
*57 n21
*58 n22
*59 n23
*60 n24
*61 n25
*62 n26
*63 n27
*64 n28
*65 n29
*66 n30
*67 n31
*68 n32
*69 n33
*70 n34
*71 n35
*72 n36
*73 n37
*74 n38
*75 n39
*76 n40
*77 n41
*78 n42
*79 n43
*80 n44
*81 n45
*82 n46
*83 n47
*84 n48
*85 n49
*86 n50
*87 n51
*88 n52
*89 n53
*90 n54
*91 n55
*92 n56
*93 n57
*94 n58
*95 n59
*96 n60
*97 n61
*98 n62
*99 n63
*100 n64
*101 n65
*102 n66
*103 n67
*104 n68
*105 n69
*106 n70
*107 n71
*108 n72
*109 n73
*110 n74
*111 n75
*112 n76
*113 n77
*114 n78
*115 n79
*116 n8
*117 n80
*118 n81
*119 n82
*120 n83
*121 n84
*122 n86
*123 n87
*124 n88
*125 n89
*126 n90
*127 n91
*128 n92
*129 n93
*130 n95
*131 n96
*132 n97
*133 n98
*134 n99
*135 PHY_EDGE_ROW_0_Left_12
*136 PHY_EDGE_ROW_0_Right_0
*137 PHY_EDGE_ROW_10_Left_22
*138 PHY_EDGE_ROW_10_Right_10
*139 PHY_EDGE_ROW_11_Left_23
*140 PHY_EDGE_ROW_11_Right_11
*141 PHY_EDGE_ROW_1_Left_13
*142 PHY_EDGE_ROW_1_Right_1
*143 PHY_EDGE_ROW_2_Left_14
*144 PHY_EDGE_ROW_2_Right_2
*145 PHY_EDGE_ROW_3_Left_15
*146 PHY_EDGE_ROW_3_Right_3
*147 PHY_EDGE_ROW_4_Left_16
*148 PHY_EDGE_ROW_4_Right_4
*149 PHY_EDGE_ROW_5_Left_17
*150 PHY_EDGE_ROW_5_Right_5
*151 PHY_EDGE_ROW_6_Left_18
*152 PHY_EDGE_ROW_6_Right_6
*153 PHY_EDGE_ROW_7_Left_19
*154 PHY_EDGE_ROW_7_Right_7
*155 PHY_EDGE_ROW_8_Left_20
*156 PHY_EDGE_ROW_8_Right_8
*157 PHY_EDGE_ROW_9_Left_21
*158 PHY_EDGE_ROW_9_Right_9
*159 TAP_TAPCELL_ROW_0_24
*160 TAP_TAPCELL_ROW_0_25
*161 TAP_TAPCELL_ROW_10_35
*162 TAP_TAPCELL_ROW_11_36
*163 TAP_TAPCELL_ROW_11_37
*164 TAP_TAPCELL_ROW_1_26
*165 TAP_TAPCELL_ROW_2_27
*166 TAP_TAPCELL_ROW_3_28
*167 TAP_TAPCELL_ROW_4_29
*168 TAP_TAPCELL_ROW_5_30
*169 TAP_TAPCELL_ROW_6_31
*170 TAP_TAPCELL_ROW_7_32
*171 TAP_TAPCELL_ROW_8_33
*172 TAP_TAPCELL_ROW_9_34
*173 g0
*174 g1
*175 g10
*176 g100
*177 g101
*178 g102
*179 g103
*180 g104
*181 g105
*182 g106
*183 g107
*184 g108
*185 g109
*186 g11
*187 g110
*188 g111
*189 g112
*190 g113
*191 g114
*192 g115
*193 g116
*194 g117
*195 g118
*196 g119
*197 g12
*198 g120
*199 g121
*200 g122
*201 g123
*202 g13
*203 g14
*204 g15
*205 g16
*206 g17
*207 g18
*208 g19
*209 g2
*210 g20
*211 g21
*212 g22
*213 g23
*214 g24
*215 g25
*216 g26
*217 g27
*218 g28
*219 g29
*220 g3
*221 g30
*222 g31
*223 g32
*224 g33
*225 g34
*226 g35
*227 g36
*228 g37
*229 g38
*230 g39
*231 g4
*232 g40
*233 g41
*234 g42
*235 g43
*236 g44
*237 g45
*238 g46
*239 g47
*240 g48
*241 g49
*242 g5
*243 g50
*244 g51
*245 g52
*246 g53
*247 g54
*248 g55
*249 g56
*250 g57
*251 g58
*252 g59
*253 g6
*254 g60
*255 g61
*256 g62
*257 g63
*258 g64
*259 g65
*260 g66
*261 g67
*262 g68
*263 g69
*264 g7
*265 g70
*266 g71
*267 g72
*268 g73
*269 g74
*270 g75
*271 g76
*272 g77
*273 g78
*274 g79
*275 g8
*276 g80
*277 g81
*278 g82
*279 g83
*280 g84
*281 g85
*282 g86
*283 g87
*284 g88
*285 g89
*286 g9
*287 g90
*288 g91
*289 g92
*290 g93
*291 g94
*292 g95
*293 g96
*294 g97
*295 g98
*296 g99

*PORTS
a[0] I
a[1] I
a[2] I
a[3] I
b[0] I
b[1] I
b[2] I
b[3] I
p[0] O
p[1] O
p[2] O
p[3] O
p[4] O
p[5] O
p[6] O
p[7] O

*D_NET *3 0.00405637
*CONN
*P a[0] I
*I *209:A I *D sky130_fd_sc_hd__nand2_1
*I *253:A I *D sky130_fd_sc_hd__nand2_1
*I *231:A I *D sky130_fd_sc_hd__nand2_1
*I *173:A I *D sky130_fd_sc_hd__nand2_1
*CAP
1 a[0] 0.000238878
2 *209:A 1.19471e-05
3 *253:A 0
4 *231:A 8.58243e-05
5 *173:A 1.52075e-05
6 *3:34 0.000383594
7 *3:26 0.000564023
8 *3:7 0.000508392
9 *173:A *270:A 4.75911e-05
10 *173:A *5:13 0
11 *173:A *7:13 4.1331e-06
12 *209:A *209:B 5.46383e-06
13 *209:A *269:B 3.50746e-05
14 *231:A *175:A 9.18424e-05
15 *231:A *253:B 5.37741e-06
16 *231:A *8:34 0.000220093
17 *3:7 p[0] 0.000449327
18 *3:7 p[1] 4.01558e-05
19 *3:7 *4:13 0
20 *3:7 *5:7 0.000413312
21 *3:26 *220:A 1.9712e-05
22 *3:26 *269:B 0.000149574
23 *3:26 *270:A 4.01908e-05
24 *3:26 *272:A 0.000100248
25 *3:26 *5:13 3.13112e-05
26 *3:26 *5:31 1.13961e-05
27 *3:26 *29:6 1.98839e-05
28 *3:26 *119:8 9.67754e-05
29 *3:34 *202:A 5.28431e-05
30 *3:34 *209:B 0.000354563
31 *3:34 *220:A 3.11088e-05
32 *3:34 *264:A 2.85321e-05
*RES
1 a[0] *3:7 4.80277 
2 *3:7 *173:A 14.3804 
3 *3:7 *3:26 10.2589 
4 *3:26 *3:34 7.57143 
5 *3:34 *231:A 21.1571 
6 *3:34 *253:A 9.3 
7 *3:26 *209:A 9.72857 
*END

*D_NET *4 0.00546445
*CONN
*P a[1] I
*I *275:A I *D sky130_fd_sc_hd__nand2_1
*I *203:A I *D sky130_fd_sc_hd__nand2_1
*I *197:A I *D sky130_fd_sc_hd__nand2_1
*I *175:A I *D sky130_fd_sc_hd__nand2_1
*CAP
1 a[1] 0.000449734
2 *275:A 0.000315775
3 *203:A 0
4 *197:A 0
5 *175:A 0.00039984
6 *4:25 0.000637064
7 *4:15 0.000263358
8 *4:13 0.000791643
9 *175:A *175:B 6.05161e-06
10 *175:A *215:A 0.000172113
11 *175:A *231:B 7.08385e-05
12 *175:A *242:A 4.75812e-05
13 *175:A *253:B 1.00887e-05
14 *175:A *8:15 2.28598e-05
15 *175:A *8:34 4.66375e-05
16 *275:A *231:B 0
17 *275:A *242:A 0
18 *275:A *273:A 0
19 *275:A *119:10 0
20 *4:13 p[1] 0.00047185
21 *4:13 *203:B 0.000227179
22 *4:13 *272:B 9.63099e-06
23 *4:13 *9:7 0.000521082
24 *4:13 *9:13 0.000229411
25 *4:15 *203:B 0.000185403
26 *4:15 *9:13 0.000172173
27 *4:25 *203:B 5.50052e-05
28 *4:25 *231:B 5.54817e-06
29 *4:25 *253:B 0.000150083
30 *4:25 *9:13 5.66971e-05
31 *4:25 *9:28 5.49657e-05
32 *231:A *175:A 9.18424e-05
33 *3:7 *4:13 0
*RES
1 a[1] *4:13 12.6535 
2 *4:13 *4:15 1.76786 
3 *4:15 *4:25 9.17857 
4 *4:25 *175:A 27.1147 
5 *4:25 *197:A 13.8 
6 *4:15 *203:A 9.3 
7 *4:13 *275:A 23.2821 
*END

*D_NET *5 0.00570923
*CONN
*P a[2] I
*I *212:A I *D sky130_fd_sc_hd__nand2_1
*I *210:A I *D sky130_fd_sc_hd__nand2_1
*I *205:A I *D sky130_fd_sc_hd__nand2_1
*I *207:A I *D sky130_fd_sc_hd__nand2_1
*CAP
1 a[2] 0.00012718
2 *212:A 0.000148891
3 *210:A 0.000576656
4 *205:A 2.03441e-05
5 *207:A 0.000295036
6 *5:31 0.000978605
7 *5:13 0.000632361
8 *5:7 0.000697218
9 *205:A *205:B 5.7661e-06
10 *207:A *205:B 4.87854e-05
11 *207:A *206:A 2.59355e-05
12 *207:A *207:B 3.24541e-06
13 *207:A *8:13 0.000223207
14 *210:A *203:B 0.000503802
15 *210:A *204:A 0.000100165
16 *210:A *210:B 9.49611e-06
17 *210:A *9:13 1.62025e-05
18 *212:A *203:B 1.39716e-05
19 *212:A *212:B 1.81002e-05
20 *212:A *10:24 1.21621e-05
21 *5:7 p[1] 0.000393645
22 *5:13 p[0] 5.21752e-05
23 *5:13 *174:A 2.524e-05
24 *5:13 *205:B 0.000108026
25 *5:13 *206:A 1.98839e-05
26 *5:13 *7:13 0.000157848
27 *5:31 p[1] 3.00628e-05
28 *5:31 *203:B 9.20465e-06
29 *5:31 *272:A 0
30 *5:31 *9:13 0
31 *173:A *5:13 0
32 *3:7 *5:7 0.000413312
33 *3:26 *5:13 3.13112e-05
34 *3:26 *5:31 1.13961e-05
*RES
1 a[2] *5:7 4.5145 
2 *5:7 *5:13 11.3125 
3 *5:13 *207:A 16.0143 
4 *5:13 *205:A 9.72857 
5 *5:7 *5:31 4.22321 
6 *5:31 *210:A 23.425 
7 *5:31 *212:A 16.2821 
*END

*D_NET *6 0.00509081
*CONN
*P a[3] I
*I *218:A I *D sky130_fd_sc_hd__nand2_1
*I *221:A I *D sky130_fd_sc_hd__nand2_1
*I *216:A I *D sky130_fd_sc_hd__nand2_1
*I *214:A I *D sky130_fd_sc_hd__nand2_1
*CAP
1 a[3] 0.000369589
2 *218:A 0
3 *221:A 2.22847e-05
4 *216:A 0
5 *214:A 0.000349519
6 *6:25 0.000779349
7 *6:15 0.000787916
8 *6:11 0.00070539
9 *214:A *231:B 3.93346e-05
10 *214:A *242:A 1.55885e-05
11 *214:A *7:19 0
12 *214:A *8:34 0.000121564
13 *6:11 *212:B 9.54798e-06
14 *6:11 *218:B 5.54817e-06
15 *6:11 *9:7 1.04223e-05
16 *6:11 *10:7 0.000458436
17 *6:15 *204:A 2.80684e-05
18 *6:15 *211:A 2.80684e-05
19 *6:15 *221:B 9.67754e-05
20 *6:15 *222:A 1.83053e-05
21 *6:15 *228:B 4.19235e-05
22 *6:15 *230:A 1.91838e-05
23 *6:15 *10:28 0.000829627
24 *6:15 *59:6 7.84309e-05
25 *6:15 *81:10 1.62025e-05
26 *6:25 *217:A 0.000127939
27 *6:25 *8:34 5.37741e-06
28 *6:25 *71:14 0.000126416
*RES
1 a[3] *6:11 9.57955 
2 *6:11 *6:15 10 
3 *6:15 *6:25 12.4286 
4 *6:25 *214:A 19.9786 
5 *6:25 *216:A 13.8 
6 *6:15 *221:A 9.72857 
7 *6:11 *218:A 9.3 
*END

*D_NET *7 0.00334779
*CONN
*P b[0] I
*I *205:B I *D sky130_fd_sc_hd__nand2_1
*I *173:B I *D sky130_fd_sc_hd__nand2_1
*I *275:B I *D sky130_fd_sc_hd__nand2_1
*I *214:B I *D sky130_fd_sc_hd__nand2_1
*CAP
1 b[0] 0.000136542
2 *205:B 0.000168326
3 *173:B 0
4 *275:B 0
5 *214:B 0.000122935
6 *7:19 0.000482981
7 *7:13 0.000461805
8 *7:7 0.000406626
9 *205:B *174:A 2.3541e-05
10 *205:B *8:13 9.60875e-05
11 *214:B *231:B 1.33343e-05
12 *7:7 p[0] 0.000435794
13 *7:7 *8:13 0.000430271
14 *7:13 p[0] 0.000100616
15 *7:13 *174:A 7.05143e-06
16 *7:13 *273:A 0
17 *7:19 *272:A 3.05446e-05
18 *7:19 *286:A 8.28621e-05
19 *7:19 *53:12 2.3917e-05
20 *173:A *7:13 4.1331e-06
21 *205:A *205:B 5.7661e-06
22 *207:A *205:B 4.87854e-05
23 *214:A *7:19 0
24 *5:13 *205:B 0.000108026
25 *5:13 *7:13 0.000157848
*RES
1 b[0] *7:7 4.58657 
2 *7:7 *7:13 7.13393 
3 *7:13 *7:19 6.32143 
4 *7:19 *214:B 11.4786 
5 *7:19 *275:B 9.3 
6 *7:13 *173:B 9.3 
7 *7:7 *205:B 17.2286 
*END

*D_NET *8 0.00560694
*CONN
*P b[1] I
*I *207:B I *D sky130_fd_sc_hd__nand2_1
*I *209:B I *D sky130_fd_sc_hd__nand2_1
*I *216:B I *D sky130_fd_sc_hd__nand2_1
*I *175:B I *D sky130_fd_sc_hd__nand2_1
*CAP
1 b[1] 0.00103828
2 *207:B 2.27818e-05
3 *209:B 0.000506046
4 *216:B 0
5 *175:B 6.49931e-05
6 *8:34 0.000710866
7 *8:15 0.000338921
8 *8:13 0.00113017
9 *175:B *215:A 2.61505e-05
10 *209:B *264:A 1.52769e-05
11 *8:13 p[0] 1.10568e-05
12 *8:13 *174:A 1.87955e-05
13 *8:13 *206:A 1.90936e-05
14 *8:13 *215:A 1.39726e-05
15 *8:13 *273:A 0.000137678
16 *8:15 *215:A 1.74352e-05
17 *175:A *175:B 6.05161e-06
18 *175:A *8:15 2.28598e-05
19 *175:A *8:34 4.66375e-05
20 *205:B *8:13 9.60875e-05
21 *207:A *207:B 3.24541e-06
22 *207:A *8:13 0.000223207
23 *209:A *209:B 5.46383e-06
24 *214:A *8:34 0.000121564
25 *231:A *8:34 0.000220093
26 *3:34 *209:B 0.000354563
27 *6:25 *8:34 5.37741e-06
28 *7:7 *8:13 0.000430271
*RES
1 b[1] *8:13 18.3487 
2 *8:13 *8:15 0.946429 
3 *8:15 *175:B 10.5679 
4 *8:15 *8:34 14.0357 
5 *8:34 *216:B 9.3 
6 *8:34 *209:B 16.6393 
7 *8:13 *207:B 9.9875 
*END

*D_NET *9 0.00425995
*CONN
*P b[2] I
*I *218:B I *D sky130_fd_sc_hd__nand2_1
*I *197:B I *D sky130_fd_sc_hd__nand2_1
*I *231:B I *D sky130_fd_sc_hd__nand2_1
*I *210:B I *D sky130_fd_sc_hd__nand2_1
*CAP
1 b[2] 0.000290976
2 *218:B 0.000133505
3 *197:B 0
4 *231:B 0.00021716
5 *210:B 8.40018e-05
6 *9:28 0.000325517
7 *9:13 0.000516319
8 *9:7 0.000748442
9 *210:B *211:A 1.29975e-05
10 *218:B *203:B 2.51249e-05
11 *218:B *212:B 1.05603e-05
12 *218:B *10:24 1.13961e-05
13 *231:B *242:A 0.00010637
14 *9:7 *10:7 0.000471999
15 *9:13 *203:B 6.75952e-05
16 *9:13 *272:B 3.29297e-05
17 *175:A *231:B 7.08385e-05
18 *210:A *210:B 9.49611e-06
19 *210:A *9:13 1.62025e-05
20 *214:A *231:B 3.93346e-05
21 *214:B *231:B 1.33343e-05
22 *275:A *231:B 0
23 *4:13 *9:7 0.000521082
24 *4:13 *9:13 0.000229411
25 *4:15 *9:13 0.000172173
26 *4:25 *231:B 5.54817e-06
27 *4:25 *9:13 5.66971e-05
28 *4:25 *9:28 5.49657e-05
29 *5:31 *9:13 0
30 *6:11 *218:B 5.54817e-06
31 *6:11 *9:7 1.04223e-05
*RES
1 b[2] *9:7 4.9469 
2 *9:7 *9:13 11.2589 
3 *9:13 *210:B 10.675 
4 *9:13 *9:28 6.57143 
5 *9:28 *231:B 18.2643 
6 *9:28 *197:B 13.8 
7 *9:7 *218:B 16.2018 
*END

*D_NET *10 0.00571173
*CONN
*P b[3] I
*I *212:B I *D sky130_fd_sc_hd__nand2_1
*I *253:B I *D sky130_fd_sc_hd__nand2_1
*I *221:B I *D sky130_fd_sc_hd__nand2_1
*I *203:B I *D sky130_fd_sc_hd__nand2_1
*CAP
1 b[3] 0.000179127
2 *212:B 3.67357e-05
3 *253:B 0.000202902
4 *221:B 9.03017e-05
5 *203:B 0.000251025
6 *10:28 0.000696018
7 *10:24 0.000461676
8 *10:7 0.000452278
9 *203:B *272:A 5.50052e-05
10 *221:B *211:A 1.3457e-05
11 *253:B *211:A 0.000101771
12 *175:A *253:B 1.00887e-05
13 *210:A *203:B 0.000503802
14 *212:A *203:B 1.39716e-05
15 *212:A *212:B 1.81002e-05
16 *212:A *10:24 1.21621e-05
17 *218:B *203:B 2.51249e-05
18 *218:B *212:B 1.05603e-05
19 *218:B *10:24 1.13961e-05
20 *231:A *253:B 5.37741e-06
21 *4:13 *203:B 0.000227179
22 *4:15 *203:B 0.000185403
23 *4:25 *203:B 5.50052e-05
24 *4:25 *253:B 0.000150083
25 *5:31 *203:B 9.20465e-06
26 *6:11 *212:B 9.54798e-06
27 *6:11 *10:7 0.000458436
28 *6:15 *221:B 9.67754e-05
29 *6:15 *10:28 0.000829627
30 *9:7 *10:7 0.000471999
31 *9:13 *203:B 6.75952e-05
*RES
1 b[3] *10:7 4.7307 
2 *10:7 *203:B 22.5411 
3 *10:7 *10:24 0.580357 
4 *10:24 *10:28 12.8393 
5 *10:28 *221:B 19.9786 
6 *10:28 *253:B 22.675 
7 *10:24 *212:B 14.5321 
*END

*D_NET *11 0.00166353
*CONN
*P p[0] O
*I *174:Y O *D sky130_fd_sc_hd__inv_1
*CAP
1 p[0] 0.000250639
2 *174:Y 0.000250639
3 p[0] *174:A 0.000113285
4 *3:7 p[0] 0.000449327
5 *5:13 p[0] 5.21752e-05
6 *7:7 p[0] 0.000435794
7 *7:13 p[0] 0.000100616
8 *8:13 p[0] 1.10568e-05
*RES
1 *174:Y p[0] 20.8872 
*END

*D_NET *12 0.00153354
*CONN
*P p[1] O
*I *272:Y O *D sky130_fd_sc_hd__nand2_1
*CAP
1 p[1] 0.000243572
2 *272:Y 0.000243572
3 p[1] *272:A 0.000110682
4 *3:7 p[1] 4.01558e-05
5 *4:13 p[1] 0.00047185
6 *5:7 p[1] 0.000393645
7 *5:31 p[1] 3.00628e-05
*RES
1 *272:Y p[1] 20.0218 
*END

*D_NET *13 0.00112548
*CONN
*P p[2] O
*I *282:Y O *D sky130_fd_sc_hd__nand2_1
*CAP
1 p[2] 0.000560046
2 *282:Y 0.000560046
3 p[2] *279:A 5.39166e-06
*RES
1 *282:Y p[2] 24.4429 
*END

*D_NET *14 0.00128587
*CONN
*P p[3] O
*I *292:Y O *D sky130_fd_sc_hd__nand2_1
*CAP
1 p[3] 0.000642936
2 *292:Y 0.000642936
3 p[3] *289:B 0
4 p[3] *292:B 0
5 p[3] *20:10 0
*RES
1 *292:Y p[3] 25.0752 
*END

*D_NET *15 0.00108196
*CONN
*P p[4] O
*I *180:Y O *D sky130_fd_sc_hd__nand2_1
*CAP
1 p[4] 0.000540978
2 *180:Y 0.000540978
*RES
1 *180:Y p[4] 23.7889 
*END

*D_NET *16 0.00114324
*CONN
*P p[5] O
*I *190:Y O *D sky130_fd_sc_hd__nand2_1
*CAP
1 p[5] 0.00057162
2 *190:Y 0.00057162
*RES
1 *190:Y p[5] 25.2196 
*END

*D_NET *17 0.00116088
*CONN
*P p[6] O
*I *200:Y O *D sky130_fd_sc_hd__nand2_1
*CAP
1 p[6] 0.000549069
2 *200:Y 0.000549069
3 p[6] p[7] 6.27457e-05
*RES
1 *200:Y p[6] 25.2196 
*END

*D_NET *18 0.0021419
*CONN
*P p[7] O
*I *201:Y O *D sky130_fd_sc_hd__nand2_1
*CAP
1 p[7] 0.00092392
2 *201:Y 0.00092392
3 p[7] *195:B 9.25014e-06
4 p[7] *200:A 0.000173804
5 p[7] *201:A 2.2351e-05
6 p[7] *42:12 1.24368e-05
7 p[7] *46:12 1.34698e-05
8 p[6] p[7] 6.27457e-05
*RES
1 *201:Y p[7] 31.8446 
*END

*D_NET *19 0.000832625
*CONN
*I *220:A I *D sky130_fd_sc_hd__inv_1
*I *209:Y O *D sky130_fd_sc_hd__nand2_1
*CAP
1 *220:A 0.000217927
2 *209:Y 0.000217927
3 *220:A *269:B 7.22772e-05
4 *220:A *270:A 5.33005e-05
5 *220:A *272:B 0.000143633
6 *220:A *29:6 7.6739e-05
7 *3:26 *220:A 1.9712e-05
8 *3:34 *220:A 3.11088e-05
*RES
1 *209:Y *220:A 23.542 
*END

*D_NET *20 0.000949468
*CONN
*I *293:B I *D sky130_fd_sc_hd__nand2_1
*I *291:B I *D sky130_fd_sc_hd__nand2_1
*I *290:B I *D sky130_fd_sc_hd__nand2_1
*I *289:Y O *D sky130_fd_sc_hd__nand2_1
*CAP
1 *293:B 7.29134e-05
2 *291:B 0
3 *290:B 9.52157e-05
4 *289:Y 0
5 *20:10 0.000180143
6 *20:4 0.000157841
7 *290:B *289:B 6.95227e-05
8 *290:B *292:A 5.30637e-06
9 *290:B *134:8 5.7661e-06
10 *293:B *289:A 2.97137e-05
11 *293:B *23:12 7.43578e-06
12 *293:B *131:10 1.3701e-05
13 *20:10 *289:A 0
14 *20:10 *289:B 0.000153054
15 *20:10 *292:B 0.000153047
16 *20:10 *130:16 5.80706e-06
17 p[3] *20:10 0
*RES
1 *289:Y *20:4 9.3 
2 *20:4 *20:10 11.5536 
3 *20:10 *290:B 11.5143 
4 *20:10 *291:B 9.3 
5 *20:4 *293:B 10.675 
*END

*D_NET *21 0.000765097
*CONN
*I *292:A I *D sky130_fd_sc_hd__nand2_1
*I *290:Y O *D sky130_fd_sc_hd__nand2_1
*CAP
1 *292:A 0.000237287
2 *290:Y 0.000237287
3 *292:A *284:B 0
4 *292:A *287:A 0
5 *292:A *289:A 3.69697e-05
6 *292:A *292:B 9.95895e-05
7 *292:A *23:12 0.000148658
8 *292:A *79:12 0
9 *292:A *98:10 0
10 *290:B *292:A 5.30637e-06
*RES
1 *290:Y *292:A 32.5107 
*END

*D_NET *22 0.000746126
*CONN
*I *292:B I *D sky130_fd_sc_hd__nand2_1
*I *291:Y O *D sky130_fd_sc_hd__nand2_1
*CAP
1 *292:B 0.000171655
2 *291:Y 0.000171655
3 *292:B *23:12 0.00015018
4 p[3] *292:B 0
5 *292:A *292:B 9.95895e-05
6 *20:10 *292:B 0.000153047
*RES
1 *291:Y *292:B 31.975 
*END

*D_NET *23 0.000840509
*CONN
*I *177:B I *D sky130_fd_sc_hd__nand2_1
*I *179:A I *D sky130_fd_sc_hd__nand2_1
*I *293:Y O *D sky130_fd_sc_hd__nand2_1
*CAP
1 *177:B 2.50801e-05
2 *179:A 0
3 *293:Y 0.000211365
4 *23:12 0.000236445
5 *177:B *179:B 5.50052e-05
6 *23:12 *177:A 2.53112e-06
7 *23:12 *289:A 3.80953e-06
8 *292:A *23:12 0.000148658
9 *292:B *23:12 0.00015018
10 *293:B *23:12 7.43578e-06
*RES
1 *293:Y *23:12 22.9071 
2 *23:12 *179:A 9.3 
3 *23:12 *177:B 9.83571 
*END

*D_NET *24 0.000775472
*CONN
*I *296:B I *D sky130_fd_sc_hd__nand2_1
*I *295:B I *D sky130_fd_sc_hd__nand2_1
*I *181:A I *D sky130_fd_sc_hd__nand2_1
*I *294:Y O *D sky130_fd_sc_hd__nand2_1
*CAP
1 *296:B 0
2 *295:B 1.09817e-05
3 *181:A 0.000141143
4 *294:Y 8.63776e-05
5 *24:8 0.000238502
6 *295:B *176:B 1.62025e-05
7 *295:B *295:A 5.49995e-05
8 *24:8 *176:B 7.54302e-05
9 *24:8 *295:A 3.29376e-05
10 *24:8 *296:A 0.000118898
*RES
1 *294:Y *24:8 11.8 
2 *24:8 *181:A 20.55 
3 *24:8 *295:B 9.83571 
4 *24:8 *296:B 9.3 
*END

*D_NET *25 0.00035226
*CONN
*I *176:A I *D sky130_fd_sc_hd__nand2_1
*I *295:Y O *D sky130_fd_sc_hd__nand2_1
*CAP
1 *176:A 0.000145765
2 *295:Y 0.000145765
3 *176:A *176:B 1.90192e-05
4 *176:A *178:A 2.87077e-05
5 *176:A *178:B 5.74499e-06
6 *176:A *295:A 7.25873e-06
*RES
1 *295:Y *176:A 20.6893 
*END

*D_NET *26 0.000552657
*CONN
*I *176:B I *D sky130_fd_sc_hd__nand2_1
*I *296:Y O *D sky130_fd_sc_hd__nand2_1
*CAP
1 *176:B 0.000165465
2 *296:Y 0.000165465
3 *176:B *177:A 1.98839e-05
4 *176:B *178:A 8.48678e-06
5 *176:B *178:B 1.24368e-05
6 *176:B *295:A 7.02683e-05
7 *176:A *176:B 1.90192e-05
8 *295:B *176:B 1.62025e-05
9 *24:8 *176:B 7.54302e-05
*RES
1 *296:Y *176:B 22.0643 
*END

*D_NET *27 0.000732761
*CONN
*I *178:A I *D sky130_fd_sc_hd__nand2_1
*I *177:A I *D sky130_fd_sc_hd__nand2_1
*I *176:Y O *D sky130_fd_sc_hd__nand2_1
*CAP
1 *178:A 3.88181e-05
2 *177:A 0.000173804
3 *176:Y 0.000212622
4 *177:A *178:B 5.33005e-05
5 *177:A *28:22 7.74068e-05
6 *178:A *178:B 0.0001172
7 *176:A *178:A 2.87077e-05
8 *176:B *177:A 1.98839e-05
9 *176:B *178:A 8.48678e-06
10 *23:12 *177:A 2.53112e-06
*RES
1 *176:Y *177:A 30.4929 
2 *176:Y *178:A 19.975 
*END

*D_NET *28 0.00163923
*CONN
*I *181:B I *D sky130_fd_sc_hd__nand2_1
*I *178:B I *D sky130_fd_sc_hd__nand2_1
*I *179:B I *D sky130_fd_sc_hd__nand2_1
*I *177:Y O *D sky130_fd_sc_hd__nand2_1
*CAP
1 *181:B 0.000186273
2 *178:B 0.00014168
3 *179:B 9.59163e-05
4 *177:Y 0.000149271
5 *28:22 0.000381308
6 *179:B *180:B 5.4959e-05
7 *181:B *180:B 0.000210606
8 *28:22 *180:B 9.8126e-05
9 *176:A *178:B 5.74499e-06
10 *176:B *178:B 1.24368e-05
11 *177:A *178:B 5.33005e-05
12 *177:A *28:22 7.74068e-05
13 *177:B *179:B 5.50052e-05
14 *178:A *178:B 0.0001172
*RES
1 *177:Y *179:B 20.7964 
2 *177:Y *28:22 15.1393 
3 *28:22 *178:B 16.7107 
4 *28:22 *181:B 17.6036 
*END

*D_NET *29 0.000779261
*CONN
*I *269:A I *D sky130_fd_sc_hd__nand2_1
*I *270:A I *D sky130_fd_sc_hd__nand2_1
*I *220:Y O *D sky130_fd_sc_hd__inv_1
*CAP
1 *269:A 0
2 *270:A 0.000113328
3 *220:Y 2.35279e-05
4 *29:6 0.000136855
5 *270:A *271:B 3.75959e-05
6 *270:A *272:A 0.000144732
7 *270:A *273:A 5.80706e-06
8 *270:A *119:10 7.97105e-05
9 *173:A *270:A 4.75911e-05
10 *220:A *270:A 5.33005e-05
11 *220:A *29:6 7.6739e-05
12 *3:26 *270:A 4.01908e-05
13 *3:26 *29:6 1.98839e-05
*RES
1 *220:Y *29:6 10.0411 
2 *29:6 *270:A 21.6929 
3 *29:6 *269:A 9.3 
*END

*D_NET *30 0.00021545
*CONN
*I *180:A I *D sky130_fd_sc_hd__nand2_1
*I *178:Y O *D sky130_fd_sc_hd__nand2_1
*CAP
1 *180:A 7.59261e-05
2 *178:Y 7.59261e-05
3 *180:A *180:B 6.35976e-05
*RES
1 *178:Y *180:A 29.2429 
*END

*D_NET *31 0.000894982
*CONN
*I *180:B I *D sky130_fd_sc_hd__nand2_1
*I *179:Y O *D sky130_fd_sc_hd__nand2_1
*CAP
1 *180:B 0.000233847
2 *179:Y 0.000233847
3 *179:B *180:B 5.4959e-05
4 *180:A *180:B 6.35976e-05
5 *181:B *180:B 0.000210606
6 *28:22 *180:B 9.8126e-05
*RES
1 *179:Y *180:B 32.6179 
*END

*D_NET *32 0.000596153
*CONN
*I *187:B I *D sky130_fd_sc_hd__nand2_1
*I *189:A I *D sky130_fd_sc_hd__nand2_1
*I *181:Y O *D sky130_fd_sc_hd__nand2_1
*CAP
1 *187:B 1.55603e-05
2 *189:A 0
3 *181:Y 0.000211511
4 *32:10 0.000227071
5 *187:B *189:B 5.52302e-05
6 *187:B *190:B 1.92905e-05
7 *32:10 *188:A 0
8 *32:10 *37:23 6.74911e-05
*RES
1 *181:Y *32:10 22.3714 
2 *32:10 *189:A 9.3 
3 *32:10 *187:B 9.83571 
*END

*D_NET *33 0.000783456
*CONN
*I *183:B I *D sky130_fd_sc_hd__nand2_1
*I *184:B I *D sky130_fd_sc_hd__nand2_1
*I *191:A I *D sky130_fd_sc_hd__nand2_1
*I *182:Y O *D sky130_fd_sc_hd__nand2_1
*CAP
1 *183:B 0
2 *184:B 7.34995e-06
3 *191:A 0.00012196
4 *182:Y 0.000203579
5 *33:26 8.89693e-05
6 *184:B *184:A 5.71472e-05
7 *184:B *185:A 2.44318e-05
8 *191:A *184:A 5.52302e-05
9 *191:A *188:A 0
10 *191:A *190:A 0
11 *191:A *108:10 4.25622e-05
12 *33:26 *183:A 5.52238e-05
13 *33:26 *184:A 6.98559e-05
14 *33:26 *185:A 5.71472e-05
15 *33:26 *185:B 0
*RES
1 *182:Y *191:A 29.7786 
2 *182:Y *33:26 11.4964 
3 *33:26 *184:B 9.83571 
4 *33:26 *183:B 9.3 
*END

*D_NET *34 0.000613939
*CONN
*I *185:A I *D sky130_fd_sc_hd__nand2_1
*I *183:Y O *D sky130_fd_sc_hd__nand2_1
*CAP
1 *185:A 0.000182247
2 *183:Y 0.000182247
3 *185:A *184:A 1.21289e-05
4 *185:A *185:B 0.00012073
5 *185:A *187:A 1.57296e-05
6 *185:A *36:6 1.92789e-05
7 *184:B *185:A 2.44318e-05
8 *33:26 *185:A 5.71472e-05
*RES
1 *183:Y *185:A 22.3321 
*END

*D_NET *35 0.000232152
*CONN
*I *185:B I *D sky130_fd_sc_hd__nand2_1
*I *184:Y O *D sky130_fd_sc_hd__nand2_1
*CAP
1 *185:B 3.4566e-05
2 *184:Y 3.4566e-05
3 *185:B *184:A 4.22908e-05
4 *185:A *185:B 0.00012073
5 *33:26 *185:B 0
*RES
1 *184:Y *185:B 19.975 
*END

*D_NET *36 0.000495284
*CONN
*I *188:A I *D sky130_fd_sc_hd__nand2_1
*I *187:A I *D sky130_fd_sc_hd__nand2_1
*I *185:Y O *D sky130_fd_sc_hd__nand2_1
*CAP
1 *188:A 7.9845e-05
2 *187:A 5.06513e-05
3 *185:Y 2.88873e-05
4 *36:6 0.000159383
5 *187:A *184:A 0
6 *187:A *189:B 0
7 *187:A *190:B 4.0342e-06
8 *188:A *184:A 3.99614e-06
9 *188:A *190:A 8.00806e-05
10 *188:A *37:23 5.33978e-05
11 *185:A *187:A 1.57296e-05
12 *185:A *36:6 1.92789e-05
13 *191:A *188:A 0
14 *32:10 *188:A 0
*RES
1 *185:Y *36:6 9.83571 
2 *36:6 *187:A 10.2643 
3 *36:6 *188:A 20.3714 
*END

*D_NET *37 0.00105102
*CONN
*I *191:B I *D sky130_fd_sc_hd__nand2_1
*I *188:B I *D sky130_fd_sc_hd__nand2_1
*I *189:B I *D sky130_fd_sc_hd__nand2_1
*I *187:Y O *D sky130_fd_sc_hd__nand2_1
*CAP
1 *191:B 0.000101993
2 *188:B 0
3 *189:B 0.000128943
4 *187:Y 0
5 *37:23 0.000293853
6 *37:4 0.000320802
7 *189:B *190:B 2.15137e-05
8 *37:23 *190:A 7.79781e-06
9 *187:A *189:B 0
10 *187:B *189:B 5.52302e-05
11 *188:A *37:23 5.33978e-05
12 *32:10 *37:23 6.74911e-05
*RES
1 *187:Y *37:4 9.3 
2 *37:4 *189:B 11.4964 
3 *37:4 *37:23 12.8393 
4 *37:23 *188:B 9.3 
5 *37:23 *191:B 11.0679 
*END

*D_NET *38 0.000663255
*CONN
*I *190:A I *D sky130_fd_sc_hd__nand2_1
*I *188:Y O *D sky130_fd_sc_hd__nand2_1
*CAP
1 *190:A 0.000246891
2 *188:Y 0.000246891
3 *190:A *190:B 8.15939e-05
4 *190:A *108:10 0
5 *190:A *117:18 0
6 *188:A *190:A 8.00806e-05
7 *191:A *190:A 0
8 *37:23 *190:A 7.79781e-06
*RES
1 *188:Y *190:A 31.975 
*END

*D_NET *39 0.00181609
*CONN
*I *242:A I *D sky130_fd_sc_hd__inv_1
*I *231:Y O *D sky130_fd_sc_hd__nand2_1
*CAP
1 *242:A 0.00062354
2 *231:Y 0.00062354
3 *242:A *186:A 7.30232e-05
4 *242:A *215:A 0.000150625
5 *242:A *279:B 1.04232e-05
6 *242:A *281:A 1.74352e-05
7 *242:A *89:6 9.08145e-05
8 *242:A *127:6 5.71472e-05
9 *242:A *127:8 0
10 *242:A *130:16 0
11 *175:A *242:A 4.75812e-05
12 *214:A *242:A 1.55885e-05
13 *231:B *242:A 0.00010637
14 *275:A *242:A 0
*RES
1 *231:Y *242:A 38.8455 
*END

*D_NET *40 0.000579874
*CONN
*I *190:B I *D sky130_fd_sc_hd__nand2_1
*I *189:Y O *D sky130_fd_sc_hd__nand2_1
*CAP
1 *190:B 0.000226721
2 *189:Y 0.000226721
3 *187:A *190:B 4.0342e-06
4 *187:B *190:B 1.92905e-05
5 *189:B *190:B 2.15137e-05
6 *190:A *190:B 8.15939e-05
*RES
1 *189:Y *190:B 31.3143 
*END

*D_NET *41 0.00108564
*CONN
*I *199:A I *D sky130_fd_sc_hd__nand2_1
*I *196:B I *D sky130_fd_sc_hd__nand2_1
*I *191:Y O *D sky130_fd_sc_hd__nand2_1
*CAP
1 *199:A 8.72018e-05
2 *196:B 0.000177479
3 *191:Y 0.000228549
4 *41:6 0.00049323
5 *196:B *198:A 5.65955e-05
6 *199:A *198:A 0
7 *199:A *108:10 4.25809e-05
*RES
1 *191:Y *41:6 11.8893 
2 *41:6 *196:B 12.6214 
3 *41:6 *199:A 19.9429 
*END

*D_NET *42 0.000683319
*CONN
*I *193:B I *D sky130_fd_sc_hd__nand2_1
*I *194:B I *D sky130_fd_sc_hd__nand2_1
*I *201:A I *D sky130_fd_sc_hd__nand2_1
*I *192:Y O *D sky130_fd_sc_hd__nand2_1
*CAP
1 *193:B 1.33828e-05
2 *194:B 0
3 *201:A 1.17599e-05
4 *192:Y 7.40416e-05
5 *42:12 8.32616e-05
6 *42:8 0.000158926
7 *193:B *194:A 1.02132e-05
8 *201:A *200:A 3.13687e-05
9 *42:8 *193:A 5.65955e-05
10 *42:8 *194:A 4.73286e-05
11 *42:8 *195:A 4.30071e-05
12 *42:12 *194:A 3.66325e-05
13 *42:12 *195:A 5.47047e-05
14 *42:12 *200:A 1.56e-05
15 *42:12 *46:18 1.17091e-05
16 p[7] *201:A 2.2351e-05
17 p[7] *42:12 1.24368e-05
*RES
1 *192:Y *42:8 11.0857 
2 *42:8 *42:12 1.78571 
3 *42:12 *201:A 9.83571 
4 *42:12 *194:B 9.3 
5 *42:8 *193:B 9.72857 
*END

*D_NET *43 0.0007808
*CONN
*I *195:A I *D sky130_fd_sc_hd__nand2_1
*I *193:Y O *D sky130_fd_sc_hd__nand2_1
*CAP
1 *195:A 0.000212801
2 *193:Y 0.000212801
3 *195:A *195:B 0.000159141
4 *195:A *45:8 9.83442e-05
5 *42:8 *195:A 4.30071e-05
6 *42:12 *195:A 5.47047e-05
*RES
1 *193:Y *195:A 31.6714 
*END

*D_NET *44 0.000432984
*CONN
*I *195:B I *D sky130_fd_sc_hd__nand2_1
*I *194:Y O *D sky130_fd_sc_hd__nand2_1
*CAP
1 *195:B 0.000121692
2 *194:Y 0.000121692
3 *195:B *45:8 2.12087e-05
4 p[7] *195:B 9.25014e-06
5 *195:A *195:B 0.000159141
*RES
1 *194:Y *195:B 30.1893 
*END

*D_NET *45 0.0010948
*CONN
*I *196:A I *D sky130_fd_sc_hd__nand2_1
*I *198:A I *D sky130_fd_sc_hd__nand2_1
*I *195:Y O *D sky130_fd_sc_hd__nand2_1
*CAP
1 *196:A 2.22847e-05
2 *198:A 0.000153997
3 *195:Y 0.000192312
4 *45:8 0.000368593
5 *198:A *46:12 0.000181464
6 *198:A *108:10 0
7 *195:A *45:8 9.83442e-05
8 *195:B *45:8 2.12087e-05
9 *196:B *198:A 5.65955e-05
10 *199:A *198:A 0
*RES
1 *195:Y *45:8 11.9071 
2 *45:8 *198:A 21.6036 
3 *45:8 *196:A 9.72857 
*END

*D_NET *46 0.00075098
*CONN
*I *201:B I *D sky130_fd_sc_hd__nand2_1
*I *198:B I *D sky130_fd_sc_hd__nand2_1
*I *199:B I *D sky130_fd_sc_hd__nand2_1
*I *196:Y O *D sky130_fd_sc_hd__nand2_1
*CAP
1 *201:B 0
2 *198:B 0
3 *199:B 1.94297e-05
4 *196:Y 0.00011588
5 *46:18 0.000126229
6 *46:12 0.000222679
7 *199:B *200:B 2.17647e-05
8 *46:18 *184:A 0
9 *46:18 *200:A 3.04311e-05
10 *46:18 *200:B 7.92229e-06
11 p[7] *46:12 1.34698e-05
12 *198:A *46:12 0.000181464
13 *42:12 *46:18 1.17091e-05
*RES
1 *196:Y *46:12 20.4786 
2 *46:12 *46:18 2.21429 
3 *46:18 *199:B 9.83571 
4 *46:18 *198:B 9.3 
5 *46:12 *201:B 9.3 
*END

*D_NET *47 0.00101254
*CONN
*I *200:A I *D sky130_fd_sc_hd__nand2_1
*I *198:Y O *D sky130_fd_sc_hd__nand2_1
*CAP
1 *200:A 0.000183093
2 *198:Y 0.000183093
3 *200:A *200:B 0.000379335
4 *200:A *117:18 1.58163e-05
5 p[7] *200:A 0.000173804
6 *201:A *200:A 3.13687e-05
7 *42:12 *200:A 1.56e-05
8 *46:18 *200:A 3.04311e-05
*RES
1 *198:Y *200:A 32.975 
*END

*D_NET *48 0.00120738
*CONN
*I *200:B I *D sky130_fd_sc_hd__nand2_1
*I *199:Y O *D sky130_fd_sc_hd__nand2_1
*CAP
1 *200:B 0.000389476
2 *199:Y 0.000389476
3 *200:B *117:18 1.94056e-05
4 *199:B *200:B 2.17647e-05
5 *200:A *200:B 0.000379335
6 *46:18 *200:B 7.92229e-06
*RES
1 *199:Y *200:B 34.0286 
*END

*D_NET *49 0.00123551
*CONN
*I *235:A I *D sky130_fd_sc_hd__nand2_1
*I *234:A I *D sky130_fd_sc_hd__nand2_1
*I *242:Y O *D sky130_fd_sc_hd__inv_1
*CAP
1 *235:A 0.000110953
2 *234:A 0.000155332
3 *242:Y 3.24771e-05
4 *49:6 0.000298762
5 *234:A *238:A 3.1001e-05
6 *234:A *55:8 3.77834e-05
7 *234:A *86:8 0.000225558
8 *234:A *89:6 0.000180348
9 *235:A *235:B 7.24799e-05
10 *235:A *236:B 1.41642e-05
11 *49:6 *89:6 7.66493e-05
*RES
1 *242:Y *49:6 10.0411 
2 *49:6 *234:A 13.4429 
3 *49:6 *235:A 20.55 
*END

*D_NET *50 0.000572912
*CONN
*I *264:A I *D sky130_fd_sc_hd__inv_1
*I *253:Y O *D sky130_fd_sc_hd__nand2_1
*CAP
1 *264:A 0.000108742
2 *253:Y 0.000108742
3 *264:A *202:A 0.000267298
4 *264:A *217:A 4.43213e-05
5 *209:B *264:A 1.52769e-05
6 *3:34 *264:A 2.85321e-05
*RES
1 *253:Y *264:A 21.8991 
*END

*D_NET *51 0.000942124
*CONN
*I *223:A I *D sky130_fd_sc_hd__nand2_1
*I *224:A I *D sky130_fd_sc_hd__nand2_1
*I *264:Y O *D sky130_fd_sc_hd__inv_1
*CAP
1 *223:A 0
2 *224:A 7.33263e-06
3 *264:Y 0.000207654
4 *51:8 0.000214986
5 *224:A *225:A 5.66971e-05
6 *224:A *76:10 2.38501e-05
7 *51:8 *202:A 0.000260003
8 *51:8 *223:B 5.46383e-06
9 *51:8 *225:A 4.77002e-05
10 *51:8 *57:6 4.30069e-05
11 *51:8 *76:10 7.54302e-05
*RES
1 *264:Y *51:8 14.1661 
2 *51:8 *224:A 9.83571 
3 *51:8 *223:A 9.3 
*END

*D_NET *52 0.000218866
*CONN
*I *286:A I *D sky130_fd_sc_hd__inv_1
*I *275:Y O *D sky130_fd_sc_hd__nand2_1
*CAP
1 *286:A 6.8002e-05
2 *275:Y 6.8002e-05
3 *7:19 *286:A 8.28621e-05
*RES
1 *275:Y *286:A 20.2563 
*END

*D_NET *53 0.000833667
*CONN
*I *271:A I *D sky130_fd_sc_hd__nand2_1
*I *269:B I *D sky130_fd_sc_hd__nand2_1
*I *286:Y O *D sky130_fd_sc_hd__inv_1
*CAP
1 *271:A 0
2 *269:B 5.62671e-05
3 *286:Y 0.000184255
4 *53:12 0.000240522
5 *53:12 *271:B 3.41848e-05
6 *53:12 *119:10 3.75959e-05
7 *209:A *269:B 3.50746e-05
8 *220:A *269:B 7.22772e-05
9 *3:26 *269:B 0.000149574
10 *7:19 *53:12 2.3917e-05
*RES
1 *286:Y *53:12 20.9875 
2 *53:12 *269:B 11.5143 
3 *53:12 *271:A 9.3 
*END

*D_NET *54 0.000814705
*CONN
*I *186:A I *D sky130_fd_sc_hd__inv_1
*I *175:Y O *D sky130_fd_sc_hd__nand2_1
*CAP
1 *186:A 0.000318728
2 *175:Y 0.000318728
3 *186:A *89:6 0.000104226
4 *242:A *186:A 7.30232e-05
*RES
1 *175:Y *186:A 33.5598 
*END

*D_NET *55 0.00118897
*CONN
*I *234:B I *D sky130_fd_sc_hd__nand2_1
*I *236:A I *D sky130_fd_sc_hd__nand2_1
*I *186:Y O *D sky130_fd_sc_hd__inv_1
*CAP
1 *234:B 0
2 *236:A 0.000217904
3 *186:Y 0.000132383
4 *55:8 0.000350287
5 *236:A *236:B 5.52238e-05
6 *236:A *237:B 0.000265801
7 *236:A *130:16 6.19831e-05
8 *55:8 *238:A 8.29398e-06
9 *55:8 *89:6 5.93125e-05
10 *234:A *55:8 3.77834e-05
*RES
1 *186:Y *55:8 11.7018 
2 *55:8 *236:A 22.8536 
3 *55:8 *234:B 9.3 
*END

*D_NET *56 0.00135324
*CONN
*I *202:A I *D sky130_fd_sc_hd__inv_1
*I *197:Y O *D sky130_fd_sc_hd__nand2_1
*CAP
1 *202:A 0.000386547
2 *197:Y 0.000386547
3 *264:A *202:A 0.000267298
4 *3:34 *202:A 5.28431e-05
5 *51:8 *202:A 0.000260003
*RES
1 *197:Y *202:A 26.3589 
*END

*D_NET *57 0.000812126
*CONN
*I *223:B I *D sky130_fd_sc_hd__nand2_1
*I *225:A I *D sky130_fd_sc_hd__nand2_1
*I *202:Y O *D sky130_fd_sc_hd__inv_1
*CAP
1 *223:B 1.95116e-05
2 *225:A 0.000107144
3 *202:Y 2.56833e-05
4 *57:6 0.000152339
5 *225:A *225:B 6.29153e-05
6 *225:A *226:A 0.000195587
7 *225:A *226:B 4.13389e-05
8 *225:A *76:10 5.4739e-05
9 *224:A *225:A 5.66971e-05
10 *51:8 *223:B 5.46383e-06
11 *51:8 *225:A 4.77002e-05
12 *51:8 *57:6 4.30069e-05
*RES
1 *202:Y *57:6 10.0411 
2 *57:6 *225:A 13.1393 
3 *57:6 *223:B 9.72857 
*END

*D_NET *58 0.000547909
*CONN
*I *204:A I *D sky130_fd_sc_hd__inv_1
*I *203:Y O *D sky130_fd_sc_hd__nand2_1
*CAP
1 *204:A 0.000208573
2 *203:Y 0.000208573
3 *204:A *229:A 2.53112e-06
4 *210:A *204:A 0.000100165
5 *6:15 *204:A 2.80684e-05
*RES
1 *203:Y *204:A 30.7741 
*END

*D_NET *59 0.000436107
*CONN
*I *228:A I *D sky130_fd_sc_hd__nand2_1
*I *229:A I *D sky130_fd_sc_hd__nand2_1
*I *204:Y O *D sky130_fd_sc_hd__inv_1
*CAP
1 *228:A 0
2 *229:A 0.000114467
3 *204:Y 3.00787e-05
4 *59:6 0.000144545
5 *229:A *211:A 2.53112e-06
6 *229:A *233:A 4.27842e-06
7 *229:A *81:10 5.92441e-05
8 *204:A *229:A 2.53112e-06
9 *6:15 *59:6 7.84309e-05
*RES
1 *204:Y *59:6 10.0411 
2 *59:6 *229:A 20.55 
3 *59:6 *228:A 9.3 
*END

*D_NET *60 0.000518254
*CONN
*I *206:A I *D sky130_fd_sc_hd__inv_1
*I *205:Y O *D sky130_fd_sc_hd__nand2_1
*CAP
1 *206:A 0.000191967
2 *205:Y 0.000191967
3 *206:A *273:A 6.94081e-05
4 *207:A *206:A 2.59355e-05
5 *5:13 *206:A 1.98839e-05
6 *8:13 *206:A 1.90936e-05
*RES
1 *205:Y *206:A 30.7741 
*END

*D_NET *61 0.000652722
*CONN
*I *274:A I *D sky130_fd_sc_hd__nand2_1
*I *276:A I *D sky130_fd_sc_hd__nand2_1
*I *206:Y O *D sky130_fd_sc_hd__inv_1
*CAP
1 *274:A 0.000113273
2 *276:A 0
3 *206:Y 0.00018906
4 *61:12 0.000302333
5 *274:A *276:B 4.80569e-05
6 *274:A *277:B 0
7 *61:12 *122:12 0
*RES
1 *206:Y *61:12 20.6839 
2 *61:12 *276:A 9.3 
3 *61:12 *274:A 11.5143 
*END

*D_NET *62 0.000903879
*CONN
*I *208:A I *D sky130_fd_sc_hd__inv_1
*I *207:Y O *D sky130_fd_sc_hd__nand2_1
*CAP
1 *208:A 0.000266989
2 *207:Y 0.000266989
3 *208:A *215:A 0.000287609
4 *208:A *69:6 8.22919e-05
*RES
1 *207:Y *208:A 24.2741 
*END

*D_NET *63 0.000851319
*CONN
*I *239:A I *D sky130_fd_sc_hd__nand2_1
*I *240:A I *D sky130_fd_sc_hd__nand2_1
*I *208:Y O *D sky130_fd_sc_hd__inv_1
*CAP
1 *239:A 0
2 *240:A 0.000209754
3 *208:Y 6.65184e-05
4 *63:6 0.000276272
5 *240:A *241:A 0
6 *240:A *69:6 5.49544e-05
7 *240:A *91:6 3.69047e-06
8 *240:A *91:12 7.50601e-05
9 *63:6 *69:6 0.00016507
*RES
1 *208:Y *63:6 10.8625 
2 *63:6 *240:A 21.6929 
3 *63:6 *239:A 9.3 
*END

*D_NET *64 0.000479803
*CONN
*I *211:A I *D sky130_fd_sc_hd__inv_1
*I *210:Y O *D sky130_fd_sc_hd__nand2_1
*CAP
1 *211:A 0.000146455
2 *210:Y 0.000146455
3 *211:A *228:B 2.80684e-05
4 *210:B *211:A 1.29975e-05
5 *221:B *211:A 1.3457e-05
6 *229:A *211:A 2.53112e-06
7 *253:B *211:A 0.000101771
8 *6:15 *211:A 2.80684e-05
*RES
1 *210:Y *211:A 30.3634 
*END

*D_NET *65 0.000598661
*CONN
*I *228:B I *D sky130_fd_sc_hd__nand2_1
*I *230:A I *D sky130_fd_sc_hd__nand2_1
*I *211:Y O *D sky130_fd_sc_hd__inv_1
*CAP
1 *228:B 7.45767e-05
2 *230:A 9.194e-05
3 *211:Y 0
4 *65:4 0.000166517
5 *228:B *81:10 1.32293e-05
6 *230:A *222:A 0.000123359
7 *230:A *81:10 3.98645e-05
8 *211:A *228:B 2.80684e-05
9 *6:15 *228:B 4.19235e-05
10 *6:15 *230:A 1.91838e-05
*RES
1 *211:Y *65:4 9.3 
2 *65:4 *230:A 20.5768 
3 *65:4 *228:B 10.8804 
*END

*D_NET *66 0.000234955
*CONN
*I *213:A I *D sky130_fd_sc_hd__inv_1
*I *212:Y O *D sky130_fd_sc_hd__nand2_1
*CAP
1 *213:A 9.71285e-05
2 *212:Y 9.71285e-05
3 *213:A *219:A 4.0698e-05
*RES
1 *212:Y *213:A 29.4795 
*END

*D_NET *67 0.000734083
*CONN
*I *260:A I *D sky130_fd_sc_hd__nand2_1
*I *259:A I *D sky130_fd_sc_hd__nand2_1
*I *213:Y O *D sky130_fd_sc_hd__inv_1
*CAP
1 *260:A 0
2 *259:A 2.36895e-05
3 *213:Y 0.000179338
4 *67:12 0.000203027
5 *259:A *260:B 5.52238e-05
6 *67:12 *259:B 0.000160199
7 *67:12 *261:A 0.000112605
*RES
1 *213:Y *67:12 21.8089 
2 *67:12 *259:A 9.83571 
3 *67:12 *260:A 9.3 
*END

*D_NET *68 0.00100581
*CONN
*I *215:A I *D sky130_fd_sc_hd__inv_1
*I *214:Y O *D sky130_fd_sc_hd__nand2_1
*CAP
1 *215:A 0.00016895
2 *214:Y 0.00016895
3 *175:A *215:A 0.000172113
4 *175:B *215:A 2.61505e-05
5 *208:A *215:A 0.000287609
6 *242:A *215:A 0.000150625
7 *8:13 *215:A 1.39726e-05
8 *8:15 *215:A 1.74352e-05
*RES
1 *214:Y *215:A 33.2562 
*END

*D_NET *69 0.00145955
*CONN
*I *239:B I *D sky130_fd_sc_hd__nand2_1
*I *241:A I *D sky130_fd_sc_hd__nand2_1
*I *215:Y O *D sky130_fd_sc_hd__inv_1
*CAP
1 *239:B 1.99857e-05
2 *241:A 0.000265383
3 *215:Y 0.000181263
4 *69:6 0.000466631
5 *239:B *248:A 1.04232e-05
6 *241:A *244:A 0
7 *241:A *246:B 0
8 *241:A *248:A 0.000142856
9 *241:A *248:B 0
10 *241:A *91:6 1.15281e-05
11 *241:A *91:12 5.16852e-05
12 *241:A *99:14 0
13 *69:6 *91:6 7.48301e-06
14 *208:A *69:6 8.22919e-05
15 *240:A *241:A 0
16 *240:A *69:6 5.49544e-05
17 *63:6 *69:6 0.00016507
*RES
1 *215:Y *69:6 12.9161 
2 *69:6 *241:A 23.2286 
3 *69:6 *239:B 9.72857 
*END

*D_NET *70 0.000493246
*CONN
*I *217:A I *D sky130_fd_sc_hd__inv_1
*I *216:Y O *D sky130_fd_sc_hd__nand2_1
*CAP
1 *217:A 0.000160493
2 *216:Y 0.000160493
3 *264:A *217:A 4.43213e-05
4 *6:25 *217:A 0.000127939
*RES
1 *216:Y *217:A 30.4259 
*END

*D_NET *71 0.000913004
*CONN
*I *250:A I *D sky130_fd_sc_hd__nand2_1
*I *249:A I *D sky130_fd_sc_hd__nand2_1
*I *217:Y O *D sky130_fd_sc_hd__inv_1
*CAP
1 *250:A 6.74053e-05
2 *249:A 0
3 *217:Y 0.00023001
4 *71:14 0.000297416
5 *250:A *249:B 4.64641e-05
6 *250:A *250:B 0.000135002
7 *250:A *100:8 1.02911e-05
8 *6:25 *71:14 0.000126416
*RES
1 *217:Y *71:14 21.9339 
2 *71:14 *249:A 9.3 
3 *71:14 *250:A 11.5143 
*END

*D_NET *72 0.00023864
*CONN
*I *219:A I *D sky130_fd_sc_hd__inv_1
*I *218:Y O *D sky130_fd_sc_hd__nand2_1
*CAP
1 *219:A 9.32438e-05
2 *218:Y 9.32438e-05
3 *219:A *259:B 1.14548e-05
4 *213:A *219:A 4.0698e-05
*RES
1 *218:Y *219:A 29.4795 
*END

*D_NET *73 0.00125302
*CONN
*I *261:A I *D sky130_fd_sc_hd__nand2_1
*I *259:B I *D sky130_fd_sc_hd__nand2_1
*I *219:Y O *D sky130_fd_sc_hd__inv_1
*CAP
1 *261:A 0.000232723
2 *259:B 0.000209627
3 *219:Y 0
4 *73:4 0.00044235
5 *259:B *260:B 1.24368e-05
6 *259:B *265:A 4.1331e-06
7 *261:A *262:A 6.74911e-05
8 *261:A *265:A 0
9 *219:A *259:B 1.14548e-05
10 *67:12 *259:B 0.000160199
11 *67:12 *261:A 0.000112605
*RES
1 *219:Y *73:4 9.3 
2 *73:4 *259:B 22.6482 
3 *73:4 *261:A 23.0054 
*END

*D_NET *74 0.000853813
*CONN
*I *222:A I *D sky130_fd_sc_hd__inv_1
*I *221:Y O *D sky130_fd_sc_hd__nand2_1
*CAP
1 *222:A 0.000347727
2 *221:Y 0.000347727
3 *222:A *75:14 1.66955e-05
4 *230:A *222:A 0.000123359
5 *6:15 *222:A 1.83053e-05
*RES
1 *221:Y *222:A 33.158 
*END

*D_NET *75 0.000544304
*CONN
*I *192:A I *D sky130_fd_sc_hd__nand2_1
*I *193:A I *D sky130_fd_sc_hd__nand2_1
*I *222:Y O *D sky130_fd_sc_hd__inv_1
*CAP
1 *192:A 0
2 *193:A 7.41148e-06
3 *222:Y 0.000172323
4 *75:14 0.000179734
5 *193:A *194:A 5.65955e-05
6 *75:14 *194:A 5.49489e-05
7 *222:A *75:14 1.66955e-05
8 *42:8 *193:A 5.65955e-05
*RES
1 *222:Y *75:14 20.8089 
2 *75:14 *193:A 9.83571 
3 *75:14 *192:A 9.3 
*END

*D_NET *76 0.000764473
*CONN
*I *227:A I *D sky130_fd_sc_hd__inv_1
*I *224:B I *D sky130_fd_sc_hd__nand2_1
*I *225:B I *D sky130_fd_sc_hd__nand2_1
*I *223:Y O *D sky130_fd_sc_hd__nand2_1
*CAP
1 *227:A 0.000119191
2 *224:B 0
3 *225:B 1.87153e-05
4 *223:Y 0
5 *76:10 0.000154578
6 *76:4 0.000255054
7 *224:A *76:10 2.38501e-05
8 *225:A *225:B 6.29153e-05
9 *225:A *76:10 5.4739e-05
10 *51:8 *76:10 7.54302e-05
*RES
1 *223:Y *76:4 9.3 
2 *76:4 *76:10 2.625 
3 *76:10 *225:B 10.2196 
4 *76:10 *224:B 9.3 
5 *76:4 *227:A 20.2241 
*END

*D_NET *77 0.000618406
*CONN
*I *226:A I *D sky130_fd_sc_hd__nand2_1
*I *224:Y O *D sky130_fd_sc_hd__nand2_1
*CAP
1 *226:A 0.000173076
2 *224:Y 0.000173076
3 *226:A *226:B 2.16663e-05
4 *226:A *79:12 5.49995e-05
5 *225:A *226:A 0.000195587
*RES
1 *224:Y *226:A 22.3321 
*END

*D_NET *78 0.000188062
*CONN
*I *226:B I *D sky130_fd_sc_hd__nand2_1
*I *225:Y O *D sky130_fd_sc_hd__nand2_1
*CAP
1 *226:B 6.25283e-05
2 *225:Y 6.25283e-05
3 *225:A *226:B 4.13389e-05
4 *226:A *226:B 2.16663e-05
*RES
1 *225:Y *226:B 19.975 
*END

*D_NET *79 0.000802644
*CONN
*I *284:A I *D sky130_fd_sc_hd__nand2_1
*I *285:A I *D sky130_fd_sc_hd__nand2_1
*I *226:Y O *D sky130_fd_sc_hd__nand2_1
*CAP
1 *284:A 0
2 *285:A 0.000107452
3 *226:Y 0.000203507
4 *79:12 0.000310959
5 *285:A *285:B 5.7661e-06
6 *285:A *287:A 9.7049e-06
7 *285:A *131:6 5.17614e-05
8 *79:12 *284:B 5.80706e-06
9 *79:12 *99:14 5.26869e-05
10 *226:A *79:12 5.49995e-05
11 *292:A *79:12 0
*RES
1 *226:Y *79:12 21.6036 
2 *79:12 *285:A 11.5143 
3 *79:12 *284:A 9.3 
*END

*D_NET *80 0.000997067
*CONN
*I *249:B I *D sky130_fd_sc_hd__nand2_1
*I *251:A I *D sky130_fd_sc_hd__nand2_1
*I *227:Y O *D sky130_fd_sc_hd__inv_1
*CAP
1 *249:B 6.22339e-05
2 *251:A 5.45883e-05
3 *227:Y 0.000114351
4 *80:12 0.000231173
5 *249:B *250:B 7.92229e-06
6 *249:B *252:A 0.000101917
7 *249:B *100:8 0.000152193
8 *251:A *252:A 2.09236e-05
9 *251:A *252:B 3.13637e-05
10 *251:A *100:8 0.000173937
11 *250:A *249:B 4.64641e-05
*RES
1 *227:Y *80:12 19.9696 
2 *80:12 *251:A 11.3893 
3 *80:12 *249:B 12.05 
*END

*D_NET *81 0.000999862
*CONN
*I *233:A I *D sky130_fd_sc_hd__inv_1
*I *229:B I *D sky130_fd_sc_hd__nand2_1
*I *230:B I *D sky130_fd_sc_hd__nand2_1
*I *228:Y O *D sky130_fd_sc_hd__nand2_1
*CAP
1 *233:A 0.000279699
2 *229:B 0
3 *230:B 2.35133e-05
4 *228:Y 0.00010281
5 *81:12 2.35133e-05
6 *81:10 0.000382508
7 *230:B *232:A 5.49995e-05
8 *228:B *81:10 1.32293e-05
9 *229:A *233:A 4.27842e-06
10 *229:A *81:10 5.92441e-05
11 *230:A *81:10 3.98645e-05
12 *6:15 *81:10 1.62025e-05
*RES
1 *228:Y *81:10 15.9786 
2 *81:10 *81:12 4.5 
3 *81:12 *230:B 9.83571 
4 *81:12 *229:B 9.3 
5 *81:10 *233:A 18.5812 
*END

*D_NET *82 0.000556006
*CONN
*I *232:A I *D sky130_fd_sc_hd__nand2_1
*I *229:Y O *D sky130_fd_sc_hd__nand2_1
*CAP
1 *232:A 0.00020817
2 *229:Y 0.00020817
3 *232:A *232:B 5.38004e-05
4 *232:A *84:6 3.08664e-05
5 *230:B *232:A 5.49995e-05
*RES
1 *229:Y *232:A 22.0286 
*END

*D_NET *83 0.000194527
*CONN
*I *232:B I *D sky130_fd_sc_hd__nand2_1
*I *230:Y O *D sky130_fd_sc_hd__nand2_1
*CAP
1 *232:B 7.03635e-05
2 *230:Y 7.03635e-05
3 *232:A *232:B 5.38004e-05
*RES
1 *230:Y *232:B 19.975 
*END

*D_NET *84 0.00164665
*CONN
*I *256:A I *D sky130_fd_sc_hd__nand2_1
*I *254:B I *D sky130_fd_sc_hd__nand2_1
*I *232:Y O *D sky130_fd_sc_hd__nand2_1
*CAP
1 *256:A 0.000241301
2 *254:B 2.00509e-05
3 *232:Y 0.000326684
4 *84:6 0.000588036
5 *254:B *255:A 5.46383e-06
6 *254:B *258:B 0
7 *256:A *256:B 3.18964e-05
8 *256:A *104:6 0.000144773
9 *256:A *104:10 0.000257575
10 *232:A *84:6 3.08664e-05
*RES
1 *232:Y *84:6 14.7643 
2 *84:6 *254:B 9.72857 
3 *84:6 *256:A 14.6929 
*END

*D_NET *85 0.000672704
*CONN
*I *266:A I *D sky130_fd_sc_hd__nand2_1
*I *263:B I *D sky130_fd_sc_hd__nand2_1
*I *233:Y O *D sky130_fd_sc_hd__inv_1
*CAP
1 *266:A 0
2 *263:B 4.27504e-05
3 *233:Y 0.000143714
4 *85:12 0.000186465
5 *263:B *266:B 4.80569e-05
6 *263:B *267:A 0.000157065
7 *263:B *267:B 3.93346e-05
8 *263:B *112:10 1.97695e-05
9 *263:B *118:8 1.21289e-05
10 *85:12 *265:A 0
11 *85:12 *267:A 2.34204e-05
*RES
1 *233:Y *85:12 20.2732 
2 *85:12 *263:B 11.5143 
3 *85:12 *266:A 9.3 
*END

*D_NET *86 0.00180028
*CONN
*I *238:A I *D sky130_fd_sc_hd__inv_1
*I *236:B I *D sky130_fd_sc_hd__nand2_1
*I *235:B I *D sky130_fd_sc_hd__nand2_1
*I *234:Y O *D sky130_fd_sc_hd__nand2_1
*CAP
1 *238:A 0.000160551
2 *236:B 0.000194857
3 *235:B 7.59914e-05
4 *234:Y 0.000322422
5 *86:8 0.000432719
6 *235:B *237:A 7.6644e-05
7 *236:B *237:A 6.91157e-05
8 *236:B *237:B 3.23634e-05
9 *236:B *130:16 2.89016e-05
10 *234:A *238:A 3.1001e-05
11 *234:A *86:8 0.000225558
12 *235:A *235:B 7.24799e-05
13 *235:A *236:B 1.41642e-05
14 *236:A *236:B 5.52238e-05
15 *55:8 *238:A 8.29398e-06
*RES
1 *234:Y *86:8 15.9786 
2 *86:8 *235:B 15.7464 
3 *86:8 *236:B 17.4964 
4 *234:Y *238:A 21.4884 
*END

*D_NET *87 0.000524541
*CONN
*I *237:A I *D sky130_fd_sc_hd__nand2_1
*I *235:Y O *D sky130_fd_sc_hd__nand2_1
*CAP
1 *237:A 0.000186702
2 *235:Y 0.000186702
3 *237:A *237:B 5.37741e-06
4 *235:B *237:A 7.6644e-05
5 *236:B *237:A 6.91157e-05
*RES
1 *235:Y *237:A 30.4929 
*END

*D_NET *88 0.000614745
*CONN
*I *237:B I *D sky130_fd_sc_hd__nand2_1
*I *236:Y O *D sky130_fd_sc_hd__nand2_1
*CAP
1 *237:B 0.000155601
2 *236:Y 0.000155601
3 *236:A *237:B 0.000265801
4 *236:B *237:B 3.23634e-05
5 *237:A *237:B 5.37741e-06
*RES
1 *236:Y *237:B 30.6 
*END

*D_NET *89 0.00101213
*CONN
*I *281:A I *D sky130_fd_sc_hd__nand2_1
*I *279:B I *D sky130_fd_sc_hd__nand2_1
*I *237:Y O *D sky130_fd_sc_hd__nand2_1
*CAP
1 *281:A 6.97639e-05
2 *279:B 1.39026e-05
3 *237:Y 0.000124028
4 *89:6 0.000207694
5 *281:A *283:A 0
6 *281:A *127:6 5.17614e-05
7 *281:A *127:8 5.7661e-06
8 *186:A *89:6 0.000104226
9 *234:A *89:6 0.000180348
10 *242:A *279:B 1.04232e-05
11 *242:A *281:A 1.74352e-05
12 *242:A *89:6 9.08145e-05
13 *49:6 *89:6 7.66493e-05
14 *55:8 *89:6 5.93125e-05
*RES
1 *237:Y *89:6 13.1214 
2 *89:6 *279:B 9.72857 
3 *89:6 *281:A 11.0857 
*END

*D_NET *90 0.00112314
*CONN
*I *246:A I *D sky130_fd_sc_hd__nand2_1
*I *244:B I *D sky130_fd_sc_hd__nand2_1
*I *238:Y O *D sky130_fd_sc_hd__inv_1
*CAP
1 *246:A 2.23854e-05
2 *244:B 0.000126907
3 *238:Y 0.000177747
4 *90:6 0.00032704
5 *244:B *246:B 0.000203426
6 *244:B *247:B 0.000265638
*RES
1 *238:Y *90:6 12.0946 
2 *90:6 *244:B 22.0143 
3 *90:6 *246:A 9.72857 
*END

*D_NET *91 0.00153603
*CONN
*I *248:A I *D sky130_fd_sc_hd__nand2_1
*I *241:B I *D sky130_fd_sc_hd__nand2_1
*I *240:B I *D sky130_fd_sc_hd__nand2_1
*I *239:Y O *D sky130_fd_sc_hd__nand2_1
*CAP
1 *248:A 0.000203508
2 *241:B 5.94827e-05
3 *240:B 0
4 *239:Y 7.74034e-05
5 *91:12 0.000143762
6 *91:6 0.000365191
7 *241:B *243:A 1.3701e-05
8 *241:B *243:B 0.000105163
9 *241:B *245:A 1.04232e-05
10 *241:B *245:B 9.7049e-06
11 *241:B *94:6 1.74352e-05
12 *241:B *130:16 0.000227532
13 *239:B *248:A 1.04232e-05
14 *240:A *91:6 3.69047e-06
15 *240:A *91:12 7.50601e-05
16 *241:A *248:A 0.000142856
17 *241:A *91:6 1.15281e-05
18 *241:A *91:12 5.16852e-05
19 *69:6 *91:6 7.48301e-06
*RES
1 *239:Y *91:6 10.2464 
2 *91:6 *91:12 10.9464 
3 *91:12 *240:B 9.3 
4 *91:12 *241:B 12.3357 
5 *91:6 *248:A 13.3357 
*END

*D_NET *92 0.0002386
*CONN
*I *243:A I *D sky130_fd_sc_hd__nand2_1
*I *240:Y O *D sky130_fd_sc_hd__nand2_1
*CAP
1 *243:A 3.33709e-05
2 *240:Y 3.33709e-05
3 *243:A *243:B 6.04158e-05
4 *243:A *130:16 9.77414e-05
5 *241:B *243:A 1.3701e-05
*RES
1 *240:Y *243:A 19.975 
*END

*D_NET *93 0.000744037
*CONN
*I *243:B I *D sky130_fd_sc_hd__nand2_1
*I *241:Y O *D sky130_fd_sc_hd__nand2_1
*CAP
1 *243:B 0.000107564
2 *241:Y 0.000107564
3 *243:B *94:6 0.000319325
4 *243:B *130:16 4.40035e-05
5 *241:B *243:B 0.000105163
6 *243:A *243:B 6.04158e-05
*RES
1 *241:Y *243:B 22.85 
*END

*D_NET *94 0.00143963
*CONN
*I *245:A I *D sky130_fd_sc_hd__nand2_1
*I *244:A I *D sky130_fd_sc_hd__nand2_1
*I *243:Y O *D sky130_fd_sc_hd__nand2_1
*CAP
1 *245:A 3.83339e-05
2 *244:A 0.000155318
3 *243:Y 0.000246235
4 *94:6 0.000439887
5 *244:A *246:B 5.7616e-05
6 *244:A *247:A 9.90431e-05
7 *244:A *130:16 9.22103e-06
8 *245:A *245:B 5.70288e-06
9 *245:A *130:16 3.18676e-05
10 *94:6 *130:16 9.22103e-06
11 *241:A *244:A 0
12 *241:B *245:A 1.04232e-05
13 *241:B *94:6 1.74352e-05
14 *243:B *94:6 0.000319325
*RES
1 *243:Y *94:6 13.1214 
2 *94:6 *244:A 20.8 
3 *94:6 *245:A 10.5679 
*END

*D_NET *95 0.00139905
*CONN
*I *248:B I *D sky130_fd_sc_hd__nand2_1
*I *246:B I *D sky130_fd_sc_hd__nand2_1
*I *245:B I *D sky130_fd_sc_hd__nand2_1
*I *244:Y O *D sky130_fd_sc_hd__nand2_1
*CAP
1 *248:B 0.000156639
2 *246:B 0.000189637
3 *245:B 5.01597e-05
4 *244:Y 5.01597e-05
5 *95:26 0.000346276
6 *245:B *247:A 9.8213e-05
7 *245:B *130:16 0.000142856
8 *248:B *98:10 0
9 *248:B *99:14 8.86597e-05
10 *241:A *246:B 0
11 *241:A *248:B 0
12 *241:B *245:B 9.7049e-06
13 *244:A *246:B 5.7616e-05
14 *244:B *246:B 0.000203426
15 *245:A *245:B 5.70288e-06
*RES
1 *244:Y *245:B 21.1982 
2 *244:Y *95:26 13.8 
3 *95:26 *246:B 17.4964 
4 *95:26 *248:B 16.6929 
*END

*D_NET *96 0.000596648
*CONN
*I *247:A I *D sky130_fd_sc_hd__nand2_1
*I *245:Y O *D sky130_fd_sc_hd__nand2_1
*CAP
1 *247:A 0.000171058
2 *245:Y 0.000171058
3 *247:A *130:16 5.72753e-05
4 *244:A *247:A 9.90431e-05
5 *245:B *247:A 9.8213e-05
*RES
1 *245:Y *247:A 22.0286 
*END

*D_NET *97 0.000708181
*CONN
*I *247:B I *D sky130_fd_sc_hd__nand2_1
*I *246:Y O *D sky130_fd_sc_hd__nand2_1
*CAP
1 *247:B 0.000221271
2 *246:Y 0.000221271
3 *244:B *247:B 0.000265638
*RES
1 *246:Y *247:B 31.0107 
*END

*D_NET *98 0.00107659
*CONN
*I *284:B I *D sky130_fd_sc_hd__nand2_1
*I *287:A I *D sky130_fd_sc_hd__nand2_1
*I *247:Y O *D sky130_fd_sc_hd__nand2_1
*CAP
1 *284:B 1.12076e-05
2 *287:A 0.00013265
3 *247:Y 0.000230802
4 *98:10 0.00037466
5 *284:B *99:14 0
6 *287:A *285:B 1.04232e-05
7 *287:A *288:B 5.52238e-05
8 *287:A *289:A 0
9 *287:A *131:6 2.14658e-05
10 *287:A *131:10 3.76337e-05
11 *98:10 *288:A 0.000129868
12 *98:10 *99:14 0
13 *98:10 *130:16 5.71472e-05
14 *248:B *98:10 0
15 *285:A *287:A 9.7049e-06
16 *292:A *284:B 0
17 *292:A *287:A 0
18 *292:A *98:10 0
19 *79:12 *284:B 5.80706e-06
*RES
1 *247:Y *98:10 18.2554 
2 *98:10 *287:A 16.3982 
3 *98:10 *284:B 14.0768 
*END

*D_NET *99 0.00227791
*CONN
*I *294:A I *D sky130_fd_sc_hd__nand2_1
*I *295:A I *D sky130_fd_sc_hd__nand2_1
*I *248:Y O *D sky130_fd_sc_hd__nand2_1
*CAP
1 *294:A 1.35314e-05
2 *295:A 0.000136124
3 *248:Y 0.000742127
4 *99:14 0.000891783
5 *294:A *294:B 5.46383e-06
6 *294:A *296:A 1.02301e-05
7 *295:A *296:A 3.11088e-05
8 *99:14 *257:B 1.6806e-05
9 *99:14 *296:A 4.77002e-05
10 *99:14 *107:6 7.62237e-05
11 *176:A *295:A 7.25873e-06
12 *176:B *295:A 7.02683e-05
13 *241:A *99:14 0
14 *248:B *99:14 8.86597e-05
15 *284:B *99:14 0
16 *295:B *295:A 5.49995e-05
17 *24:8 *295:A 3.29376e-05
18 *79:12 *99:14 5.26869e-05
19 *98:10 *99:14 0
*RES
1 *248:Y *99:14 31.8714 
2 *99:14 *295:A 12.4429 
3 *99:14 *294:A 9.72857 
*END

*D_NET *100 0.00187975
*CONN
*I *250:B I *D sky130_fd_sc_hd__nand2_1
*I *251:B I *D sky130_fd_sc_hd__nand2_1
*I *258:A I *D sky130_fd_sc_hd__nand2_1
*I *249:Y O *D sky130_fd_sc_hd__nand2_1
*CAP
1 *250:B 0.00013728
2 *251:B 0
3 *258:A 0.000113497
4 *249:Y 0.000485854
5 *100:8 0.00046207
6 *250:B *252:A 6.21108e-05
7 *258:A *257:A 0.000127939
8 *100:8 *252:B 1.16543e-05
9 *249:B *250:B 7.92229e-06
10 *249:B *100:8 0.000152193
11 *250:A *250:B 0.000135002
12 *250:A *100:8 1.02911e-05
13 *251:A *100:8 0.000173937
*RES
1 *249:Y *100:8 14.5679 
2 *100:8 *258:A 20.55 
3 *100:8 *251:B 9.3 
4 *249:Y *250:B 21.225 
*END

*D_NET *101 0.000266029
*CONN
*I *252:A I *D sky130_fd_sc_hd__nand2_1
*I *250:Y O *D sky130_fd_sc_hd__nand2_1
*CAP
1 *252:A 3.78069e-05
2 *250:Y 3.78069e-05
3 *252:A *252:B 5.46383e-06
4 *249:B *252:A 0.000101917
5 *250:B *252:A 6.21108e-05
6 *251:A *252:A 2.09236e-05
*RES
1 *250:Y *252:A 19.975 
*END

*D_NET *102 0.000177334
*CONN
*I *252:B I *D sky130_fd_sc_hd__nand2_1
*I *251:Y O *D sky130_fd_sc_hd__nand2_1
*CAP
1 *252:B 6.4426e-05
2 *251:Y 6.4426e-05
3 *251:A *252:B 3.13637e-05
4 *252:A *252:B 5.46383e-06
5 *100:8 *252:B 1.16543e-05
*RES
1 *251:Y *252:B 19.975 
*END

*D_NET *103 0.0006648
*CONN
*I *254:A I *D sky130_fd_sc_hd__nand2_1
*I *255:A I *D sky130_fd_sc_hd__nand2_1
*I *252:Y O *D sky130_fd_sc_hd__nand2_1
*CAP
1 *254:A 0
2 *255:A 0.000144423
3 *252:Y 0.000108683
4 *103:10 0.000253106
5 *255:A *256:B 1.87331e-05
6 *255:A *258:B 8.95839e-06
7 *255:A *104:6 4.51148e-05
8 *255:A *104:10 8.03178e-05
9 *254:B *255:A 5.46383e-06
*RES
1 *252:Y *103:10 19.9429 
2 *103:10 *255:A 12.3357 
3 *103:10 *254:A 9.3 
*END

*D_NET *104 0.00102445
*CONN
*I *258:B I *D sky130_fd_sc_hd__nand2_1
*I *255:B I *D sky130_fd_sc_hd__nand2_1
*I *256:B I *D sky130_fd_sc_hd__nand2_1
*I *254:Y O *D sky130_fd_sc_hd__nand2_1
*CAP
1 *258:B 1.18449e-05
2 *255:B 0
3 *256:B 8.42553e-05
4 *254:Y 3.16622e-05
5 *104:10 0.000147534
6 *104:6 0.000106786
7 *256:B *257:B 5.49995e-05
8 *254:B *258:B 0
9 *255:A *256:B 1.87331e-05
10 *255:A *258:B 8.95839e-06
11 *255:A *104:6 4.51148e-05
12 *255:A *104:10 8.03178e-05
13 *256:A *256:B 3.18964e-05
14 *256:A *104:6 0.000144773
15 *256:A *104:10 0.000257575
*RES
1 *254:Y *104:6 10.6571 
2 *104:6 *104:10 2.60714 
3 *104:10 *256:B 11.5143 
4 *104:10 *255:B 9.3 
5 *104:6 *258:B 9.72857 
*END

*D_NET *105 0.00027755
*CONN
*I *257:A I *D sky130_fd_sc_hd__nand2_1
*I *255:Y O *D sky130_fd_sc_hd__nand2_1
*CAP
1 *257:A 4.25383e-05
2 *255:Y 4.25383e-05
3 *257:A *257:B 6.45351e-05
4 *258:A *257:A 0.000127939
*RES
1 *255:Y *257:A 29.2429 
*END

*D_NET *106 0.000352802
*CONN
*I *257:B I *D sky130_fd_sc_hd__nand2_1
*I *256:Y O *D sky130_fd_sc_hd__nand2_1
*CAP
1 *257:B 0.000108231
2 *256:Y 0.000108231
3 *256:B *257:B 5.49995e-05
4 *257:A *257:B 6.45351e-05
5 *99:14 *257:B 1.6806e-05
*RES
1 *256:Y *257:B 29.7786 
*END

*D_NET *107 0.000654715
*CONN
*I *294:B I *D sky130_fd_sc_hd__nand2_1
*I *296:A I *D sky130_fd_sc_hd__nand2_1
*I *257:Y O *D sky130_fd_sc_hd__nand2_1
*CAP
1 *294:B 1.39316e-05
2 *296:A 3.78989e-05
3 *257:Y 0.000130715
4 *107:6 0.000182545
5 *294:A *294:B 5.46383e-06
6 *294:A *296:A 1.02301e-05
7 *295:A *296:A 3.11088e-05
8 *24:8 *296:A 0.000118898
9 *99:14 *296:A 4.77002e-05
10 *99:14 *107:6 7.62237e-05
*RES
1 *257:Y *107:6 11.8893 
2 *107:6 *296:A 11.0857 
3 *107:6 *294:B 9.72857 
*END

*D_NET *108 0.00121168
*CONN
*I *182:B I *D sky130_fd_sc_hd__nand2_1
*I *184:A I *D sky130_fd_sc_hd__nand2_1
*I *258:Y O *D sky130_fd_sc_hd__nand2_1
*CAP
1 *182:B 0
2 *184:A 0.000194978
3 *258:Y 0.000217164
4 *108:10 0.000412142
5 *184:A *183:A 5.71472e-05
6 *108:10 *117:18 4.46186e-06
7 *184:B *184:A 5.71472e-05
8 *185:A *184:A 1.21289e-05
9 *185:B *184:A 4.22908e-05
10 *187:A *184:A 0
11 *188:A *184:A 3.99614e-06
12 *190:A *108:10 0
13 *191:A *184:A 5.52302e-05
14 *191:A *108:10 4.25622e-05
15 *198:A *108:10 0
16 *199:A *108:10 4.25809e-05
17 *33:26 *184:A 6.98559e-05
18 *46:18 *184:A 0
*RES
1 *258:Y *108:10 22.3714 
2 *108:10 *184:A 13.5679 
3 *108:10 *182:B 9.3 
*END

*D_NET *109 0.00108318
*CONN
*I *261:B I *D sky130_fd_sc_hd__nand2_1
*I *268:A I *D sky130_fd_sc_hd__nand2_1
*I *260:B I *D sky130_fd_sc_hd__nand2_1
*I *259:Y O *D sky130_fd_sc_hd__nand2_1
*CAP
1 *261:B 0.000155599
2 *268:A 0
3 *260:B 0.000154879
4 *259:Y 0
5 *109:21 0.000219091
6 *109:4 0.000218371
7 *261:B *262:A 5.52238e-05
8 *261:B *262:B 5.97537e-05
9 *261:B *268:B 1.97695e-05
10 *261:B *112:10 2.14757e-05
11 *109:21 *262:A 6.65398e-05
12 *109:21 *265:A 4.48206e-05
13 *259:A *260:B 5.52238e-05
14 *259:B *260:B 1.24368e-05
*RES
1 *259:Y *109:4 9.3 
2 *109:4 *260:B 11.925 
3 *109:4 *109:21 10.6429 
4 *109:21 *268:A 9.3 
5 *109:21 *261:B 12.7464 
*END

*D_NET *110 0.000357577
*CONN
*I *262:A I *D sky130_fd_sc_hd__nand2_1
*I *260:Y O *D sky130_fd_sc_hd__nand2_1
*CAP
1 *262:A 7.74939e-05
2 *260:Y 7.74939e-05
3 *262:A *112:10 1.33343e-05
4 *261:A *262:A 6.74911e-05
5 *261:B *262:A 5.52238e-05
6 *109:21 *262:A 6.65398e-05
*RES
1 *260:Y *262:A 29.7786 
*END

*D_NET *111 0.000205613
*CONN
*I *262:B I *D sky130_fd_sc_hd__nand2_1
*I *261:Y O *D sky130_fd_sc_hd__nand2_1
*CAP
1 *262:B 7.00466e-05
2 *261:Y 7.00466e-05
3 *262:B *112:10 5.7661e-06
4 *261:B *262:B 5.97537e-05
*RES
1 *261:Y *262:B 19.975 
*END

*D_NET *112 0.000742008
*CONN
*I *263:A I *D sky130_fd_sc_hd__nand2_1
*I *265:A I *D sky130_fd_sc_hd__nand2_1
*I *262:Y O *D sky130_fd_sc_hd__nand2_1
*CAP
1 *263:A 0
2 *265:A 9.22484e-05
3 *262:Y 0.000132855
4 *112:10 0.000225104
5 *265:A *265:B 0.000125731
6 *112:10 *268:B 3.93346e-05
7 *112:10 *118:8 1.74352e-05
8 *259:B *265:A 4.1331e-06
9 *261:A *265:A 0
10 *261:B *112:10 2.14757e-05
11 *262:A *112:10 1.33343e-05
12 *262:B *112:10 5.7661e-06
13 *263:B *112:10 1.97695e-05
14 *85:12 *265:A 0
15 *109:21 *265:A 4.48206e-05
*RES
1 *262:Y *112:10 11.925 
2 *112:10 *265:A 20.55 
3 *112:10 *263:A 9.3 
*END

*D_NET *113 0.000847514
*CONN
*I *268:B I *D sky130_fd_sc_hd__nand2_1
*I *266:B I *D sky130_fd_sc_hd__nand2_1
*I *265:B I *D sky130_fd_sc_hd__nand2_1
*I *263:Y O *D sky130_fd_sc_hd__nand2_1
*CAP
1 *268:B 2.99243e-05
2 *266:B 3.96367e-05
3 *265:B 7.91646e-05
4 *263:Y 7.91646e-05
5 *113:22 6.9561e-05
6 *265:B *267:A 0.000105546
7 *266:B *267:B 9.7049e-06
8 *266:B *118:8 0.00010096
9 *268:B *118:8 0.00010096
10 *261:B *268:B 1.97695e-05
11 *263:B *266:B 4.80569e-05
12 *265:A *265:B 0.000125731
13 *112:10 *268:B 3.93346e-05
*RES
1 *263:Y *265:B 29.7786 
2 *263:Y *113:22 9.3 
3 *113:22 *266:B 10.675 
4 *113:22 *268:B 10.675 
*END

*D_NET *114 0.000918792
*CONN
*I *267:A I *D sky130_fd_sc_hd__nand2_1
*I *265:Y O *D sky130_fd_sc_hd__nand2_1
*CAP
1 *267:A 0.000287203
2 *265:Y 0.000287203
3 *267:A *192:B 0
4 *267:A *267:B 2.3484e-05
5 *267:A *118:8 3.48705e-05
6 *263:B *267:A 0.000157065
7 *265:B *267:A 0.000105546
8 *85:12 *267:A 2.34204e-05
*RES
1 *265:Y *267:A 32.7429 
*END

*D_NET *115 0.000240874
*CONN
*I *267:B I *D sky130_fd_sc_hd__nand2_1
*I *266:Y O *D sky130_fd_sc_hd__nand2_1
*CAP
1 *267:B 3.36953e-05
2 *266:Y 3.36953e-05
3 *267:B *118:8 0.00010096
4 *263:B *267:B 3.93346e-05
5 *266:B *267:B 9.7049e-06
6 *267:A *267:B 2.3484e-05
*RES
1 *266:Y *267:B 19.975 
*END

*D_NET *116 0.000330383
*CONN
*I *174:A I *D sky130_fd_sc_hd__inv_1
*I *173:Y O *D sky130_fd_sc_hd__nand2_1
*CAP
1 *174:A 7.12354e-05
2 *173:Y 7.12354e-05
3 *174:A *273:A 0
4 p[0] *174:A 0.000113285
5 *205:B *174:A 2.3541e-05
6 *5:13 *174:A 2.524e-05
7 *7:13 *174:A 7.05143e-06
8 *8:13 *174:A 1.87955e-05
*RES
1 *173:Y *174:A 29.4795 
*END

*D_NET *117 0.00264938
*CONN
*I *182:A I *D sky130_fd_sc_hd__nand2_1
*I *183:A I *D sky130_fd_sc_hd__nand2_1
*I *267:Y O *D sky130_fd_sc_hd__nand2_1
*CAP
1 *182:A 0
2 *183:A 8.95943e-06
3 *267:Y 0.0012397
4 *117:18 0.00124866
5 *184:A *183:A 5.71472e-05
6 *190:A *117:18 0
7 *200:A *117:18 1.58163e-05
8 *200:B *117:18 1.94056e-05
9 *33:26 *183:A 5.52238e-05
10 *108:10 *117:18 4.46186e-06
*RES
1 *267:Y *117:18 42.3179 
2 *117:18 *183:A 9.83571 
3 *117:18 *182:A 9.3 
*END

*D_NET *118 0.00161166
*CONN
*I *192:B I *D sky130_fd_sc_hd__nand2_1
*I *194:A I *D sky130_fd_sc_hd__nand2_1
*I *268:Y O *D sky130_fd_sc_hd__nand2_1
*CAP
1 *192:B 1.83888e-05
2 *194:A 0.000131544
3 *268:Y 0.000369381
4 *118:8 0.000519314
5 *193:A *194:A 5.65955e-05
6 *193:B *194:A 1.02132e-05
7 *263:B *118:8 1.21289e-05
8 *266:B *118:8 0.00010096
9 *267:A *192:B 0
10 *267:A *118:8 3.48705e-05
11 *267:B *118:8 0.00010096
12 *268:B *118:8 0.00010096
13 *42:8 *194:A 4.73286e-05
14 *42:12 *194:A 3.66325e-05
15 *75:14 *194:A 5.49489e-05
16 *112:10 *118:8 1.74352e-05
*RES
1 *268:Y *118:8 16.425 
2 *118:8 *194:A 12.3179 
3 *118:8 *192:B 9.72857 
*END

*D_NET *119 0.00140764
*CONN
*I *271:B I *D sky130_fd_sc_hd__nand2_1
*I *270:B I *D sky130_fd_sc_hd__nand2_1
*I *273:A I *D sky130_fd_sc_hd__inv_1
*I *269:Y O *D sky130_fd_sc_hd__nand2_1
*CAP
1 *271:B 3.64906e-05
2 *270:B 0
3 *273:A 0.000277175
4 *269:Y 7.03678e-05
5 *119:10 0.000347585
6 *119:8 0.000177269
7 *273:A *130:16 0
8 *174:A *273:A 0
9 *206:A *273:A 6.94081e-05
10 *270:A *271:B 3.75959e-05
11 *270:A *273:A 5.80706e-06
12 *270:A *119:10 7.97105e-05
13 *275:A *273:A 0
14 *275:A *119:10 0
15 *3:26 *119:8 9.67754e-05
16 *7:13 *273:A 0
17 *8:13 *273:A 0.000137678
18 *53:12 *271:B 3.41848e-05
19 *53:12 *119:10 3.75959e-05
*RES
1 *269:Y *119:8 14.7464 
2 *119:8 *119:10 1.94643 
3 *119:10 *273:A 19.0187 
4 *119:10 *270:B 13.8 
5 *119:8 *271:B 14.8357 
*END

*D_NET *120 0.00104546
*CONN
*I *272:A I *D sky130_fd_sc_hd__nand2_1
*I *270:Y O *D sky130_fd_sc_hd__nand2_1
*CAP
1 *272:A 0.000240217
2 *270:Y 0.000240217
3 *272:A *272:B 0.000123819
4 p[1] *272:A 0.000110682
5 *203:B *272:A 5.50052e-05
6 *270:A *272:A 0.000144732
7 *3:26 *272:A 0.000100248
8 *5:31 *272:A 0
9 *7:19 *272:A 3.05446e-05
*RES
1 *270:Y *272:A 33.1536 
*END

*D_NET *121 0.000619181
*CONN
*I *272:B I *D sky130_fd_sc_hd__nand2_1
*I *271:Y O *D sky130_fd_sc_hd__nand2_1
*CAP
1 *272:B 0.000154585
2 *271:Y 0.000154585
3 *220:A *272:B 0.000143633
4 *272:A *272:B 0.000123819
5 *4:13 *272:B 9.63099e-06
6 *9:13 *272:B 3.29297e-05
*RES
1 *271:Y *272:B 30.6 
*END

*D_NET *122 0.00036633
*CONN
*I *274:B I *D sky130_fd_sc_hd__nand2_1
*I *277:A I *D sky130_fd_sc_hd__nand2_1
*I *273:Y O *D sky130_fd_sc_hd__inv_1
*CAP
1 *274:B 2.25499e-05
2 *277:A 0
3 *273:Y 0.000129975
4 *122:12 0.000152525
5 *274:B *123:6 5.71472e-05
6 *122:12 *280:A 4.1331e-06
7 *122:12 *130:16 0
8 *61:12 *122:12 0
*RES
1 *273:Y *122:12 20.2732 
2 *122:12 *277:A 9.3 
3 *122:12 *274:B 9.83571 
*END

*D_NET *123 0.000796162
*CONN
*I *276:B I *D sky130_fd_sc_hd__nand2_1
*I *277:B I *D sky130_fd_sc_hd__nand2_1
*I *283:A I *D sky130_fd_sc_hd__nand2_1
*I *274:Y O *D sky130_fd_sc_hd__nand2_1
*CAP
1 *276:B 5.1925e-05
2 *277:B 1.2683e-05
3 *283:A 0.000110591
4 *274:Y 0
5 *123:6 0.000205182
6 *123:4 0.000133833
7 *277:B *280:B 3.99614e-06
8 *283:A *278:B 6.05161e-06
9 *283:A *280:B 6.20656e-05
10 *283:A *282:A 7.77751e-05
11 *283:A *127:8 3.99614e-06
12 *123:6 *278:B 2.28598e-05
13 *274:A *276:B 4.80569e-05
14 *274:A *277:B 0
15 *274:B *123:6 5.71472e-05
16 *281:A *283:A 0
*RES
1 *274:Y *123:4 9.3 
2 *123:4 *123:6 1.76786 
3 *123:6 *283:A 11.9071 
4 *123:6 *277:B 9.72857 
5 *123:4 *276:B 10.675 
*END

*D_NET *124 0.000496799
*CONN
*I *278:A I *D sky130_fd_sc_hd__nand2_1
*I *276:Y O *D sky130_fd_sc_hd__nand2_1
*CAP
1 *278:A 0.0002484
2 *276:Y 0.0002484
3 *278:A *278:B 0
*RES
1 *276:Y *278:A 31.725 
*END

*D_NET *125 0.000385143
*CONN
*I *278:B I *D sky130_fd_sc_hd__nand2_1
*I *277:Y O *D sky130_fd_sc_hd__nand2_1
*CAP
1 *278:B 0.000138933
2 *277:Y 0.000138933
3 *278:B *280:A 7.83659e-05
4 *278:B *282:A 0
5 *278:A *278:B 0
6 *283:A *278:B 6.05161e-06
7 *123:6 *278:B 2.28598e-05
*RES
1 *277:Y *278:B 30.0821 
*END

*D_NET *126 0.00144099
*CONN
*I *280:A I *D sky130_fd_sc_hd__nand2_1
*I *279:A I *D sky130_fd_sc_hd__nand2_1
*I *278:Y O *D sky130_fd_sc_hd__nand2_1
*CAP
1 *280:A 8.7374e-05
2 *279:A 0.000507374
3 *278:Y 8.18014e-05
4 *126:6 0.000676549
5 *279:A *282:B 0
6 p[2] *279:A 5.39166e-06
7 *278:B *280:A 7.83659e-05
8 *122:12 *280:A 4.1331e-06
*RES
1 *278:Y *126:6 10.2464 
2 *126:6 *279:A 24.4786 
3 *126:6 *280:A 20.2464 
*END

*D_NET *127 0.000680249
*CONN
*I *280:B I *D sky130_fd_sc_hd__nand2_1
*I *283:B I *D sky130_fd_sc_hd__nand2_1
*I *281:B I *D sky130_fd_sc_hd__nand2_1
*I *279:Y O *D sky130_fd_sc_hd__nand2_1
*CAP
1 *280:B 0.000123649
2 *283:B 1.29188e-05
3 *281:B 0
4 *279:Y 7.63538e-05
5 *127:8 3.14887e-05
6 *127:6 0.000218572
7 *283:B *282:B 1.92789e-05
8 *127:6 *282:B 1.32552e-05
9 *242:A *127:6 5.71472e-05
10 *242:A *127:8 0
11 *277:B *280:B 3.99614e-06
12 *281:A *127:6 5.17614e-05
13 *281:A *127:8 5.7661e-06
14 *283:A *280:B 6.20656e-05
15 *283:A *127:8 3.99614e-06
*RES
1 *279:Y *127:6 11.0679 
2 *127:6 *127:8 0.428571 
3 *127:8 *281:B 9.3 
4 *127:8 *283:B 9.83571 
5 *127:6 *280:B 11.9071 
*END

*D_NET *128 0.000531718
*CONN
*I *282:A I *D sky130_fd_sc_hd__nand2_1
*I *280:Y O *D sky130_fd_sc_hd__nand2_1
*CAP
1 *282:A 0.000187813
2 *280:Y 0.000187813
3 *282:A *282:B 7.83174e-05
4 *278:B *282:A 0
5 *283:A *282:A 7.77751e-05
*RES
1 *280:Y *282:A 30.9036 
*END

*D_NET *129 0.000432222
*CONN
*I *282:B I *D sky130_fd_sc_hd__nand2_1
*I *281:Y O *D sky130_fd_sc_hd__nand2_1
*CAP
1 *282:B 0.000160685
2 *281:Y 0.000160685
3 *279:A *282:B 0
4 *282:A *282:B 7.83174e-05
5 *283:B *282:B 1.92789e-05
6 *127:6 *282:B 1.32552e-05
*RES
1 *281:Y *282:B 30.4929 
*END

*D_NET *130 0.00423183
*CONN
*I *289:B I *D sky130_fd_sc_hd__nand2_1
*I *291:A I *D sky130_fd_sc_hd__nand2_1
*I *283:Y O *D sky130_fd_sc_hd__nand2_1
*CAP
1 *289:B 0.000171833
2 *291:A 0
3 *283:Y 0.00143909
4 *130:18 0.000171833
5 *130:16 0.00143909
6 *289:B *134:8 9.7049e-06
7 *130:16 *289:A 4.1331e-06
8 p[3] *289:B 0
9 *236:A *130:16 6.19831e-05
10 *236:B *130:16 2.89016e-05
11 *241:B *130:16 0.000227532
12 *242:A *130:16 0
13 *243:A *130:16 9.77414e-05
14 *243:B *130:16 4.40035e-05
15 *244:A *130:16 9.22103e-06
16 *245:A *130:16 3.18676e-05
17 *245:B *130:16 0.000142856
18 *247:A *130:16 5.72753e-05
19 *273:A *130:16 0
20 *290:B *289:B 6.95227e-05
21 *20:10 *289:B 0.000153054
22 *20:10 *130:16 5.80706e-06
23 *94:6 *130:16 9.22103e-06
24 *98:10 *130:16 5.71472e-05
25 *122:12 *130:16 0
*RES
1 *283:Y *130:16 47.1393 
2 *130:16 *130:18 4.5 
3 *130:18 *291:A 9.3 
4 *130:18 *289:B 22.0321 
*END

*D_NET *131 0.000559433
*CONN
*I *285:B I *D sky130_fd_sc_hd__nand2_1
*I *287:B I *D sky130_fd_sc_hd__nand2_1
*I *293:A I *D sky130_fd_sc_hd__nand2_1
*I *284:Y O *D sky130_fd_sc_hd__nand2_1
*CAP
1 *285:B 1.00162e-05
2 *287:B 0
3 *293:A 2.04743e-05
4 *284:Y 8.6129e-05
5 *131:10 9.8745e-05
6 *131:6 0.000174416
7 *293:A *289:A 2.89016e-05
8 *285:A *285:B 5.7661e-06
9 *285:A *131:6 5.17614e-05
10 *287:A *285:B 1.04232e-05
11 *287:A *131:6 2.14658e-05
12 *287:A *131:10 3.76337e-05
13 *293:B *131:10 1.3701e-05
*RES
1 *284:Y *131:6 11.0679 
2 *131:6 *131:10 1.78571 
3 *131:10 *293:A 9.83571 
4 *131:10 *287:B 9.3 
5 *131:6 *285:B 9.72857 
*END

*D_NET *132 0.000283087
*CONN
*I *288:A I *D sky130_fd_sc_hd__nand2_1
*I *285:Y O *D sky130_fd_sc_hd__nand2_1
*CAP
1 *288:A 4.44974e-05
2 *285:Y 4.44974e-05
3 *288:A *288:B 6.42242e-05
4 *98:10 *288:A 0.000129868
*RES
1 *285:Y *288:A 29.2429 
*END

*D_NET *133 0.000363295
*CONN
*I *288:B I *D sky130_fd_sc_hd__nand2_1
*I *287:Y O *D sky130_fd_sc_hd__nand2_1
*CAP
1 *288:B 0.000100638
2 *287:Y 0.000100638
3 *288:B *289:A 4.25716e-05
4 *287:A *288:B 5.52238e-05
5 *288:A *288:B 6.42242e-05
*RES
1 *287:Y *288:B 29.7786 
*END

*D_NET *134 0.000967178
*CONN
*I *290:A I *D sky130_fd_sc_hd__nand2_1
*I *289:A I *D sky130_fd_sc_hd__nand2_1
*I *288:Y O *D sky130_fd_sc_hd__nand2_1
*CAP
1 *290:A 0
2 *289:A 0.000266569
3 *288:Y 0.000136235
4 *134:8 0.000402804
5 *287:A *289:A 0
6 *288:B *289:A 4.25716e-05
7 *289:B *134:8 9.7049e-06
8 *290:B *134:8 5.7661e-06
9 *292:A *289:A 3.69697e-05
10 *293:A *289:A 2.89016e-05
11 *293:B *289:A 2.97137e-05
12 *20:10 *289:A 0
13 *23:12 *289:A 3.80953e-06
14 *130:16 *289:A 4.1331e-06
*RES
1 *288:Y *134:8 11.4964 
2 *134:8 *289:A 22.4429 
3 *134:8 *290:A 9.3 
*END
