*SPEF "ieee 1481-1999"
*DESIGN "all_nand_dup12_inv"
*DATE "14:54:27 Sunday September 06, 2026"
*VENDOR "The OpenROAD Project"
*PROGRAM "OpenROAD"
*VERSION "dcf36133a369abc8f3c5e5738cd4d82e4903c0e0"
*DESIGN_FLOW "NAME_SCOPE LOCAL" "PIN_CAP NONE"
*DIVIDER /
*DELIMITER :
*BUS_DELIMITER []
*T_UNIT 1 NS
*C_UNIT 1 PF
*R_UNIT 1 OHM
*L_UNIT 1 HENRY

*NAME_MAP
*3 a[0]
*4 a[1]
*5 a[2]
*6 a[3]
*7 b[0]
*8 b[1]
*9 b[2]
*10 b[3]
*11 p[0]
*12 p[1]
*13 p[2]
*14 p[3]
*15 p[4]
*16 p[5]
*17 p[6]
*18 p[7]
*19 n10
*20 n100
*21 n101
*22 n102
*23 n104
*24 n105
*25 n106
*26 n107
*27 n108
*28 n109
*29 n11
*30 n110
*31 n111
*32 n113
*33 n114
*34 n115
*35 n116
*36 n117
*37 n118
*38 n119
*39 n12
*40 n120
*41 n122
*42 n123
*43 n124
*44 n125
*45 n126
*46 n127
*47 n128
*48 n129
*49 n13
*50 n132
*51 n133
*52 n134
*53 n135
*54 n136
*55 n137
*56 n138
*57 n139
*58 n14
*59 n140
*60 n141
*61 n142
*62 n143
*63 n15
*64 n16
*65 n17
*66 n18
*67 n19
*68 n20
*69 n21
*70 n22
*71 n23
*72 n24
*73 n25
*74 n26
*75 n27
*76 n28
*77 n29
*78 n30
*79 n31
*80 n32
*81 n33
*82 n34
*83 n35
*84 n36
*85 n37
*86 n38
*87 n39
*88 n40
*89 n41
*90 n42
*91 n44
*92 n45
*93 n46
*94 n47
*95 n48
*96 n49
*97 n50
*98 n51
*99 n52
*100 n53
*101 n54
*102 n55
*103 n56
*104 n57
*105 n58
*106 n59
*107 n60
*108 n61
*109 n62
*110 n63
*111 n64
*112 n65
*113 n66
*114 n67
*115 n68
*116 n69
*117 n70
*118 n72
*119 n73
*120 n74
*121 n75
*122 n76
*123 n77
*124 n78
*125 n79
*126 n8
*127 n80
*128 n81
*129 n82
*130 n83
*131 n84
*132 n85
*133 n86
*134 n87
*135 n88
*136 n89
*137 n90
*138 n91
*139 n92
*140 n93
*141 n94
*142 n95
*143 n96
*144 n97
*145 n98
*146 n99
*147 net1
*148 net10
*149 net11
*150 net12
*151 net13
*152 net14
*153 net15
*154 net16
*155 net17
*156 net18
*157 net19
*158 net2
*159 net20
*160 net21
*161 net22
*162 net23
*163 net24
*164 net3
*165 net4
*166 net5
*167 net6
*168 net7
*169 net8
*170 net9
*171 PHY_EDGE_ROW_0_Left_13
*172 PHY_EDGE_ROW_0_Right_0
*173 PHY_EDGE_ROW_10_Left_23
*174 PHY_EDGE_ROW_10_Right_10
*175 PHY_EDGE_ROW_11_Left_24
*176 PHY_EDGE_ROW_11_Right_11
*177 PHY_EDGE_ROW_12_Left_25
*178 PHY_EDGE_ROW_12_Right_12
*179 PHY_EDGE_ROW_1_Left_14
*180 PHY_EDGE_ROW_1_Right_1
*181 PHY_EDGE_ROW_2_Left_15
*182 PHY_EDGE_ROW_2_Right_2
*183 PHY_EDGE_ROW_3_Left_16
*184 PHY_EDGE_ROW_3_Right_3
*185 PHY_EDGE_ROW_4_Left_17
*186 PHY_EDGE_ROW_4_Right_4
*187 PHY_EDGE_ROW_5_Left_18
*188 PHY_EDGE_ROW_5_Right_5
*189 PHY_EDGE_ROW_6_Left_19
*190 PHY_EDGE_ROW_6_Right_6
*191 PHY_EDGE_ROW_7_Left_20
*192 PHY_EDGE_ROW_7_Right_7
*193 PHY_EDGE_ROW_8_Left_21
*194 PHY_EDGE_ROW_8_Right_8
*195 PHY_EDGE_ROW_9_Left_22
*196 PHY_EDGE_ROW_9_Right_9
*197 TAP_TAPCELL_ROW_0_26
*198 TAP_TAPCELL_ROW_0_27
*199 TAP_TAPCELL_ROW_10_37
*200 TAP_TAPCELL_ROW_11_38
*201 TAP_TAPCELL_ROW_12_39
*202 TAP_TAPCELL_ROW_12_40
*203 TAP_TAPCELL_ROW_1_28
*204 TAP_TAPCELL_ROW_2_29
*205 TAP_TAPCELL_ROW_3_30
*206 TAP_TAPCELL_ROW_4_31
*207 TAP_TAPCELL_ROW_5_32
*208 TAP_TAPCELL_ROW_6_33
*209 TAP_TAPCELL_ROW_7_34
*210 TAP_TAPCELL_ROW_8_35
*211 TAP_TAPCELL_ROW_9_36
*212 g10
*213 g100
*214 g101
*215 g102
*216 g103
*217 g104
*218 g105
*219 g106
*220 g107
*221 g108
*222 g109
*223 g11
*224 g110
*225 g111
*226 g112
*227 g113
*228 g114
*229 g115
*230 g116
*231 g117
*232 g118
*233 g119
*234 g12
*235 g120
*236 g121
*237 g122
*238 g123
*239 g124
*240 g125
*241 g126
*242 g127
*243 g128
*244 g129
*245 g13
*246 g130
*247 g131
*248 g132
*249 g133
*250 g134
*251 g135
*252 g136
*253 g137
*254 g138
*255 g139
*256 g14
*257 g140
*258 g141
*259 g142
*260 g143
*261 g15
*262 g16
*263 g17
*264 g18
*265 g19
*266 g20
*267 g21
*268 g22
*269 g23
*270 g24
*271 g25
*272 g26
*273 g27
*274 g28
*275 g29
*276 g30
*277 g31
*278 g32
*279 g33
*280 g34
*281 g35
*282 g36
*283 g37
*284 g38
*285 g39
*286 g40
*287 g41
*288 g42
*289 g43
*290 g44
*291 g45
*292 g46
*293 g47
*294 g48
*295 g49
*296 g50
*297 g51
*298 g52
*299 g53
*300 g54
*301 g55
*302 g56
*303 g57
*304 g58
*305 g59
*306 g60
*307 g61
*308 g62
*309 g63
*310 g64
*311 g65
*312 g66
*313 g67
*314 g68
*315 g69
*316 g70
*317 g71
*318 g72
*319 g73
*320 g74
*321 g75
*322 g76
*323 g77
*324 g78
*325 g79
*326 g8
*327 g80
*328 g81
*329 g82
*330 g83
*331 g84
*332 g85
*333 g86
*334 g87
*335 g88
*336 g89
*337 g9
*338 g90
*339 g91
*340 g92
*341 g93
*342 g94
*343 g95
*344 g96
*345 g97
*346 g98
*347 g99
*348 input1
*349 input2
*350 input3
*351 input4
*352 input5
*353 input6
*354 input7
*355 input8
*356 output10
*357 output11
*358 output12
*359 output13
*360 output14
*361 output15
*362 output16
*363 output9
*364 rebuffer17
*365 rebuffer18
*366 rebuffer19
*367 rebuffer20
*368 rebuffer21
*369 rebuffer22
*370 rebuffer23
*371 rebuffer24

*PORTS
a[0] I
a[1] I
a[2] I
a[3] I
b[0] I
b[1] I
b[2] I
b[3] I
p[0] O
p[1] O
p[2] O
p[3] O
p[4] O
p[5] O
p[6] O
p[7] O

*D_NET *3 0.0014812
*CONN
*P a[0] I
*I *348:A I *D sky130_fd_sc_hd__buf_6
*CAP
1 a[0] 0.000620667
2 *348:A 0.000620667
3 *348:A *349:A 0.000231633
4 *348:A *354:A 8.23597e-06
*RES
1 a[0] *348:A 26.3907 
*END

*D_NET *4 0.00152429
*CONN
*P a[1] I
*I *349:A I *D sky130_fd_sc_hd__buf_6
*CAP
1 a[1] 0.000555368
2 *349:A 0.000555368
3 *349:A *354:A 0.000181919
4 *349:A *355:A 0
5 *349:A *63:12 0
6 *349:A *158:14 0
7 *348:A *349:A 0.000231633
*RES
1 a[1] *349:A 22.6458 
*END

*D_NET *5 0.0010882
*CONN
*P a[2] I
*I *350:A I *D sky130_fd_sc_hd__clkdlybuf4s25_1
*CAP
1 a[2] 0.000354644
2 *350:A 0.000354644
3 *350:A *351:A 0.0002186
4 *350:A *352:A 0.000109709
5 *350:A *353:A 5.06018e-05
6 *350:A *166:14 0
*RES
1 a[2] *350:A 22.5937 
*END

*D_NET *6 0.000963009
*CONN
*P a[3] I
*I *351:A I *D sky130_fd_sc_hd__clkdlybuf4s25_1
*CAP
1 a[3] 0.000262905
2 *351:A 0.000262905
3 *351:A p[3] 0.0002186
4 *350:A *351:A 0.0002186
*RES
1 a[3] *351:A 21.0759 
*END

*D_NET *7 0.00253603
*CONN
*P b[0] I
*I *352:A I *D sky130_fd_sc_hd__clkbuf_2
*CAP
1 b[0] 0.000672414
2 *352:A 0.000672414
3 *352:A *353:A 0.000470603
4 *352:A *166:14 0.000432039
5 *352:A *167:6 0.000137983
6 *352:A *167:27 4.08637e-05
7 *350:A *352:A 0.000109709
*RES
1 b[0] *352:A 32.0019 
*END

*D_NET *8 0.00148373
*CONN
*P b[1] I
*I *353:A I *D sky130_fd_sc_hd__buf_6
*CAP
1 b[1] 0.000481264
2 *353:A 0.000481264
3 *353:A *166:14 0
4 *350:A *353:A 5.06018e-05
5 *352:A *353:A 0.000470603
*RES
1 b[1] *353:A 25.433 
*END

*D_NET *9 0.0012254
*CONN
*P b[2] I
*I *354:A I *D sky130_fd_sc_hd__buf_6
*CAP
1 b[2] 0.000517623
2 *354:A 0.000517623
3 *354:A *355:A 0
4 *348:A *354:A 8.23597e-06
5 *349:A *354:A 0.000181919
*RES
1 b[2] *354:A 24.6394 
*END

*D_NET *10 0.00127281
*CONN
*P b[3] I
*I *355:A I *D sky130_fd_sc_hd__clkbuf_2
*CAP
1 b[3] 0.000636406
2 *355:A 0.000636406
3 *355:A *63:12 0
4 *349:A *355:A 0
5 *354:A *355:A 0
*RES
1 b[3] *355:A 22.6458 
*END

*D_NET *11 0.00218504
*CONN
*P p[0] O
*I *363:X O *D sky130_fd_sc_hd__clkdlybuf4s25_1
*CAP
1 p[0] 0.000596173
2 *363:X 0.000596173
3 p[0] p[1] 0.00061716
4 p[0] *297:B 0.000355124
5 p[0] *170:22 2.0412e-05
*RES
1 *363:X p[0] 27.3179 
*END

*D_NET *12 0.00247738
*CONN
*P p[1] O
*I *356:X O *D sky130_fd_sc_hd__clkdlybuf4s25_1
*CAP
1 p[1] 0.000743039
2 *356:X 0.000743039
3 p[1] *294:A 8.46096e-05
4 p[1] *298:B 7.6644e-05
5 p[1] *314:A 1.89507e-06
6 p[1] *49:12 0.000180072
7 p[1] *91:14 2.16719e-05
8 p[1] *170:22 9.25014e-06
9 p[0] p[1] 0.00061716
*RES
1 *356:X p[1] 30.2464 
*END

*D_NET *13 0.00103843
*CONN
*P p[2] O
*I *357:X O *D sky130_fd_sc_hd__clkbuf_2
*CAP
1 p[2] 0.000504294
2 *357:X 0.000504294
3 p[2] *294:B 0
4 p[2] *116:28 9.25014e-06
5 p[2] *170:22 2.05938e-05
*RES
1 *357:X p[2] 23.9071 
*END

*D_NET *14 0.0012433
*CONN
*P p[3] O
*I *358:X O *D sky130_fd_sc_hd__buf_6
*CAP
1 p[3] 0.000498151
2 *358:X 0.000498151
3 p[3] *216:B 2.84026e-05
4 p[3] *166:14 0
5 *351:A p[3] 0.0002186
*RES
1 *358:X p[3] 22.4171 
*END

*D_NET *15 0.00124477
*CONN
*P p[4] O
*I *359:X O *D sky130_fd_sc_hd__clkbuf_2
*CAP
1 p[4] 0.000547715
2 *359:X 0.000547715
3 p[4] *224:A 4.27338e-05
4 p[4] *224:B 5.33005e-05
5 p[4] *359:A 5.33005e-05
6 p[4] *166:14 0
*RES
1 *359:X p[4] 23.5593 
*END

*D_NET *16 0.00139691
*CONN
*P p[5] O
*I *360:X O *D sky130_fd_sc_hd__clkbuf_2
*CAP
1 p[5] 0.000648939
2 *360:X 0.000648939
3 p[5] *31:24 9.90367e-05
*RES
1 *360:X p[5] 26.3045 
*END

*D_NET *17 0.00179974
*CONN
*P p[6] O
*I *361:X O *D sky130_fd_sc_hd__buf_6
*CAP
1 p[6] 0.000603522
2 *361:X 0.000603522
3 p[6] p[7] 0.000589008
4 p[6] *243:A 3.69047e-06
*RES
1 *361:X p[6] 28.6616 
*END

*D_NET *18 0.00148793
*CONN
*P p[7] O
*I *362:X O *D sky130_fd_sc_hd__clkbuf_2
*CAP
1 p[7] 0.000443702
2 *362:X 0.000443702
3 p[7] *243:A 1.15172e-05
4 p[6] p[7] 0.000589008
*RES
1 *362:X p[7] 25.8937 
*END

*D_NET *19 0.00147666
*CONN
*I *223:A I *D sky130_fd_sc_hd__inv_1
*I *212:Y O *D sky130_fd_sc_hd__nand2_1
*CAP
1 *223:A 0.000520488
2 *212:Y 0.000520488
3 *223:A *212:A 2.84109e-05
4 *223:A *273:A 0.000152964
5 *223:A *286:B 2.80789e-05
6 *223:A *323:B 5.21702e-05
7 *223:A *324:A 2.95726e-05
8 *223:A *356:A 3.00023e-05
9 *223:A *371:A 1.24368e-05
10 *223:A *116:28 5.24662e-05
11 *223:A *167:27 2.71746e-05
12 *223:A *167:36 2.24079e-05
*RES
1 *212:Y *223:A 34.9884 
*END

*D_NET *20 0.00270551
*CONN
*I *214:B I *D sky130_fd_sc_hd__nand2_2
*I *215:B I *D sky130_fd_sc_hd__nand2_2
*I *217:A I *D sky130_fd_sc_hd__inv_1
*I *213:Y O *D sky130_fd_sc_hd__nand2_4
*CAP
1 *214:B 0.000118463
2 *215:B 0
3 *217:A 0.000331949
4 *213:Y 1.53591e-05
5 *20:25 0.000232297
6 *20:6 0.000461142
7 *214:B *316:A 0.00019667
8 *217:A *213:A 9.41642e-05
9 *217:A *213:B 5.49995e-05
10 *217:A *279:A 0.00019865
11 *217:A *281:A 8.98994e-05
12 *217:A *23:10 0.000384701
13 *217:A *165:6 0.000222763
14 *20:6 *213:B 9.83442e-05
15 *20:6 *284:A 1.32056e-05
16 *20:6 *165:6 8.68076e-05
17 *20:25 *215:A 9.14222e-05
18 *20:25 *81:10 1.46689e-05
*RES
1 *213:Y *20:6 10.2464 
2 *20:6 *217:A 27.4473 
3 *20:6 *20:25 7.05357 
4 *20:25 *215:B 13.8 
5 *20:25 *214:B 16.6571 
*END

*D_NET *21 0.000477309
*CONN
*I *216:A I *D sky130_fd_sc_hd__nand2_2
*I *214:Y O *D sky130_fd_sc_hd__nand2_2
*CAP
1 *216:A 0.000202977
2 *214:Y 0.000202977
3 *216:A *281:A 2.3541e-05
4 *216:A *358:A 2.59355e-05
5 *216:A *83:12 2.18792e-05
*RES
1 *214:Y *216:A 21.6179 
*END

*D_NET *22 0.000858171
*CONN
*I *216:B I *D sky130_fd_sc_hd__nand2_2
*I *215:Y O *D sky130_fd_sc_hd__nand2_2
*CAP
1 *216:B 0.000217799
2 *215:Y 0.000217799
3 *216:B *279:A 0.000197385
4 *216:B *23:10 0.000196786
5 p[3] *216:B 2.84026e-05
*RES
1 *215:Y *216:B 32.3321 
*END

*D_NET *23 0.0040425
*CONN
*I *222:B I *D sky130_fd_sc_hd__nand2_4
*I *225:A I *D sky130_fd_sc_hd__nand2_1
*I *217:Y O *D sky130_fd_sc_hd__inv_1
*CAP
1 *222:B 1.01968e-05
2 *225:A 0.000430839
3 *217:Y 0.000369188
4 *23:10 0.000810224
5 *222:B *270:A 4.97876e-05
6 *222:B *279:A 5.83304e-05
7 *225:A *225:B 0.000110738
8 *225:A *227:B 0.000225809
9 *23:10 *270:A 0.000857888
10 *23:10 *279:A 0.000410481
11 *23:10 *281:A 1.69115e-05
12 *23:10 *166:14 0.000110621
13 *216:B *23:10 0.000196786
14 *217:A *23:10 0.000384701
*RES
1 *217:Y *23:10 28.8268 
2 *23:10 *225:A 21.2286 
3 *23:10 *222:B 14.5321 
*END

*D_NET *24 0.00221849
*CONN
*I *366:A I *D sky130_fd_sc_hd__buf_2
*I *220:B I *D sky130_fd_sc_hd__nand2_1
*I *219:B I *D sky130_fd_sc_hd__nand2_1
*I *218:Y O *D sky130_fd_sc_hd__nand2_2
*CAP
1 *366:A 0.000157076
2 *220:B 0.000121027
3 *219:B 0.000427726
4 *218:Y 0
5 *24:15 0.000314584
6 *24:4 0.000464207
7 *219:B *219:A 9.37555e-05
8 *219:B *220:A 5.17614e-05
9 *219:B *221:A 3.15815e-05
10 *219:B *221:B 8.25843e-06
11 *220:B *220:A 0.000135669
12 *220:B *221:A 2.45006e-05
13 *220:B *336:A 0
14 *220:B *136:8 2.38501e-05
15 *366:A *316:A 0.000170532
16 *366:A *32:8 0.000177234
17 *366:A *116:28 0
18 *24:15 *220:A 1.67291e-05
*RES
1 *218:Y *24:4 9.3 
2 *24:4 *219:B 14.9786 
3 *24:4 *24:15 0.535714 
4 *24:15 *220:B 12.3536 
5 *24:15 *366:A 22.3714 
*END

*D_NET *25 0.000224633
*CONN
*I *221:B I *D sky130_fd_sc_hd__nand2_2
*I *219:Y O *D sky130_fd_sc_hd__nand2_1
*CAP
1 *221:B 8.07381e-05
2 *219:Y 8.07381e-05
3 *221:B *219:A 5.48987e-05
4 *219:B *221:B 8.25843e-06
*RES
1 *219:Y *221:B 19.975 
*END

*D_NET *26 0.000938458
*CONN
*I *221:A I *D sky130_fd_sc_hd__nand2_2
*I *220:Y O *D sky130_fd_sc_hd__nand2_1
*CAP
1 *221:A 0.000212493
2 *220:Y 0.000212493
3 *221:A *219:A 0.00025875
4 *221:A *220:A 7.7846e-05
5 *221:A *316:A 2.06791e-05
6 *221:A *136:8 0.000100115
7 *219:B *221:A 3.15815e-05
8 *220:B *221:A 2.45006e-05
*RES
1 *220:Y *221:A 32.6536 
*END

*D_NET *27 0.000760185
*CONN
*I *368:A I *D sky130_fd_sc_hd__buf_2
*I *222:A I *D sky130_fd_sc_hd__nand2_4
*I *221:Y O *D sky130_fd_sc_hd__nand2_2
*CAP
1 *368:A 5.01089e-05
2 *222:A 0
3 *221:Y 7.83229e-05
4 *27:8 0.000128432
5 *368:A *278:A 0.000169405
6 *368:A *316:A 6.80593e-05
7 *27:8 *278:A 0.000197269
8 *27:8 *316:A 6.85873e-05
*RES
1 *221:Y *27:8 16.3536 
2 *27:8 *222:A 13.8 
3 *27:8 *368:A 16.05 
*END

*D_NET *28 0.00173
*CONN
*I *225:B I *D sky130_fd_sc_hd__nand2_1
*I *224:B I *D sky130_fd_sc_hd__nand2_1
*I *227:B I *D sky130_fd_sc_hd__nand2_4
*I *222:Y O *D sky130_fd_sc_hd__nand2_4
*CAP
1 *225:B 0.000200008
2 *224:B 9.94912e-05
3 *227:B 0.000323309
4 *222:Y 0
5 *28:4 0.000222792
6 *224:B *224:A 9.41642e-05
7 *224:B *278:A 9.24299e-05
8 *224:B *279:A 0.000173076
9 *224:B *359:A 1.98839e-05
10 *225:B *345:B 0
11 *225:B *31:24 0.00010096
12 *225:B *116:28 1.40415e-05
13 p[4] *224:B 5.33005e-05
14 *225:A *225:B 0.000110738
15 *225:A *227:B 0.000225809
*RES
1 *222:Y *28:4 9.3 
2 *28:4 *227:B 12.3357 
3 *28:4 *224:B 21.4964 
4 *227:B *225:B 22.8679 
*END

*D_NET *29 0.0012767
*CONN
*I *286:B I *D sky130_fd_sc_hd__nand2_2
*I *288:A I *D sky130_fd_sc_hd__nand2_1
*I *223:Y O *D sky130_fd_sc_hd__inv_1
*CAP
1 *286:B 0.00015477
2 *288:A 0.000273984
3 *223:Y 0
4 *29:4 0.000428754
5 *286:B *356:A 0.000113107
6 *288:A *281:A 5.49489e-05
7 *288:A *289:B 0.000117044
8 *288:A *318:A 0
9 *288:A *323:B 2.05612e-05
10 *288:A *356:A 8.5453e-05
11 *223:A *286:B 2.80789e-05
*RES
1 *223:Y *29:4 9.3 
2 *29:4 *288:A 14.1661 
3 *29:4 *286:B 12.1125 
*END

*D_NET *30 0.000498997
*CONN
*I *226:A I *D sky130_fd_sc_hd__nand2_1
*I *224:Y O *D sky130_fd_sc_hd__nand2_1
*CAP
1 *226:A 8.11431e-05
2 *224:Y 8.11431e-05
3 *226:A *224:A 2.89016e-05
4 *226:A *270:A 0.000153047
5 *226:A *166:14 0.000154762
*RES
1 *224:Y *226:A 30.0821 
*END

*D_NET *31 0.00303091
*CONN
*I *226:B I *D sky130_fd_sc_hd__nand2_1
*I *225:Y O *D sky130_fd_sc_hd__nand2_1
*CAP
1 *226:B 0
2 *225:Y 0.000856613
3 *31:24 0.000856613
4 *31:24 *227:A 7.83587e-05
5 *31:24 *231:A 1.09026e-05
6 *31:24 *233:A 0.000111878
7 *31:24 *235:B 8.47986e-05
8 *31:24 *270:A 0.000160104
9 *31:24 *270:B 9.90431e-05
10 *31:24 *278:A 3.56894e-05
11 *31:24 *279:A 0.000126963
12 *31:24 *315:B 0
13 *31:24 *316:A 3.07696e-05
14 *31:24 *316:B 9.60875e-05
15 *31:24 *369:A 0.000175519
16 *31:24 *32:8 1.78353e-05
17 *31:24 *32:21 7.19034e-05
18 *31:24 *166:14 1.78353e-05
19 p[5] *31:24 9.90367e-05
20 *225:B *31:24 0.00010096
*RES
1 *225:Y *31:24 44.9429 
2 *31:24 *226:B 9.3 
*END

*D_NET *32 0.00115647
*CONN
*I *249:B I *D sky130_fd_sc_hd__nand2_2
*I *232:B I *D sky130_fd_sc_hd__nand2_1
*I *235:A I *D sky130_fd_sc_hd__nand2_1
*I *227:Y O *D sky130_fd_sc_hd__nand2_4
*CAP
1 *249:B 0
2 *232:B 2.26503e-05
3 *235:A 6.29952e-05
4 *227:Y 5.75058e-05
5 *32:21 0.000139775
6 *32:8 0.000237625
7 *232:B *232:A 9.71197e-05
8 *232:B *235:B 5.32666e-05
9 *235:A *227:A 2.89016e-05
10 *235:A *236:B 5.06983e-05
11 *32:8 *227:A 6.65398e-05
12 *32:21 *316:A 5.18689e-05
13 *32:21 *316:B 2.05484e-05
14 *366:A *32:8 0.000177234
15 *31:24 *32:8 1.78353e-05
16 *31:24 *32:21 7.19034e-05
*RES
1 *227:Y *32:8 16.05 
2 *32:8 *235:A 15.1571 
3 *32:8 *32:21 7.35714 
4 *32:21 *232:B 10.2464 
5 *32:21 *249:B 9.3 
*END

*D_NET *33 0.00117111
*CONN
*I *367:A I *D sky130_fd_sc_hd__buf_2
*I *229:B I *D sky130_fd_sc_hd__nand2_1
*I *230:B I *D sky130_fd_sc_hd__nand2_1
*I *228:Y O *D sky130_fd_sc_hd__nand2_2
*CAP
1 *367:A 0
2 *229:B 0.000144186
3 *230:B 0.000109565
4 *228:Y 9.60436e-05
5 *33:10 0.000278956
6 *33:6 0.000121249
7 *229:B *231:B 0.000115018
8 *229:B *360:A 1.00375e-05
9 *229:B *369:A 0
10 *230:B *231:A 0
11 *230:B *231:B 5.80706e-06
12 *230:B *237:B 0.000106542
13 *230:B *315:B 6.7304e-05
14 *33:6 *237:A 1.92789e-05
15 *33:6 *237:B 4.18895e-05
16 *33:10 *237:B 5.52302e-05
*RES
1 *228:Y *33:6 11.0679 
2 *33:6 *33:10 5.03571 
3 *33:10 *230:B 16.6571 
4 *33:10 *229:B 16.9964 
5 *33:6 *367:A 9.3 
*END

*D_NET *34 0.000676469
*CONN
*I *231:B I *D sky130_fd_sc_hd__nand2_2
*I *229:Y O *D sky130_fd_sc_hd__nand2_1
*CAP
1 *231:B 0.000235736
2 *229:Y 0.000235736
3 *231:B *231:A 5.80706e-06
4 *231:B *360:A 7.83659e-05
5 *231:B *369:A 0
6 *229:B *231:B 0.000115018
7 *230:B *231:B 5.80706e-06
*RES
1 *229:Y *231:B 31.4214 
*END

*D_NET *35 0.00058129
*CONN
*I *231:A I *D sky130_fd_sc_hd__nand2_2
*I *230:Y O *D sky130_fd_sc_hd__nand2_1
*CAP
1 *231:A 0.00020101
2 *230:Y 0.00020101
3 *231:A *230:A 2.89114e-05
4 *231:A *235:B 9.9974e-05
5 *231:A *315:B 2.92136e-05
6 *231:A *369:A 4.46186e-06
7 *230:B *231:A 0
8 *231:B *231:A 5.80706e-06
9 *31:24 *231:A 1.09026e-05
*RES
1 *230:Y *231:A 30.9036 
*END

*D_NET *36 0.00116258
*CONN
*I *369:A I *D sky130_fd_sc_hd__buf_2
*I *232:A I *D sky130_fd_sc_hd__nand2_1
*I *249:A I *D sky130_fd_sc_hd__nand2_2
*I *231:Y O *D sky130_fd_sc_hd__nand2_2
*CAP
1 *369:A 7.40367e-05
2 *232:A 8.94084e-05
3 *249:A 0
4 *231:Y 0
5 *36:6 0.000117762
6 *36:4 0.00010239
7 *232:A *233:B 3.93247e-05
8 *232:A *235:B 3.71049e-05
9 *232:A *360:A 0.00027032
10 *369:A *360:A 3.5707e-05
11 *36:6 *235:B 2.28499e-05
12 *36:6 *237:B 5.52302e-05
13 *36:6 *360:A 4.13496e-05
14 *229:B *369:A 0
15 *231:A *369:A 4.46186e-06
16 *231:B *369:A 0
17 *232:B *232:A 9.71197e-05
18 *31:24 *369:A 0.000175519
*RES
1 *231:Y *36:4 9.3 
2 *36:4 *36:6 0.946429 
3 *36:6 *249:A 9.3 
4 *36:6 *232:A 12.7464 
5 *36:4 *369:A 20.55 
*END

*D_NET *37 0.00117321
*CONN
*I *235:B I *D sky130_fd_sc_hd__nand2_1
*I *233:B I *D sky130_fd_sc_hd__nand2_1
*I *232:Y O *D sky130_fd_sc_hd__nand2_1
*CAP
1 *235:B 0.000257122
2 *233:B 7.19493e-05
3 *232:Y 0
4 *37:4 0.000329071
5 *233:B *236:A 3.08382e-06
6 *233:B *236:B 2.99994e-05
7 *233:B *360:A 1.74352e-05
8 *235:B *237:B 9.71197e-05
9 *235:B *315:B 3.01126e-05
10 *231:A *235:B 9.9974e-05
11 *232:A *233:B 3.93247e-05
12 *232:A *235:B 3.71049e-05
13 *232:B *235:B 5.32666e-05
14 *31:24 *235:B 8.47986e-05
15 *36:6 *235:B 2.28499e-05
*RES
1 *232:Y *37:4 9.3 
2 *37:4 *233:B 11.1036 
3 *37:4 *235:B 23.9607 
*END

*D_NET *38 0.000250676
*CONN
*I *236:A I *D sky130_fd_sc_hd__nand2_1
*I *233:Y O *D sky130_fd_sc_hd__nand2_1
*CAP
1 *236:A 4.77724e-05
2 *233:Y 4.77724e-05
3 *236:A *236:B 5.78829e-05
4 *236:A *360:A 9.41642e-05
5 *233:B *236:A 3.08382e-06
*RES
1 *233:Y *236:A 19.975 
*END

*D_NET *39 0.000229435
*CONN
*I *253:A I *D sky130_fd_sc_hd__inv_2
*I *234:Y O *D sky130_fd_sc_hd__nand2_1
*CAP
1 *253:A 5.62743e-05
2 *234:Y 5.62743e-05
3 *253:A *234:B 0.000109451
4 *253:A *264:A 0
5 *253:A *164:58 7.43578e-06
*RES
1 *234:Y *253:A 19.975 
*END

*D_NET *40 0.00136883
*CONN
*I *236:B I *D sky130_fd_sc_hd__nand2_1
*I *235:Y O *D sky130_fd_sc_hd__nand2_1
*CAP
1 *236:B 0.000563814
2 *235:Y 0.000563814
3 *236:B *224:A 3.18676e-05
4 *236:B *278:A 1.21859e-05
5 *236:B *316:A 5.10822e-05
6 *236:B *360:A 7.48301e-06
7 *233:B *236:B 2.99994e-05
8 *235:A *236:B 5.06983e-05
9 *236:A *236:B 5.78829e-05
*RES
1 *235:Y *236:B 35.9214 
*END

*D_NET *41 0.00207275
*CONN
*I *244:A I *D sky130_fd_sc_hd__nand2_1
*I *251:B I *D sky130_fd_sc_hd__nand2_1
*I *242:B I *D sky130_fd_sc_hd__nand2_2
*I *237:Y O *D sky130_fd_sc_hd__nand2_2
*CAP
1 *244:A 0.000206626
2 *251:B 0
3 *242:B 0.00020725
4 *237:Y 0.000148046
5 *41:23 0.000311841
6 *41:8 0.000460511
7 *242:B *242:A 1.8461e-05
8 *244:A *229:A 0.000143804
9 *244:A *243:A 3.50166e-05
10 *244:A *244:B 0.000201604
11 *244:A *246:A 0
12 *244:A *246:B 1.30891e-05
13 *41:8 *230:A 3.3304e-05
14 *41:8 *346:B 7.57394e-05
15 *41:8 *145:10 5.68722e-05
16 *41:23 *229:A 9.25014e-06
17 *41:23 *246:A 0
18 *41:23 *46:10 0
19 *41:23 *145:10 0.000151333
*RES
1 *237:Y *41:8 12.3179 
2 *41:8 *242:B 12.7464 
3 *41:8 *41:23 6.75 
4 *41:23 *251:B 13.8 
5 *41:23 *244:A 18.3536 
*END

*D_NET *42 0.00141306
*CONN
*I *239:B I *D sky130_fd_sc_hd__nand2_1
*I *247:A I *D sky130_fd_sc_hd__nand2_1
*I *240:B I *D sky130_fd_sc_hd__nand2_1
*I *238:Y O *D sky130_fd_sc_hd__nand2_1
*CAP
1 *239:B 0
2 *247:A 8.91946e-05
3 *240:B 8.19738e-05
4 *238:Y 8.24371e-05
5 *42:12 0.000196551
6 *42:8 0.00010782
7 *240:B *238:B 0.000120322
8 *240:B *241:B 0.000121573
9 *240:B *87:14 5.80706e-06
10 *240:B *146:16 1.17968e-05
11 *247:A *241:B 0.000222885
12 *247:A *242:A 0.000125724
13 *247:A *243:B 5.80706e-06
14 *247:A *46:10 3.5794e-05
15 *42:8 *238:A 5.71472e-05
16 *42:8 *238:B 1.74352e-05
17 *42:8 *241:A 3.18676e-05
18 *42:8 *242:A 0
19 *42:8 *146:16 4.5622e-05
20 *42:12 *146:16 5.33005e-05
*RES
1 *238:Y *42:8 11.4964 
2 *42:8 *42:12 5.03571 
3 *42:12 *240:B 16.05 
4 *42:12 *247:A 16.6571 
5 *42:8 *239:B 9.3 
*END

*D_NET *43 0.000381134
*CONN
*I *241:A I *D sky130_fd_sc_hd__nand2_1
*I *239:Y O *D sky130_fd_sc_hd__nand2_1
*CAP
1 *241:A 0.000128034
2 *239:Y 0.000128034
3 *241:A *241:B 5.97623e-05
4 *241:A *243:A 3.34366e-05
5 *241:A *361:A 0
6 *42:8 *241:A 3.18676e-05
*RES
1 *239:Y *241:A 30.0821 
*END

*D_NET *44 0.000975963
*CONN
*I *241:B I *D sky130_fd_sc_hd__nand2_1
*I *240:Y O *D sky130_fd_sc_hd__nand2_1
*CAP
1 *241:B 0.000267308
2 *240:Y 0.000267308
3 *241:B *243:A 3.34366e-05
4 *241:B *141:16 3.69047e-06
5 *240:B *241:B 0.000121573
6 *241:A *241:B 5.97623e-05
7 *247:A *241:B 0.000222885
*RES
1 *240:Y *241:B 32.9214 
*END

*D_NET *45 0.00251132
*CONN
*I *243:A I *D sky130_fd_sc_hd__nand2_1
*I *242:A I *D sky130_fd_sc_hd__nand2_2
*I *251:A I *D sky130_fd_sc_hd__nand2_1
*I *241:Y O *D sky130_fd_sc_hd__nand2_1
*CAP
1 *243:A 0.000367038
2 *242:A 0.000154886
3 *251:A 0.000144725
4 *241:Y 0
5 *45:6 0.00036903
6 *45:4 0.000436456
7 *242:A *46:10 0.000180955
8 *243:A *243:B 3.48001e-05
9 *243:A *246:B 1.24368e-05
10 *243:A *361:A 0
11 *243:A *362:A 2.56601e-05
12 *251:A *246:A 0.000100262
13 *251:A *246:B 2.90487e-05
14 *251:A *361:A 0.000270218
15 *45:6 *361:A 0.000124521
16 p[6] *243:A 3.69047e-06
17 p[7] *243:A 1.15172e-05
18 *241:A *243:A 3.34366e-05
19 *241:B *243:A 3.34366e-05
20 *242:B *242:A 1.8461e-05
21 *244:A *243:A 3.50166e-05
22 *247:A *242:A 0.000125724
23 *42:8 *242:A 0
*RES
1 *241:Y *45:4 9.3 
2 *45:4 *45:6 1.35714 
3 *45:6 *251:A 13.1393 
4 *45:6 *242:A 22.05 
5 *45:4 *243:A 24.2286 
*END

*D_NET *46 0.000961113
*CONN
*I *243:B I *D sky130_fd_sc_hd__nand2_1
*I *247:B I *D sky130_fd_sc_hd__nand2_1
*I *242:Y O *D sky130_fd_sc_hd__nand2_2
*CAP
1 *243:B 0.000121047
2 *247:B 0
3 *242:Y 0.000131352
4 *46:10 0.0002524
5 *243:B *246:A 6.30388e-05
6 *243:B *361:A 0
7 *243:B *362:A 0.000102545
8 *46:10 *246:A 4.46186e-06
9 *46:10 *146:16 2.89114e-05
10 *242:A *46:10 0.000180955
11 *243:A *243:B 3.48001e-05
12 *247:A *243:B 5.80706e-06
13 *247:A *46:10 3.5794e-05
14 *41:23 *46:10 0
*RES
1 *242:Y *46:10 16.8893 
2 *46:10 *247:B 13.8 
3 *46:10 *243:B 16.5857 
*END

*D_NET *47 0.000491173
*CONN
*I *246:A I *D sky130_fd_sc_hd__nand2_2
*I *243:Y O *D sky130_fd_sc_hd__nand2_1
*CAP
1 *246:A 8.35489e-05
2 *243:Y 8.35489e-05
3 *246:A *246:B 0.000156312
4 *243:B *246:A 6.30388e-05
5 *244:A *246:A 0
6 *251:A *246:A 0.000100262
7 *41:23 *246:A 0
8 *46:10 *246:A 4.46186e-06
*RES
1 *243:Y *246:A 30.1893 
*END

*D_NET *48 0.000563276
*CONN
*I *246:B I *D sky130_fd_sc_hd__nand2_2
*I *244:Y O *D sky130_fd_sc_hd__nand2_1
*CAP
1 *246:B 0.000176195
2 *244:Y 0.000176195
3 *243:A *246:B 1.24368e-05
4 *244:A *246:B 1.30891e-05
5 *246:A *246:B 0.000156312
6 *251:A *246:B 2.90487e-05
*RES
1 *244:Y *246:B 30.85 
*END

*D_NET *49 0.00439038
*CONN
*I *293:A I *D sky130_fd_sc_hd__nand2_2
*I *252:B I *D sky130_fd_sc_hd__nand2_2
*I *245:Y O *D sky130_fd_sc_hd__inv_2
*CAP
1 *293:A 9.19549e-05
2 *252:B 2.36807e-05
3 *245:Y 0.000813382
4 *49:12 0.000929018
5 *252:B *252:A 3.76337e-05
6 *252:B *94:8 7.49933e-05
7 *293:A *252:A 2.44318e-05
8 *293:A *293:B 5.71472e-05
9 *293:A *94:8 0.000230482
10 *49:12 *248:A 5.03772e-05
11 *49:12 *248:B 0.000485776
12 *49:12 *262:A 5.00502e-05
13 *49:12 *265:A 0.000183713
14 *49:12 *292:A 0
15 *49:12 *314:A 0.000527997
16 *49:12 *356:A 0.000528511
17 *49:12 *147:10 0.000101157
18 p[1] *49:12 0.000180072
*RES
1 *245:Y *49:12 37.6214 
2 *49:12 *252:B 10.2643 
3 *49:12 *293:A 12.3179 
*END

*D_NET *50 0.000304849
*CONN
*I *299:A I *D sky130_fd_sc_hd__nand2_4
*I *248:Y O *D sky130_fd_sc_hd__nand2_2
*CAP
1 *299:A 4.60328e-05
2 *248:Y 4.60328e-05
3 *299:A *292:B 5.80217e-05
4 *299:A *69:10 0.000154762
*RES
1 *248:Y *299:A 29.5464 
*END

*D_NET *51 0.00101862
*CONN
*I *237:B I *D sky130_fd_sc_hd__nand2_2
*I *249:Y O *D sky130_fd_sc_hd__nand2_2
*CAP
1 *237:B 0.000260275
2 *249:Y 0.000260275
3 *237:B *228:A 1.4403e-05
4 *237:B *237:A 8.06427e-05
5 *237:B *360:A 4.70078e-05
6 *230:B *237:B 0.000106542
7 *235:B *237:B 9.71197e-05
8 *33:6 *237:B 4.18895e-05
9 *33:10 *237:B 5.52302e-05
10 *36:6 *237:B 5.52302e-05
*RES
1 *249:Y *237:B 33.975 
*END

*D_NET *52 0.000718666
*CONN
*I *248:A I *D sky130_fd_sc_hd__nand2_2
*I *250:Y O *D sky130_fd_sc_hd__nand2_2
*CAP
1 *248:A 0.000211159
2 *250:Y 0.000211159
3 *248:A *250:A 5.33005e-05
4 *248:A *265:A 1.91418e-05
5 *248:A *292:A 0
6 *248:A *292:B 4.46186e-06
7 *248:A *67:6 4.72818e-05
8 *248:A *69:10 7.60306e-05
9 *248:A *93:10 4.57538e-05
10 *49:12 *248:A 5.03772e-05
*RES
1 *250:Y *248:A 32.4571 
*END

*D_NET *53 0.000439984
*CONN
*I *244:B I *D sky130_fd_sc_hd__nand2_1
*I *251:Y O *D sky130_fd_sc_hd__nand2_1
*CAP
1 *244:B 0.000113291
2 *251:Y 0.000113291
3 *244:B *229:A 1.17968e-05
4 *244:A *244:B 0.000201604
*RES
1 *251:Y *244:B 30.1893 
*END

*D_NET *54 9.72117e-05
*CONN
*I *293:B I *D sky130_fd_sc_hd__nand2_2
*I *252:Y O *D sky130_fd_sc_hd__nand2_2
*CAP
1 *293:B 2.00323e-05
2 *252:Y 2.00323e-05
3 *293:A *293:B 5.71472e-05
*RES
1 *252:Y *293:B 19.1357 
*END

*D_NET *55 0.000665141
*CONN
*I *291:B I *D sky130_fd_sc_hd__nand2_4
*I *253:Y O *D sky130_fd_sc_hd__inv_2
*CAP
1 *291:B 0.000214163
2 *253:Y 0.000214163
3 *291:B *234:B 0.000139202
4 *291:B *264:B 9.76123e-05
*RES
1 *253:Y *291:B 30.9036 
*END

*D_NET *56 0.000635608
*CONN
*I *291:A I *D sky130_fd_sc_hd__nand2_4
*I *254:Y O *D sky130_fd_sc_hd__inv_1
*CAP
1 *291:A 0.000147182
2 *254:Y 0.000147182
3 *291:A *267:A 7.50601e-05
4 *291:A *158:30 0.000148189
5 *291:A *168:10 0.000117994
*RES
1 *254:Y *291:A 30.6982 
*END

*D_NET *57 0.00275402
*CONN
*I *245:A I *D sky130_fd_sc_hd__inv_2
*I *255:Y O *D sky130_fd_sc_hd__nand2_1
*CAP
1 *245:A 0.000838651
2 *255:Y 0.000838651
3 *245:A *282:A 2.99572e-05
4 *245:A *282:B 0.000141132
5 *245:A *283:A 1.13883e-05
6 *245:A *320:B 8.17274e-05
7 *245:A *65:12 7.68103e-05
8 *245:A *75:12 0.00013021
9 *245:A *116:28 0.000146409
10 *245:A *119:8 0.000181803
11 *245:A *123:10 0.000193125
12 *245:A *168:29 8.41574e-05
*RES
1 *255:Y *245:A 41.3321 
*END

*D_NET *58 0.000534617
*CONN
*I *261:A I *D sky130_fd_sc_hd__inv_2
*I *256:Y O *D sky130_fd_sc_hd__nand2_2
*CAP
1 *261:A 0.000106321
2 *256:Y 0.000106321
3 *261:A *100:8 0.000123288
4 *261:A *147:10 4.13477e-05
5 *261:A *158:14 0.000157339
*RES
1 *256:Y *261:A 30.6893 
*END

*D_NET *59 0.000838902
*CONN
*I *265:A I *D sky130_fd_sc_hd__inv_1
*I *257:Y O *D sky130_fd_sc_hd__nand2_1
*CAP
1 *265:A 0.000201006
2 *257:Y 0.000201006
3 *265:A *267:A 0.000148903
4 *265:A *69:10 8.51322e-05
5 *265:A *93:10 0
6 *248:A *265:A 1.91418e-05
7 *49:12 *265:A 0.000183713
*RES
1 *257:Y *265:A 31.5955 
*END

*D_NET *60 0.000701306
*CONN
*I *331:B I *D sky130_fd_sc_hd__nand2_2
*I *258:Y O *D sky130_fd_sc_hd__nand2_2
*CAP
1 *331:B 0.000123711
2 *258:Y 0.000123711
3 *331:B *258:A 7.26481e-05
4 *331:B *284:A 2.11336e-05
5 *331:B *315:A 0.000148514
6 *331:B *331:A 0.000139331
7 *331:B *332:A 7.22574e-05
*RES
1 *258:Y *331:B 31.4393 
*END

*D_NET *61 0.000563924
*CONN
*I *306:B I *D sky130_fd_sc_hd__nand2_1
*I *259:Y O *D sky130_fd_sc_hd__nand2_1
*CAP
1 *306:B 0.000138833
2 *259:Y 0.000138833
3 *306:B *259:A 0.000148514
4 *306:B *268:A 1.00887e-05
5 *306:B *269:A 9.58689e-05
6 *306:B *87:14 3.17866e-05
*RES
1 *259:Y *306:B 30.4929 
*END

*D_NET *62 0.000342363
*CONN
*I *310:B I *D sky130_fd_sc_hd__nand2_4
*I *260:Y O *D sky130_fd_sc_hd__nand2_4
*CAP
1 *310:B 7.92872e-05
2 *260:Y 7.92872e-05
3 *310:B *260:B 4.1331e-06
4 *310:B *312:B 0.000179656
*RES
1 *260:Y *310:B 29.85 
*END

*D_NET *63 0.0028089
*CONN
*I *300:B I *D sky130_fd_sc_hd__nand2_4
*I *302:A I *D sky130_fd_sc_hd__nand2_2
*I *261:Y O *D sky130_fd_sc_hd__inv_2
*CAP
1 *300:B 0.000164767
2 *302:A 0.000616425
3 *261:Y 0.000284151
4 *63:12 0.00106534
5 *300:B *308:B 9.36295e-05
6 *300:B *100:29 6.32353e-05
7 *300:B *109:24 3.67279e-06
8 *302:A *255:B 5.38444e-06
9 *302:A *304:A 3.32631e-05
10 *302:A *304:B 2.15245e-05
11 *302:A *305:B 4.87854e-05
12 *302:A *307:B 0.00011998
13 *302:A *168:27 1.46148e-05
14 *302:A *169:8 2.15245e-05
15 *63:12 *100:8 6.12106e-05
16 *63:12 *100:29 4.31987e-05
17 *63:12 *158:14 0.000148189
18 *349:A *63:12 0
19 *355:A *63:12 0
*RES
1 *261:Y *63:12 19.4429 
2 *63:12 *302:A 22.1929 
3 *63:12 *300:B 17.8714 
*END

*D_NET *64 0.00098665
*CONN
*I *263:A I *D sky130_fd_sc_hd__inv_1
*I *262:Y O *D sky130_fd_sc_hd__nand2_1
*CAP
1 *263:A 0.000236205
2 *262:Y 0.000236205
3 *263:A *234:B 2.00031e-05
4 *263:A *272:A 1.69115e-05
5 *263:A *315:A 6.42338e-05
6 *263:A *326:A 0.000123005
7 *263:A *65:12 7.64588e-05
8 *263:A *88:14 1.90936e-05
9 *263:A *147:20 6.84805e-05
10 *263:A *164:58 0.000126054
*RES
1 *262:Y *263:A 33.283 
*END

*D_NET *65 0.00407788
*CONN
*I *287:A I *D sky130_fd_sc_hd__nand2_1
*I *286:A I *D sky130_fd_sc_hd__nand2_2
*I *263:Y O *D sky130_fd_sc_hd__inv_1
*CAP
1 *287:A 0.000780071
2 *286:A 0
3 *263:Y 0.000387847
4 *65:12 0.00116792
5 *287:A *287:B 0.000181879
6 *287:A *289:B 3.80808e-05
7 *287:A *326:B 4.00349e-05
8 *287:A *356:A 9.90367e-05
9 *287:A *73:10 0.000108511
10 *287:A *88:14 2.89016e-05
11 *287:A *88:20 2.79405e-05
12 *287:A *166:42 0.000761308
13 *65:12 *272:A 0.000148903
14 *65:12 *322:B 3.06878e-06
15 *65:12 *75:12 7.83659e-05
16 *65:12 *88:14 5.7836e-06
17 *65:12 *164:58 6.42095e-05
18 *65:12 *166:42 2.75651e-06
19 *245:A *65:12 7.68103e-05
20 *263:A *65:12 7.64588e-05
*RES
1 *263:Y *65:12 24.7554 
2 *65:12 *286:A 9.3 
3 *65:12 *287:A 30.9285 
*END

*D_NET *66 0.000295029
*CONN
*I *254:A I *D sky130_fd_sc_hd__inv_1
*I *264:Y O *D sky130_fd_sc_hd__nand2_1
*CAP
1 *254:A 5.79408e-05
2 *264:Y 5.79408e-05
3 *254:A *234:B 9.83388e-05
4 *254:A *264:A 6.06495e-05
5 *254:A *168:10 2.01595e-05
*RES
1 *264:Y *254:A 20.2563 
*END

*D_NET *67 0.00144767
*CONN
*I *252:A I *D sky130_fd_sc_hd__nand2_2
*I *292:A I *D sky130_fd_sc_hd__nand2_2
*I *265:Y O *D sky130_fd_sc_hd__inv_1
*CAP
1 *252:A 0.000159097
2 *292:A 0.000204498
3 *265:Y 0.000130652
4 *67:6 0.000494248
5 *252:A *250:A 1.24368e-05
6 *252:A *94:8 3.14193e-05
7 *292:A *292:B 5.80706e-06
8 *292:A *294:A 2.39779e-05
9 *292:A *294:B 2.84398e-05
10 *292:A *93:10 0.000150625
11 *67:6 *250:A 9.71197e-05
12 *248:A *292:A 0
13 *248:A *67:6 4.72818e-05
14 *252:B *252:A 3.76337e-05
15 *293:A *252:A 2.44318e-05
16 *49:12 *292:A 0
*RES
1 *265:Y *67:6 11.6839 
2 *67:6 *292:A 22.1929 
3 *67:6 *252:A 12.3179 
*END

*D_NET *68 0.00229308
*CONN
*I *267:A I *D sky130_fd_sc_hd__inv_1
*I *266:Y O *D sky130_fd_sc_hd__nand2_1
*CAP
1 *267:A 0.000665331
2 *266:Y 0.000665331
3 *267:A *257:B 0
4 *267:A *296:B 0
5 *267:A *69:10 0.000210101
6 *267:A *158:30 5.16583e-05
7 *267:A *168:10 0.000476696
8 *265:A *267:A 0.000148903
9 *291:A *267:A 7.50601e-05
*RES
1 *266:Y *267:A 39.6937 
*END

*D_NET *69 0.00248163
*CONN
*I *300:A I *D sky130_fd_sc_hd__nand2_4
*I *301:A I *D sky130_fd_sc_hd__nand2_2
*I *267:Y O *D sky130_fd_sc_hd__inv_1
*CAP
1 *300:A 0.00022242
2 *301:A 0
3 *267:Y 0.000361715
4 *69:10 0.000584135
5 *300:A *256:B 0
6 *300:A *259:A 0.000170625
7 *300:A *259:B 3.29297e-05
8 *300:A *268:A 0.000196286
9 *300:A *303:A 0.000364486
10 *300:A *158:24 5.39227e-06
11 *69:10 *256:A 0
12 *69:10 *256:B 0
13 *69:10 *292:B 0
14 *69:10 *147:10 0
15 *69:10 *158:24 1.76135e-05
16 *69:10 *158:30 0
17 *248:A *69:10 7.60306e-05
18 *265:A *69:10 8.51322e-05
19 *267:A *69:10 0.000210101
20 *299:A *69:10 0.000154762
*RES
1 *267:Y *69:10 21.7554 
2 *69:10 *301:A 13.8 
3 *69:10 *300:A 20.9071 
*END

*D_NET *70 0.00217609
*CONN
*I *269:A I *D sky130_fd_sc_hd__inv_1
*I *268:Y O *D sky130_fd_sc_hd__nand2_1
*CAP
1 *269:A 0.000567979
2 *268:Y 0.000567979
3 *269:A *277:A 0.000101915
4 *269:A *311:A 2.85234e-05
5 *269:A *311:B 4.77336e-05
6 *269:A *71:8 1.37554e-05
7 *269:A *87:14 0.000101771
8 *269:A *113:14 0.000650562
9 *306:B *269:A 9.58689e-05
*RES
1 *268:Y *269:A 39.5241 
*END

*D_NET *71 0.00134233
*CONN
*I *310:A I *D sky130_fd_sc_hd__nand2_4
*I *260:A I *D sky130_fd_sc_hd__nand2_4
*I *309:A I *D sky130_fd_sc_hd__nand2_4
*I *269:Y O *D sky130_fd_sc_hd__inv_1
*CAP
1 *310:A 8.70636e-05
2 *260:A 0
3 *309:A 0.000209711
4 *269:Y 6.3028e-05
5 *71:19 0.000280732
6 *71:8 0.000466407
7 *309:A *309:B 3.67279e-06
8 *310:A *312:B 9.21958e-05
9 *71:19 *312:B 0.000125767
10 *269:A *71:8 1.37554e-05
*RES
1 *269:Y *71:8 14.5411 
2 *71:8 *309:A 17.2643 
3 *71:8 *71:19 4.375 
4 *71:19 *260:A 13.8 
5 *71:19 *310:A 16.05 
*END

*D_NET *72 0.00698428
*CONN
*I *271:A I *D sky130_fd_sc_hd__inv_1
*I *270:Y O *D sky130_fd_sc_hd__nand2_1
*CAP
1 *271:A 0.00193407
2 *270:Y 0.00193407
3 *271:A *233:A 0.000110632
4 *271:A *270:A 0.000225067
5 *271:A *278:A 0.000115369
6 *271:A *279:A 0.000157074
7 *271:A *288:B 8.75887e-07
8 *271:A *317:B 0.00221841
9 *271:A *166:14 0.000288717
*RES
1 *270:Y *271:A 49.0933 
*END

*D_NET *73 0.00567488
*CONN
*I *316:A I *D sky130_fd_sc_hd__nand2_1
*I *314:B I *D sky130_fd_sc_hd__nand2_2
*I *271:Y O *D sky130_fd_sc_hd__inv_1
*CAP
1 *316:A 0.00109846
2 *314:B 0
3 *271:Y 0.000288224
4 *73:10 0.00138668
5 *316:A *213:B 0
6 *316:A *214:A 0.000268126
7 *316:A *215:A 0.000166122
8 *316:A *233:A 5.71472e-05
9 *316:A *278:A 0
10 *316:A *280:A 0.000169896
11 *316:A *280:B 0.000157375
12 *316:A *314:A 5.80706e-06
13 *316:A *316:B 0.00020324
14 *316:A *317:B 5.01564e-05
15 *316:A *323:B 0
16 *316:A *327:B 4.97555e-05
17 *316:A *371:A 0
18 *316:A *81:10 0.000146254
19 *316:A *83:12 0.000121897
20 *316:A *115:34 0
21 *316:A *116:28 0
22 *316:A *127:8 0.00029115
23 *316:A *165:12 0
24 *316:A *166:42 0.000110686
25 *73:10 *280:B 1.02504e-05
26 *73:10 *287:B 1.27625e-05
27 *73:10 *289:B 0.000118982
28 *73:10 *314:A 1.24548e-05
29 *73:10 *357:A 0.000182694
30 *214:B *316:A 0.00019667
31 *221:A *316:A 2.06791e-05
32 *236:B *316:A 5.10822e-05
33 *287:A *73:10 0.000108511
34 *366:A *316:A 0.000170532
35 *368:A *316:A 6.80593e-05
36 *27:8 *316:A 6.85873e-05
37 *31:24 *316:A 3.07696e-05
38 *32:21 *316:A 5.18689e-05
*RES
1 *271:Y *73:10 18.5411 
2 *73:10 *314:B 13.8 
3 *73:10 *316:A 43.55 
*END

*D_NET *74 0.000432109
*CONN
*I *273:A I *D sky130_fd_sc_hd__inv_1
*I *272:Y O *D sky130_fd_sc_hd__nand2_1
*CAP
1 *273:A 5.84576e-05
2 *272:Y 5.84576e-05
3 *273:A *272:B 3.99614e-06
4 *273:A *371:A 0
5 *273:A *167:27 0.000158234
6 *223:A *273:A 0.000152964
*RES
1 *272:Y *273:A 21.033 
*END

*D_NET *75 0.00101897
*CONN
*I *319:A I *D sky130_fd_sc_hd__nand2_2
*I *321:A I *D sky130_fd_sc_hd__nand2_1
*I *273:Y O *D sky130_fd_sc_hd__inv_1
*CAP
1 *319:A 4.39529e-05
2 *321:A 0
3 *273:Y 0.000170639
4 *75:12 0.000214592
5 *319:A *282:A 7.02611e-05
6 *319:A *320:B 5.33005e-05
7 *319:A *119:8 9.71197e-05
8 *75:12 *272:A 2.82057e-05
9 *75:12 *364:A 5.80706e-06
10 *75:12 *123:10 1.5942e-05
11 *75:12 *164:37 9.09249e-05
12 *75:12 *167:27 1.96517e-05
13 *245:A *75:12 0.00013021
14 *65:12 *75:12 7.83659e-05
*RES
1 *273:Y *75:12 22.7018 
2 *75:12 *321:A 9.3 
3 *75:12 *319:A 10.6571 
*END

*D_NET *76 0.000371428
*CONN
*I *275:A I *D sky130_fd_sc_hd__inv_1
*I *274:Y O *D sky130_fd_sc_hd__nand2_1
*CAP
1 *275:A 9.88458e-05
2 *274:Y 9.88458e-05
3 *275:A *276:A 0.000146254
4 *275:A *284:A 1.37411e-05
5 *275:A *77:19 1.37411e-05
*RES
1 *274:Y *275:A 29.8277 
*END

*D_NET *77 0.00196524
*CONN
*I *329:B I *D sky130_fd_sc_hd__nand2_4
*I *331:A I *D sky130_fd_sc_hd__nand2_2
*I *258:B I *D sky130_fd_sc_hd__nand2_2
*I *275:Y O *D sky130_fd_sc_hd__inv_1
*CAP
1 *329:B 0.000136881
2 *331:A 0.000340016
3 *258:B 9.28304e-05
4 *275:Y 0
5 *77:19 0.000596375
6 *77:4 0.000212308
7 *258:B *284:A 2.05484e-05
8 *329:B *283:A 3.41939e-05
9 *329:B *332:B 0.000173015
10 *329:B *338:A 2.38651e-06
11 *331:A *332:A 3.09985e-05
12 *331:A *132:10 7.46579e-05
13 *77:19 *276:A 7.74135e-05
14 *77:19 *283:A 1.12578e-05
15 *77:19 *284:A 9.28394e-06
16 *275:A *77:19 1.37411e-05
17 *331:B *331:A 0.000139331
*RES
1 *275:Y *77:4 9.3 
2 *77:4 *258:B 10.7732 
3 *77:4 *77:19 6.58036 
4 *77:19 *331:A 19.6929 
5 *77:19 *329:B 16.9607 
*END

*D_NET *78 0.00084786
*CONN
*I *277:A I *D sky130_fd_sc_hd__inv_1
*I *276:Y O *D sky130_fd_sc_hd__nand2_1
*CAP
1 *277:A 0.000279321
2 *276:Y 0.000279321
3 *277:A *276:B 5.91607e-05
4 *277:A *87:14 0.000100068
5 *277:A *113:14 2.80741e-05
6 *269:A *277:A 0.000101915
*RES
1 *276:Y *277:A 32.0062 
*END

*D_NET *79 0.00127114
*CONN
*I *339:B I *D sky130_fd_sc_hd__nand2_1
*I *341:A I *D sky130_fd_sc_hd__nand2_1
*I *277:Y O *D sky130_fd_sc_hd__inv_1
*CAP
1 *339:B 0.000140559
2 *341:A 5.81009e-05
3 *277:Y 0.000164745
4 *79:12 0.000363405
5 *339:B *340:A 4.68028e-05
6 *339:B *342:A 0.000115379
7 *339:B *138:6 8.10737e-06
8 *339:B *138:10 6.93704e-06
9 *339:B *141:16 1.33343e-05
10 *341:A *342:A 5.35408e-06
11 *341:A *342:B 3.87535e-05
12 *341:A *138:10 1.75897e-05
13 *341:A *141:16 1.98839e-05
14 *79:12 *259:A 2.53112e-06
15 *79:12 *87:14 0.000193827
16 *79:12 *113:14 7.5834e-05
17 *79:12 *114:12 0
*RES
1 *277:Y *79:12 21.5946 
2 *79:12 *341:A 10.675 
3 *79:12 *339:B 12.8893 
*END

*D_NET *80 0.00396901
*CONN
*I *279:A I *D sky130_fd_sc_hd__inv_1
*I *278:Y O *D sky130_fd_sc_hd__nand2_1
*CAP
1 *279:A 0.000641064
2 *278:Y 0.000641064
3 *279:A *270:A 0.000119843
4 *279:A *278:A 0.000418388
5 *279:A *281:A 0.00059623
6 *279:A *359:A 0.000193833
7 *279:A *164:37 3.66243e-05
8 *216:B *279:A 0.000197385
9 *217:A *279:A 0.00019865
10 *222:B *279:A 5.83304e-05
11 *224:B *279:A 0.000173076
12 *271:A *279:A 0.000157074
13 *23:10 *279:A 0.000410481
14 *31:24 *279:A 0.000126963
*RES
1 *278:Y *279:A 48.7205 
*END

*D_NET *81 0.00119211
*CONN
*I *213:B I *D sky130_fd_sc_hd__nand2_4
*I *215:A I *D sky130_fd_sc_hd__nand2_2
*I *279:Y O *D sky130_fd_sc_hd__inv_1
*CAP
1 *213:B 0.000115068
2 *215:A 5.21353e-05
3 *279:Y 0.000114618
4 *81:10 0.000281821
5 *213:B *284:A 2.37871e-05
6 *81:10 *164:37 3.28686e-05
7 *217:A *213:B 5.49995e-05
8 *316:A *213:B 0
9 *316:A *215:A 0.000166122
10 *316:A *81:10 0.000146254
11 *20:6 *213:B 9.83442e-05
12 *20:25 *215:A 9.14222e-05
13 *20:25 *81:10 1.46689e-05
*RES
1 *279:Y *81:10 16.0768 
2 *81:10 *215:A 16.05 
3 *81:10 *213:B 16.1036 
*END

*D_NET *82 0.00262798
*CONN
*I *281:A I *D sky130_fd_sc_hd__inv_1
*I *280:Y O *D sky130_fd_sc_hd__nand2_1
*CAP
1 *281:A 0.00046638
2 *280:Y 0.00046638
3 *281:A *214:A 2.14001e-05
4 *281:A *278:A 0.00033747
5 *281:A *280:A 0.000120076
6 *281:A *288:B 3.09814e-05
7 *281:A *327:B 0.00020455
8 *281:A *127:8 0.000199213
9 *281:A *166:14 0
10 *216:A *281:A 2.3541e-05
11 *217:A *281:A 8.98994e-05
12 *279:A *281:A 0.00059623
13 *288:A *281:A 5.49489e-05
14 *23:10 *281:A 1.69115e-05
*RES
1 *280:Y *281:A 42.4616 
*END

*D_NET *83 0.00108202
*CONN
*I *220:A I *D sky130_fd_sc_hd__nand2_1
*I *218:A I *D sky130_fd_sc_hd__nand2_2
*I *281:Y O *D sky130_fd_sc_hd__inv_1
*CAP
1 *220:A 8.51687e-05
2 *218:A 0
3 *281:Y 0.000204883
4 *83:12 0.000290052
5 *220:A *218:B 8.95839e-06
6 *220:A *219:A 1.60322e-05
7 *220:A *136:8 1.59373e-05
8 *83:12 *278:A 3.52053e-05
9 *216:A *83:12 2.18792e-05
10 *219:B *220:A 5.17614e-05
11 *220:B *220:A 0.000135669
12 *221:A *220:A 7.7846e-05
13 *316:A *83:12 0.000121897
14 *24:15 *220:A 1.67291e-05
*RES
1 *281:Y *83:12 21.5054 
2 *83:12 *218:A 9.3 
3 *83:12 *220:A 12.3357 
*END

*D_NET *84 0.00255611
*CONN
*I *283:A I *D sky130_fd_sc_hd__inv_1
*I *282:Y O *D sky130_fd_sc_hd__nand2_1
*CAP
1 *283:A 0.000830693
2 *282:Y 0.000830693
3 *283:A *255:A 6.05161e-06
4 *283:A *274:A 2.84026e-05
5 *283:A *276:A 0.000287312
6 *283:A *282:B 3.15374e-05
7 *283:A *332:B 0.000175274
8 *283:A *343:A 5.52238e-05
9 *283:A *343:B 8.58408e-05
10 *283:A *345:B 0.000152655
11 *283:A *168:29 1.55885e-05
12 *245:A *283:A 1.13883e-05
13 *329:B *283:A 3.41939e-05
14 *77:19 *283:A 1.12578e-05
*RES
1 *282:Y *283:A 44.3277 
*END

*D_NET *85 0.00140147
*CONN
*I *228:A I *D sky130_fd_sc_hd__nand2_2
*I *230:A I *D sky130_fd_sc_hd__nand2_1
*I *283:Y O *D sky130_fd_sc_hd__inv_1
*CAP
1 *228:A 0.000129078
2 *230:A 0.000223081
3 *283:Y 0.00015982
4 *85:14 0.000511979
5 *228:A *237:A 9.30022e-05
6 *230:A *346:B 1.24368e-05
7 *85:14 *237:A 3.49572e-05
8 *85:14 *343:B 3.49005e-05
9 *85:14 *346:B 0.000125593
10 *231:A *230:A 2.89114e-05
11 *237:B *228:A 1.4403e-05
12 *41:8 *230:A 3.3304e-05
*RES
1 *283:Y *85:14 17.0411 
2 *85:14 *230:A 17.6571 
3 *85:14 *228:A 16.7107 
*END

*D_NET *86 0.000721032
*CONN
*I *285:A I *D sky130_fd_sc_hd__inv_1
*I *284:Y O *D sky130_fd_sc_hd__nand2_1
*CAP
1 *285:A 0.000264661
2 *284:Y 0.000264661
3 *285:A *276:B 2.3541e-05
4 *285:A *284:B 4.7812e-05
5 *285:A *307:A 5.65955e-05
6 *285:A *108:10 3.47956e-06
7 *285:A *169:31 6.02811e-05
*RES
1 *284:Y *285:A 31.658 
*END

*D_NET *87 0.00265964
*CONN
*I *238:B I *D sky130_fd_sc_hd__nand2_1
*I *240:A I *D sky130_fd_sc_hd__nand2_1
*I *285:Y O *D sky130_fd_sc_hd__inv_1
*CAP
1 *238:B 0.00032274
2 *240:A 0
3 *285:Y 0.00038527
4 *87:14 0.00070801
5 *238:B *238:A 2.44318e-05
6 *238:B *146:16 0.000272837
7 *87:14 *276:B 7.842e-05
8 *87:14 *347:A 0.000113752
9 *87:14 *101:10 5.50052e-05
10 *87:14 *114:12 0
11 *87:14 *141:16 0.000128154
12 *240:B *238:B 0.000120322
13 *240:B *87:14 5.80706e-06
14 *269:A *87:14 0.000101771
15 *277:A *87:14 0.000100068
16 *306:B *87:14 3.17866e-05
17 *42:8 *238:B 1.74352e-05
18 *79:12 *87:14 0.000193827
*RES
1 *285:Y *87:14 23.1304 
2 *87:14 *240:A 13.8 
3 *87:14 *238:B 19.8357 
*END

*D_NET *88 0.00447138
*CONN
*I *290:A I *D sky130_fd_sc_hd__inv_2
*I *287:B I *D sky130_fd_sc_hd__nand2_1
*I *288:B I *D sky130_fd_sc_hd__nand2_1
*I *286:Y O *D sky130_fd_sc_hd__nand2_2
*CAP
1 *290:A 0.000357976
2 *287:B 0.000160465
3 *288:B 0.000285426
4 *286:Y 0.000113282
5 *88:20 0.00104939
6 *88:14 0.00107476
7 *287:B *280:A 0.000110226
8 *287:B *280:B 0.000112662
9 *287:B *317:B 3.27102e-05
10 *288:B *280:A 2.00751e-05
11 *288:B *317:B 5.00695e-06
12 *290:A *298:B 5.24439e-05
13 *290:A *314:A 4.03041e-05
14 *290:A *315:A 1.41642e-05
15 *88:14 *356:A 1.21258e-05
16 *88:20 *115:34 4.73891e-05
17 *88:20 *166:42 0.000674752
18 *263:A *88:14 1.90936e-05
19 *271:A *288:B 8.75887e-07
20 *281:A *288:B 3.09814e-05
21 *287:A *287:B 0.000181879
22 *287:A *88:14 2.89016e-05
23 *287:A *88:20 2.79405e-05
24 *65:12 *88:14 5.7836e-06
25 *73:10 *287:B 1.27625e-05
*RES
1 *286:Y *88:14 18.8618 
2 *88:14 *88:20 1.68887 
3 *88:20 *288:B 19.0363 
4 *88:20 *287:B 21.4332 
5 *88:14 *290:A 19.1805 
*END

*D_NET *89 0.000368507
*CONN
*I *289:A I *D sky130_fd_sc_hd__nand2_1
*I *287:Y O *D sky130_fd_sc_hd__nand2_1
*CAP
1 *289:A 4.87659e-05
2 *287:Y 4.87659e-05
3 *289:A *337:A 0
4 *289:A *357:A 7.50473e-05
5 *289:A *116:28 0.000195928
*RES
1 *287:Y *289:A 20.7964 
*END

*D_NET *90 0.000980285
*CONN
*I *289:B I *D sky130_fd_sc_hd__nand2_1
*I *288:Y O *D sky130_fd_sc_hd__nand2_1
*CAP
1 *289:B 0.000177517
2 *288:Y 0.000177517
3 *289:B *314:A 5.1588e-05
4 *289:B *323:B 0.000264743
5 *289:B *356:A 3.48139e-05
6 *289:B *116:28 0
7 *289:B *170:22 0
8 *287:A *289:B 3.80808e-05
9 *288:A *289:B 0.000117044
10 *73:10 *289:B 0.000118982
*RES
1 *288:Y *289:B 32.7429 
*END

*D_NET *91 0.00294752
*CONN
*I *248:B I *D sky130_fd_sc_hd__nand2_2
*I *295:B I *D sky130_fd_sc_hd__nand2_1
*I *297:A I *D sky130_fd_sc_hd__nand2_1
*I *290:Y O *D sky130_fd_sc_hd__inv_2
*CAP
1 *248:B 0.000126347
2 *295:B 0.000105017
3 *297:A 6.31765e-05
4 *290:Y 0.000159788
5 *91:14 0.000283003
6 *91:10 0.000400945
7 *248:B *257:A 3.4855e-05
8 *248:B *262:A 0.000152374
9 *248:B *296:B 5.52302e-05
10 *295:B *297:B 0.000142488
11 *295:B *95:8 0.000226867
12 *297:A *297:B 5.1408e-05
13 *297:A *326:B 0
14 *297:A *95:8 0.000183022
15 *297:A *170:22 9.58126e-05
16 *91:10 *298:B 0.000140361
17 *91:10 *99:8 9.60875e-05
18 *91:14 *298:B 0.000123295
19 p[1] *91:14 2.16719e-05
20 *49:12 *248:B 0.000485776
*RES
1 *290:Y *91:10 16.6929 
2 *91:10 *91:14 6.75 
3 *91:14 *297:A 11.4964 
4 *91:14 *295:B 12.7286 
5 *91:10 *248:B 18.8714 
*END

*D_NET *92 0.00103641
*CONN
*I *299:B I *D sky130_fd_sc_hd__nand2_4
*I *292:B I *D sky130_fd_sc_hd__nand2_2
*I *291:Y O *D sky130_fd_sc_hd__nand2_4
*CAP
1 *299:B 0
2 *292:B 6.48618e-05
3 *291:Y 0.000226506
4 *92:8 0.000291368
5 *292:B *147:10 0.000154762
6 *92:8 *147:14 0.000230626
7 *248:A *292:B 4.46186e-06
8 *292:A *292:B 5.80706e-06
9 *299:A *292:B 5.80217e-05
10 *69:10 *292:B 0
*RES
1 *291:Y *92:8 13.9607 
2 *92:8 *292:B 20.55 
3 *92:8 *299:B 9.3 
*END

*D_NET *93 0.00308725
*CONN
*I *250:A I *D sky130_fd_sc_hd__nand2_2
*I *294:A I *D sky130_fd_sc_hd__nand2_1
*I *292:Y O *D sky130_fd_sc_hd__nand2_2
*CAP
1 *250:A 3.72522e-05
2 *294:A 0.00058054
3 *292:Y 9.73523e-05
4 *93:10 0.000715145
5 *294:A *294:B 0.00115638
6 *294:A *326:A 3.27526e-05
7 p[1] *294:A 8.46096e-05
8 *248:A *250:A 5.33005e-05
9 *248:A *93:10 4.57538e-05
10 *252:A *250:A 1.24368e-05
11 *265:A *93:10 0
12 *292:A *294:A 2.39779e-05
13 *292:A *93:10 0.000150625
14 *67:6 *250:A 9.71197e-05
*RES
1 *292:Y *93:10 16.2821 
2 *93:10 *294:A 37.6929 
3 *93:10 *250:A 14.7464 
*END

*D_NET *94 0.00383138
*CONN
*I *250:B I *D sky130_fd_sc_hd__nand2_2
*I *294:B I *D sky130_fd_sc_hd__nand2_1
*I *293:Y O *D sky130_fd_sc_hd__nand2_2
*CAP
1 *250:B 0
2 *294:B 0.000762694
3 *293:Y 0.000198878
4 *94:8 0.000961572
5 *294:B *326:A 3.34366e-05
6 *294:B *116:28 0
7 *294:B *170:22 0.000353086
8 p[2] *294:B 0
9 *252:A *94:8 3.14193e-05
10 *252:B *94:8 7.49933e-05
11 *292:A *294:B 2.84398e-05
12 *293:A *94:8 0.000230482
13 *294:A *294:B 0.00115638
*RES
1 *293:Y *94:8 13.4429 
2 *94:8 *294:B 44.05 
3 *94:8 *250:B 9.3 
*END

*D_NET *95 0.00161049
*CONN
*I *296:A I *D sky130_fd_sc_hd__nand2_1
*I *295:A I *D sky130_fd_sc_hd__nand2_1
*I *294:Y O *D sky130_fd_sc_hd__nand2_1
*CAP
1 *296:A 0.000111732
2 *295:A 6.09087e-05
3 *294:Y 0.000246016
4 *95:8 0.000418657
5 *296:A *296:B 0.000146994
6 *95:8 *297:B 2.8078e-05
7 *95:8 *298:B 0.000184522
8 *95:8 *326:A 3.69047e-06
9 *295:B *95:8 0.000226867
10 *297:A *95:8 0.000183022
*RES
1 *294:Y *95:8 19.2643 
2 *95:8 *295:A 14.5321 
3 *95:8 *296:A 16.05 
*END

*D_NET *96 0.00149374
*CONN
*I *296:B I *D sky130_fd_sc_hd__nand2_1
*I *297:B I *D sky130_fd_sc_hd__nand2_1
*I *295:Y O *D sky130_fd_sc_hd__nand2_1
*CAP
1 *296:B 9.94193e-05
2 *297:B 0.000178561
3 *295:Y 0.000277981
4 *296:B *257:B 4.46186e-06
5 *296:B *262:A 5.52302e-05
6 *297:B *326:A 0
7 *297:B *170:22 9.87617e-05
8 p[0] *297:B 0.000355124
9 *248:B *296:B 5.52302e-05
10 *267:A *296:B 0
11 *295:B *297:B 0.000142488
12 *296:A *296:B 0.000146994
13 *297:A *297:B 5.1408e-05
14 *95:8 *297:B 2.8078e-05
*RES
1 *295:Y *297:B 24.0821 
2 *295:Y *296:B 30.0821 
*END

*D_NET *97 0.000387082
*CONN
*I *298:A I *D sky130_fd_sc_hd__nand2_1
*I *296:Y O *D sky130_fd_sc_hd__nand2_1
*CAP
1 *298:A 0.000161394
2 *296:Y 0.000161394
3 *298:A *257:B 5.94443e-05
4 *298:A *167:51 4.85049e-06
*RES
1 *296:Y *298:A 30.3143 
*END

*D_NET *98 0.00135446
*CONN
*I *298:B I *D sky130_fd_sc_hd__nand2_1
*I *297:Y O *D sky130_fd_sc_hd__nand2_1
*CAP
1 *298:B 0.000313388
2 *297:Y 0.000313388
3 *298:B *314:A 0
4 *298:B *99:8 9.83442e-05
5 *298:B *167:51 5.20751e-05
6 p[1] *298:B 7.6644e-05
7 *290:A *298:B 5.24439e-05
8 *91:10 *298:B 0.000140361
9 *91:14 *298:B 0.000123295
10 *95:8 *298:B 0.000184522
*RES
1 *297:Y *298:B 34.3857 
*END

*D_NET *99 0.00673232
*CONN
*I *315:A I *D sky130_fd_sc_hd__nand2_1
*I *314:A I *D sky130_fd_sc_hd__nand2_2
*I *298:Y O *D sky130_fd_sc_hd__nand2_1
*CAP
1 *315:A 0.00093624
2 *314:A 0.000790555
3 *298:Y 0.000137953
4 *99:8 0.00186475
5 *314:A *323:B 0.00018372
6 *314:A *326:A 8.42942e-05
7 *314:A *356:A 0.000141822
8 *314:A *115:34 4.6025e-06
9 *315:A *258:A 6.37939e-05
10 *315:A *272:A 0.000150618
11 *315:A *315:B 0
12 *315:A *320:A 1.08359e-05
13 *315:A *320:B 0.000145753
14 *315:A *326:A 1.08847e-05
15 *315:A *334:A 9.14132e-05
16 *315:A *108:10 6.95638e-05
17 *315:A *116:28 0
18 *315:A *132:10 7.48644e-05
19 *315:A *133:21 0.00010268
20 *315:A *137:12 5.5782e-05
21 *315:A *147:20 0.000120895
22 *315:A *147:50 0
23 *315:A *164:37 0.000263513
24 *315:A *167:27 5.71472e-05
25 *315:A *167:36 0.000180348
26 *315:A *167:51 1.24368e-05
27 *99:8 *212:B 5.1653e-05
28 *99:8 *167:51 6.48205e-05
29 p[1] *314:A 1.89507e-06
30 *263:A *315:A 6.42338e-05
31 *289:B *314:A 5.1588e-05
32 *290:A *314:A 4.03041e-05
33 *290:A *315:A 1.41642e-05
34 *298:B *314:A 0
35 *298:B *99:8 9.83442e-05
36 *316:A *314:A 5.80706e-06
37 *331:B *315:A 0.000148514
38 *49:12 *314:A 0.000527997
39 *73:10 *314:A 1.24548e-05
40 *91:10 *99:8 9.60875e-05
*RES
1 *298:Y *99:8 16.8 
2 *99:8 *314:A 35.0321 
3 *99:8 *315:A 44.4429 
*END

*D_NET *100 0.00299786
*CONN
*I *259:B I *D sky130_fd_sc_hd__nand2_1
*I *306:A I *D sky130_fd_sc_hd__nand2_1
*I *304:A I *D sky130_fd_sc_hd__nand2_8
*I *299:Y O *D sky130_fd_sc_hd__nand2_4
*CAP
1 *259:B 0.000120714
2 *306:A 0.000157487
3 *304:A 6.43017e-05
4 *299:Y 0.000151007
5 *100:29 0.000550552
6 *100:8 0.000487659
7 *259:B *259:A 0.000102625
8 *259:B *370:A 6.18755e-05
9 *304:A *169:8 0.000183726
10 *306:A *276:B 3.49456e-06
11 *306:A *101:10 0.000112036
12 *100:8 *256:A 0.00014576
13 *100:8 *256:B 7.57869e-05
14 *100:8 *147:10 9.25014e-06
15 *100:8 *158:14 1.08359e-05
16 *100:8 *169:23 1.76135e-05
17 *100:29 *308:B 0.000127939
18 *100:29 *101:10 7.62323e-05
19 *100:29 *169:23 0.000181845
20 *261:A *100:8 0.000123288
21 *300:A *259:B 3.29297e-05
22 *300:B *100:29 6.32353e-05
23 *302:A *304:A 3.32631e-05
24 *63:12 *100:8 6.12106e-05
25 *63:12 *100:29 4.31987e-05
*RES
1 *299:Y *100:8 17.8714 
2 *100:8 *304:A 15.5679 
3 *100:8 *100:29 11.7321 
4 *100:29 *306:A 11.9071 
5 *100:29 *259:B 21.4607 
*END

*D_NET *101 0.00255876
*CONN
*I *370:A I *D sky130_fd_sc_hd__buf_2
*I *302:B I *D sky130_fd_sc_hd__nand2_2
*I *301:B I *D sky130_fd_sc_hd__nand2_2
*I *300:Y O *D sky130_fd_sc_hd__nand2_4
*CAP
1 *370:A 9.40563e-05
2 *302:B 2.52229e-05
3 *301:B 0.000157425
4 *300:Y 0
5 *101:10 0.000599931
6 *101:4 0.00051134
7 *301:B *264:A 6.71757e-05
8 *301:B *268:A 0
9 *301:B *104:10 2.8266e-06
10 *301:B *158:30 1.78396e-05
11 *301:B *168:10 7.61932e-05
12 *301:B *168:27 7.60306e-05
13 *302:B *307:B 5.52238e-05
14 *370:A *308:B 6.4474e-05
15 *370:A *110:10 2.11693e-05
16 *101:10 *268:A 1.78393e-05
17 *101:10 *276:A 0
18 *101:10 *284:B 7.80059e-05
19 *101:10 *303:B 0.000150043
20 *101:10 *307:A 3.33175e-05
21 *101:10 *307:B 2.24574e-05
22 *101:10 *104:10 5.66281e-05
23 *101:10 *169:31 0.000126416
24 *259:B *370:A 6.18755e-05
25 *306:A *101:10 0.000112036
26 *87:14 *101:10 5.50052e-05
27 *100:29 *101:10 7.62323e-05
*RES
1 *300:Y *101:4 9.3 
2 *101:4 *101:10 14.0179 
3 *101:10 *301:B 17.4071 
4 *101:10 *302:B 14.3357 
5 *101:4 *370:A 20.8536 
*END

*D_NET *102 0.000796635
*CONN
*I *303:A I *D sky130_fd_sc_hd__nand2_4
*I *301:Y O *D sky130_fd_sc_hd__nand2_2
*CAP
1 *303:A 0.000152974
2 *301:Y 0.000152974
3 *303:A *256:B 4.57445e-05
4 *303:A *169:23 8.04554e-05
5 *300:A *303:A 0.000364486
*RES
1 *301:Y *303:A 32.2786 
*END

*D_NET *103 0.000386611
*CONN
*I *303:B I *D sky130_fd_sc_hd__nand2_4
*I *302:Y O *D sky130_fd_sc_hd__nand2_2
*CAP
1 *303:B 4.32627e-05
2 *302:Y 4.32627e-05
3 *303:B *307:B 0.000150043
4 *101:10 *303:B 0.000150043
*RES
1 *302:Y *303:B 29.5464 
*END

*D_NET *104 0.00189582
*CONN
*I *259:A I *D sky130_fd_sc_hd__nand2_1
*I *305:A I *D sky130_fd_sc_hd__nand2_2
*I *304:B I *D sky130_fd_sc_hd__nand2_8
*I *303:Y O *D sky130_fd_sc_hd__nand2_4
*CAP
1 *259:A 0.000215902
2 *305:A 0
3 *304:B 0.000143408
4 *303:Y 0
5 *104:10 0.000237945
6 *104:4 0.000310439
7 *259:A *268:A 0.000136752
8 *259:A *169:23 4.58194e-05
9 *304:B *305:B 6.03176e-05
10 *104:10 *268:A 0.000223152
11 *104:10 *284:B 1.6815e-05
12 *259:B *259:A 0.000102625
13 *300:A *259:A 0.000170625
14 *301:B *104:10 2.8266e-06
15 *302:A *304:B 2.15245e-05
16 *306:B *259:A 0.000148514
17 *79:12 *259:A 2.53112e-06
18 *101:10 *104:10 5.66281e-05
*RES
1 *303:Y *104:4 9.3 
2 *104:4 *104:10 11.8571 
3 *104:10 *304:B 11.925 
4 *104:10 *305:A 9.3 
5 *104:4 *259:A 24.2286 
*END

*D_NET *105 0.000615473
*CONN
*I *308:A I *D sky130_fd_sc_hd__nand2_8
*I *305:B I *D sky130_fd_sc_hd__nand2_2
*I *304:Y O *D sky130_fd_sc_hd__nand2_8
*CAP
1 *308:A 0.000167825
2 *305:B 7.02198e-05
3 *304:Y 0.000238045
4 *308:A *309:B 3.02801e-05
5 *302:A *305:B 4.87854e-05
6 *304:B *305:B 6.03176e-05
*RES
1 *304:Y *305:B 20.4036 
2 *304:Y *308:A 30.4929 
*END

*D_NET *106 0.000700003
*CONN
*I *307:B I *D sky130_fd_sc_hd__nand2_2
*I *305:Y O *D sky130_fd_sc_hd__nand2_2
*CAP
1 *307:B 0.000173124
2 *305:Y 0.000173124
3 *307:B *276:A 0
4 *307:B *168:27 6.05161e-06
5 *302:A *307:B 0.00011998
6 *302:B *307:B 5.52238e-05
7 *303:B *307:B 0.000150043
8 *101:10 *307:B 2.24574e-05
*RES
1 *305:Y *307:B 31.5107 
*END

*D_NET *107 0.000773466
*CONN
*I *307:A I *D sky130_fd_sc_hd__nand2_2
*I *306:Y O *D sky130_fd_sc_hd__nand2_1
*CAP
1 *307:A 0.000171059
2 *306:Y 0.000171059
3 *307:A *268:A 5.81753e-05
4 *307:A *284:B 0.000146534
5 *307:A *169:23 4.08637e-05
6 *307:A *169:31 9.58632e-05
7 *285:A *307:A 5.65955e-05
8 *101:10 *307:A 3.33175e-05
*RES
1 *306:Y *307:A 31.9571 
*END

*D_NET *108 0.00207502
*CONN
*I *319:B I *D sky130_fd_sc_hd__nand2_2
*I *320:A I *D sky130_fd_sc_hd__nand2_1
*I *307:Y O *D sky130_fd_sc_hd__nand2_2
*CAP
1 *319:B 0
2 *320:A 0.000168172
3 *307:Y 0.000516849
4 *108:10 0.000685021
5 *320:A *320:B 0.000155778
6 *320:A *322:B 1.24368e-05
7 *320:A *325:A 0
8 *320:A *164:58 4.13937e-05
9 *108:10 *284:A 0.000309626
10 *108:10 *284:B 0.000101859
11 *285:A *108:10 3.47956e-06
12 *315:A *320:A 1.08359e-05
13 *315:A *108:10 6.95638e-05
*RES
1 *307:Y *108:10 21.2107 
2 *108:10 *320:A 17.2464 
3 *108:10 *319:B 13.8 
*END

*D_NET *109 0.00145445
*CONN
*I *260:B I *D sky130_fd_sc_hd__nand2_4
*I *311:A I *D sky130_fd_sc_hd__nand2_4
*I *309:B I *D sky130_fd_sc_hd__nand2_4
*I *308:Y O *D sky130_fd_sc_hd__nand2_8
*CAP
1 *260:B 0.000201282
2 *311:A 1.42517e-05
3 *309:B 0.000295471
4 *308:Y 0.000140539
5 *109:24 0.000370466
6 *260:B *312:A 0.000171355
7 *260:B *312:B 0
8 *260:B *313:A 0
9 *260:B *113:14 0.000109836
10 *311:A *311:B 5.49995e-05
11 *109:24 *312:A 9.15842e-06
12 *109:24 *113:14 1.6815e-05
13 *269:A *311:A 2.85234e-05
14 *300:B *109:24 3.67279e-06
15 *308:A *309:B 3.02801e-05
16 *309:A *309:B 3.67279e-06
17 *310:B *260:B 4.1331e-06
*RES
1 *308:Y *309:B 30.4571 
2 *309:B *109:24 16.6571 
3 *109:24 *311:A 14.3357 
4 *109:24 *260:B 18.7821 
*END

*D_NET *110 0.00180951
*CONN
*I *313:A I *D sky130_fd_sc_hd__inv_1
*I *311:B I *D sky130_fd_sc_hd__nand2_4
*I *309:Y O *D sky130_fd_sc_hd__nand2_4
*CAP
1 *313:A 0.000249458
2 *311:B 0.000166519
3 *309:Y 0.000295439
4 *110:10 0.000711416
5 *311:B *113:14 4.97967e-05
6 *313:A *113:14 0.000105971
7 *313:A *114:12 0
8 *110:10 *308:B 7.89362e-05
9 *110:10 *113:14 2.80728e-05
10 *260:B *313:A 0
11 *269:A *311:B 4.77336e-05
12 *311:A *311:B 5.49995e-05
13 *370:A *110:10 2.11693e-05
*RES
1 *309:Y *110:10 18.2286 
2 *110:10 *311:B 16.8179 
3 *110:10 *313:A 18.7598 
*END

*D_NET *111 0.000702886
*CONN
*I *312:B I *D sky130_fd_sc_hd__nand2_8
*I *310:Y O *D sky130_fd_sc_hd__nand2_4
*CAP
1 *312:B 0.000151368
2 *310:Y 0.000151368
3 *312:B *312:A 2.53112e-06
4 *260:B *312:B 0
5 *310:A *312:B 9.21958e-05
6 *310:B *312:B 0.000179656
7 *71:19 *312:B 0.000125767
*RES
1 *310:Y *312:B 32.5821 
*END

*D_NET *112 0.000600367
*CONN
*I *312:A I *D sky130_fd_sc_hd__nand2_8
*I *311:Y O *D sky130_fd_sc_hd__nand2_4
*CAP
1 *312:A 0.000208662
2 *311:Y 0.000208662
3 *260:B *312:A 0.000171355
4 *312:B *312:A 2.53112e-06
5 *109:24 *312:A 9.15842e-06
*RES
1 *311:Y *312:A 31.2071 
*END

*D_NET *113 0.00371692
*CONN
*I *258:A I *D sky130_fd_sc_hd__nand2_2
*I *330:A I *D sky130_fd_sc_hd__nand2_4
*I *329:A I *D sky130_fd_sc_hd__nand2_4
*I *312:Y O *D sky130_fd_sc_hd__nand2_8
*CAP
1 *258:A 0.00026737
2 *330:A 8.52712e-05
3 *329:A 0
4 *312:Y 0.000413959
5 *113:23 0.000713675
6 *113:14 0.000774993
7 *258:A *338:A 1.00399e-05
8 *258:A *133:21 5.5764e-05
9 *330:A *133:21 2.85234e-05
10 *113:23 *338:A 5.49544e-05
11 *113:23 *129:8 0.000110969
12 *260:B *113:14 0.000109836
13 *269:A *113:14 0.000650562
14 *277:A *113:14 2.80741e-05
15 *311:B *113:14 4.97967e-05
16 *313:A *113:14 0.000105971
17 *315:A *258:A 6.37939e-05
18 *331:B *258:A 7.26481e-05
19 *79:12 *113:14 7.5834e-05
20 *109:24 *113:14 1.6815e-05
21 *110:10 *113:14 2.80728e-05
*RES
1 *312:Y *113:14 29.4071 
2 *113:14 *329:A 9.3 
3 *113:14 *113:23 5.89286 
4 *113:23 *330:A 10.675 
5 *113:23 *258:A 23.5857 
*END

*D_NET *114 0.00075302
*CONN
*I *339:A I *D sky130_fd_sc_hd__nand2_1
*I *340:A I *D sky130_fd_sc_hd__nand2_1
*I *313:Y O *D sky130_fd_sc_hd__inv_1
*CAP
1 *339:A 0
2 *340:A 6.8275e-05
3 *313:Y 0.000225384
4 *114:12 0.000293659
5 *340:A *340:B 1.87331e-05
6 *340:A *138:6 0.000100165
7 *114:12 *141:16 0
8 *313:A *114:12 0
9 *339:B *340:A 4.68028e-05
10 *79:12 *114:12 0
11 *87:14 *114:12 0
*RES
1 *313:Y *114:12 21.3982 
2 *114:12 *340:A 11.5143 
3 *114:12 *339:A 9.3 
*END

*D_NET *115 0.00809008
*CONN
*I *315:B I *D sky130_fd_sc_hd__nand2_1
*I *316:B I *D sky130_fd_sc_hd__nand2_1
*I *318:A I *D sky130_fd_sc_hd__inv_1
*I *314:Y O *D sky130_fd_sc_hd__nand2_2
*CAP
1 *315:B 0.000546215
2 *316:B 0.00031887
3 *318:A 0.000378255
4 *314:Y 0.0025477
5 *115:34 0.00303453
6 *315:B *227:A 0
7 *315:B *346:B 0
8 *316:B *233:A 9.60875e-05
9 *318:A *323:B 0.000373282
10 *115:34 *317:B 0.000198862
11 *115:34 *323:B 2.91578e-05
12 *115:34 *166:42 6.8622e-05
13 *230:B *315:B 6.7304e-05
14 *231:A *315:B 2.92136e-05
15 *235:B *315:B 3.01126e-05
16 *288:A *318:A 0
17 *314:A *115:34 4.6025e-06
18 *315:A *315:B 0
19 *316:A *316:B 0.00020324
20 *316:A *115:34 0
21 *31:24 *315:B 0
22 *31:24 *316:B 9.60875e-05
23 *32:21 *316:B 2.05484e-05
24 *88:20 *115:34 4.73891e-05
*RES
1 *314:Y *318:A 24.1491 
2 *314:Y *115:34 28.9857 
3 *115:34 *316:B 21.2895 
4 *115:34 *315:B 21.7892 
*END

*D_NET *116 0.0048886
*CONN
*I *317:A I *D sky130_fd_sc_hd__nand2_1
*I *315:Y O *D sky130_fd_sc_hd__nand2_1
*CAP
1 *317:A 0
2 *315:Y 0.00158536
3 *116:28 0.00158536
4 *116:28 *280:A 0
5 *116:28 *322:B 0
6 *116:28 *323:B 0
7 *116:28 *324:B 6.63476e-05
8 *116:28 *326:B 0
9 *116:28 *328:A 0.000126409
10 *116:28 *328:B 0.000205061
11 *116:28 *336:B 0.000124157
12 *116:28 *337:A 0.000148201
13 *116:28 *356:A 0
14 *116:28 *357:A 4.63389e-05
15 *116:28 *364:A 8.5865e-05
16 *116:28 *123:10 0.000245342
17 *116:28 *128:12 0.000147007
18 *116:28 *156:10 5.72433e-05
19 *116:28 *165:12 0
20 *116:28 *170:22 4.78056e-05
21 p[2] *116:28 9.25014e-06
22 *223:A *116:28 5.24662e-05
23 *225:B *116:28 1.40415e-05
24 *245:A *116:28 0.000146409
25 *289:A *116:28 0.000195928
26 *289:B *116:28 0
27 *294:B *116:28 0
28 *315:A *116:28 0
29 *316:A *116:28 0
30 *366:A *116:28 0
*RES
1 *315:Y *116:28 49.1929 
2 *116:28 *317:A 9.3 
*END

*D_NET *117 0.00661213
*CONN
*I *317:B I *D sky130_fd_sc_hd__nand2_1
*I *316:Y O *D sky130_fd_sc_hd__nand2_1
*CAP
1 *317:B 0.00198698
2 *316:Y 0.00198698
3 *317:B *233:A 0.00012501
4 *317:B *278:A 8.00843e-06
5 *271:A *317:B 0.00221841
6 *287:B *317:B 3.27102e-05
7 *288:B *317:B 5.00695e-06
8 *316:A *317:B 5.01564e-05
9 *115:34 *317:B 0.000198862
*RES
1 *316:Y *317:B 49.3573 
*END

*D_NET *118 0.00276766
*CONN
*I *325:A I *D sky130_fd_sc_hd__nand2_2
*I *323:B I *D sky130_fd_sc_hd__nand2_4
*I *318:Y O *D sky130_fd_sc_hd__inv_1
*CAP
1 *325:A 7.9909e-05
2 *323:B 0.000518065
3 *318:Y 0.000438156
4 *323:B *322:B 4.87953e-05
5 *323:B *324:B 0.000197276
6 *323:B *325:B 5.52302e-05
7 *323:B *327:A 1.98839e-05
8 *323:B *356:A 0.00014743
9 *323:B *371:A 0.000128224
10 *323:B *122:10 5.80706e-06
11 *323:B *156:10 2.31791e-05
12 *323:B *166:42 0
13 *325:A *322:B 0.00011756
14 *325:A *325:B 4.67819e-05
15 *325:A *327:A 1.77294e-05
16 *223:A *323:B 5.21702e-05
17 *288:A *323:B 2.05612e-05
18 *289:B *323:B 0.000264743
19 *314:A *323:B 0.00018372
20 *316:A *323:B 0
21 *318:A *323:B 0.000373282
22 *320:A *325:A 0
23 *115:34 *323:B 2.91578e-05
24 *116:28 *323:B 0
*RES
1 *318:Y *323:B 39.8054 
2 *323:B *325:A 20.9393 
*END

*D_NET *119 0.0022018
*CONN
*I *320:B I *D sky130_fd_sc_hd__nand2_1
*I *321:B I *D sky130_fd_sc_hd__nand2_1
*I *364:A I *D sky130_fd_sc_hd__buf_2
*I *319:Y O *D sky130_fd_sc_hd__nand2_2
*CAP
1 *320:B 0.000124601
2 *321:B 0
3 *364:A 0.000339324
4 *319:Y 0
5 *119:8 0.000402109
6 *119:4 0.000187386
7 *320:B *282:A 1.21258e-05
8 *320:B *164:58 5.68713e-05
9 *364:A *328:A 6.05161e-06
10 *364:A *328:B 0.000213782
11 *364:A *123:10 1.02504e-05
12 *364:A *164:37 0
13 *119:8 *282:A 1.02821e-05
14 *119:8 *322:A 3.18676e-05
15 *245:A *320:B 8.17274e-05
16 *245:A *119:8 0.000181803
17 *315:A *320:B 0.000145753
18 *319:A *320:B 5.33005e-05
19 *319:A *119:8 9.71197e-05
20 *320:A *320:B 0.000155778
21 *75:12 *364:A 5.80706e-06
22 *116:28 *364:A 8.5865e-05
*RES
1 *319:Y *119:4 9.3 
2 *119:4 *119:8 2.19643 
3 *119:8 *364:A 24.7643 
4 *119:8 *321:B 9.3 
5 *119:4 *320:B 21.7286 
*END

*D_NET *120 0.00135469
*CONN
*I *322:B I *D sky130_fd_sc_hd__nand2_2
*I *320:Y O *D sky130_fd_sc_hd__nand2_1
*CAP
1 *322:B 0.000469774
2 *320:Y 0.000469774
3 *322:B *280:A 1.31516e-05
4 *322:B *325:B 3.98431e-05
5 *322:B *327:A 1.15172e-05
6 *322:B *122:10 0.00010326
7 *322:B *156:10 5.33882e-05
8 *322:B *164:58 1.21258e-05
9 *320:A *322:B 1.24368e-05
10 *323:B *322:B 4.87953e-05
11 *325:A *322:B 0.00011756
12 *65:12 *322:B 3.06878e-06
13 *116:28 *322:B 0
*RES
1 *320:Y *322:B 34.2964 
*END

*D_NET *121 0.000850829
*CONN
*I *322:A I *D sky130_fd_sc_hd__nand2_2
*I *321:Y O *D sky130_fd_sc_hd__nand2_1
*CAP
1 *322:A 0.000181989
2 *321:Y 0.000181989
3 *322:A *282:A 0.000354996
4 *322:A *122:10 2.59355e-05
5 *322:A *156:10 2.89114e-05
6 *322:A *164:37 4.51416e-05
7 *119:8 *322:A 3.18676e-05
*RES
1 *321:Y *322:A 23.2607 
*END

*D_NET *122 0.00153412
*CONN
*I *323:A I *D sky130_fd_sc_hd__nand2_4
*I *371:A I *D sky130_fd_sc_hd__buf_2
*I *322:Y O *D sky130_fd_sc_hd__nand2_2
*CAP
1 *323:A 0
2 *371:A 0.000288722
3 *322:Y 0.000122743
4 *122:10 0.000411464
5 *371:A *280:A 0.000150625
6 *371:A *324:A 8.01893e-05
7 *371:A *167:27 1.99306e-05
8 *122:10 *280:A 0.000142797
9 *122:10 *156:10 1.5942e-05
10 *122:10 *164:37 2.60446e-05
11 *223:A *371:A 1.24368e-05
12 *273:A *371:A 0
13 *316:A *371:A 0
14 *322:A *122:10 2.59355e-05
15 *322:B *122:10 0.00010326
16 *323:B *371:A 0.000128224
17 *323:B *122:10 5.80706e-06
*RES
1 *322:Y *122:10 17.1036 
2 *122:10 *371:A 19.1571 
3 *122:10 *323:A 13.8 
*END

*D_NET *123 0.00164346
*CONN
*I *328:B I *D sky130_fd_sc_hd__nand2_4
*I *365:A I *D sky130_fd_sc_hd__buf_4
*I *323:Y O *D sky130_fd_sc_hd__nand2_4
*CAP
1 *328:B 0.000144439
2 *365:A 0
3 *323:Y 0.00014903
4 *123:10 0.00029347
5 *328:B *284:A 2.38501e-05
6 *328:B *128:12 9.58689e-05
7 *123:10 *327:A 5.33005e-05
8 *245:A *123:10 0.000193125
9 *364:A *328:B 0.000213782
10 *364:A *123:10 1.02504e-05
11 *75:12 *123:10 1.5942e-05
12 *116:28 *328:B 0.000205061
13 *116:28 *123:10 0.000245342
*RES
1 *323:Y *123:10 17.4964 
2 *123:10 *365:A 13.8 
3 *123:10 *328:B 18.0143 
*END

*D_NET *124 0.000985903
*CONN
*I *327:B I *D sky130_fd_sc_hd__nand2_4
*I *324:Y O *D sky130_fd_sc_hd__nand2_2
*CAP
1 *327:B 0.000131904
2 *324:Y 0.000131904
3 *327:B *280:A 0.000179931
4 *327:B *127:8 1.02504e-05
5 *327:B *167:6 9.41642e-05
6 *327:B *167:27 0.000183444
7 *281:A *327:B 0.00020455
8 *316:A *327:B 4.97555e-05
*RES
1 *324:Y *327:B 32.7429 
*END

*D_NET *125 0.000946636
*CONN
*I *327:A I *D sky130_fd_sc_hd__nand2_4
*I *325:Y O *D sky130_fd_sc_hd__nand2_2
*CAP
1 *327:A 0.000310772
2 *325:Y 0.000310772
3 *327:A *325:B 0.00022266
4 *322:B *327:A 1.15172e-05
5 *323:B *327:A 1.98839e-05
6 *325:A *327:A 1.77294e-05
7 *123:10 *327:A 5.33005e-05
*RES
1 *325:Y *327:A 24.225 
*END

*D_NET *126 0.0006836
*CONN
*I *337:A I *D sky130_fd_sc_hd__inv_1
*I *326:Y O *D sky130_fd_sc_hd__nand2_1
*CAP
1 *337:A 0.00018086
2 *326:Y 0.00018086
3 *337:A *326:A 0
4 *337:A *326:B 3.18676e-05
5 *337:A *357:A 0.000141812
6 *289:A *337:A 0
7 *116:28 *337:A 0.000148201
*RES
1 *326:Y *337:A 22.6759 
*END

*D_NET *127 0.00193544
*CONN
*I *214:A I *D sky130_fd_sc_hd__nand2_2
*I *213:A I *D sky130_fd_sc_hd__nand2_4
*I *327:Y O *D sky130_fd_sc_hd__nand2_4
*CAP
1 *214:A 0.000158228
2 *213:A 5.37304e-05
3 *327:Y 0.000144111
4 *127:8 0.000356069
5 *214:A *278:A 0.000339
6 *217:A *213:A 9.41642e-05
7 *281:A *214:A 2.14001e-05
8 *281:A *127:8 0.000199213
9 *316:A *214:A 0.000268126
10 *316:A *127:8 0.00029115
11 *327:B *127:8 1.02504e-05
*RES
1 *327:Y *127:8 18.7821 
2 *127:8 *213:A 14.7464 
3 *127:8 *214:A 19.3179 
*END

*D_NET *128 0.00146127
*CONN
*I *333:A I *D sky130_fd_sc_hd__nand2_4
*I *335:A I *D sky130_fd_sc_hd__nand2_1
*I *328:Y O *D sky130_fd_sc_hd__nand2_4
*CAP
1 *333:A 0
2 *335:A 2.66137e-05
3 *328:Y 0.000298916
4 *128:12 0.00032553
5 *335:A *335:B 0.000141935
6 *335:A *336:B 7.62237e-05
7 *128:12 *284:A 0.000222763
8 *128:12 *328:A 0.000126409
9 *328:B *128:12 9.58689e-05
10 *116:28 *128:12 0.000147007
*RES
1 *328:Y *128:12 25.7643 
2 *128:12 *335:A 10.6571 
3 *128:12 *333:A 9.3 
*END

*D_NET *129 0.000823814
*CONN
*I *330:B I *D sky130_fd_sc_hd__nand2_4
*I *338:A I *D sky130_fd_sc_hd__nand2_2
*I *329:Y O *D sky130_fd_sc_hd__nand2_4
*CAP
1 *330:B 0
2 *338:A 0.000142021
3 *329:Y 9.92781e-05
4 *129:8 0.000241299
5 *338:A *332:B 2.36643e-05
6 *129:8 *332:B 0.000139202
7 *258:A *338:A 1.00399e-05
8 *329:B *338:A 2.38651e-06
9 *113:23 *338:A 5.49544e-05
10 *113:23 *129:8 0.000110969
*RES
1 *329:Y *129:8 11.9071 
2 *129:8 *338:A 21.0857 
3 *129:8 *330:B 9.3 
*END

*D_NET *130 0.000811738
*CONN
*I *332:B I *D sky130_fd_sc_hd__nand2_4
*I *330:Y O *D sky130_fd_sc_hd__nand2_4
*CAP
1 *332:B 0.000150291
2 *330:Y 0.000150291
3 *283:A *332:B 0.000175274
4 *329:B *332:B 0.000173015
5 *338:A *332:B 2.36643e-05
6 *129:8 *332:B 0.000139202
*RES
1 *330:Y *332:B 31.6179 
*END

*D_NET *131 0.000489536
*CONN
*I *332:A I *D sky130_fd_sc_hd__nand2_4
*I *331:Y O *D sky130_fd_sc_hd__nand2_2
*CAP
1 *332:A 0.000100888
2 *331:Y 0.000100888
3 *332:A *132:10 0.000184503
4 *331:A *332:A 3.09985e-05
5 *331:B *332:A 7.22574e-05
*RES
1 *331:Y *332:A 21.5107 
*END

*D_NET *132 0.00170884
*CONN
*I *334:A I *D sky130_fd_sc_hd__nand2_1
*I *333:B I *D sky130_fd_sc_hd__nand2_4
*I *332:Y O *D sky130_fd_sc_hd__nand2_4
*CAP
1 *334:A 0.000154113
2 *333:B 0
3 *332:Y 0.0004392
4 *132:10 0.000593313
5 *334:A *336:A 9.67754e-05
6 *315:A *334:A 9.14132e-05
7 *315:A *132:10 7.48644e-05
8 *331:A *132:10 7.46579e-05
9 *332:A *132:10 0.000184503
*RES
1 *332:Y *132:10 20.3893 
2 *132:10 *333:B 13.8 
3 *132:10 *334:A 16.9964 
*END

*D_NET *133 0.0013986
*CONN
*I *338:B I *D sky130_fd_sc_hd__nand2_2
*I *334:B I *D sky130_fd_sc_hd__nand2_1
*I *335:B I *D sky130_fd_sc_hd__nand2_1
*I *333:Y O *D sky130_fd_sc_hd__nand2_4
*CAP
1 *338:B 3.7311e-05
2 *334:B 0
3 *335:B 0.000175876
4 *333:Y 0
5 *133:21 0.000351573
6 *133:4 0.000490138
7 *335:B *336:B 1.4796e-05
8 *258:A *133:21 5.5764e-05
9 *315:A *133:21 0.00010268
10 *330:A *133:21 2.85234e-05
11 *335:A *335:B 0.000141935
*RES
1 *333:Y *133:4 9.3 
2 *133:4 *335:B 12.7286 
3 *133:4 *133:21 14.9643 
4 *133:21 *334:B 9.3 
5 *133:21 *338:B 9.83571 
*END

*D_NET *134 0.000384855
*CONN
*I *336:A I *D sky130_fd_sc_hd__nand2_2
*I *334:Y O *D sky130_fd_sc_hd__nand2_1
*CAP
1 *336:A 0.000133473
2 *334:Y 0.000133473
3 *336:A *136:8 2.11336e-05
4 *220:B *336:A 0
5 *334:A *336:A 9.67754e-05
*RES
1 *334:Y *336:A 21.2071 
*END

*D_NET *135 0.000622576
*CONN
*I *336:B I *D sky130_fd_sc_hd__nand2_2
*I *335:Y O *D sky130_fd_sc_hd__nand2_1
*CAP
1 *336:B 0.0002037
2 *335:Y 0.0002037
3 *335:A *336:B 7.62237e-05
4 *335:B *336:B 1.4796e-05
5 *116:28 *336:B 0.000124157
*RES
1 *335:Y *336:B 31.0107 
*END

*D_NET *136 0.00199411
*CONN
*I *218:B I *D sky130_fd_sc_hd__nand2_2
*I *219:A I *D sky130_fd_sc_hd__nand2_1
*I *336:Y O *D sky130_fd_sc_hd__nand2_2
*CAP
1 *218:B 3.26189e-05
2 *219:A 0.000318771
3 *336:Y 0.00034895
4 *136:8 0.00070034
5 *219:B *219:A 9.37555e-05
6 *220:A *218:B 8.95839e-06
7 *220:A *219:A 1.60322e-05
8 *220:A *136:8 1.59373e-05
9 *220:B *136:8 2.38501e-05
10 *221:A *219:A 0.00025875
11 *221:A *136:8 0.000100115
12 *221:B *219:A 5.48987e-05
13 *336:A *136:8 2.11336e-05
*RES
1 *336:Y *136:8 13.9607 
2 *136:8 *219:A 15.1214 
3 *136:8 *218:B 10.0321 
*END

*D_NET *137 0.000738436
*CONN
*I *343:B I *D sky130_fd_sc_hd__nand2_2
*I *345:A I *D sky130_fd_sc_hd__nand2_1
*I *338:Y O *D sky130_fd_sc_hd__nand2_2
*CAP
1 *343:B 0.000132262
2 *345:A 0
3 *338:Y 0.000126173
4 *137:12 0.000258436
5 *343:B *345:B 4.50408e-05
6 *283:A *343:B 8.58408e-05
7 *315:A *137:12 5.5782e-05
8 *85:14 *343:B 3.49005e-05
*RES
1 *338:Y *137:12 20.7821 
2 *137:12 *345:A 9.3 
3 *137:12 *343:B 12.3357 
*END

*D_NET *138 0.00151716
*CONN
*I *340:B I *D sky130_fd_sc_hd__nand2_1
*I *341:B I *D sky130_fd_sc_hd__nand2_1
*I *347:A I *D sky130_fd_sc_hd__nand2_1
*I *339:Y O *D sky130_fd_sc_hd__nand2_1
*CAP
1 *340:B 2.06439e-05
2 *341:B 0
3 *347:A 0.000150844
4 *339:Y 0.000112441
5 *138:10 0.00037755
6 *138:6 0.000359791
7 *340:B *342:A 1.02301e-05
8 *340:B *342:B 8.48678e-06
9 *347:A *141:16 5.52302e-05
10 *347:A *146:16 7.43578e-06
11 *138:6 *342:A 2.11336e-05
12 *138:10 *342:A 2.11336e-05
13 *138:10 *342:B 0.000106954
14 *339:B *138:6 8.10737e-06
15 *339:B *138:10 6.93704e-06
16 *340:A *340:B 1.87331e-05
17 *340:A *138:6 0.000100165
18 *341:A *138:10 1.75897e-05
19 *87:14 *347:A 0.000113752
*RES
1 *339:Y *138:6 11.0679 
2 *138:6 *138:10 3.32143 
3 *138:10 *347:A 21.6929 
4 *138:10 *341:B 9.3 
5 *138:6 *340:B 10.0321 
*END

*D_NET *139 0.000236189
*CONN
*I *342:A I *D sky130_fd_sc_hd__nand2_1
*I *340:Y O *D sky130_fd_sc_hd__nand2_1
*CAP
1 *342:A 2.87474e-05
2 *340:Y 2.87474e-05
3 *342:A *342:B 5.46383e-06
4 *339:B *342:A 0.000115379
5 *340:B *342:A 1.02301e-05
6 *341:A *342:A 5.35408e-06
7 *138:6 *342:A 2.11336e-05
8 *138:10 *342:A 2.11336e-05
*RES
1 *340:Y *342:A 19.975 
*END

*D_NET *140 0.000234189
*CONN
*I *342:B I *D sky130_fd_sc_hd__nand2_1
*I *341:Y O *D sky130_fd_sc_hd__nand2_1
*CAP
1 *342:B 3.72655e-05
2 *341:Y 3.72655e-05
3 *340:B *342:B 8.48678e-06
4 *341:A *342:B 3.87535e-05
5 *342:A *342:B 5.46383e-06
6 *138:10 *342:B 0.000106954
*RES
1 *341:Y *342:B 19.975 
*END

*D_NET *141 0.00114823
*CONN
*I *344:A I *D sky130_fd_sc_hd__nand2_1
*I *343:A I *D sky130_fd_sc_hd__nand2_2
*I *342:Y O *D sky130_fd_sc_hd__nand2_1
*CAP
1 *344:A 0
2 *343:A 3.8747e-05
3 *342:Y 0.00028736
4 *141:16 0.000326107
5 *343:A *346:A 4.78291e-05
6 *343:A *142:22 5.65955e-05
7 *141:16 *347:B 5.65955e-05
8 *141:16 *142:22 4.55108e-05
9 *141:16 *146:16 1.39726e-05
10 *241:B *141:16 3.69047e-06
11 *283:A *343:A 5.52238e-05
12 *339:B *141:16 1.33343e-05
13 *341:A *141:16 1.98839e-05
14 *347:A *141:16 5.52302e-05
15 *87:14 *141:16 0.000128154
16 *114:12 *141:16 0
*RES
1 *342:Y *141:16 23.9071 
2 *141:16 *343:A 10.6571 
3 *141:16 *344:A 9.3 
*END

*D_NET *142 0.00102815
*CONN
*I *347:B I *D sky130_fd_sc_hd__nand2_1
*I *344:B I *D sky130_fd_sc_hd__nand2_1
*I *345:B I *D sky130_fd_sc_hd__nand2_1
*I *343:Y O *D sky130_fd_sc_hd__nand2_2
*CAP
1 *347:B 1.7133e-05
2 *344:B 0
3 *345:B 0.000223377
4 *343:Y 0.000290446
5 *142:22 8.42026e-05
6 *142:22 *346:A 5.65955e-05
7 *225:B *345:B 0
8 *283:A *345:B 0.000152655
9 *343:A *142:22 5.65955e-05
10 *343:B *345:B 4.50408e-05
11 *141:16 *347:B 5.65955e-05
12 *141:16 *142:22 4.55108e-05
*RES
1 *343:Y *345:B 22.7429 
2 *343:Y *142:22 11.0857 
3 *142:22 *344:B 9.3 
4 *142:22 *347:B 9.83571 
*END

*D_NET *143 0.000496025
*CONN
*I *346:A I *D sky130_fd_sc_hd__nand2_2
*I *344:Y O *D sky130_fd_sc_hd__nand2_1
*CAP
1 *346:A 0.0001958
2 *344:Y 0.0001958
3 *346:A *146:16 0
4 *343:A *346:A 4.78291e-05
5 *142:22 *346:A 5.65955e-05
*RES
1 *344:Y *346:A 30.6 
*END

*D_NET *144 0.000538004
*CONN
*I *346:B I *D sky130_fd_sc_hd__nand2_2
*I *345:Y O *D sky130_fd_sc_hd__nand2_1
*CAP
1 *346:B 0.000156992
2 *345:Y 0.000156992
3 *346:B *237:A 1.02504e-05
4 *230:A *346:B 1.24368e-05
5 *315:B *346:B 0
6 *41:8 *346:B 7.57394e-05
7 *85:14 *346:B 0.000125593
*RES
1 *345:Y *346:B 31.0107 
*END

*D_NET *145 0.00126953
*CONN
*I *229:A I *D sky130_fd_sc_hd__nand2_1
*I *228:B I *D sky130_fd_sc_hd__nand2_2
*I *346:Y O *D sky130_fd_sc_hd__nand2_2
*CAP
1 *229:A 0.000271251
2 *228:B 6.24747e-05
3 *346:Y 0.000114509
4 *145:10 0.000448235
5 *244:A *229:A 0.000143804
6 *244:B *229:A 1.17968e-05
7 *41:8 *145:10 5.68722e-05
8 *41:23 *229:A 9.25014e-06
9 *41:23 *145:10 0.000151333
*RES
1 *346:Y *145:10 16.2821 
2 *145:10 *228:B 14.7464 
3 *145:10 *229:A 19.05 
*END

*D_NET *146 0.000915547
*CONN
*I *238:A I *D sky130_fd_sc_hd__nand2_1
*I *239:A I *D sky130_fd_sc_hd__nand2_1
*I *347:Y O *D sky130_fd_sc_hd__nand2_1
*CAP
1 *238:A 6.61554e-06
2 *239:A 0
3 *347:Y 0.00019343
4 *146:16 0.000200046
5 *238:B *238:A 2.44318e-05
6 *238:B *146:16 0.000272837
7 *240:B *146:16 1.17968e-05
8 *346:A *146:16 0
9 *347:A *146:16 7.43578e-06
10 *42:8 *238:A 5.71472e-05
11 *42:8 *146:16 4.5622e-05
12 *42:12 *146:16 5.33005e-05
13 *46:10 *146:16 2.89114e-05
14 *141:16 *146:16 1.39726e-05
*RES
1 *347:Y *146:16 22.7821 
2 *146:16 *239:A 9.3 
3 *146:16 *238:A 9.83571 
*END

*D_NET *147 0.00615265
*CONN
*I *256:A I *D sky130_fd_sc_hd__nand2_2
*I *255:A I *D sky130_fd_sc_hd__nand2_1
*I *234:A I *D sky130_fd_sc_hd__nand2_1
*I *212:A I *D sky130_fd_sc_hd__nand2_1
*I *326:A I *D sky130_fd_sc_hd__nand2_1
*I *348:X O *D sky130_fd_sc_hd__buf_6
*CAP
1 *256:A 8.84513e-05
2 *255:A 0.000188216
3 *234:A 0
4 *212:A 1.47133e-05
5 *326:A 0.00041178
6 *348:X 0.000287038
7 *147:50 0.000325538
8 *147:20 0.000649658
9 *147:14 0.000992348
10 *147:10 0.00100735
11 *212:A *167:36 5.49544e-05
12 *255:A *264:B 2.489e-07
13 *255:A *276:A 4.46186e-06
14 *255:A *164:58 7.2754e-05
15 *255:A *168:29 5.49544e-05
16 *256:A *256:B 1.02504e-05
17 *326:A *326:B 0.000279127
18 *326:A *166:42 2.11419e-05
19 *147:14 *257:B 0.000183298
20 *147:14 *167:51 0.00017206
21 *147:20 *167:51 0.000139506
22 *147:50 *264:B 0
23 *223:A *212:A 2.84109e-05
24 *261:A *147:10 4.13477e-05
25 *263:A *326:A 0.000123005
26 *263:A *147:20 6.84805e-05
27 *283:A *255:A 6.05161e-06
28 *292:B *147:10 0.000154762
29 *294:A *326:A 3.27526e-05
30 *294:B *326:A 3.34366e-05
31 *297:B *326:A 0
32 *314:A *326:A 8.42942e-05
33 *315:A *326:A 1.08847e-05
34 *315:A *147:20 0.000120895
35 *315:A *147:50 0
36 *337:A *326:A 0
37 *49:12 *147:10 0.000101157
38 *69:10 *256:A 0
39 *69:10 *147:10 0
40 *92:8 *147:14 0.000230626
41 *95:8 *326:A 3.69047e-06
42 *100:8 *256:A 0.00014576
43 *100:8 *147:10 9.25014e-06
*RES
1 *348:X *147:10 19.6571 
2 *147:10 *147:14 12.8393 
3 *147:14 *147:20 8.125 
4 *147:20 *326:A 22.3536 
5 *147:20 *212:A 14.3357 
6 *147:14 *147:50 6.44643 
7 *147:50 *234:A 13.8 
8 *147:50 *255:A 17.2464 
9 *147:10 *256:A 15.7464 
*END

*D_NET *148 0.00199814
*CONN
*I *356:A I *D sky130_fd_sc_hd__clkdlybuf4s25_1
*I *289:Y O *D sky130_fd_sc_hd__nand2_1
*CAP
1 *356:A 0.000354873
2 *289:Y 0.000354873
3 *356:A *262:A 3.8947e-05
4 *356:A *357:A 5.71472e-05
5 *223:A *356:A 3.00023e-05
6 *286:B *356:A 0.000113107
7 *287:A *356:A 9.90367e-05
8 *288:A *356:A 8.5453e-05
9 *289:B *356:A 3.48139e-05
10 *314:A *356:A 0.000141822
11 *323:B *356:A 0.00014743
12 *49:12 *356:A 0.000528511
13 *88:14 *356:A 1.21258e-05
14 *116:28 *356:A 0
*RES
1 *289:Y *356:A 38.1357 
*END

*D_NET *149 0.000977316
*CONN
*I *357:A I *D sky130_fd_sc_hd__clkbuf_2
*I *317:Y O *D sky130_fd_sc_hd__nand2_1
*CAP
1 *357:A 0.00022048
2 *317:Y 0.00022048
3 *357:A *326:B 0
4 *357:A *170:22 3.33174e-05
5 *289:A *357:A 7.50473e-05
6 *337:A *357:A 0.000141812
7 *356:A *357:A 5.71472e-05
8 *73:10 *357:A 0.000182694
9 *116:28 *357:A 4.63389e-05
*RES
1 *317:Y *357:A 24.6357 
*END

*D_NET *150 0.000587514
*CONN
*I *358:A I *D sky130_fd_sc_hd__buf_6
*I *216:Y O *D sky130_fd_sc_hd__nand2_2
*CAP
1 *358:A 0.000129114
2 *216:Y 0.000129114
3 *358:A *270:A 0.00015091
4 *358:A *166:14 0.00015244
5 *216:A *358:A 2.59355e-05
*RES
1 *216:Y *358:A 30.4929 
*END

*D_NET *151 0.000989444
*CONN
*I *359:A I *D sky130_fd_sc_hd__clkbuf_2
*I *226:Y O *D sky130_fd_sc_hd__nand2_1
*CAP
1 *359:A 0.000256125
2 *226:Y 0.000256125
3 *359:A *224:A 1.46231e-05
4 *359:A *270:A 0.000195555
5 p[4] *359:A 5.33005e-05
6 *224:B *359:A 1.98839e-05
7 *279:A *359:A 0.000193833
*RES
1 *226:Y *359:A 32.475 
*END

*D_NET *152 0.00163801
*CONN
*I *360:A I *D sky130_fd_sc_hd__clkbuf_2
*I *236:Y O *D sky130_fd_sc_hd__nand2_1
*CAP
1 *360:A 0.000518069
2 *236:Y 0.000518069
3 *229:B *360:A 1.00375e-05
4 *231:B *360:A 7.83659e-05
5 *232:A *360:A 0.00027032
6 *233:B *360:A 1.74352e-05
7 *236:A *360:A 9.41642e-05
8 *236:B *360:A 7.48301e-06
9 *237:B *360:A 4.70078e-05
10 *369:A *360:A 3.5707e-05
11 *36:6 *360:A 4.13496e-05
*RES
1 *236:Y *360:A 35.225 
*END

*D_NET *153 0.00146232
*CONN
*I *361:A I *D sky130_fd_sc_hd__buf_6
*I *246:Y O *D sky130_fd_sc_hd__nand2_2
*CAP
1 *361:A 0.000533792
2 *246:Y 0.000533792
3 *361:A *362:A 0
4 *241:A *361:A 0
5 *243:A *361:A 0
6 *243:B *361:A 0
7 *251:A *361:A 0.000270218
8 *45:6 *361:A 0.000124521
*RES
1 *246:Y *361:A 36.7429 
*END

*D_NET *154 0.000224176
*CONN
*I *362:A I *D sky130_fd_sc_hd__clkbuf_2
*I *247:Y O *D sky130_fd_sc_hd__nand2_1
*CAP
1 *362:A 4.79853e-05
2 *247:Y 4.79853e-05
3 *243:A *362:A 2.56601e-05
4 *243:B *362:A 0.000102545
5 *361:A *362:A 0
*RES
1 *247:Y *362:A 28.9393 
*END

*D_NET *155 0.00051567
*CONN
*I *328:A I *D sky130_fd_sc_hd__nand2_4
*I *364:X O *D sky130_fd_sc_hd__buf_2
*CAP
1 *328:A 0.0001284
2 *364:X 0.0001284
3 *364:A *328:A 6.05161e-06
4 *116:28 *328:A 0.000126409
5 *128:12 *328:A 0.000126409
*RES
1 *364:X *328:A 30.1893 
*END

*D_NET *156 0.00135424
*CONN
*I *325:B I *D sky130_fd_sc_hd__nand2_2
*I *324:B I *D sky130_fd_sc_hd__nand2_2
*I *365:X O *D sky130_fd_sc_hd__buf_4
*CAP
1 *325:B 8.18405e-05
2 *324:B 8.36916e-05
3 *365:X 0.000108186
4 *156:10 0.000273718
5 *322:A *156:10 2.89114e-05
6 *322:B *325:B 3.98431e-05
7 *322:B *156:10 5.33882e-05
8 *323:B *324:B 0.000197276
9 *323:B *325:B 5.52302e-05
10 *323:B *156:10 2.31791e-05
11 *325:A *325:B 4.67819e-05
12 *327:A *325:B 0.00022266
13 *116:28 *324:B 6.63476e-05
14 *116:28 *156:10 5.72433e-05
15 *122:10 *156:10 1.5942e-05
*RES
1 *365:X *156:10 16.5857 
2 *156:10 *324:B 16.3536 
3 *156:10 *325:B 16.4071 
*END

*D_NET *157 0.000373573
*CONN
*I *227:A I *D sky130_fd_sc_hd__nand2_4
*I *366:X O *D sky130_fd_sc_hd__buf_2
*CAP
1 *227:A 9.98866e-05
2 *366:X 9.98866e-05
3 *235:A *227:A 2.89016e-05
4 *315:B *227:A 0
5 *31:24 *227:A 7.83587e-05
6 *32:8 *227:A 6.65398e-05
*RES
1 *366:X *227:A 29.7786 
*END

*D_NET *158 0.00581375
*CONN
*I *266:A I *D sky130_fd_sc_hd__nand2_1
*I *268:A I *D sky130_fd_sc_hd__nand2_1
*I *264:A I *D sky130_fd_sc_hd__nand2_1
*I *257:A I *D sky130_fd_sc_hd__nand2_1
*I *262:A I *D sky130_fd_sc_hd__nand2_1
*I *349:X O *D sky130_fd_sc_hd__buf_6
*CAP
1 *266:A 0
2 *268:A 0.000353418
3 *264:A 0.00012851
4 *257:A 4.45023e-05
5 *262:A 0.000540282
6 *349:X 0.000203145
7 *158:30 0.000760922
8 *158:26 0.000390966
9 *158:24 0.000666347
10 *158:14 0.000429755
11 *264:A *168:10 2.29311e-05
12 *268:A *284:B 4.40513e-06
13 *158:24 *168:10 0.00039579
14 *158:30 *257:B 0.00020042
15 *158:30 *168:27 1.37292e-05
16 *248:B *257:A 3.4855e-05
17 *248:B *262:A 0.000152374
18 *253:A *264:A 0
19 *254:A *264:A 6.06495e-05
20 *259:A *268:A 0.000136752
21 *261:A *158:14 0.000157339
22 *267:A *158:30 5.16583e-05
23 *291:A *158:30 0.000148189
24 *296:B *262:A 5.52302e-05
25 *300:A *268:A 0.000196286
26 *300:A *158:24 5.39227e-06
27 *301:B *264:A 6.71757e-05
28 *301:B *268:A 0
29 *301:B *158:30 1.78396e-05
30 *306:B *268:A 1.00887e-05
31 *307:A *268:A 5.81753e-05
32 *349:A *158:14 0
33 *356:A *262:A 3.8947e-05
34 *49:12 *262:A 5.00502e-05
35 *63:12 *158:14 0.000148189
36 *69:10 *158:24 1.76135e-05
37 *69:10 *158:30 0
38 *100:8 *158:14 1.08359e-05
39 *101:10 *268:A 1.78393e-05
40 *104:10 *268:A 0.000223152
*RES
1 *349:X *158:14 22.7464 
2 *158:14 *158:24 9.83036 
3 *158:24 *158:26 1.35714 
4 *158:26 *158:30 9.29464 
5 *158:30 *262:A 17.2821 
6 *158:30 *257:A 10.2643 
7 *158:26 *264:A 16.3089 
8 *158:24 *268:A 22.3982 
9 *158:14 *266:A 9.3 
*END

*D_NET *159 0.00042991
*CONN
*I *237:A I *D sky130_fd_sc_hd__nand2_2
*I *367:X O *D sky130_fd_sc_hd__buf_2
*CAP
1 *237:A 9.58894e-05
2 *367:X 9.58894e-05
3 *228:A *237:A 9.30022e-05
4 *237:B *237:A 8.06427e-05
5 *346:B *237:A 1.02504e-05
6 *33:6 *237:A 1.92789e-05
7 *85:14 *237:A 3.49572e-05
*RES
1 *367:X *237:A 30.0821 
*END

*D_NET *160 0.000709671
*CONN
*I *224:A I *D sky130_fd_sc_hd__nand2_1
*I *368:X O *D sky130_fd_sc_hd__buf_2
*CAP
1 *224:A 0.00024869
2 *368:X 0.00024869
3 p[4] *224:A 4.27338e-05
4 *224:B *224:A 9.41642e-05
5 *226:A *224:A 2.89016e-05
6 *236:B *224:A 3.18676e-05
7 *359:A *224:A 1.46231e-05
*RES
1 *368:X *224:A 23.2786 
*END

*D_NET *161 0.00112819
*CONN
*I *233:A I *D sky130_fd_sc_hd__nand2_1
*I *369:X O *D sky130_fd_sc_hd__buf_2
*CAP
1 *233:A 0.000299045
2 *369:X 0.000299045
3 *233:A *270:A 2.37575e-05
4 *233:A *278:A 5.58875e-06
5 *271:A *233:A 0.000110632
6 *316:A *233:A 5.71472e-05
7 *316:B *233:A 9.60875e-05
8 *317:B *233:A 0.00012501
9 *31:24 *233:A 0.000111878
*RES
1 *369:X *233:A 34.0464 
*END

*D_NET *162 0.000637248
*CONN
*I *308:B I *D sky130_fd_sc_hd__nand2_8
*I *370:X O *D sky130_fd_sc_hd__buf_2
*CAP
1 *308:B 0.000136135
2 *370:X 0.000136135
3 *300:B *308:B 9.36295e-05
4 *370:A *308:B 6.4474e-05
5 *100:29 *308:B 0.000127939
6 *110:10 *308:B 7.89362e-05
*RES
1 *370:X *308:B 31.6714 
*END

*D_NET *163 0.000459368
*CONN
*I *324:A I *D sky130_fd_sc_hd__nand2_2
*I *371:X O *D sky130_fd_sc_hd__buf_2
*CAP
1 *324:A 9.08597e-05
2 *371:X 9.08597e-05
3 *324:A *167:27 0.000167887
4 *223:A *324:A 2.95726e-05
5 *371:A *324:A 8.01893e-05
*RES
1 *371:X *324:A 21.6357 
*END

*D_NET *164 0.00954236
*CONN
*I *276:A I *D sky130_fd_sc_hd__nand2_1
*I *274:A I *D sky130_fd_sc_hd__nand2_1
*I *272:A I *D sky130_fd_sc_hd__nand2_1
*I *270:A I *D sky130_fd_sc_hd__nand2_1
*I *350:X O *D sky130_fd_sc_hd__clkdlybuf4s25_1
*CAP
1 *276:A 0.000337031
2 *274:A 1.47323e-05
3 *272:A 6.37016e-05
4 *270:A 0.0008649
5 *350:X 0
6 *164:58 0.000671317
7 *164:37 0.00109378
8 *164:4 0.00157542
9 *270:A *270:B 5.3823e-05
10 *270:A *166:14 0.000607868
11 *274:A *282:B 5.49489e-05
12 *276:A *276:B 5.38444e-06
13 *164:37 *282:A 0.000482594
14 *164:58 *234:B 1.64616e-05
15 *222:B *270:A 4.97876e-05
16 *226:A *270:A 0.000153047
17 *233:A *270:A 2.37575e-05
18 *253:A *164:58 7.43578e-06
19 *255:A *276:A 4.46186e-06
20 *255:A *164:58 7.2754e-05
21 *263:A *272:A 1.69115e-05
22 *263:A *164:58 0.000126054
23 *271:A *270:A 0.000225067
24 *275:A *276:A 0.000146254
25 *279:A *270:A 0.000119843
26 *279:A *164:37 3.66243e-05
27 *283:A *274:A 2.84026e-05
28 *283:A *276:A 0.000287312
29 *307:B *276:A 0
30 *315:A *272:A 0.000150618
31 *315:A *164:37 0.000263513
32 *320:A *164:58 4.13937e-05
33 *320:B *164:58 5.68713e-05
34 *322:A *164:37 4.51416e-05
35 *322:B *164:58 1.21258e-05
36 *358:A *270:A 0.00015091
37 *359:A *270:A 0.000195555
38 *364:A *164:37 0
39 *23:10 *270:A 0.000857888
40 *31:24 *270:A 0.000160104
41 *65:12 *272:A 0.000148903
42 *65:12 *164:58 6.42095e-05
43 *75:12 *272:A 2.82057e-05
44 *75:12 *164:37 9.09249e-05
45 *77:19 *276:A 7.74135e-05
46 *81:10 *164:37 3.28686e-05
47 *101:10 *276:A 0
48 *122:10 *164:37 2.60446e-05
*RES
1 *350:X *164:4 9.3 
2 *164:4 *270:A 41.675 
3 *164:4 *164:37 16.875 
4 *164:37 *272:A 16.3536 
5 *164:37 *164:58 15.625 
6 *164:58 *274:A 14.3357 
7 *164:58 *276:A 20.5143 
*END

*D_NET *165 0.00910671
*CONN
*I *278:A I *D sky130_fd_sc_hd__nand2_1
*I *284:A I *D sky130_fd_sc_hd__nand2_1
*I *282:A I *D sky130_fd_sc_hd__nand2_1
*I *280:A I *D sky130_fd_sc_hd__nand2_1
*I *351:X O *D sky130_fd_sc_hd__clkdlybuf4s25_1
*CAP
1 *278:A 0.000635242
2 *284:A 0.000484743
3 *282:A 0.000313814
4 *280:A 0.00051081
5 *351:X 0.000793161
6 *165:12 0.00093663
7 *165:6 0.000754669
8 *278:A *270:B 1.72003e-05
9 *280:A *280:B 3.58086e-05
10 *282:A *282:B 5.38444e-06
11 *284:A *284:B 1.87331e-05
12 *213:B *284:A 2.37871e-05
13 *214:A *278:A 0.000339
14 *217:A *165:6 0.000222763
15 *224:B *278:A 9.24299e-05
16 *233:A *278:A 5.58875e-06
17 *236:B *278:A 1.21859e-05
18 *245:A *282:A 2.99572e-05
19 *258:B *284:A 2.05484e-05
20 *271:A *278:A 0.000115369
21 *275:A *284:A 1.37411e-05
22 *279:A *278:A 0.000418388
23 *281:A *278:A 0.00033747
24 *281:A *280:A 0.000120076
25 *287:B *280:A 0.000110226
26 *288:B *280:A 2.00751e-05
27 *316:A *278:A 0
28 *316:A *280:A 0.000169896
29 *316:A *165:12 0
30 *317:B *278:A 8.00843e-06
31 *319:A *282:A 7.02611e-05
32 *320:B *282:A 1.21258e-05
33 *322:A *282:A 0.000354996
34 *322:B *280:A 1.31516e-05
35 *327:B *280:A 0.000179931
36 *328:B *284:A 2.38501e-05
37 *331:B *284:A 2.11336e-05
38 *368:A *278:A 0.000169405
39 *371:A *280:A 0.000150625
40 *20:6 *284:A 1.32056e-05
41 *20:6 *165:6 8.68076e-05
42 *27:8 *278:A 0.000197269
43 *31:24 *278:A 3.56894e-05
44 *77:19 *284:A 9.28394e-06
45 *83:12 *278:A 3.52053e-05
46 *108:10 *284:A 0.000309626
47 *116:28 *280:A 0
48 *116:28 *165:12 0
49 *119:8 *282:A 1.02821e-05
50 *122:10 *280:A 0.000142797
51 *128:12 *284:A 0.000222763
52 *164:37 *282:A 0.000482594
*RES
1 *351:X *165:6 12.3 
2 *165:6 *165:12 6.41964 
3 *165:12 *280:A 33.8625 
4 *165:12 *282:A 22.0411 
5 *165:6 *284:A 19.1929 
6 *351:X *278:A 45.6893 
*END

*D_NET *166 0.00818527
*CONN
*I *262:B I *D sky130_fd_sc_hd__nand2_1
*I *326:B I *D sky130_fd_sc_hd__nand2_1
*I *270:B I *D sky130_fd_sc_hd__nand2_1
*I *278:B I *D sky130_fd_sc_hd__nand2_1
*I *352:X O *D sky130_fd_sc_hd__clkbuf_2
*CAP
1 *262:B 0
2 *326:B 0.000255375
3 *270:B 9.41534e-05
4 *278:B 0
5 *352:X 0
6 *166:42 0.000574322
7 *166:14 0.00154605
8 *166:4 0.00177084
9 *166:14 *167:27 1.98839e-05
10 p[3] *166:14 0
11 p[4] *166:14 0
12 *226:A *166:14 0.000154762
13 *270:A *270:B 5.3823e-05
14 *270:A *166:14 0.000607868
15 *271:A *166:14 0.000288717
16 *278:A *270:B 1.72003e-05
17 *281:A *166:14 0
18 *287:A *326:B 4.00349e-05
19 *287:A *166:42 0.000761308
20 *297:A *326:B 0
21 *316:A *166:42 0.000110686
22 *323:B *166:42 0
23 *326:A *326:B 0.000279127
24 *326:A *166:42 2.11419e-05
25 *337:A *326:B 3.18676e-05
26 *350:A *166:14 0
27 *352:A *166:14 0.000432039
28 *353:A *166:14 0
29 *357:A *326:B 0
30 *358:A *166:14 0.00015244
31 *23:10 *166:14 0.000110621
32 *31:24 *270:B 9.90431e-05
33 *31:24 *166:14 1.78353e-05
34 *65:12 *166:42 2.75651e-06
35 *88:20 *166:42 0.000674752
36 *115:34 *166:42 6.8622e-05
37 *116:28 *326:B 0
*RES
1 *352:X *166:4 9.3 
2 *166:4 *166:14 39.6071 
3 *166:14 *278:B 9.3 
4 *166:14 *270:B 12.1214 
5 *166:4 *166:42 14.36 
6 *166:42 *326:B 19.4964 
7 *166:42 *262:B 13.8 
*END

*D_NET *167 0.0049196
*CONN
*I *257:B I *D sky130_fd_sc_hd__nand2_1
*I *264:B I *D sky130_fd_sc_hd__nand2_1
*I *212:B I *D sky130_fd_sc_hd__nand2_1
*I *272:B I *D sky130_fd_sc_hd__nand2_1
*I *280:B I *D sky130_fd_sc_hd__nand2_1
*I *353:X O *D sky130_fd_sc_hd__buf_6
*CAP
1 *257:B 0.000208866
2 *264:B 0.000118761
3 *212:B 1.74196e-05
4 *272:B 1.73466e-05
5 *280:B 7.26705e-05
6 *353:X 4.82717e-05
7 *167:51 0.000426983
8 *167:36 0.000170993
9 *167:27 0.000611671
10 *167:6 0.000661049
11 *264:B *168:27 1.85103e-05
12 *212:A *167:36 5.49544e-05
13 *223:A *167:27 2.71746e-05
14 *223:A *167:36 2.24079e-05
15 *255:A *264:B 2.489e-07
16 *267:A *257:B 0
17 *273:A *272:B 3.99614e-06
18 *273:A *167:27 0.000158234
19 *280:A *280:B 3.58086e-05
20 *287:B *280:B 0.000112662
21 *291:B *264:B 9.76123e-05
22 *296:B *257:B 4.46186e-06
23 *298:A *257:B 5.94443e-05
24 *298:A *167:51 4.85049e-06
25 *298:B *167:51 5.20751e-05
26 *315:A *167:27 5.71472e-05
27 *315:A *167:36 0.000180348
28 *315:A *167:51 1.24368e-05
29 *316:A *280:B 0.000157375
30 *324:A *167:27 0.000167887
31 *327:B *167:6 9.41642e-05
32 *327:B *167:27 0.000183444
33 *352:A *167:6 0.000137983
34 *352:A *167:27 4.08637e-05
35 *371:A *167:27 1.99306e-05
36 *73:10 *280:B 1.02504e-05
37 *75:12 *167:27 1.96517e-05
38 *99:8 *212:B 5.1653e-05
39 *99:8 *167:51 6.48205e-05
40 *147:14 *257:B 0.000183298
41 *147:14 *167:51 0.00017206
42 *147:20 *167:51 0.000139506
43 *147:50 *264:B 0
44 *158:30 *257:B 0.00020042
45 *166:14 *167:27 1.98839e-05
*RES
1 *353:X *167:6 10.6571 
2 *167:6 *280:B 20.55 
3 *167:6 *167:27 9.94643 
4 *167:27 *272:B 9.72857 
5 *167:27 *167:36 1.76786 
6 *167:36 *212:B 10.233 
7 *167:36 *167:51 3.96429 
8 *167:51 *264:B 20.55 
9 *167:51 *257:B 23.4607 
*END

*D_NET *168 0.00383268
*CONN
*I *266:B I *D sky130_fd_sc_hd__nand2_1
*I *255:B I *D sky130_fd_sc_hd__nand2_1
*I *274:B I *D sky130_fd_sc_hd__nand2_1
*I *282:B I *D sky130_fd_sc_hd__nand2_1
*I *234:B I *D sky130_fd_sc_hd__nand2_1
*I *354:X O *D sky130_fd_sc_hd__buf_6
*CAP
1 *266:B 0
2 *255:B 9.34327e-06
3 *274:B 1.42461e-05
4 *282:B 4.27535e-05
5 *234:B 0.000209879
6 *354:X 5.282e-05
7 *168:29 0.000133262
8 *168:27 0.000308874
9 *168:10 0.000713292
10 *168:6 0.000332966
11 *245:A *282:B 0.000141132
12 *245:A *168:29 8.41574e-05
13 *253:A *234:B 0.000109451
14 *254:A *234:B 9.83388e-05
15 *254:A *168:10 2.01595e-05
16 *255:A *168:29 5.49544e-05
17 *263:A *234:B 2.00031e-05
18 *264:A *168:10 2.29311e-05
19 *264:B *168:27 1.85103e-05
20 *267:A *168:10 0.000476696
21 *274:A *282:B 5.49489e-05
22 *282:A *282:B 5.38444e-06
23 *283:A *282:B 3.15374e-05
24 *283:A *168:29 1.55885e-05
25 *291:A *168:10 0.000117994
26 *291:B *234:B 0.000139202
27 *301:B *168:10 7.61932e-05
28 *301:B *168:27 7.60306e-05
29 *302:A *255:B 5.38444e-06
30 *302:A *168:27 1.46148e-05
31 *307:B *168:27 6.05161e-06
32 *158:24 *168:10 0.00039579
33 *158:30 *168:27 1.37292e-05
34 *164:58 *234:B 1.64616e-05
*RES
1 *354:X *168:6 10.2464 
2 *168:6 *168:10 8.25 
3 *168:10 *234:B 13.8536 
4 *168:10 *168:27 12.9107 
5 *168:27 *168:29 1.76786 
6 *168:29 *282:B 11.0857 
7 *168:29 *274:B 9.72857 
8 *168:27 *255:B 9.72857 
9 *168:6 *266:B 9.3 
*END

*D_NET *169 0.00404134
*CONN
*I *284:B I *D sky130_fd_sc_hd__nand2_1
*I *276:B I *D sky130_fd_sc_hd__nand2_1
*I *268:B I *D sky130_fd_sc_hd__nand2_1
*I *256:B I *D sky130_fd_sc_hd__nand2_2
*I *355:X O *D sky130_fd_sc_hd__clkbuf_2
*CAP
1 *284:B 0.000181188
2 *276:B 0.000102727
3 *268:B 0
4 *256:B 6.55701e-05
5 *355:X 0.000301384
6 *169:31 0.000229758
7 *169:23 0.000765811
8 *169:8 0.000824546
9 *256:A *256:B 1.02504e-05
10 *259:A *169:23 4.58194e-05
11 *268:A *284:B 4.40513e-06
12 *276:A *276:B 5.38444e-06
13 *277:A *276:B 5.91607e-05
14 *284:A *284:B 1.87331e-05
15 *285:A *276:B 2.3541e-05
16 *285:A *284:B 4.7812e-05
17 *285:A *169:31 6.02811e-05
18 *300:A *256:B 0
19 *302:A *169:8 2.15245e-05
20 *303:A *256:B 4.57445e-05
21 *303:A *169:23 8.04554e-05
22 *304:A *169:8 0.000183726
23 *306:A *276:B 3.49456e-06
24 *307:A *284:B 0.000146534
25 *307:A *169:23 4.08637e-05
26 *307:A *169:31 9.58632e-05
27 *69:10 *256:B 0
28 *87:14 *276:B 7.842e-05
29 *100:8 *256:B 7.57869e-05
30 *100:8 *169:23 1.76135e-05
31 *100:29 *169:23 0.000181845
32 *101:10 *284:B 7.80059e-05
33 *101:10 *169:31 0.000126416
34 *104:10 *284:B 1.6815e-05
35 *108:10 *284:B 0.000101859
*RES
1 *355:X *169:8 18.8536 
2 *169:8 *256:B 15.7464 
3 *169:8 *169:23 12.0893 
4 *169:23 *169:31 11.5893 
5 *169:31 *268:B 9.3 
6 *169:31 *276:B 11.925 
7 *169:23 *284:B 23.175 
*END

*D_NET *170 0.00264682
*CONN
*I *363:A I *D sky130_fd_sc_hd__clkdlybuf4s25_1
*I *337:Y O *D sky130_fd_sc_hd__inv_1
*CAP
1 *363:A 0
2 *337:Y 0.000983888
3 *170:22 0.000983888
4 p[0] *170:22 2.0412e-05
5 p[1] *170:22 9.25014e-06
6 p[2] *170:22 2.05938e-05
7 *289:B *170:22 0
8 *294:B *170:22 0.000353086
9 *297:A *170:22 9.58126e-05
10 *297:B *170:22 9.87617e-05
11 *357:A *170:22 3.33174e-05
12 *116:28 *170:22 4.78056e-05
*RES
1 *337:Y *170:22 40.8089 
2 *170:22 *363:A 9.3 
*END
