*SPEF "ieee 1481-1999"
*DESIGN "m8_dadda_nand9"
*DATE "16:22:14 Sunday September 06, 2026"
*VENDOR "The OpenROAD Project"
*PROGRAM "OpenROAD"
*VERSION "dcf36133a369abc8f3c5e5738cd4d82e4903c0e0"
*DESIGN_FLOW "NAME_SCOPE LOCAL" "PIN_CAP NONE"
*DIVIDER /
*DELIMITER :
*BUS_DELIMITER []
*T_UNIT 1 NS
*C_UNIT 1 PF
*R_UNIT 1 OHM
*L_UNIT 1 HENRY

*NAME_MAP
*3 a[0]
*4 a[1]
*5 a[2]
*6 a[3]
*7 a[4]
*8 a[5]
*9 a[6]
*10 a[7]
*11 b[0]
*12 b[1]
*13 b[2]
*14 b[3]
*15 b[4]
*16 b[5]
*17 b[6]
*18 b[7]
*19 p[0]
*20 p[10]
*21 p[11]
*22 p[12]
*23 p[13]
*24 p[14]
*25 p[15]
*26 p[1]
*27 p[2]
*28 p[3]
*29 p[4]
*30 p[5]
*31 p[6]
*32 p[7]
*33 p[8]
*34 p[9]
*35 n100
*36 n101
*37 n102
*38 n103
*39 n104
*40 n105
*41 n106
*42 n107
*43 n108
*44 n109
*45 n110
*46 n111
*47 n112
*48 n113
*49 n114
*50 n115
*51 n116
*52 n117
*53 n118
*54 n119
*55 n120
*56 n121
*57 n122
*58 n123
*59 n124
*60 n125
*61 n126
*62 n127
*63 n128
*64 n129
*65 n130
*66 n131
*67 n132
*68 n133
*69 n134
*70 n135
*71 n136
*72 n137
*73 n138
*74 n139
*75 n140
*76 n141
*77 n142
*78 n143
*79 n144
*80 n145
*81 n146
*82 n147
*83 n148
*84 n149
*85 n150
*86 n151
*87 n152
*88 n153
*89 n154
*90 n155
*91 n156
*92 n157
*93 n158
*94 n159
*95 n16
*96 n160
*97 n161
*98 n162
*99 n163
*100 n164
*101 n165
*102 n166
*103 n167
*104 n168
*105 n169
*106 n170
*107 n171
*108 n172
*109 n173
*110 n174
*111 n175
*112 n176
*113 n177
*114 n178
*115 n179
*116 n18
*117 n180
*118 n181
*119 n182
*120 n183
*121 n184
*122 n185
*123 n186
*124 n187
*125 n188
*126 n189
*127 n19
*128 n190
*129 n191
*130 n192
*131 n193
*132 n194
*133 n195
*134 n196
*135 n197
*136 n198
*137 n199
*138 n20
*139 n200
*140 n201
*141 n202
*142 n203
*143 n204
*144 n205
*145 n206
*146 n207
*147 n208
*148 n209
*149 n21
*150 n210
*151 n211
*152 n212
*153 n213
*154 n214
*155 n215
*156 n216
*157 n217
*158 n218
*159 n219
*160 n22
*161 n220
*162 n221
*163 n222
*164 n223
*165 n224
*166 n225
*167 n226
*168 n227
*169 n228
*170 n229
*171 n23
*172 n230
*173 n231
*174 n232
*175 n233
*176 n234
*177 n235
*178 n236
*179 n237
*180 n238
*181 n239
*182 n24
*183 n240
*184 n241
*185 n242
*186 n243
*187 n244
*188 n245
*189 n246
*190 n247
*191 n248
*192 n249
*193 n25
*194 n250
*195 n251
*196 n252
*197 n253
*198 n254
*199 n255
*200 n256
*201 n257
*202 n258
*203 n259
*204 n26
*205 n260
*206 n261
*207 n262
*208 n263
*209 n264
*210 n265
*211 n266
*212 n267
*213 n268
*214 n269
*215 n27
*216 n270
*217 n271
*218 n272
*219 n273
*220 n274
*221 n275
*222 n276
*223 n277
*224 n278
*225 n279
*226 n28
*227 n280
*228 n281
*229 n282
*230 n283
*231 n284
*232 n285
*233 n286
*234 n287
*235 n288
*236 n289
*237 n29
*238 n290
*239 n291
*240 n292
*241 n293
*242 n294
*243 n295
*244 n296
*245 n297
*246 n298
*247 n299
*248 n30
*249 n300
*250 n301
*251 n302
*252 n303
*253 n304
*254 n305
*255 n306
*256 n307
*257 n308
*258 n309
*259 n31
*260 n310
*261 n311
*262 n312
*263 n313
*264 n314
*265 n315
*266 n316
*267 n317
*268 n318
*269 n319
*270 n32
*271 n320
*272 n321
*273 n322
*274 n323
*275 n324
*276 n325
*277 n326
*278 n327
*279 n328
*280 n329
*281 n33
*282 n330
*283 n331
*284 n332
*285 n333
*286 n334
*287 n335
*288 n336
*289 n337
*290 n338
*291 n339
*292 n34
*293 n340
*294 n341
*295 n342
*296 n343
*297 n344
*298 n345
*299 n346
*300 n347
*301 n348
*302 n349
*303 n35
*304 n350
*305 n351
*306 n352
*307 n353
*308 n354
*309 n355
*310 n356
*311 n357
*312 n358
*313 n359
*314 n36
*315 n360
*316 n361
*317 n362
*318 n363
*319 n364
*320 n365
*321 n366
*322 n367
*323 n368
*324 n369
*325 n37
*326 n370
*327 n371
*328 n372
*329 n373
*330 n374
*331 n375
*332 n376
*333 n377
*334 n378
*335 n379
*336 n38
*337 n380
*338 n381
*339 n382
*340 n383
*341 n384
*342 n385
*343 n386
*344 n387
*345 n388
*346 n389
*347 n39
*348 n390
*349 n391
*350 n392
*351 n393
*352 n394
*353 n395
*354 n396
*355 n397
*356 n398
*357 n399
*358 n40
*359 n400
*360 n401
*361 n402
*362 n403
*363 n404
*364 n405
*365 n406
*366 n407
*367 n408
*368 n409
*369 n41
*370 n410
*371 n411
*372 n412
*373 n413
*374 n414
*375 n415
*376 n416
*377 n417
*378 n418
*379 n419
*380 n42
*381 n420
*382 n421
*383 n422
*384 n423
*385 n424
*386 n425
*387 n426
*388 n427
*389 n428
*390 n429
*391 n43
*392 n430
*393 n431
*394 n432
*395 n433
*396 n434
*397 n435
*398 n436
*399 n437
*400 n438
*401 n439
*402 n44
*403 n440
*404 n441
*405 n442
*406 n443
*407 n444
*408 n445
*409 n446
*410 n447
*411 n448
*412 n449
*413 n45
*414 n450
*415 n451
*416 n452
*417 n453
*418 n454
*419 n455
*420 n456
*421 n457
*422 n458
*423 n459
*424 n46
*425 n460
*426 n461
*427 n462
*428 n463
*429 n464
*430 n465
*431 n466
*432 n467
*433 n468
*434 n469
*435 n47
*436 n470
*437 n471
*438 n472
*439 n473
*440 n474
*441 n475
*442 n476
*443 n477
*444 n478
*445 n479
*446 n48
*447 n480
*448 n481
*449 n482
*450 n483
*451 n484
*452 n485
*453 n486
*454 n487
*455 n488
*456 n489
*457 n49
*458 n490
*459 n491
*460 n492
*461 n493
*462 n494
*463 n495
*464 n496
*465 n498
*466 n499
*467 n50
*468 n500
*469 n501
*470 n502
*471 n503
*472 n504
*473 n505
*474 n507
*475 n508
*476 n509
*477 n51
*478 n510
*479 n511
*480 n512
*481 n513
*482 n514
*483 n516
*484 n517
*485 n518
*486 n519
*487 n52
*488 n520
*489 n521
*490 n522
*491 n523
*492 n525
*493 n526
*494 n527
*495 n528
*496 n529
*497 n53
*498 n530
*499 n531
*500 n532
*501 n534
*502 n535
*503 n536
*504 n537
*505 n538
*506 n539
*507 n54
*508 n540
*509 n541
*510 n543
*511 n544
*512 n545
*513 n546
*514 n547
*515 n548
*516 n549
*517 n55
*518 n550
*519 n552
*520 n553
*521 n554
*522 n555
*523 n556
*524 n557
*525 n558
*526 n559
*527 n56
*528 n561
*529 n562
*530 n563
*531 n564
*532 n565
*533 n566
*534 n567
*535 n568
*536 n57
*537 n570
*538 n571
*539 n572
*540 n573
*541 n574
*542 n575
*543 n576
*544 n577
*545 n579
*546 n58
*547 n580
*548 n581
*549 n582
*550 n583
*551 n584
*552 n585
*553 n586
*554 n588
*555 n589
*556 n59
*557 n590
*558 n591
*559 n592
*560 n593
*561 n594
*562 n595
*563 n597
*564 n598
*565 n599
*566 n60
*567 n600
*568 n601
*569 n602
*570 n603
*571 n604
*572 n606
*573 n607
*574 n608
*575 n609
*576 n61
*577 n610
*578 n611
*579 n612
*580 n613
*581 n62
*582 n63
*583 n64
*584 n65
*585 n66
*586 n67
*587 n68
*588 n69
*589 n70
*590 n71
*591 n72
*592 n73
*593 n74
*594 n75
*595 n76
*596 n77
*597 n78
*598 n79
*599 n80
*600 n81
*601 n82
*602 n83
*603 n84
*604 n85
*605 n86
*606 n87
*607 n88
*608 n89
*609 n90
*610 n91
*611 n92
*612 n93
*613 n94
*614 n95
*615 n96
*616 n97
*617 n98
*618 n99
*619 PHY_EDGE_ROW_0_Left_27
*620 PHY_EDGE_ROW_0_Right_0
*621 PHY_EDGE_ROW_10_Left_37
*622 PHY_EDGE_ROW_10_Right_10
*623 PHY_EDGE_ROW_11_Left_38
*624 PHY_EDGE_ROW_11_Right_11
*625 PHY_EDGE_ROW_12_Left_39
*626 PHY_EDGE_ROW_12_Right_12
*627 PHY_EDGE_ROW_13_Left_40
*628 PHY_EDGE_ROW_13_Right_13
*629 PHY_EDGE_ROW_14_Left_41
*630 PHY_EDGE_ROW_14_Right_14
*631 PHY_EDGE_ROW_15_Left_42
*632 PHY_EDGE_ROW_15_Right_15
*633 PHY_EDGE_ROW_16_Left_43
*634 PHY_EDGE_ROW_16_Right_16
*635 PHY_EDGE_ROW_17_Left_44
*636 PHY_EDGE_ROW_17_Right_17
*637 PHY_EDGE_ROW_18_Left_45
*638 PHY_EDGE_ROW_18_Right_18
*639 PHY_EDGE_ROW_19_Left_46
*640 PHY_EDGE_ROW_19_Right_19
*641 PHY_EDGE_ROW_1_Left_28
*642 PHY_EDGE_ROW_1_Right_1
*643 PHY_EDGE_ROW_20_Left_47
*644 PHY_EDGE_ROW_20_Right_20
*645 PHY_EDGE_ROW_21_Left_48
*646 PHY_EDGE_ROW_21_Right_21
*647 PHY_EDGE_ROW_22_Left_49
*648 PHY_EDGE_ROW_22_Right_22
*649 PHY_EDGE_ROW_23_Left_50
*650 PHY_EDGE_ROW_23_Right_23
*651 PHY_EDGE_ROW_24_Left_51
*652 PHY_EDGE_ROW_24_Right_24
*653 PHY_EDGE_ROW_25_Left_52
*654 PHY_EDGE_ROW_25_Right_25
*655 PHY_EDGE_ROW_26_Left_53
*656 PHY_EDGE_ROW_26_Right_26
*657 PHY_EDGE_ROW_2_Left_29
*658 PHY_EDGE_ROW_2_Right_2
*659 PHY_EDGE_ROW_3_Left_30
*660 PHY_EDGE_ROW_3_Right_3
*661 PHY_EDGE_ROW_4_Left_31
*662 PHY_EDGE_ROW_4_Right_4
*663 PHY_EDGE_ROW_5_Left_32
*664 PHY_EDGE_ROW_5_Right_5
*665 PHY_EDGE_ROW_6_Left_33
*666 PHY_EDGE_ROW_6_Right_6
*667 PHY_EDGE_ROW_7_Left_34
*668 PHY_EDGE_ROW_7_Right_7
*669 PHY_EDGE_ROW_8_Left_35
*670 PHY_EDGE_ROW_8_Right_8
*671 PHY_EDGE_ROW_9_Left_36
*672 PHY_EDGE_ROW_9_Right_9
*673 TAP_TAPCELL_ROW_0_54
*674 TAP_TAPCELL_ROW_0_55
*675 TAP_TAPCELL_ROW_0_56
*676 TAP_TAPCELL_ROW_0_57
*677 TAP_TAPCELL_ROW_0_58
*678 TAP_TAPCELL_ROW_10_81
*679 TAP_TAPCELL_ROW_10_82
*680 TAP_TAPCELL_ROW_10_83
*681 TAP_TAPCELL_ROW_11_84
*682 TAP_TAPCELL_ROW_11_85
*683 TAP_TAPCELL_ROW_12_86
*684 TAP_TAPCELL_ROW_12_87
*685 TAP_TAPCELL_ROW_12_88
*686 TAP_TAPCELL_ROW_13_89
*687 TAP_TAPCELL_ROW_13_90
*688 TAP_TAPCELL_ROW_14_91
*689 TAP_TAPCELL_ROW_14_92
*690 TAP_TAPCELL_ROW_14_93
*691 TAP_TAPCELL_ROW_15_94
*692 TAP_TAPCELL_ROW_15_95
*693 TAP_TAPCELL_ROW_16_96
*694 TAP_TAPCELL_ROW_16_97
*695 TAP_TAPCELL_ROW_16_98
*696 TAP_TAPCELL_ROW_17_100
*697 TAP_TAPCELL_ROW_17_99
*698 TAP_TAPCELL_ROW_18_101
*699 TAP_TAPCELL_ROW_18_102
*700 TAP_TAPCELL_ROW_18_103
*701 TAP_TAPCELL_ROW_19_104
*702 TAP_TAPCELL_ROW_19_105
*703 TAP_TAPCELL_ROW_1_59
*704 TAP_TAPCELL_ROW_1_60
*705 TAP_TAPCELL_ROW_20_106
*706 TAP_TAPCELL_ROW_20_107
*707 TAP_TAPCELL_ROW_20_108
*708 TAP_TAPCELL_ROW_21_109
*709 TAP_TAPCELL_ROW_21_110
*710 TAP_TAPCELL_ROW_22_111
*711 TAP_TAPCELL_ROW_22_112
*712 TAP_TAPCELL_ROW_22_113
*713 TAP_TAPCELL_ROW_23_114
*714 TAP_TAPCELL_ROW_23_115
*715 TAP_TAPCELL_ROW_24_116
*716 TAP_TAPCELL_ROW_24_117
*717 TAP_TAPCELL_ROW_24_118
*718 TAP_TAPCELL_ROW_25_119
*719 TAP_TAPCELL_ROW_25_120
*720 TAP_TAPCELL_ROW_26_121
*721 TAP_TAPCELL_ROW_26_122
*722 TAP_TAPCELL_ROW_26_123
*723 TAP_TAPCELL_ROW_26_124
*724 TAP_TAPCELL_ROW_26_125
*725 TAP_TAPCELL_ROW_2_61
*726 TAP_TAPCELL_ROW_2_62
*727 TAP_TAPCELL_ROW_2_63
*728 TAP_TAPCELL_ROW_3_64
*729 TAP_TAPCELL_ROW_3_65
*730 TAP_TAPCELL_ROW_4_66
*731 TAP_TAPCELL_ROW_4_67
*732 TAP_TAPCELL_ROW_4_68
*733 TAP_TAPCELL_ROW_5_69
*734 TAP_TAPCELL_ROW_5_70
*735 TAP_TAPCELL_ROW_6_71
*736 TAP_TAPCELL_ROW_6_72
*737 TAP_TAPCELL_ROW_6_73
*738 TAP_TAPCELL_ROW_7_74
*739 TAP_TAPCELL_ROW_7_75
*740 TAP_TAPCELL_ROW_8_76
*741 TAP_TAPCELL_ROW_8_77
*742 TAP_TAPCELL_ROW_8_78
*743 TAP_TAPCELL_ROW_9_79
*744 TAP_TAPCELL_ROW_9_80
*745 g0
*746 g1
*747 g10
*748 g100
*749 g101
*750 g102
*751 g103
*752 g104
*753 g105
*754 g106
*755 g107
*756 g108
*757 g109
*758 g11
*759 g110
*760 g111
*761 g112
*762 g113
*763 g114
*764 g115
*765 g116
*766 g117
*767 g118
*768 g119
*769 g12
*770 g120
*771 g121
*772 g122
*773 g123
*774 g124
*775 g125
*776 g126
*777 g127
*778 g128
*779 g129
*780 g13
*781 g130
*782 g131
*783 g132
*784 g133
*785 g134
*786 g135
*787 g136
*788 g137
*789 g138
*790 g139
*791 g14
*792 g140
*793 g141
*794 g142
*795 g143
*796 g144
*797 g145
*798 g146
*799 g147
*800 g148
*801 g149
*802 g15
*803 g150
*804 g151
*805 g152
*806 g153
*807 g154
*808 g155
*809 g156
*810 g157
*811 g158
*812 g159
*813 g16
*814 g160
*815 g161
*816 g162
*817 g163
*818 g164
*819 g165
*820 g166
*821 g167
*822 g168
*823 g169
*824 g17
*825 g170
*826 g171
*827 g172
*828 g173
*829 g174
*830 g175
*831 g176
*832 g177
*833 g178
*834 g179
*835 g18
*836 g180
*837 g181
*838 g182
*839 g183
*840 g184
*841 g185
*842 g186
*843 g187
*844 g188
*845 g189
*846 g19
*847 g190
*848 g191
*849 g192
*850 g193
*851 g194
*852 g195
*853 g196
*854 g197
*855 g198
*856 g199
*857 g2
*858 g20
*859 g200
*860 g201
*861 g202
*862 g203
*863 g204
*864 g205
*865 g206
*866 g207
*867 g208
*868 g209
*869 g21
*870 g210
*871 g211
*872 g212
*873 g213
*874 g214
*875 g215
*876 g216
*877 g217
*878 g218
*879 g219
*880 g22
*881 g220
*882 g221
*883 g222
*884 g223
*885 g224
*886 g225
*887 g226
*888 g227
*889 g228
*890 g229
*891 g23
*892 g230
*893 g231
*894 g232
*895 g233
*896 g234
*897 g235
*898 g236
*899 g237
*900 g238
*901 g239
*902 g24
*903 g240
*904 g241
*905 g242
*906 g243
*907 g244
*908 g245
*909 g246
*910 g247
*911 g248
*912 g249
*913 g25
*914 g250
*915 g251
*916 g252
*917 g253
*918 g254
*919 g255
*920 g256
*921 g257
*922 g258
*923 g259
*924 g26
*925 g260
*926 g261
*927 g262
*928 g263
*929 g264
*930 g265
*931 g266
*932 g267
*933 g268
*934 g269
*935 g27
*936 g270
*937 g271
*938 g272
*939 g273
*940 g274
*941 g275
*942 g276
*943 g277
*944 g278
*945 g279
*946 g28
*947 g280
*948 g281
*949 g282
*950 g283
*951 g284
*952 g285
*953 g286
*954 g287
*955 g288
*956 g289
*957 g29
*958 g290
*959 g291
*960 g292
*961 g293
*962 g294
*963 g295
*964 g296
*965 g297
*966 g298
*967 g299
*968 g3
*969 g30
*970 g300
*971 g301
*972 g302
*973 g303
*974 g304
*975 g305
*976 g306
*977 g307
*978 g308
*979 g309
*980 g31
*981 g310
*982 g311
*983 g312
*984 g313
*985 g314
*986 g315
*987 g316
*988 g317
*989 g318
*990 g319
*991 g32
*992 g320
*993 g321
*994 g322
*995 g323
*996 g324
*997 g325
*998 g326
*999 g327
*1000 g328
*1001 g329
*1002 g33
*1003 g330
*1004 g331
*1005 g332
*1006 g333
*1007 g334
*1008 g335
*1009 g336
*1010 g337
*1011 g338
*1012 g339
*1013 g34
*1014 g340
*1015 g341
*1016 g342
*1017 g343
*1018 g344
*1019 g345
*1020 g346
*1021 g347
*1022 g348
*1023 g349
*1024 g35
*1025 g350
*1026 g351
*1027 g352
*1028 g353
*1029 g354
*1030 g355
*1031 g356
*1032 g357
*1033 g358
*1034 g359
*1035 g36
*1036 g360
*1037 g361
*1038 g362
*1039 g363
*1040 g364
*1041 g365
*1042 g366
*1043 g367
*1044 g368
*1045 g369
*1046 g37
*1047 g370
*1048 g371
*1049 g372
*1050 g373
*1051 g374
*1052 g375
*1053 g376
*1054 g377
*1055 g378
*1056 g379
*1057 g38
*1058 g380
*1059 g381
*1060 g382
*1061 g383
*1062 g384
*1063 g385
*1064 g386
*1065 g387
*1066 g388
*1067 g389
*1068 g39
*1069 g390
*1070 g391
*1071 g392
*1072 g393
*1073 g394
*1074 g395
*1075 g396
*1076 g397
*1077 g398
*1078 g399
*1079 g4
*1080 g40
*1081 g400
*1082 g401
*1083 g402
*1084 g403
*1085 g404
*1086 g405
*1087 g406
*1088 g407
*1089 g408
*1090 g409
*1091 g41
*1092 g410
*1093 g411
*1094 g412
*1095 g413
*1096 g414
*1097 g415
*1098 g416
*1099 g417
*1100 g418
*1101 g419
*1102 g42
*1103 g420
*1104 g421
*1105 g422
*1106 g423
*1107 g424
*1108 g425
*1109 g426
*1110 g427
*1111 g428
*1112 g429
*1113 g43
*1114 g430
*1115 g431
*1116 g432
*1117 g433
*1118 g434
*1119 g435
*1120 g436
*1121 g437
*1122 g438
*1123 g439
*1124 g44
*1125 g440
*1126 g441
*1127 g442
*1128 g443
*1129 g444
*1130 g445
*1131 g446
*1132 g447
*1133 g448
*1134 g449
*1135 g45
*1136 g450
*1137 g451
*1138 g452
*1139 g453
*1140 g454
*1141 g455
*1142 g456
*1143 g457
*1144 g458
*1145 g459
*1146 g46
*1147 g460
*1148 g461
*1149 g462
*1150 g463
*1151 g464
*1152 g465
*1153 g466
*1154 g467
*1155 g468
*1156 g469
*1157 g47
*1158 g470
*1159 g471
*1160 g472
*1161 g473
*1162 g474
*1163 g475
*1164 g476
*1165 g477
*1166 g478
*1167 g479
*1168 g48
*1169 g480
*1170 g481
*1171 g482
*1172 g483
*1173 g484
*1174 g485
*1175 g486
*1176 g487
*1177 g488
*1178 g489
*1179 g49
*1180 g490
*1181 g491
*1182 g492
*1183 g493
*1184 g494
*1185 g495
*1186 g496
*1187 g497
*1188 g498
*1189 g499
*1190 g5
*1191 g50
*1192 g500
*1193 g501
*1194 g502
*1195 g503
*1196 g504
*1197 g505
*1198 g506
*1199 g507
*1200 g508
*1201 g509
*1202 g51
*1203 g510
*1204 g511
*1205 g512
*1206 g513
*1207 g514
*1208 g515
*1209 g516
*1210 g517
*1211 g518
*1212 g519
*1213 g52
*1214 g520
*1215 g521
*1216 g522
*1217 g523
*1218 g524
*1219 g525
*1220 g526
*1221 g527
*1222 g528
*1223 g529
*1224 g53
*1225 g530
*1226 g531
*1227 g532
*1228 g533
*1229 g534
*1230 g535
*1231 g536
*1232 g537
*1233 g538
*1234 g539
*1235 g54
*1236 g540
*1237 g541
*1238 g542
*1239 g543
*1240 g544
*1241 g545
*1242 g546
*1243 g547
*1244 g548
*1245 g549
*1246 g55
*1247 g550
*1248 g551
*1249 g552
*1250 g553
*1251 g554
*1252 g555
*1253 g556
*1254 g557
*1255 g558
*1256 g559
*1257 g56
*1258 g560
*1259 g561
*1260 g562
*1261 g563
*1262 g564
*1263 g565
*1264 g566
*1265 g567
*1266 g568
*1267 g569
*1268 g57
*1269 g570
*1270 g571
*1271 g572
*1272 g573
*1273 g574
*1274 g575
*1275 g576
*1276 g577
*1277 g578
*1278 g579
*1279 g58
*1280 g580
*1281 g581
*1282 g582
*1283 g583
*1284 g584
*1285 g585
*1286 g586
*1287 g587
*1288 g588
*1289 g589
*1290 g59
*1291 g590
*1292 g591
*1293 g592
*1294 g593
*1295 g594
*1296 g595
*1297 g596
*1298 g597
*1299 g598
*1300 g599
*1301 g6
*1302 g60
*1303 g61
*1304 g62
*1305 g63
*1306 g64
*1307 g65
*1308 g66
*1309 g67
*1310 g68
*1311 g69
*1312 g7
*1313 g70
*1314 g71
*1315 g72
*1316 g73
*1317 g74
*1318 g75
*1319 g76
*1320 g77
*1321 g78
*1322 g79
*1323 g8
*1324 g80
*1325 g81
*1326 g82
*1327 g83
*1328 g84
*1329 g85
*1330 g86
*1331 g87
*1332 g88
*1333 g89
*1334 g9
*1335 g90
*1336 g91
*1337 g92
*1338 g93
*1339 g94
*1340 g95
*1341 g96
*1342 g97
*1343 g98
*1344 g99

*PORTS
a[0] I
a[1] I
a[2] I
a[3] I
a[4] I
a[5] I
a[6] I
a[7] I
b[0] I
b[1] I
b[2] I
b[3] I
b[4] I
b[5] I
b[6] I
b[7] I
p[0] O
p[10] O
p[11] O
p[12] O
p[13] O
p[14] O
p[15] O
p[1] O
p[2] O
p[3] O
p[4] O
p[5] O
p[6] O
p[7] O
p[8] O
p[9] O

*D_NET *3 0.00896723
*CONN
*P a[0] I
*I *1079:A I *D sky130_fd_sc_hd__nand2_1
*I *769:A I *D sky130_fd_sc_hd__nand2_1
*I *1323:A I *D sky130_fd_sc_hd__nand2_1
*I *747:A I *D sky130_fd_sc_hd__nand2_1
*I *1301:A I *D sky130_fd_sc_hd__nand2_1
*I *857:A I *D sky130_fd_sc_hd__nand2_1
*I *791:A I *D sky130_fd_sc_hd__nand2_1
*I *745:A I *D sky130_fd_sc_hd__nand2_1
*CAP
1 a[0] 0.000315565
2 *1079:A 0.000168811
3 *769:A 0.000477763
4 *1323:A 0.000206024
5 *747:A 1.17665e-05
6 *1301:A 0.000213451
7 *857:A 0
8 *791:A 0.000114138
9 *745:A 2.52229e-05
10 *3:69 0.00021779
11 *3:67 0.000603687
12 *3:54 0.000445231
13 *3:50 0.000973326
14 *3:26 0.000312854
15 *3:16 0.00109618
16 *3:5 0.000539588
17 *745:A *465:8 5.52238e-05
18 *747:A *758:A 5.49995e-05
19 *747:A *4:64 5.49995e-05
20 *769:A *758:A 0.000176234
21 *769:A *799:A 0
22 *769:A *924:A 5.52302e-05
23 *769:A *924:B 9.80173e-05
24 *769:A *935:A 1.74352e-05
25 *769:A *13:58 0
26 *791:A *791:B 9.57064e-05
27 *1079:A *858:B 6.04228e-05
28 *1301:A *880:B 3.9544e-05
29 *1301:A *1301:B 5.66971e-05
30 *1301:A *1312:A 3.11088e-05
31 *1301:A *91:10 0.000139113
32 *1323:A *758:A 5.50052e-05
33 *1323:A *902:A 5.97086e-06
34 *1323:A *1334:A 2.85321e-05
35 *1323:A *4:64 0.000282318
36 *1323:A *4:72 2.60585e-05
37 *1323:A *15:93 6.90509e-05
38 *3:5 p[0] 0.000463018
39 *3:5 p[1] 0.000460703
40 *3:5 *745:B 4.46186e-06
41 *3:5 *746:A 0.000151333
42 *3:5 *1167:A 0
43 *3:5 *1180:B 5.80217e-05
44 *3:5 *4:15 0
45 *3:16 *745:B 0.00012799
46 *3:16 *968:A 0
47 *3:16 *351:10 0
48 *3:16 *470:10 0
49 *3:26 *857:B 8.46247e-05
50 *3:50 *787:B 5.32071e-05
51 *3:50 *788:B 5.66971e-05
52 *3:50 *789:A 2.12733e-05
53 *3:50 *991:A 0
54 *3:50 *351:10 0
55 *3:54 *991:A 0.000224283
56 *3:67 *991:A 0.000138562
*RES
1 a[0] *3:5 13.4464 
2 *3:5 *745:A 14.3357 
3 *3:5 *3:16 4.07143 
4 *3:16 *3:26 7.96429 
5 *3:26 *791:A 21.0857 
6 *3:26 *857:A 9.3 
7 *3:16 *3:50 16.4464 
8 *3:50 *3:54 7.35714 
9 *3:54 *1301:A 18.8714 
10 *3:54 *3:67 2.55357 
11 *3:67 *3:69 4.5 
12 *3:69 *747:A 9.83571 
13 *3:69 *1323:A 14.925 
14 *3:67 *769:A 22.6571 
15 *3:50 *1079:A 12.3179 
*END

*D_NET *4 0.0110089
*CONN
*P a[1] I
*I *813:A I *D sky130_fd_sc_hd__nand2_1
*I *924:A I *D sky130_fd_sc_hd__nand2_1
*I *902:A I *D sky130_fd_sc_hd__nand2_1
*I *880:A I *D sky130_fd_sc_hd__nand2_1
*I *858:A I *D sky130_fd_sc_hd__nand2_1
*I *969:A I *D sky130_fd_sc_hd__nand2_1
*I *946:A I *D sky130_fd_sc_hd__nand2_1
*I *835:A I *D sky130_fd_sc_hd__nand2_1
*CAP
1 a[1] 0.000869069
2 *813:A 0
3 *924:A 0.000170764
4 *902:A 2.07884e-05
5 *880:A 2.86644e-05
6 *858:A 0.000149096
7 *969:A 0
8 *946:A 0
9 *835:A 0.000903443
10 *4:72 0.000476335
11 *4:64 0.000507497
12 *4:60 0.000497255
13 *4:51 0.000589543
14 *4:38 0.000492368
15 *4:19 0.00133092
16 *4:15 0.00125537
17 *835:A *846:A 9.35228e-06
18 *835:A *957:A 0.000527957
19 *835:A *991:A 0
20 *835:A *1054:A 0
21 *835:A *149:12 0
22 *858:A *1312:A 0.000148514
23 *924:A *935:A 7.43578e-06
24 *924:A *92:18 9.76928e-05
25 *4:15 p[1] 0
26 *4:15 *745:B 0
27 *4:15 *968:A 0
28 *4:15 *1167:A 0
29 *4:15 *1167:B 8.15843e-05
30 *4:15 *1170:B 0.00015304
31 *4:15 *1171:A 3.57844e-05
32 *4:15 *127:10 0
33 *4:19 *760:A 0
34 *4:19 *774:A 0
35 *4:19 *791:B 6.58289e-05
36 *4:19 *802:A 3.75868e-05
37 *4:19 *968:A 0
38 *4:19 *18:32 0
39 *4:38 *802:A 4.06796e-05
40 *4:51 *802:A 5.54817e-06
41 *4:51 *5:63 3.71796e-05
42 *4:60 *769:B 0.000185643
43 *4:60 *969:B 2.03921e-05
44 *4:60 *980:A 4.04611e-05
45 *4:60 *5:49 3.48733e-05
46 *4:60 *5:63 0.000264539
47 *4:60 *16:59 0.000178847
48 *4:64 *747:B 0.000274036
49 *4:64 *758:A 2.38501e-05
50 *4:64 *5:43 0.000265438
51 *4:64 *5:49 0.000453265
52 *4:64 *16:59 4.66783e-05
53 *4:72 *1334:A 0.000181107
54 *4:72 *91:10 7.58841e-05
55 *747:A *4:64 5.49995e-05
56 *769:A *924:A 5.52302e-05
57 *1323:A *902:A 5.97086e-06
58 *1323:A *4:64 0.000282318
59 *1323:A *4:72 2.60585e-05
60 *3:5 *4:15 0
*RES
1 a[1] *4:15 17.7857 
2 *4:15 *4:19 7.75 
3 *4:19 *835:A 34.8536 
4 *4:19 *4:38 1.03571 
5 *4:38 *946:A 13.8 
6 *4:38 *4:51 12.1429 
7 *4:51 *969:A 9.3 
8 *4:51 *4:60 4.66071 
9 *4:60 *4:64 8.25 
10 *4:64 *4:72 9.16071 
11 *4:72 *858:A 16.6571 
12 *4:72 *880:A 14.3357 
13 *4:64 *902:A 9.72857 
14 *4:60 *924:A 21.3893 
15 *4:15 *813:A 13.8 
*END

*D_NET *5 0.0173369
*CONN
*P a[2] I
*I *1013:A I *D sky130_fd_sc_hd__nand2_1
*I *1035:A I *D sky130_fd_sc_hd__nand2_1
*I *1057:A I *D sky130_fd_sc_hd__nand2_1
*I *1080:A I *D sky130_fd_sc_hd__nand2_1
*I *991:A I *D sky130_fd_sc_hd__nand2_1
*I *1102:A I *D sky130_fd_sc_hd__nand2_1
*I *1124:A I *D sky130_fd_sc_hd__nand2_1
*I *1146:A I *D sky130_fd_sc_hd__nand2_1
*CAP
1 a[2] 0.000132039
2 *1013:A 0.00105773
3 *1035:A 9.31761e-05
4 *1057:A 3.05307e-05
5 *1080:A 0
6 *991:A 0.00064073
7 *1102:A 0
8 *1124:A 1.41611e-05
9 *1146:A 0.000230607
10 *5:63 0.000696876
11 *5:49 0.000754034
12 *5:43 0.00133831
13 *5:35 0.000604648
14 *5:29 0.00183353
15 *5:11 0.00202426
16 *5:5 0.00152685
17 *991:A *835:B 0
18 *991:A *1002:A 4.52233e-05
19 *991:A *11:41 3.99614e-06
20 *991:A *12:48 0
21 *991:A *149:12 0
22 *991:A *351:10 0.000103267
23 *1013:A *1024:A 6.81335e-05
24 *1013:A *1193:B 0.00018051
25 *1013:A *1195:B 1.21289e-05
26 *1013:A *1201:A 2.44318e-05
27 *1013:A *1201:B 0
28 *1013:A *1208:B 2.06791e-05
29 *1013:A *1210:A 1.91418e-05
30 *1013:A *484:8 0.000188586
31 *1013:A *492:8 0
32 *1013:A *498:10 8.3145e-05
33 *1013:A *498:16 7.24294e-05
34 *1035:A *8:21 0.000181623
35 *1035:A *13:9 1.39148e-05
36 *1035:A *267:12 0.000125731
37 *1035:A *501:10 1.34316e-05
38 *1057:A *1068:A 7.43578e-06
39 *1124:A *769:B 1.83526e-05
40 *1124:A *1135:A 1.02301e-05
41 *1146:A *769:B 5.52302e-05
42 *1146:A *801:A 2.70031e-05
43 *1146:A *1135:A 3.11088e-05
44 *1146:A *1146:B 2.3704e-05
45 *1146:A *576:10 0.000102545
46 *5:5 p[5] 0.00037513
47 *5:5 *11:9 0.000395817
48 *5:11 p[5] 7.77129e-05
49 *5:11 *964:A 0.000151697
50 *5:11 *8:21 0.000243937
51 *5:11 *11:9 8.2526e-05
52 *5:11 *501:10 9.37252e-05
53 *5:29 *829:A 3.55406e-05
54 *5:29 *831:A 8.00806e-05
55 *5:29 *831:B 1.52978e-05
56 *5:29 *833:B 1.32552e-05
57 *5:29 *839:A 3.98517e-05
58 *5:29 *961:A 5.33005e-05
59 *5:29 *962:B 1.02821e-05
60 *5:29 *970:A 9.41642e-05
61 *5:29 *970:B 0.000139907
62 *5:29 *971:A 3.4879e-05
63 *5:29 *971:B 2.77258e-05
64 *5:29 *1068:A 5.98293e-05
65 *5:29 *91:10 8.56812e-05
66 *5:29 *128:10 2.80449e-05
67 *5:29 *129:6 9.71197e-05
68 *5:29 *501:10 2.04825e-05
69 *5:29 *517:10 0
70 *5:35 *834:A 0
71 *5:35 *1057:B 0.000108092
72 *5:35 *1091:A 8.07313e-05
73 *5:35 *14:95 0.000123673
74 *5:35 *133:10 0
75 *5:43 *913:A 7.71321e-05
76 *5:43 *13:58 0.000436617
77 *5:43 *14:101 0
78 *5:43 *15:93 7.89309e-05
79 *5:43 *91:10 0
80 *5:63 *769:B 0.000230475
81 *5:63 *969:B 5.86459e-05
82 *5:63 *1135:A 4.63573e-05
83 *5:63 *16:53 1.26284e-05
84 *835:A *991:A 0
85 *3:50 *991:A 0
86 *3:54 *991:A 0.000224283
87 *3:67 *991:A 0.000138562
88 *4:51 *5:63 3.71796e-05
89 *4:60 *5:49 3.48733e-05
90 *4:60 *5:63 0.000264539
91 *4:64 *5:43 0.000265438
92 *4:64 *5:49 0.000453265
*RES
1 a[2] *5:5 1.10215 
2 *5:5 *5:11 10.4768 
3 *5:11 *5:29 37.8661 
4 *5:29 *5:35 5.08929 
5 *5:35 *5:43 17.1786 
6 *5:43 *5:49 5.08929 
7 *5:49 *5:63 17.2143 
8 *5:63 *1146:A 23.1214 
9 *5:63 *1124:A 9.72857 
10 *5:49 *1102:A 9.3 
11 *5:43 *991:A 30.3179 
12 *5:35 *1080:A 9.3 
13 *5:29 *1057:A 9.83571 
14 *5:11 *1035:A 16.5054 
15 *5:5 *1013:A 37.4511 
*END

*D_NET *6 0.0165984
*CONN
*P a[3] I
*I *1191:A I *D sky130_fd_sc_hd__nand2_1
*I *1168:A I *D sky130_fd_sc_hd__nand2_1
*I *1213:A I *D sky130_fd_sc_hd__nand2_1
*I *1235:A I *D sky130_fd_sc_hd__nand2_1
*I *1257:A I *D sky130_fd_sc_hd__nand2_1
*I *1279:A I *D sky130_fd_sc_hd__nand2_1
*I *1302:A I *D sky130_fd_sc_hd__nand2_1
*I *1304:A I *D sky130_fd_sc_hd__nand2_1
*CAP
1 a[3] 0.00047446
2 *1191:A 0.000118128
3 *1168:A 0
4 *1213:A 0.000596839
5 *1235:A 8.80877e-06
6 *1257:A 0.00037727
7 *1279:A 0
8 *1302:A 0
9 *1304:A 0.000141139
10 *6:57 0.000645656
11 *6:45 0.000597458
12 *6:43 0.00152885
13 *6:29 0.00168667
14 *6:23 0.00164149
15 *6:17 0.000852516
16 *6:7 0.00101967
17 *1191:A *965:B 9.70666e-06
18 *1191:A *970:B 0.000178877
19 *1191:A *1202:A 5.87643e-05
20 *1191:A *12:19 1.02301e-05
21 *1191:A *12:30 3.5407e-05
22 *1191:A *263:10 0.000148744
23 *1213:A *840:A 0.000146474
24 *1213:A *841:A 5.83233e-05
25 *1213:A *843:A 4.8936e-05
26 *1213:A *989:A 6.05161e-06
27 *1213:A *1081:B 0
28 *1213:A *1224:A 4.94268e-05
29 *1213:A *7:26 0.000276434
30 *1213:A *8:31 0.000395427
31 *1213:A *11:99 0.000211646
32 *1213:A *13:44 1.08359e-05
33 *1213:A *142:10 2.59355e-05
34 *1213:A *277:12 1.50087e-05
35 *1213:A *286:10 0
36 *1235:A *845:A 3.99614e-06
37 *1235:A *847:A 4.15499e-05
38 *1257:A *1268:A 3.63587e-05
39 *1257:A *1313:B 5.52302e-05
40 *1257:A *1315:A 1.19402e-05
41 *1257:A *7:55 2.46352e-05
42 *1257:A *7:57 0.000142856
43 *1257:A *14:69 0.000107
44 *1257:A *14:87 0
45 *1257:A *15:83 2.13546e-05
46 *1257:A *107:14 0
47 *1304:A *1146:B 0
48 *1304:A *16:23 0.000225024
49 *6:7 *8:21 0.000448184
50 *6:7 *11:9 0.000693678
51 *6:17 *965:B 6.6775e-05
52 *6:17 *970:B 6.73707e-06
53 *6:17 *11:13 0.000259109
54 *6:17 *11:15 4.25684e-05
55 *6:17 *11:41 5.33005e-05
56 *6:23 *828:A 0.000126409
57 *6:23 *829:A 0.000119252
58 *6:23 *8:31 0.000222885
59 *6:23 *11:41 4.27842e-06
60 *6:23 *11:99 0.000129185
61 *6:23 *12:32 4.67963e-05
62 *6:23 *12:89 6.05296e-05
63 *6:29 *782:A 0
64 *6:29 *847:A 3.66921e-05
65 *6:29 *1091:A 6.71359e-05
66 *6:29 *1235:B 5.33005e-05
67 *6:29 *82:12 0.000872941
68 *6:29 *536:8 4.51526e-05
69 *6:43 *779:A 0
70 *6:43 *782:A 0
71 *6:43 *783:A 1.14548e-05
72 *6:43 *847:A 1.33343e-05
73 *6:43 *1246:A 0
74 *6:43 *14:87 0.000645938
75 *6:43 *82:12 0.000117621
76 *6:43 *83:10 7.67142e-06
77 *6:45 *806:A 4.1331e-06
78 *6:45 *103:16 0
79 *6:45 *107:14 0
80 *6:57 *806:A 1.00375e-05
81 *6:57 *808:A 0.000128154
82 *6:57 *808:B 0.000103041
83 *6:57 *816:A 0
84 *6:57 *1157:A 0.000108439
85 *6:57 *1305:A 0
86 *6:57 *99:17 1.33343e-05
87 *6:57 *582:10 3.52408e-05
*RES
1 a[3] *6:7 5.52108 
2 *6:7 *6:17 13.1518 
3 *6:17 *6:23 14.5714 
4 *6:23 *6:29 18.6027 
5 *6:29 *6:43 28.6652 
6 *6:43 *6:45 1.64286 
7 *6:45 *6:57 13.6786 
8 *6:57 *1304:A 21.6929 
9 *6:57 *1302:A 9.3 
10 *6:45 *1279:A 13.8 
11 *6:43 *1257:A 21.4071 
12 *6:29 *1235:A 9.96518 
13 *6:23 *1213:A 38.5321 
14 *6:17 *1168:A 9.3 
15 *6:7 *1191:A 17.1661 
*END

*D_NET *7 0.015624
*CONN
*P a[4] I
*I *1308:A I *D sky130_fd_sc_hd__nand2_1
*I *1313:A I *D sky130_fd_sc_hd__nand2_1
*I *1315:A I *D sky130_fd_sc_hd__nand2_1
*I *1317:A I *D sky130_fd_sc_hd__nand2_1
*I *1319:A I *D sky130_fd_sc_hd__nand2_1
*I *1321:A I *D sky130_fd_sc_hd__nand2_1
*I *1310:A I *D sky130_fd_sc_hd__nand2_1
*I *1306:A I *D sky130_fd_sc_hd__nand2_1
*CAP
1 a[4] 0.000843046
2 *1308:A 4.6095e-05
3 *1313:A 0
4 *1315:A 0.000121169
5 *1317:A 0
6 *1319:A 0
7 *1321:A 0.000115243
8 *1310:A 0
9 *1306:A 0.00011163
10 *7:69 0.000497817
11 *7:65 0.000815199
12 *7:57 0.000650405
13 *7:55 0.00124492
14 *7:36 0.00209271
15 *7:26 0.00185078
16 *7:7 0.00181497
17 *1306:A *965:B 0
18 *1306:A *967:A 0
19 *1306:A *1306:B 5.54817e-06
20 *1306:A *11:89 0
21 *1308:A *840:B 0
22 *1308:A *12:89 4.49293e-05
23 *1308:A *277:12 0
24 *1315:A *1314:A 0
25 *1315:A *14:69 3.80667e-05
26 *1315:A *15:75 0
27 *1321:A *1305:A 0.00015234
28 *1321:A *8:76 6.29122e-05
29 *1321:A *10:23 8.50434e-05
30 *1321:A *17:67 3.9699e-05
31 *7:7 *8:21 8.53865e-06
32 *7:7 *12:19 0.000439647
33 *7:7 *13:9 0.000520709
34 *7:26 *843:A 3.34295e-05
35 *7:26 *843:B 0
36 *7:26 *967:A 0
37 *7:26 *973:A 0
38 *7:26 *976:B 5.59013e-05
39 *7:26 *981:A 9.65075e-05
40 *7:26 *1081:B 0
41 *7:26 *11:89 0
42 *7:26 *12:89 0.000103253
43 *7:26 *128:10 0
44 *7:26 *136:12 0
45 *7:26 *142:10 0.000150618
46 *7:26 *277:12 3.2293e-05
47 *7:36 *986:B 2.28598e-05
48 *7:36 *989:B 4.35336e-05
49 *7:36 *1308:B 1.98839e-05
50 *7:36 *1309:A 5.33005e-05
51 *7:36 *13:46 2.56694e-05
52 *7:36 *13:58 1.87955e-05
53 *7:36 *91:10 6.09476e-05
54 *7:36 *152:8 0.00053128
55 *7:36 *286:10 7.52646e-06
56 *7:55 *854:A 5.71472e-05
57 *7:55 *854:B 5.33005e-05
58 *7:55 *1310:B 0.000176669
59 *7:55 *1311:A 0.000103908
60 *7:55 *1313:B 2.80368e-05
61 *7:55 *13:58 2.24079e-05
62 *7:55 *15:83 0.00121096
63 *7:55 *148:16 5.61906e-06
64 *7:57 *14:69 6.87574e-05
65 *7:65 *821:A 5.79582e-06
66 *7:65 *822:A 7.24209e-05
67 *7:65 *14:69 7.77652e-05
68 *7:65 *117:10 0
69 *7:69 *818:B 5.48581e-05
70 *7:69 *1305:A 1.08359e-05
71 *7:69 *8:76 0.000362397
72 *7:69 *16:23 0
73 *7:69 *117:10 0
74 *1213:A *7:26 0.000276434
75 *1257:A *1315:A 1.19402e-05
76 *1257:A *7:55 2.46352e-05
77 *1257:A *7:57 0.000142856
*RES
1 a[4] *7:7 6.02555 
2 *7:7 *1306:A 15.5946 
3 *7:7 *7:26 25.3661 
4 *7:26 *7:36 25.9464 
5 *7:36 *1310:A 9.3 
6 *7:36 *7:55 19.3214 
7 *7:55 *7:57 2.58929 
8 *7:57 *7:65 12.5357 
9 *7:65 *7:69 7.64286 
10 *7:69 *1321:A 17.1929 
11 *7:69 *1319:A 13.8 
12 *7:65 *1317:A 13.8 
13 *7:57 *1315:A 20.55 
14 *7:55 *1313:A 9.3 
15 *7:26 *1308:A 14.5321 
*END

*D_NET *8 0.0191761
*CONN
*P a[5] I
*I *1324:A I *D sky130_fd_sc_hd__nand2_1
*I *1326:A I *D sky130_fd_sc_hd__nand2_1
*I *1328:A I *D sky130_fd_sc_hd__nand2_1
*I *1330:A I *D sky130_fd_sc_hd__nand2_1
*I *1332:A I *D sky130_fd_sc_hd__nand2_1
*I *1339:A I *D sky130_fd_sc_hd__nand2_1
*I *1337:A I *D sky130_fd_sc_hd__nand2_1
*I *1335:A I *D sky130_fd_sc_hd__nand2_1
*CAP
1 a[5] 0.00109594
2 *1324:A 1.56769e-05
3 *1326:A 0
4 *1328:A 1.91209e-05
5 *1330:A 0
6 *1332:A 0
7 *1339:A 0.000325703
8 *1337:A 7.41527e-05
9 *1335:A 3.57612e-05
10 *8:76 0.000872407
11 *8:61 0.000918198
12 *8:55 0.0006184
13 *8:45 0.00150588
14 *8:35 0.00145555
15 *8:31 0.00053813
16 *8:21 0.00151068
17 *1324:A *1324:B 0
18 *1324:A *616:8 9.7049e-06
19 *1328:A *884:A 0
20 *1335:A *16:19 9.56933e-05
21 *1335:A *122:14 0.000100163
22 *1339:A *754:B 6.27925e-05
23 *1339:A *772:A 5.50052e-05
24 *1339:A *1340:A 6.38461e-05
25 *1339:A *9:38 0.00070182
26 *1339:A *10:23 0.00019408
27 *1339:A *16:29 5.49995e-05
28 *1339:A *46:10 1.03764e-05
29 *8:21 *1046:A 0.000178542
30 *8:21 *1324:B 0
31 *8:21 *1325:A 5.66304e-05
32 *8:21 *12:19 0.000482416
33 *8:21 *136:12 0.000190209
34 *8:21 *616:8 0.000128633
35 *8:31 *989:A 0.000150625
36 *8:31 *1324:B 5.33005e-05
37 *8:31 *1325:A 3.18676e-05
38 *8:31 *11:89 0.000139907
39 *8:31 *11:99 9.04337e-05
40 *8:31 *12:89 0.000823403
41 *8:31 *12:110 0.00054478
42 *8:31 *13:44 0.000128886
43 *8:31 *136:12 1.02936e-05
44 *8:35 *12:110 6.67928e-05
45 *8:35 *12:120 0.000626629
46 *8:35 *13:44 0.000407837
47 *8:35 *181:12 2.44318e-05
48 *8:45 *798:A 1.14548e-05
49 *8:45 *809:B 3.18676e-05
50 *8:45 *884:A 0.000315165
51 *8:45 *1316:A 1.37644e-05
52 *8:45 *1331:A 0.000113
53 *8:45 *13:44 9.90431e-05
54 *8:45 *13:108 0.000200363
55 *8:45 *14:69 3.47641e-06
56 *8:45 *38:8 1.91333e-05
57 *8:45 *98:14 4.90046e-06
58 *8:45 *108:12 1.32552e-05
59 *8:45 *121:12 0
60 *8:45 *181:12 9.40071e-05
61 *8:45 *608:6 4.40835e-05
62 *8:55 *906:B 7.69776e-06
63 *8:55 *1332:B 3.12496e-05
64 *8:55 *1333:A 5.49544e-05
65 *8:55 *14:53 0.000403838
66 *8:55 *15:45 7.15905e-06
67 *8:55 *15:60 0.000291017
68 *8:55 *40:16 4.6025e-06
69 *8:61 *821:B 0.000117144
70 *8:61 *823:B 0.000170124
71 *8:61 *9:60 0
72 *8:61 *16:15 0
73 *8:61 *121:12 0
74 *8:76 *823:A 0
75 *8:76 *823:B 0.000186765
76 *8:76 *10:23 0.000245184
77 *8:76 *16:19 0.000272174
78 *8:76 *122:14 2.50627e-05
79 *1035:A *8:21 0.000181623
80 *1213:A *8:31 0.000395427
81 *1321:A *8:76 6.29122e-05
82 *5:11 *8:21 0.000243937
83 *6:7 *8:21 0.000448184
84 *6:23 *8:31 0.000222885
85 *7:7 *8:21 8.53865e-06
86 *7:69 *8:76 0.000362397
*RES
1 a[5] *8:21 26.9152 
2 *8:21 *8:31 26.6429 
3 *8:31 *8:35 7.53571 
4 *8:35 *8:45 31.9286 
5 *8:45 *8:55 11.1429 
6 *8:55 *8:61 12.5536 
7 *8:61 *1335:A 11.0679 
8 *8:61 *8:76 17.0536 
9 *8:76 *1337:A 14.7464 
10 *8:76 *1339:A 23.4786 
11 *8:55 *1332:A 13.8 
12 *8:45 *1330:A 9.3 
13 *8:35 *1328:A 9.72857 
14 *8:31 *1326:A 9.3 
15 *8:21 *1324:A 9.72857 
*END

*D_NET *9 0.0196
*CONN
*P a[6] I
*I *752:A I *D sky130_fd_sc_hd__nand2_1
*I *1341:A I *D sky130_fd_sc_hd__nand2_1
*I *1343:A I *D sky130_fd_sc_hd__nand2_1
*I *748:A I *D sky130_fd_sc_hd__nand2_1
*I *750:A I *D sky130_fd_sc_hd__nand2_1
*I *756:A I *D sky130_fd_sc_hd__nand2_1
*I *759:A I *D sky130_fd_sc_hd__nand2_1
*I *754:A I *D sky130_fd_sc_hd__nand2_1
*CAP
1 a[6] 0.00079427
2 *752:A 1.99857e-05
3 *1341:A 0.000373596
4 *1343:A 2.51844e-05
5 *748:A 7.78167e-05
6 *750:A 0
7 *756:A 0
8 *759:A 9.49867e-05
9 *754:A 4.95417e-05
10 *9:92 0.00149226
11 *9:77 0.00273441
12 *9:60 0.00207023
13 *9:38 0.000884553
14 *9:21 0.00141613
15 *9:17 0.00159026
16 *9:13 0.00132038
17 *748:A *765:B 0.00011088
18 *748:A *10:109 0.00011088
19 *752:A *753:A 1.04232e-05
20 *754:A *950:B 5.54817e-06
21 *759:A *17:26 0.000347409
22 *759:A *17:48 5.51649e-05
23 *759:A *18:32 0.000394014
24 *1341:A *91:10 1.01912e-05
25 *9:13 *753:A 2.59355e-05
26 *9:13 *767:B 0.000689268
27 *9:13 *768:A 0.000128154
28 *9:13 *770:B 1.18064e-05
29 *9:13 *10:5 0.000400212
30 *9:13 *10:9 0.000502613
31 *9:13 *10:13 1.76039e-05
32 *9:13 *10:92 8.21399e-05
33 *9:13 *554:8 0.000170557
34 *9:17 *753:A 2.70241e-05
35 *9:17 *933:B 9.60875e-05
36 *9:17 *56:10 1.06618e-05
37 *9:21 *755:A 0.00030845
38 *9:21 *929:B 0
39 *9:21 *930:B 0.000173804
40 *9:21 *933:A 5.33882e-05
41 *9:21 *934:A 0
42 *9:21 *950:B 7.92596e-06
43 *9:21 *1040:A 0
44 *9:21 *247:26 7.70015e-05
45 *9:38 *754:B 0.000145366
46 *9:38 *950:B 0.000141941
47 *9:38 *954:A 7.57312e-05
48 *9:38 *954:B 9.75171e-05
49 *9:38 *1339:B 6.05161e-06
50 *9:38 *1340:A 1.35465e-05
51 *9:38 *17:48 0.000208802
52 *9:38 *18:32 0.000172877
53 *9:38 *18:45 4.66056e-05
54 *9:38 *247:26 0.000100165
55 *9:60 *933:A 3.17163e-05
56 *9:60 *933:B 1.24368e-05
57 *9:60 *16:15 0.000112363
58 *9:60 *42:8 5.30823e-05
59 *9:60 *122:14 6.93142e-05
60 *9:60 *231:12 0
61 *9:77 *810:A 0
62 *9:77 *906:B 0.000376996
63 *9:77 *1316:A 0
64 *9:77 *15:75 6.6289e-05
65 *9:77 *16:11 0
66 *9:77 *107:14 0.000166686
67 *9:92 *763:B 0.00012504
68 *9:92 *13:108 0.000104945
69 *1339:A *9:38 0.00070182
70 *8:61 *9:60 0
*RES
1 a[6] *9:13 26.0673 
2 *9:13 *9:17 7.94643 
3 *9:17 *9:21 15.8571 
4 *9:21 *754:A 14.5321 
5 *9:21 *9:38 26.7679 
6 *9:38 *759:A 18.7821 
7 *9:38 *756:A 13.8 
8 *9:17 *9:60 13.9821 
9 *9:60 *750:A 13.8 
10 *9:60 *9:77 14.5233 
11 *9:77 *748:A 15.9429 
12 *9:77 *9:92 5.76313 
13 *9:92 *1343:A 17.4868 
14 *9:92 *1341:A 18.1824 
15 *9:13 *752:A 9.72857 
*END

*D_NET *10 0.0180156
*CONN
*P a[7] I
*I *761:A I *D sky130_fd_sc_hd__nand2_1
*I *763:A I *D sky130_fd_sc_hd__nand2_1
*I *765:A I *D sky130_fd_sc_hd__nand2_1
*I *767:A I *D sky130_fd_sc_hd__nand2_1
*I *770:A I *D sky130_fd_sc_hd__nand2_1
*I *772:A I *D sky130_fd_sc_hd__nand2_1
*I *774:A I *D sky130_fd_sc_hd__nand2_1
*I *776:A I *D sky130_fd_sc_hd__nand2_1
*CAP
1 a[7] 0.000236431
2 *761:A 0.00013898
3 *763:A 0
4 *765:A 2.94747e-05
5 *767:A 3.72704e-05
6 *770:A 0
7 *772:A 1.17492e-05
8 *774:A 0.000471031
9 *776:A 0.000195743
10 *10:109 0.000832236
11 *10:92 0.00233249
12 *10:25 0.00106113
13 *10:23 0.00216409
14 *10:13 0.00210124
15 *10:9 0.000946744
16 *10:5 0.00241241
17 *761:A *763:B 0.00012432
18 *765:A *811:A 0
19 *765:A *814:A 0
20 *765:A *121:12 5.7119e-05
21 *772:A *754:B 5.50052e-05
22 *774:A *760:A 0.000154762
23 *774:A *1160:A 1.3142e-05
24 *774:A *1164:A 2.89114e-05
25 *774:A *1164:B 5.33433e-05
26 *774:A *17:26 0.000318316
27 *774:A *18:28 0.000357048
28 *774:A *460:10 0.000269428
29 *776:A p[15] 5.65955e-05
30 *776:A *1164:B 3.25247e-05
31 *776:A *346:10 0
32 *10:5 *14:5 0
33 *10:9 *768:A 0.000129868
34 *10:13 *770:B 0
35 *10:13 *554:8 0
36 *10:23 *755:A 5.29788e-05
37 *10:23 *949:A 1.83136e-05
38 *10:23 *1038:B 0.00014285
39 *10:23 *1040:B 1.99271e-05
40 *10:23 *1322:A 0.000125679
41 *10:23 *17:67 2.02692e-05
42 *10:23 *58:10 7.91695e-06
43 *10:23 *246:10 1.57848e-05
44 *10:23 *332:20 0.000177821
45 *10:23 *554:8 5.26184e-05
46 *10:25 *773:A 6.66813e-05
47 *10:25 *1045:A 0
48 *10:25 *1048:A 0.000147718
49 *10:25 *1164:B 2.19778e-05
50 *10:25 *346:10 0
51 *10:92 *814:A 0
52 *10:92 *1027:B 1.00073e-05
53 *10:92 *1029:A 2.65105e-05
54 *10:92 *1029:B 0.000120519
55 *10:92 *14:5 0
56 *10:92 *121:12 9.13301e-05
57 *10:92 *326:12 5.19842e-06
58 *10:92 *554:8 7.69776e-06
59 *10:109 *748:B 1.00733e-05
60 *10:109 *765:B 0.000137929
61 *10:109 *766:A 2.27416e-05
62 *10:109 *812:A 0.000188586
63 *10:109 *812:B 1.02936e-05
64 *10:109 *814:A 5.52302e-05
65 *10:109 *108:21 0.000144773
66 *748:A *10:109 0.00011088
67 *1321:A *10:23 8.50434e-05
68 *1339:A *772:A 5.50052e-05
69 *1339:A *10:23 0.00019408
70 *4:19 *774:A 0
71 *8:76 *10:23 0.000245184
72 *9:13 *10:5 0.000400212
73 *9:13 *10:9 0.000502613
74 *9:13 *10:13 1.76039e-05
75 *9:13 *10:92 8.21399e-05
*RES
1 a[7] *10:5 1.09353 
2 *10:5 *10:9 17.0439 
3 *10:9 *10:13 5.92857 
4 *10:13 *10:23 33.8036 
5 *10:23 *10:25 7.71429 
6 *10:25 *776:A 17.1214 
7 *10:25 *774:A 34.2821 
8 *10:23 *772:A 14.3357 
9 *10:13 *770:A 13.8 
10 *10:9 *767:A 14.3357 
11 *10:5 *10:92 30.8428 
12 *10:92 *765:A 14.5321 
13 *10:92 *10:109 17.8036 
14 *10:109 *763:A 9.3 
15 *10:109 *761:A 12.4607 
*END

*D_NET *11 0.0177368
*CONN
*P b[0] I
*I *1306:B I *D sky130_fd_sc_hd__nand2_1
*I *1324:B I *D sky130_fd_sc_hd__nand2_1
*I *761:B I *D sky130_fd_sc_hd__nand2_1
*I *1341:B I *D sky130_fd_sc_hd__nand2_1
*I *1168:B I *D sky130_fd_sc_hd__nand2_1
*I *991:B I *D sky130_fd_sc_hd__nand2_1
*I *745:B I *D sky130_fd_sc_hd__nand2_1
*I *813:B I *D sky130_fd_sc_hd__nand2_1
*CAP
1 b[0] 0.000892675
2 *1306:B 0.000100478
3 *1324:B 6.0928e-05
4 *761:B 0.000586677
5 *1341:B 1.99857e-05
6 *1168:B 0
7 *991:B 0
8 *745:B 0.00013529
9 *813:B 0.000220466
10 *11:99 0.00173091
11 *11:89 0.00152749
12 *11:49 0.000907556
13 *11:41 0.00161806
14 *11:15 0.00109209
15 *11:13 0.000471016
16 *11:9 0.00109603
17 *745:B *968:A 4.35131e-05
18 *745:B *1167:A 1.76039e-05
19 *745:B *127:10 1.08359e-05
20 *745:B *281:18 8.40798e-05
21 *745:B *465:8 5.71472e-05
22 *761:B *762:A 9.24825e-05
23 *761:B *763:B 0.000304234
24 *761:B *1329:A 1.37743e-05
25 *761:B *1342:A 1.74352e-05
26 *761:B *1343:B 1.99697e-05
27 *761:B *1344:A 6.52162e-05
28 *761:B *12:120 3.40673e-05
29 *761:B *36:12 3.52408e-05
30 *761:B *50:12 3.52408e-05
31 *813:B *824:A 6.32229e-05
32 *813:B *968:A 8.47668e-06
33 *1324:B *838:A 2.94744e-05
34 *1324:B *136:12 4.58194e-05
35 *1341:B *1342:A 1.04232e-05
36 *11:9 p[5] 7.6186e-06
37 *11:41 *857:B 3.23206e-05
38 *11:41 *1002:A 0
39 *11:41 *1054:B 1.98839e-05
40 *11:41 *1065:B 2.01767e-05
41 *11:41 *1066:A 0.000220219
42 *11:41 *1073:A 0.000129868
43 *11:41 *1179:A 7.79481e-05
44 *11:41 *12:32 0.000150974
45 *11:41 *12:48 0.00131951
46 *11:41 *126:8 7.46072e-05
47 *11:41 *352:10 0.000249439
48 *11:41 *363:14 0.000124749
49 *11:41 *457:16 2.78509e-05
50 *11:49 *824:A 3.29506e-06
51 *11:49 *857:B 5.66157e-05
52 *11:49 *1175:A 0.000203078
53 *11:49 *351:10 7.17932e-05
54 *11:49 *457:16 3.69697e-05
55 *11:89 *12:32 0.000198345
56 *11:89 *12:89 0.000286815
57 *11:89 *128:10 7.6644e-05
58 *11:99 *837:A 0
59 *11:99 *838:A 1.24368e-05
60 *11:99 *859:A 6.87574e-05
61 *11:99 *863:B 1.76039e-05
62 *11:99 *985:A 0
63 *11:99 *986:A 0.00017309
64 *11:99 *989:A 7.83366e-05
65 *11:99 *1327:A 2.80853e-05
66 *11:99 *1342:A 0.00014206
67 *11:99 *48:6 1.96517e-05
68 *11:99 *136:12 1.90111e-05
69 *11:99 *137:12 0
70 *11:99 *287:20 0
71 *11:99 *618:12 4.33915e-05
72 *991:A *11:41 3.99614e-06
73 *1213:A *11:99 0.000211646
74 *1306:A *1306:B 5.54817e-06
75 *1306:A *11:89 0
76 *1324:A *1324:B 0
77 *3:5 *745:B 4.46186e-06
78 *3:16 *745:B 0.00012799
79 *4:15 *745:B 0
80 *5:5 *11:9 0.000395817
81 *5:11 *11:9 8.2526e-05
82 *6:7 *11:9 0.000693678
83 *6:17 *11:13 0.000259109
84 *6:17 *11:15 4.25684e-05
85 *6:17 *11:41 5.33005e-05
86 *6:23 *11:41 4.27842e-06
87 *6:23 *11:99 0.000129185
88 *7:26 *11:89 0
89 *8:21 *1324:B 0
90 *8:31 *1324:B 5.33005e-05
91 *8:31 *11:89 0.000139907
92 *8:31 *11:99 9.04337e-05
*RES
1 b[0] *11:9 7.35718 
2 *11:9 *11:13 7.08929 
3 *11:13 *11:15 0.535714 
4 *11:15 *11:41 35.6786 
5 *11:41 *11:49 16.8214 
6 *11:49 *813:B 12.5143 
7 *11:49 *745:B 21.9964 
8 *11:41 *991:B 9.3 
9 *11:15 *1168:B 9.3 
10 *11:13 *11:89 17.2679 
11 *11:89 *11:99 31.8393 
12 *11:99 *1341:B 9.72857 
13 *11:99 *761:B 22.2464 
14 *11:89 *1324:B 10.9786 
15 *11:9 *1306:B 16.05 
*END

*D_NET *12 0.0186053
*CONN
*P b[1] I
*I *1326:B I *D sky130_fd_sc_hd__nand2_1
*I *1343:B I *D sky130_fd_sc_hd__nand2_1
*I *763:B I *D sky130_fd_sc_hd__nand2_1
*I *1308:B I *D sky130_fd_sc_hd__nand2_1
*I *1013:B I *D sky130_fd_sc_hd__nand2_1
*I *835:B I *D sky130_fd_sc_hd__nand2_1
*I *857:B I *D sky130_fd_sc_hd__nand2_1
*I *1191:B I *D sky130_fd_sc_hd__nand2_1
*CAP
1 b[1] 0.000642046
2 *1326:B 0
3 *1343:B 4.04571e-05
4 *763:B 0.00058072
5 *1308:B 4.55247e-05
6 *1013:B 1.40355e-05
7 *835:B 0.000157018
8 *857:B 0.000429041
9 *1191:B 0
10 *12:120 0.000961757
11 *12:110 0.000716663
12 *12:89 0.000904836
13 *12:48 0.0010962
14 *12:32 0.00102527
15 *12:30 0.00135858
16 *12:19 0.00101631
17 *763:B *748:B 0
18 *763:B *762:A 5.19842e-06
19 *835:B *1053:A 0.000100831
20 *835:B *1054:B 3.92854e-05
21 *835:B *149:12 0
22 *835:B *348:14 0
23 *835:B *351:10 4.98055e-06
24 *857:B *1002:A 0.000129088
25 *857:B *1053:A 3.17148e-05
26 *857:B *1054:B 7.48301e-06
27 *857:B *351:10 7.79781e-06
28 *857:B *457:16 0.000204607
29 *1013:B *1065:A 5.52302e-05
30 *1013:B *1071:B 2.89114e-05
31 *1308:B *989:B 0
32 *1308:B *1309:A 1.82029e-05
33 *1308:B *286:10 1.58163e-05
34 *1343:B *1344:A 1.50716e-05
35 *12:19 *964:B 5.23735e-05
36 *12:19 *1202:A 0.000110215
37 *12:19 *262:14 9.58689e-05
38 *12:19 *586:6 3.8474e-05
39 *12:30 *1307:A 0.000140467
40 *12:30 *600:8 3.33238e-05
41 *12:32 *829:A 3.31535e-05
42 *12:32 *1067:B 2.80728e-05
43 *12:32 *1071:B 0.000125731
44 *12:32 *1073:A 6.74911e-05
45 *12:32 *1179:A 0.00015078
46 *12:32 *363:14 6.23278e-05
47 *12:32 *584:10 9.93809e-05
48 *12:48 *1053:B 0.000276211
49 *12:48 *1054:B 5.33005e-05
50 *12:48 *1055:A 0.000191919
51 *12:48 *1065:A 0.000124758
52 *12:48 *1065:B 9.90431e-05
53 *12:48 *584:10 6.8646e-06
54 *12:89 *829:A 0.000189455
55 *12:89 *840:B 0
56 *12:89 *843:B 0
57 *12:89 *974:A 0.000111796
58 *12:89 *981:A 0
59 *12:89 *128:10 1.37292e-05
60 *12:89 *142:10 0
61 *12:89 *272:12 0
62 *12:89 *277:12 0
63 *12:110 *840:B 0
64 *12:110 *13:44 8.25843e-06
65 *12:110 *139:10 0
66 *12:120 *1329:A 9.19749e-05
67 *12:120 *1344:A 4.60833e-05
68 *12:120 *13:89 4.1331e-06
69 *12:120 *13:108 1.59689e-05
70 *12:120 *91:10 6.19181e-05
71 *12:120 *181:12 0.000578042
72 *761:A *763:B 0.00012432
73 *761:B *763:B 0.000304234
74 *761:B *1343:B 1.99697e-05
75 *761:B *12:120 3.40673e-05
76 *991:A *835:B 0
77 *991:A *12:48 0
78 *1191:A *12:19 1.02301e-05
79 *1191:A *12:30 3.5407e-05
80 *1308:A *12:89 4.49293e-05
81 *3:26 *857:B 8.46247e-05
82 *6:23 *12:32 4.67963e-05
83 *6:23 *12:89 6.05296e-05
84 *7:7 *12:19 0.000439647
85 *7:26 *12:89 0.000103253
86 *7:36 *1308:B 1.98839e-05
87 *8:21 *12:19 0.000482416
88 *8:31 *12:89 0.000823403
89 *8:31 *12:110 0.00054478
90 *8:35 *12:110 6.67928e-05
91 *8:35 *12:120 0.000626629
92 *9:92 *763:B 0.00012504
93 *11:41 *857:B 3.23206e-05
94 *11:41 *12:32 0.000150974
95 *11:41 *12:48 0.00131951
96 *11:49 *857:B 5.66157e-05
97 *11:89 *12:32 0.000198345
98 *11:89 *12:89 0.000286815
*RES
1 b[1] *12:19 17.1289 
2 *12:19 *1191:B 9.3 
3 *12:19 *12:30 11.2143 
4 *12:30 *12:32 12.2679 
5 *12:32 *12:48 25.2321 
6 *12:48 *857:B 22.3893 
7 *12:48 *835:B 16.6929 
8 *12:32 *1013:B 14.3357 
9 *12:30 *12:89 15.3571 
10 *12:89 *1308:B 14.7643 
11 *12:89 *12:110 12.5268 
12 *12:110 *12:120 19.1339 
13 *12:120 *763:B 18.0857 
14 *12:120 *1343:B 10.5232 
15 *12:110 *1326:B 9.3 
*END

*D_NET *13 0.0181805
*CONN
*P b[2] I
*I *1213:B I *D sky130_fd_sc_hd__nand2_1
*I *748:B I *D sky130_fd_sc_hd__nand2_1
*I *765:B I *D sky130_fd_sc_hd__nand2_1
*I *1328:B I *D sky130_fd_sc_hd__nand2_1
*I *1310:B I *D sky130_fd_sc_hd__nand2_1
*I *858:B I *D sky130_fd_sc_hd__nand2_1
*I *1079:B I *D sky130_fd_sc_hd__nand2_1
*I *1035:B I *D sky130_fd_sc_hd__nand2_1
*CAP
1 b[2] 0.000437913
2 *1213:B 0
3 *748:B 3.76483e-05
4 *765:B 0.000808763
5 *1328:B 0
6 *1310:B 0.00017764
7 *858:B 0.000225306
8 *1079:B 0
9 *1035:B 0
10 *13:108 0.00176195
11 *13:89 0.000988741
12 *13:58 0.00111221
13 *13:46 0.00124962
14 *13:44 0.00146018
15 *13:34 0.00218834
16 *13:9 0.00142436
17 *765:B *766:A 1.17091e-05
18 *765:B *811:B 0
19 *765:B *812:A 3.48705e-05
20 *765:B *812:B 0.000223564
21 *765:B *814:A 2.27416e-05
22 *765:B *108:21 1.21289e-05
23 *1310:B *852:A 2.72319e-05
24 *1310:B *1311:A 2.54632e-05
25 *13:9 *267:12 0.000125731
26 *13:9 *501:10 0.000159929
27 *13:34 p[6] 9.25014e-06
28 *13:34 *840:A 5.01524e-05
29 *13:34 *1081:A 3.97273e-05
30 *13:34 *1085:A 3.92854e-05
31 *13:34 *1216:B 0
32 *13:34 *1217:B 8.07951e-05
33 *13:34 *1219:B 0
34 *13:34 *1220:A 3.80904e-05
35 *13:34 *1220:B 4.87854e-05
36 *13:34 *1224:A 4.30382e-05
37 *13:34 *267:12 0.000227021
38 *13:34 *286:10 0.000176226
39 *13:34 *376:12 0.00015304
40 *13:34 *382:14 0
41 *13:34 *501:10 0.000760221
42 *13:44 *840:A 8.25512e-05
43 *13:44 *277:12 8.08022e-05
44 *13:46 *884:B 0
45 *13:46 *91:10 0
46 *13:46 *153:10 0
47 *13:58 *758:A 1.78447e-05
48 *13:58 *845:B 6.8646e-06
49 *13:58 *850:B 4.46186e-06
50 *13:58 *854:A 0.000128695
51 *13:58 *854:B 8.25512e-05
52 *13:58 *1091:A 0
53 *13:58 *14:87 5.41794e-05
54 *13:58 *14:95 0.00026537
55 *13:58 *15:83 0.000136584
56 *13:58 *15:93 0.00013652
57 *13:58 *91:10 0
58 *13:58 *144:8 6.19181e-05
59 *13:58 *148:16 5.52302e-05
60 *13:58 *153:10 0
61 *13:89 *884:B 0
62 *13:89 *91:10 0
63 *13:108 *884:A 5.91367e-05
64 *13:108 *884:B 5.33433e-05
65 *13:108 *1329:A 4.46186e-06
66 *13:108 *98:14 2.34204e-05
67 *13:108 *181:12 0.000230475
68 *748:A *765:B 0.00011088
69 *763:B *748:B 0
70 *769:A *13:58 0
71 *1035:A *13:9 1.39148e-05
72 *1079:A *858:B 6.04228e-05
73 *1213:A *13:44 1.08359e-05
74 *5:43 *13:58 0.000436617
75 *7:7 *13:9 0.000520709
76 *7:36 *13:46 2.56694e-05
77 *7:36 *13:58 1.87955e-05
78 *7:55 *1310:B 0.000176669
79 *7:55 *13:58 2.24079e-05
80 *8:31 *13:44 0.000128886
81 *8:35 *13:44 0.000407837
82 *8:45 *13:44 9.90431e-05
83 *8:45 *13:108 0.000200363
84 *9:92 *13:108 0.000104945
85 *10:109 *748:B 1.00733e-05
86 *10:109 *765:B 0.000137929
87 *12:110 *13:44 8.25843e-06
88 *12:120 *13:89 4.1331e-06
89 *12:120 *13:108 1.59689e-05
*RES
1 b[2] *13:9 6.9707 
2 *13:9 *1035:B 13.8 
3 *13:9 *13:34 34.2857 
4 *13:34 *13:44 29.8571 
5 *13:44 *13:46 3.46429 
6 *13:46 *13:58 33.4286 
7 *13:58 *1079:B 9.3 
8 *13:58 *858:B 13.5679 
9 *13:46 *1310:B 16.8357 
10 *13:44 *13:89 1.03571 
11 *13:89 *1328:B 13.8 
12 *13:89 *13:108 26.4821 
13 *13:108 *765:B 20.425 
14 *13:108 *748:B 10.0321 
15 *13:34 *1213:B 9.3 
*END

*D_NET *14 0.0150242
*CONN
*P b[3] I
*I *1330:B I *D sky130_fd_sc_hd__nand2_1
*I *1313:B I *D sky130_fd_sc_hd__nand2_1
*I *1235:B I *D sky130_fd_sc_hd__nand2_1
*I *1057:B I *D sky130_fd_sc_hd__nand2_1
*I *880:B I *D sky130_fd_sc_hd__nand2_1
*I *1301:B I *D sky130_fd_sc_hd__nand2_1
*I *750:B I *D sky130_fd_sc_hd__nand2_1
*I *767:B I *D sky130_fd_sc_hd__nand2_1
*CAP
1 b[3] 0.000296137
2 *1330:B 0
3 *1313:B 1.42648e-05
4 *1235:B 1.69531e-05
5 *1057:B 0.000111663
6 *880:B 5.3598e-05
7 *1301:B 9.85573e-06
8 *750:B 0
9 *767:B 0.000227265
10 *14:101 0.000418495
11 *14:95 0.000760277
12 *14:87 0.00134796
13 *14:69 0.00153233
14 *14:53 0.00131769
15 *14:30 0.00140728
16 *14:5 0.00109362
17 *767:B *770:B 1.02504e-05
18 *767:B *15:9 0.000585151
19 *767:B *554:8 4.45524e-05
20 *880:B *1312:A 2.33087e-05
21 *880:B *91:10 0.000141941
22 *1057:B *834:A 0
23 *1235:B *847:A 5.33005e-05
24 *1301:B *91:10 2.24718e-05
25 *14:5 *15:5 0.000481355
26 *14:30 *1139:B 2.43292e-05
27 *14:30 *1140:B 3.15196e-05
28 *14:30 *1145:B 0
29 *14:30 *15:5 2.24813e-05
30 *14:30 *15:45 0.000513466
31 *14:30 *241:10 0.000110933
32 *14:53 *751:A 1.55133e-05
33 *14:53 *908:B 0.000211958
34 *14:53 *909:B 5.65955e-05
35 *14:53 *1333:A 2.83014e-05
36 *14:53 *15:45 1.82106e-05
37 *14:53 *15:60 5.59709e-05
38 *14:53 *15:75 3.47709e-05
39 *14:53 *40:16 2.9725e-05
40 *14:69 *1314:A 9.25014e-06
41 *14:69 *15:75 9.87983e-06
42 *14:69 *121:12 0
43 *14:87 *781:B 1.55885e-05
44 *14:87 *782:A 3.48705e-05
45 *14:87 *782:B 0.000227539
46 *14:87 *847:A 9.41642e-05
47 *14:87 *15:75 4.46186e-06
48 *14:87 *15:83 4.49293e-05
49 *14:87 *82:12 9.22103e-06
50 *14:87 *92:18 3.0285e-05
51 *14:87 *106:10 0
52 *14:87 *107:14 8.45293e-05
53 *14:95 *1080:B 1.24368e-05
54 *14:95 *1091:A 8.25843e-06
55 *14:95 *15:83 0.000218726
56 *14:95 *15:93 5.83233e-05
57 *14:101 *913:A 5.5782e-05
58 *14:101 *15:93 0
59 *14:101 *91:10 0.000164203
60 *1257:A *1313:B 5.52302e-05
61 *1257:A *14:69 0.000107
62 *1257:A *14:87 0
63 *1301:A *880:B 3.9544e-05
64 *1301:A *1301:B 5.66971e-05
65 *1315:A *14:69 3.80667e-05
66 *5:35 *1057:B 0.000108092
67 *5:35 *14:95 0.000123673
68 *5:43 *14:101 0
69 *6:29 *1235:B 5.33005e-05
70 *6:43 *14:87 0.000645938
71 *7:55 *1313:B 2.80368e-05
72 *7:57 *14:69 6.87574e-05
73 *7:65 *14:69 7.77652e-05
74 *8:45 *14:69 3.47641e-06
75 *8:55 *14:53 0.000403838
76 *9:13 *767:B 0.000689268
77 *10:5 *14:5 0
78 *10:92 *14:5 0
79 *13:58 *14:87 5.41794e-05
80 *13:58 *14:95 0.00026537
*RES
1 b[3] *14:5 1.30973 
2 *14:5 *767:B 25.9868 
3 *14:5 *14:30 15.8479 
4 *14:30 *750:B 9.3 
5 *14:30 *14:53 14.2321 
6 *14:53 *14:69 20.3571 
7 *14:69 *14:87 35.8036 
8 *14:87 *14:95 11.3929 
9 *14:95 *14:101 15.8036 
10 *14:101 *1301:B 9.83571 
11 *14:101 *880:B 11.5143 
12 *14:95 *1057:B 11.4964 
13 *14:87 *1235:B 14.3357 
14 *14:69 *1313:B 14.3357 
15 *14:53 *1330:B 9.3 
*END

*D_NET *15 0.0142814
*CONN
*P b[4] I
*I *1257:B I *D sky130_fd_sc_hd__nand2_1
*I *1080:B I *D sky130_fd_sc_hd__nand2_1
*I *1323:B I *D sky130_fd_sc_hd__nand2_1
*I *902:B I *D sky130_fd_sc_hd__nand2_1
*I *1315:B I *D sky130_fd_sc_hd__nand2_1
*I *1332:B I *D sky130_fd_sc_hd__nand2_1
*I *752:B I *D sky130_fd_sc_hd__nand2_1
*I *770:B I *D sky130_fd_sc_hd__nand2_1
*CAP
1 b[4] 0.000321589
2 *1257:B 0
3 *1080:B 3.8202e-05
4 *1323:B 0.000117021
5 *902:B 0
6 *1315:B 0
7 *1332:B 3.01047e-05
8 *752:B 0
9 *770:B 0.000310495
10 *15:93 0.000458005
11 *15:83 0.00102106
12 *15:75 0.000976733
13 *15:60 0.000609444
14 *15:45 0.0014231
15 *15:9 0.000462043
16 *15:5 0.00159155
17 *770:B *771:A 7.68042e-05
18 *770:B *1032:B 0
19 *770:B *554:8 0.000346639
20 *1332:B *1333:A 2.56475e-06
21 *15:5 *16:11 0
22 *15:9 *554:8 0.000595401
23 *15:45 *751:A 0.000106744
24 *15:45 *908:B 4.48671e-05
25 *15:45 *1333:A 4.58874e-05
26 *15:45 *16:11 0
27 *15:45 *40:16 1.05613e-05
28 *15:45 *54:6 4.26986e-05
29 *15:45 *231:12 0
30 *15:45 *241:10 9.05914e-05
31 *15:75 *796:A 9.60875e-05
32 *15:75 *1314:A 3.89153e-05
33 *15:75 *1316:A 0.000232399
34 *15:75 *93:8 5.33005e-05
35 *15:75 *107:14 0.000220448
36 *15:75 *606:6 3.66478e-05
37 *15:83 *779:A 0
38 *15:83 *847:A 0.000148196
39 *15:83 *878:A 0.000226507
40 *15:83 *879:B 2.65105e-05
41 *15:83 *1246:A 4.75908e-05
42 *15:83 *1268:A 0.000115094
43 *15:83 *592:10 2.3917e-05
44 *15:93 *758:A 0.000153047
45 *15:93 *913:A 9.25014e-06
46 *15:93 *935:A 0
47 *767:B *770:B 1.02504e-05
48 *767:B *15:9 0.000585151
49 *1257:A *15:83 2.13546e-05
50 *1315:A *15:75 0
51 *1323:A *15:93 6.90509e-05
52 *5:43 *15:93 7.89309e-05
53 *7:55 *15:83 0.00121096
54 *8:55 *1332:B 3.12496e-05
55 *8:55 *15:45 7.15905e-06
56 *8:55 *15:60 0.000291017
57 *9:13 *770:B 1.18064e-05
58 *9:77 *15:75 6.6289e-05
59 *10:13 *770:B 0
60 *13:58 *15:83 0.000136584
61 *13:58 *15:93 0.00013652
62 *14:5 *15:5 0.000481355
63 *14:30 *15:5 2.24813e-05
64 *14:30 *15:45 0.000513466
65 *14:53 *15:45 1.82106e-05
66 *14:53 *15:60 5.59709e-05
67 *14:53 *15:75 3.47709e-05
68 *14:69 *15:75 9.87983e-06
69 *14:87 *15:75 4.46186e-06
70 *14:87 *15:83 4.49293e-05
71 *14:95 *1080:B 1.24368e-05
72 *14:95 *15:83 0.000218726
73 *14:95 *15:93 5.83233e-05
74 *14:101 *15:93 0
*RES
1 b[4] *15:5 1.3818 
2 *15:5 *15:9 10.9725 
3 *15:9 *770:B 20.8 
4 *15:9 *752:B 13.8 
5 *15:5 *15:45 20.9557 
6 *15:45 *1332:B 10.3982 
7 *15:45 *15:60 5.48214 
8 *15:60 *1315:B 9.3 
9 *15:60 *15:75 17.2321 
10 *15:75 *15:83 23.5536 
11 *15:83 *15:93 15.875 
12 *15:93 *902:B 13.8 
13 *15:93 *1323:B 15.1571 
14 *15:83 *1080:B 14.3357 
15 *15:75 *1257:B 9.3 
*END

*D_NET *16 0.0138563
*CONN
*P b[5] I
*I *1317:B I *D sky130_fd_sc_hd__nand2_1
*I *1335:B I *D sky130_fd_sc_hd__nand2_1
*I *1279:B I *D sky130_fd_sc_hd__nand2_1
*I *924:B I *D sky130_fd_sc_hd__nand2_1
*I *747:B I *D sky130_fd_sc_hd__nand2_1
*I *1102:B I *D sky130_fd_sc_hd__nand2_1
*I *772:B I *D sky130_fd_sc_hd__nand2_1
*I *754:B I *D sky130_fd_sc_hd__nand2_1
*CAP
1 b[5] 0.00140151
2 *1317:B 0.000285734
3 *1335:B 0
4 *1279:B 0.00026976
5 *924:B 0.000142837
6 *747:B 8.31463e-05
7 *1102:B 0
8 *772:B 0
9 *754:B 0.000535515
10 *16:59 0.000193916
11 *16:53 0.00107751
12 *16:29 0.000703515
13 *16:23 0.00140016
14 *16:19 0.00109156
15 *16:15 0.000547874
16 *16:11 0.00182158
17 *754:B *950:B 0.000126509
18 *754:B *954:A 0.000143427
19 *754:B *954:B 5.46532e-05
20 *754:B *252:16 5.49544e-05
21 *924:B *769:B 9.12446e-05
22 *924:B *1113:A 3.34366e-05
23 *924:B *92:18 7.48356e-05
24 *1279:B *806:B 1.3701e-05
25 *1279:B *818:A 9.80173e-05
26 *1279:B *823:A 1.39841e-05
27 *1317:B *820:A 7.60962e-05
28 *1317:B *822:A 1.51245e-05
29 *1317:B *1318:A 1.17091e-05
30 *1317:B *118:8 0.000147204
31 *16:19 *823:A 6.28241e-05
32 *16:19 *933:B 0
33 *16:19 *1336:A 3.1001e-05
34 *16:19 *122:14 7.92229e-06
35 *16:23 *816:A 0
36 *16:23 *818:B 0.00010326
37 *16:23 *1303:A 8.00806e-05
38 *16:23 *1305:A 1.17968e-05
39 *16:23 *17:67 0.000410133
40 *16:23 *113:23 5.10822e-05
41 *16:23 *582:10 0
42 *16:53 *769:B 4.46186e-06
43 *16:53 *793:A 1.95368e-05
44 *16:53 *793:B 1.84776e-05
45 *16:53 *1113:A 0.000215627
46 *16:53 *17:52 0.000531453
47 *16:53 *88:12 1.5864e-05
48 *16:53 *92:18 1.16543e-05
49 *16:59 *1113:A 0.000137983
50 *769:A *924:B 9.80173e-05
51 *772:A *754:B 5.50052e-05
52 *1304:A *16:23 0.000225024
53 *1335:A *16:19 9.56933e-05
54 *1339:A *754:B 6.27925e-05
55 *1339:A *16:29 5.49995e-05
56 *4:60 *16:59 0.000178847
57 *4:64 *747:B 0.000274036
58 *4:64 *16:59 4.66783e-05
59 *5:63 *16:53 1.26284e-05
60 *7:69 *16:23 0
61 *8:61 *16:15 0
62 *8:76 *16:19 0.000272174
63 *9:38 *754:B 0.000145366
64 *9:60 *16:15 0.000112363
65 *9:77 *16:11 0
66 *15:5 *16:11 0
67 *15:45 *16:11 0
*RES
1 b[5] *16:11 6.9726 
2 *16:11 *16:15 7.20536 
3 *16:15 *16:19 7.83929 
4 *16:19 *16:23 14.3393 
5 *16:23 *16:29 7.28571 
6 *16:29 *754:B 20.1393 
7 *16:29 *772:B 9.3 
8 *16:23 *16:53 24.0893 
9 *16:53 *16:59 7.41071 
10 *16:59 *1102:B 9.3 
11 *16:59 *747:B 11.8893 
12 *16:53 *924:B 17.5321 
13 *16:19 *1279:B 13.8536 
14 *16:15 *1335:B 9.3 
15 *16:11 *1317:B 19.7286 
*END

*D_NET *17 0.00984189
*CONN
*P b[6] I
*I *769:B I *D sky130_fd_sc_hd__nand2_1
*I *1124:B I *D sky130_fd_sc_hd__nand2_1
*I *1302:B I *D sky130_fd_sc_hd__nand2_1
*I *1319:B I *D sky130_fd_sc_hd__nand2_1
*I *1337:B I *D sky130_fd_sc_hd__nand2_1
*I *946:B I *D sky130_fd_sc_hd__nand2_1
*I *756:B I *D sky130_fd_sc_hd__nand2_1
*I *774:B I *D sky130_fd_sc_hd__nand2_1
*CAP
1 b[6] 0.000950218
2 *769:B 0.000360426
3 *1124:B 0
4 *1302:B 4.26984e-05
5 *1319:B 0
6 *1337:B 0.00012847
7 *946:B 9.9261e-05
8 *756:B 0
9 *774:B 1.55724e-05
10 *17:83 0.000493864
11 *17:67 0.000205473
12 *17:52 0.000496636
13 *17:48 0.000599303
14 *17:34 0.000218745
15 *17:26 0.000719491
16 *17:13 0.00130532
17 *769:B *799:B 0
18 *769:B *969:B 1.5328e-05
19 *769:B *980:A 2.36116e-05
20 *769:B *18:47 9.45048e-06
21 *769:B *435:10 7.90536e-05
22 *769:B *576:10 0.000166679
23 *774:B *775:A 3.99614e-06
24 *774:B *76:8 3.99614e-06
25 *1337:B *1322:A 2.50412e-05
26 *1337:B *1338:A 3.41517e-06
27 *1337:B *614:8 2.25111e-05
28 *17:13 p[15] 0
29 *17:13 *1159:A 0.000144773
30 *17:13 *1160:B 0.000188586
31 *17:13 *1165:A 3.18676e-05
32 *17:13 *1165:B 6.63371e-05
33 *17:13 *1294:A 0.000107503
34 *17:13 *18:5 0
35 *17:13 *76:8 4.35452e-05
36 *17:13 *452:10 4.27806e-05
37 *17:26 *775:A 7.43578e-06
38 *17:26 *1042:A 6.0382e-05
39 *17:26 *1045:A 0
40 *17:26 *1160:A 0.000150625
41 *17:26 *18:28 0
42 *17:26 *18:32 1.18064e-05
43 *17:26 *76:8 1.02936e-05
44 *17:26 *346:10 0
45 *17:34 *757:A 5.56991e-05
46 *17:48 *1042:A 1.50223e-05
47 *17:48 *18:45 6.83697e-05
48 *17:48 *46:10 4.07423e-05
49 *17:67 *1305:A 0.000150625
50 *17:67 *1322:A 6.4474e-05
51 *17:83 *18:45 7.5802e-05
52 *759:A *17:26 0.000347409
53 *759:A *17:48 5.51649e-05
54 *774:A *17:26 0.000318316
55 *924:B *769:B 9.12446e-05
56 *1124:A *769:B 1.83526e-05
57 *1146:A *769:B 5.52302e-05
58 *1321:A *17:67 3.9699e-05
59 *4:60 *769:B 0.000185643
60 *5:63 *769:B 0.000230475
61 *9:38 *17:48 0.000208802
62 *10:23 *17:67 2.02692e-05
63 *16:23 *17:67 0.000410133
64 *16:53 *769:B 4.46186e-06
65 *16:53 *17:52 0.000531453
*RES
1 b[6] *17:13 23.75 
2 *17:13 *774:B 9.72857 
3 *17:13 *17:26 13.9643 
4 *17:26 *17:34 6.71429 
5 *17:34 *756:B 9.3 
6 *17:34 *946:B 11.0679 
7 *17:26 *17:48 5.28571 
8 *17:48 *17:52 9.96429 
9 *17:52 *1337:B 11.4964 
10 *17:52 *17:67 14.2857 
11 *17:67 *1319:B 9.3 
12 *17:67 *1302:B 9.83571 
13 *17:48 *17:83 7.05357 
14 *17:83 *1124:B 9.3 
15 *17:83 *769:B 27.1571 
*END

*D_NET *18 0.00919655
*CONN
*P b[7] I
*I *791:B I *D sky130_fd_sc_hd__nand2_1
*I *759:B I *D sky130_fd_sc_hd__nand2_1
*I *969:B I *D sky130_fd_sc_hd__nand2_1
*I *1146:B I *D sky130_fd_sc_hd__nand2_1
*I *1304:B I *D sky130_fd_sc_hd__nand2_1
*I *1321:B I *D sky130_fd_sc_hd__nand2_1
*I *1339:B I *D sky130_fd_sc_hd__nand2_1
*I *776:B I *D sky130_fd_sc_hd__nand2_1
*CAP
1 b[7] 0.000828805
2 *791:B 0.00029855
3 *759:B 0
4 *969:B 0.000326189
5 *1146:B 0.000195656
6 *1304:B 0
7 *1321:B 2.54677e-05
8 *1339:B 4.06461e-05
9 *776:B 0.000274272
10 *18:87 0.000350323
11 *18:51 0.000394592
12 *18:47 0.000776357
13 *18:45 0.000733731
14 *18:32 0.000548656
15 *18:28 0.000734845
16 *18:5 0.00147411
17 *776:B p[15] 4.9071e-05
18 *776:B *1163:A 0.000193425
19 *776:B *1163:B 4.52936e-05
20 *776:B *1165:B 3.4323e-06
21 *969:B *980:A 0.000114513
22 *969:B *1135:A 6.40786e-05
23 *1321:B *1305:A 1.84776e-05
24 *18:5 *1158:A 0
25 *18:5 *1158:B 0
26 *18:5 *1165:B 2.90924e-05
27 *18:28 *1160:B 0
28 *18:28 *346:10 0.000197276
29 *18:47 *1135:A 5.49995e-05
30 *18:51 *1305:A 3.06878e-06
31 *759:A *18:32 0.000394014
32 *769:B *969:B 1.5328e-05
33 *769:B *18:47 9.45048e-06
34 *774:A *18:28 0.000357048
35 *791:A *791:B 9.57064e-05
36 *1146:A *1146:B 2.3704e-05
37 *1304:A *1146:B 0
38 *4:19 *791:B 6.58289e-05
39 *4:19 *18:32 0
40 *4:60 *969:B 2.03921e-05
41 *5:63 *969:B 5.86459e-05
42 *9:38 *1339:B 6.05161e-06
43 *9:38 *18:32 0.000172877
44 *9:38 *18:45 4.66056e-05
45 *17:13 *18:5 0
46 *17:26 *18:28 0
47 *17:26 *18:32 1.18064e-05
48 *17:48 *18:45 6.83697e-05
49 *17:83 *18:45 7.5802e-05
*RES
1 b[7] *18:5 14.8125 
2 *18:5 *776:B 18.3446 
3 *18:5 *18:28 12.1696 
4 *18:28 *18:32 11.9107 
5 *18:32 *1339:B 14.3357 
6 *18:32 *18:45 8.875 
7 *18:45 *18:47 2.58929 
8 *18:47 *18:51 4.55357 
9 *18:51 *1321:B 9.83571 
10 *18:51 *1304:B 9.3 
11 *18:47 *1146:B 21.7643 
12 *18:45 *969:B 14.2643 
13 *18:28 *18:87 0.964286 
14 *18:87 *759:B 9.3 
15 *18:87 *791:B 24.3714 
*END

*D_NET *19 0.00143326
*CONN
*P p[0] O
*I *746:Y O *D sky130_fd_sc_hd__inv_1
*CAP
1 p[0] 0.00025477
2 *746:Y 0.00025477
3 p[0] p[2] 0.000460703
4 *3:5 p[0] 0.000463018
*RES
1 *746:Y p[0] 24.6482 
*END

*D_NET *20 0.00225537
*CONN
*P p[10] O
*I *1260:Y O *D sky130_fd_sc_hd__nand2_1
*CAP
1 p[10] 0.00112095
2 *1260:Y 0.00112095
3 p[10] *537:6 1.34672e-05
*RES
1 *1260:Y p[10] 43.2598 
*END

*D_NET *21 0.00130436
*CONN
*P p[11] O
*I *1270:Y O *D sky130_fd_sc_hd__nand2_1
*CAP
1 p[11] 0.000524026
2 *1270:Y 0.000524026
3 p[11] *1270:A 0.000128154
4 p[11] *1270:B 0.000128154
*RES
1 *1270:Y p[11] 20.69 
*END

*D_NET *22 0.00137419
*CONN
*P p[12] O
*I *1280:Y O *D sky130_fd_sc_hd__nand2_1
*CAP
1 p[12] 0.000567864
2 *1280:Y 0.000567864
3 p[12] *1277:B 1.47872e-05
4 p[12] *1280:A 0.000223675
*RES
1 *1280:Y p[12] 23.007 
*END

*D_NET *23 0.00127218
*CONN
*P p[13] O
*I *1289:Y O *D sky130_fd_sc_hd__nand2_1
*CAP
1 p[13] 0.000626451
2 *1289:Y 0.000626451
3 p[13] *1289:B 1.92789e-05
*RES
1 *1289:Y p[13] 22.5242 
*END

*D_NET *24 0.00212573
*CONN
*P p[14] O
*I *1299:Y O *D sky130_fd_sc_hd__nand2_1
*CAP
1 p[14] 0.000771388
2 *1299:Y 0.000771388
3 p[14] p[15] 0
4 p[14] *1294:B 0.000154762
5 p[14] *1296:A 0.000151333
6 p[14] *1299:A 3.6337e-05
7 p[14] *1300:A 0.000185297
8 p[14] *1300:B 5.52238e-05
*RES
1 *1299:Y p[14] 29.9607 
*END

*D_NET *25 0.0022272
*CONN
*P p[15] O
*I *1300:Y O *D sky130_fd_sc_hd__nand2_1
*CAP
1 p[15] 0.000934732
2 *1300:Y 0.000934732
3 p[15] *777:A 0.000125599
4 p[15] *1165:B 0
5 p[15] *1294:A 0.000107503
6 p[15] *1300:A 1.32056e-05
7 p[15] *1300:B 5.7661e-06
8 p[14] p[15] 0
9 *776:A p[15] 5.65955e-05
10 *776:B p[15] 4.9071e-05
11 *17:13 p[15] 0
*RES
1 *1300:Y p[15] 33.4786 
*END

*D_NET *26 0.00154828
*CONN
*P p[1] O
*I *1170:Y O *D sky130_fd_sc_hd__nand2_1
*CAP
1 p[1] 0.000523701
2 *1170:Y 0.000523701
3 p[1] *1170:A 4.01768e-05
4 *3:5 p[1] 0.000460703
5 *4:15 p[1] 0
*RES
1 *1170:Y p[1] 26.0857 
*END

*D_NET *27 0.00142338
*CONN
*P p[2] O
*I *1180:Y O *D sky130_fd_sc_hd__nand2_1
*CAP
1 p[2] 0.000454666
2 *1180:Y 0.000454666
3 p[2] *1180:B 5.33433e-05
4 p[0] p[2] 0.000460703
*RES
1 *1180:Y p[2] 25.2643 
*END

*D_NET *28 0.00139954
*CONN
*P p[3] O
*I *1189:Y O *D sky130_fd_sc_hd__nand2_1
*CAP
1 p[3] 0.000685316
2 *1189:Y 0.000685316
3 p[3] *1183:A 0
4 p[3] *474:6 2.89114e-05
*RES
1 *1189:Y p[3] 26.8714 
*END

*D_NET *29 0.0008048
*CONN
*P p[4] O
*I *1200:Y O *D sky130_fd_sc_hd__nand2_1
*CAP
1 p[4] 0.0004024
2 *1200:Y 0.0004024
3 p[4] *1198:B 0
*RES
1 *1200:Y p[4] 18.7331 
*END

*D_NET *30 0.00180566
*CONN
*P p[5] O
*I *1210:Y O *D sky130_fd_sc_hd__nand2_1
*CAP
1 p[5] 0.000465647
2 *1210:Y 0.000465647
3 p[5] *1210:A 7.74068e-05
4 p[5] *1210:B 0.000251261
5 p[5] *498:10 4.24637e-05
6 p[5] *498:16 4.27757e-05
7 *5:5 p[5] 0.00037513
8 *5:11 p[5] 7.77129e-05
9 *11:9 p[5] 7.6186e-06
*RES
1 *1210:Y p[5] 21.9129 
*END

*D_NET *31 0.00136822
*CONN
*P p[6] O
*I *1220:Y O *D sky130_fd_sc_hd__nand2_1
*CAP
1 p[6] 0.000590129
2 *1220:Y 0.000590129
3 p[6] *1212:A 6.7848e-05
4 p[6] *1217:B 3.25078e-05
5 p[6] *1220:A 7.83587e-05
6 *13:34 p[6] 9.25014e-06
*RES
1 *1220:Y p[6] 20.6986 
*END

*D_NET *32 0.00097349
*CONN
*P p[7] O
*I *1230:Y O *D sky130_fd_sc_hd__nand2_1
*CAP
1 p[7] 0.000486745
2 *1230:Y 0.000486745
*RES
1 *1230:Y p[7] 19.4123 
*END

*D_NET *33 0.00141755
*CONN
*P p[8] O
*I *1240:Y O *D sky130_fd_sc_hd__nand2_1
*CAP
1 p[8] 0.000708777
2 *1240:Y 0.000708777
*RES
1 *1240:Y p[8] 27.7598 
*END

*D_NET *34 0.00181608
*CONN
*P p[9] O
*I *1250:Y O *D sky130_fd_sc_hd__nand2_1
*CAP
1 p[9] 0.000844509
2 *1250:Y 0.000844509
3 p[9] *1250:A 2.60984e-05
4 p[9] *1250:B 0.00010096
*RES
1 *1250:Y p[9] 29.5277 
*END

*D_NET *35 0.000313568
*CONN
*I *1329:A I *D sky130_fd_sc_hd__inv_1
*I *1328:Y O *D sky130_fd_sc_hd__nand2_1
*CAP
1 *1329:A 9.56104e-05
2 *1328:Y 9.56104e-05
3 *1329:A *91:10 1.21365e-05
4 *761:B *1329:A 1.37743e-05
5 *12:120 *1329:A 9.19749e-05
6 *13:108 *1329:A 4.46186e-06
*RES
1 *1328:Y *1329:A 29.5241 
*END

*D_NET *36 0.000488881
*CONN
*I *866:A I *D sky130_fd_sc_hd__nand2_1
*I *867:A I *D sky130_fd_sc_hd__nand2_1
*I *1329:Y O *D sky130_fd_sc_hd__inv_1
*CAP
1 *866:A 2.52056e-05
2 *867:A 0
3 *1329:Y 0.000115358
4 *36:12 0.000140563
5 *866:A *867:B 5.52302e-05
6 *36:12 *50:12 4.78056e-05
7 *36:12 *91:10 6.94775e-05
8 *761:B *36:12 3.52408e-05
*RES
1 *1329:Y *36:12 20.5768 
2 *36:12 *867:A 9.3 
3 *36:12 *866:A 9.83571 
*END

*D_NET *37 0.00033053
*CONN
*I *1331:A I *D sky130_fd_sc_hd__inv_1
*I *1330:Y O *D sky130_fd_sc_hd__nand2_1
*CAP
1 *1331:A 0.000106534
2 *1330:Y 0.000106534
3 *1331:A *809:B 4.46186e-06
4 *1331:A *1316:A 0
5 *8:45 *1331:A 0.000113
*RES
1 *1330:Y *1331:A 29.783 
*END

*D_NET *38 0.000586554
*CONN
*I *811:A I *D sky130_fd_sc_hd__nand2_1
*I *809:B I *D sky130_fd_sc_hd__nand2_1
*I *1331:Y O *D sky130_fd_sc_hd__inv_1
*CAP
1 *811:A 8.12028e-05
2 *809:B 5.05777e-05
3 *1331:Y 5.5319e-05
4 *38:8 0.000187099
5 *809:B *810:A 1.69115e-05
6 *809:B *108:12 1.66859e-05
7 *811:A *108:12 0.000123295
8 *765:A *811:A 0
9 *1331:A *809:B 4.46186e-06
10 *8:45 *809:B 3.18676e-05
11 *8:45 *38:8 1.91333e-05
*RES
1 *1331:Y *38:8 14.5411 
2 *38:8 *809:B 15.0679 
3 *38:8 *811:A 15.4429 
*END

*D_NET *39 0.00025193
*CONN
*I *1333:A I *D sky130_fd_sc_hd__inv_1
*I *1332:Y O *D sky130_fd_sc_hd__nand2_1
*CAP
1 *1333:A 4.67566e-05
2 *1332:Y 4.67566e-05
3 *1333:A *40:16 2.67093e-05
4 *1332:B *1333:A 2.56475e-06
5 *8:55 *1333:A 5.49544e-05
6 *14:53 *1333:A 2.83014e-05
7 *15:45 *1333:A 4.58874e-05
*RES
1 *1332:Y *1333:A 20.2563 
*END

*D_NET *40 0.00123245
*CONN
*I *906:A I *D sky130_fd_sc_hd__nand2_1
*I *907:A I *D sky130_fd_sc_hd__nand2_1
*I *1333:Y O *D sky130_fd_sc_hd__inv_1
*CAP
1 *906:A 0.000115846
2 *907:A 0.000235296
3 *1333:Y 0.000130178
4 *40:16 0.00048132
5 *906:A *909:B 1.3701e-05
6 *906:A *910:A 3.99614e-06
7 *906:A *203:16 9.00535e-06
8 *907:A *909:A 2.36364e-05
9 *907:A *909:B 3.65157e-05
10 *907:A *910:A 1.02911e-05
11 *907:A *203:16 9.33978e-07
12 *40:16 *906:B 0
13 *40:16 *908:B 2.34862e-05
14 *40:16 *909:B 7.6644e-05
15 *1333:A *40:16 2.67093e-05
16 *8:55 *40:16 4.6025e-06
17 *14:53 *40:16 2.9725e-05
18 *15:45 *40:16 1.05613e-05
*RES
1 *1333:Y *40:16 21.1304 
2 *40:16 *907:A 12.5143 
3 *40:16 *906:A 11.2821 
*END

*D_NET *41 0.000247063
*CONN
*I *1336:A I *D sky130_fd_sc_hd__inv_1
*I *1335:Y O *D sky130_fd_sc_hd__nand2_1
*CAP
1 *1336:A 5.48531e-05
2 *1335:Y 5.48531e-05
3 *1336:A *933:B 0
4 *1336:A *42:8 0
5 *1336:A *122:14 0.000106356
6 *16:19 *1336:A 3.1001e-05
*RES
1 *1335:Y *1336:A 20.2563 
*END

*D_NET *42 0.0010212
*CONN
*I *932:A I *D sky130_fd_sc_hd__nand2_1
*I *930:B I *D sky130_fd_sc_hd__nand2_1
*I *1336:Y O *D sky130_fd_sc_hd__inv_1
*CAP
1 *932:A 0
2 *930:B 0.000133779
3 *1336:Y 7.42245e-05
4 *42:8 0.000208003
5 *930:B *932:B 7.83366e-05
6 *930:B *933:A 1.59782e-05
7 *930:B *934:B 4.58096e-05
8 *930:B *228:8 1.92789e-05
9 *42:8 *933:B 3.93346e-05
10 *42:8 *122:14 7.86048e-05
11 *42:8 *231:12 0.00010096
12 *1336:A *42:8 0
13 *9:21 *930:B 0.000173804
14 *9:60 *42:8 5.30823e-05
*RES
1 *1336:Y *42:8 11.7018 
2 *42:8 *930:B 21.6929 
3 *42:8 *932:A 9.3 
*END

*D_NET *43 0.000231169
*CONN
*I *1338:A I *D sky130_fd_sc_hd__inv_1
*I *1337:Y O *D sky130_fd_sc_hd__nand2_1
*CAP
1 *1338:A 5.93827e-05
2 *1337:Y 5.93827e-05
3 *1338:A *614:8 0.000108988
4 *1337:B *1338:A 3.41517e-06
*RES
1 *1337:Y *1338:A 20.2563 
*END

*D_NET *44 0.00056389
*CONN
*I *948:A I *D sky130_fd_sc_hd__nand2_1
*I *945:B I *D sky130_fd_sc_hd__nand2_1
*I *1338:Y O *D sky130_fd_sc_hd__inv_1
*CAP
1 *948:A 0.000121174
2 *945:B 3.27275e-05
3 *1338:Y 1.38693e-05
4 *44:6 0.000167771
5 *945:B *614:8 2.59355e-05
6 *948:A *949:B 0.000150773
7 *948:A *243:10 3.50612e-05
8 *44:6 *614:8 1.65787e-05
*RES
1 *1338:Y *44:6 9.63036 
2 *44:6 *945:B 9.83571 
3 *44:6 *948:A 21.1571 
*END

*D_NET *45 0.000231399
*CONN
*I *1340:A I *D sky130_fd_sc_hd__inv_1
*I *1339:Y O *D sky130_fd_sc_hd__nand2_1
*CAP
1 *1340:A 7.70032e-05
2 *1339:Y 7.70032e-05
3 *1339:A *1340:A 6.38461e-05
4 *9:38 *1340:A 1.35465e-05
*RES
1 *1339:Y *1340:A 20.2563 
*END

*D_NET *46 0.000621343
*CONN
*I *1041:A I *D sky130_fd_sc_hd__nand2_1
*I *1042:A I *D sky130_fd_sc_hd__nand2_1
*I *1340:Y O *D sky130_fd_sc_hd__inv_1
*CAP
1 *1041:A 0
2 *1042:A 0.000118303
3 *1340:Y 0.000104346
4 *46:10 0.000222648
5 *1042:A *1044:B 4.95233e-05
6 *1339:A *46:10 1.03764e-05
7 *17:26 *1042:A 6.0382e-05
8 *17:48 *1042:A 1.50223e-05
9 *17:48 *46:10 4.07423e-05
*RES
1 *1340:Y *46:10 15.7732 
2 *46:10 *1042:A 16.6571 
3 *46:10 *1041:A 13.8 
*END

*D_NET *47 0.000373619
*CONN
*I *1342:A I *D sky130_fd_sc_hd__inv_1
*I *1341:Y O *D sky130_fd_sc_hd__nand2_1
*CAP
1 *1342:A 0.00010185
2 *1341:Y 0.00010185
3 *761:B *1342:A 1.74352e-05
4 *1341:B *1342:A 1.04232e-05
5 *11:99 *1342:A 0.00014206
*RES
1 *1341:Y *1342:A 21.0777 
*END

*D_NET *48 0.000988487
*CONN
*I *859:A I *D sky130_fd_sc_hd__nand2_1
*I *855:B I *D sky130_fd_sc_hd__nand2_1
*I *1342:Y O *D sky130_fd_sc_hd__inv_1
*CAP
1 *859:A 0.000152272
2 *855:B 9.06886e-05
3 *1342:Y 2.40537e-05
4 *48:6 0.000267014
5 *855:B *91:10 0
6 *855:B *181:12 8.15939e-05
7 *859:A *181:12 0.000148903
8 *859:A *287:20 9.11365e-06
9 *859:A *618:12 0.000126439
10 *11:99 *859:A 6.87574e-05
11 *11:99 *48:6 1.96517e-05
*RES
1 *1342:Y *48:6 9.63036 
2 *48:6 *855:B 20.2464 
3 *48:6 *859:A 21.6036 
*END

*D_NET *49 0.000212589
*CONN
*I *1344:A I *D sky130_fd_sc_hd__inv_1
*I *1343:Y O *D sky130_fd_sc_hd__nand2_1
*CAP
1 *1344:A 4.31089e-05
2 *1343:Y 4.31089e-05
3 *761:B *1344:A 6.52162e-05
4 *1343:B *1344:A 1.50716e-05
5 *12:120 *1344:A 4.60833e-05
*RES
1 *1343:Y *1344:A 20.3991 
*END

*D_NET *50 0.00131162
*CONN
*I *866:B I *D sky130_fd_sc_hd__nand2_1
*I *868:A I *D sky130_fd_sc_hd__nand2_1
*I *1344:Y O *D sky130_fd_sc_hd__inv_1
*CAP
1 *866:B 9.73416e-05
2 *868:A 0.000107384
3 *1344:Y 9.90685e-05
4 *50:12 0.000303794
5 *866:B *867:B 0.000181803
6 *866:B *164:8 0.000169366
7 *868:A *867:B 2.64402e-05
8 *868:A *870:A 5.13251e-05
9 *868:A *870:B 7.80274e-05
10 *868:A *164:8 0.000114024
11 *761:B *50:12 3.52408e-05
12 *36:12 *50:12 4.78056e-05
*RES
1 *1344:Y *50:12 19.9696 
2 *50:12 *868:A 12.6571 
3 *50:12 *866:B 12.2107 
*END

*D_NET *51 0.000306443
*CONN
*I *749:A I *D sky130_fd_sc_hd__inv_1
*I *748:Y O *D sky130_fd_sc_hd__nand2_1
*CAP
1 *749:A 0.00010113
2 *748:Y 0.00010113
3 *749:A *764:A 0
4 *749:A *98:14 8.06427e-05
5 *749:A *111:14 2.3541e-05
*RES
1 *748:Y *749:A 29.783 
*END

*D_NET *52 0.000461797
*CONN
*I *886:A I *D sky130_fd_sc_hd__nand2_1
*I *887:A I *D sky130_fd_sc_hd__nand2_1
*I *749:Y O *D sky130_fd_sc_hd__inv_1
*CAP
1 *886:A 0
2 *887:A 2.04425e-05
3 *749:Y 9.99546e-05
4 *52:12 0.000120397
5 *887:A *889:B 5.33005e-05
6 *887:A *184:6 2.59355e-05
7 *52:12 *888:B 2.8266e-06
8 *52:12 *66:12 0
9 *52:12 *98:14 0.000125724
10 *52:12 *111:14 1.3216e-05
*RES
1 *749:Y *52:12 20.2732 
2 *52:12 *887:A 9.83571 
3 *52:12 *886:A 9.3 
*END

*D_NET *53 0.000274678
*CONN
*I *751:A I *D sky130_fd_sc_hd__inv_1
*I *750:Y O *D sky130_fd_sc_hd__nand2_1
*CAP
1 *751:A 5.07497e-05
2 *750:Y 5.07497e-05
3 *751:A *908:B 5.09213e-05
4 *14:53 *751:A 1.55133e-05
5 *15:45 *751:A 0.000106744
*RES
1 *750:Y *751:A 20.2563 
*END

*D_NET *54 0.00149648
*CONN
*I *908:A I *D sky130_fd_sc_hd__nand2_1
*I *906:B I *D sky130_fd_sc_hd__nand2_1
*I *751:Y O *D sky130_fd_sc_hd__inv_1
*CAP
1 *908:A 0
2 *906:B 0.00043501
3 *751:Y 1.48713e-05
4 *54:6 0.000449881
5 *906:B *909:B 0
6 *906:B *910:B 3.4846e-06
7 *906:B *121:12 8.91938e-05
8 *906:B *231:12 0
9 *54:6 *908:B 7.66438e-05
10 *8:55 *906:B 7.69776e-06
11 *9:77 *906:B 0.000376996
12 *15:45 *54:6 4.26986e-05
13 *40:16 *906:B 0
*RES
1 *751:Y *54:6 10.0411 
2 *54:6 *906:B 28.7257 
3 *54:6 *908:A 9.3 
*END

*D_NET *55 0.000237357
*CONN
*I *753:A I *D sky130_fd_sc_hd__inv_1
*I *752:Y O *D sky130_fd_sc_hd__nand2_1
*CAP
1 *753:A 8.6987e-05
2 *752:Y 8.6987e-05
3 *752:A *753:A 1.04232e-05
4 *9:13 *753:A 2.59355e-05
5 *9:17 *753:A 2.70241e-05
*RES
1 *752:Y *753:A 20.2563 
*END

*D_NET *56 0.000786641
*CONN
*I *937:A I *D sky130_fd_sc_hd__nand2_1
*I *936:A I *D sky130_fd_sc_hd__nand2_1
*I *753:Y O *D sky130_fd_sc_hd__inv_1
*CAP
1 *937:A 2.47277e-05
2 *936:A 0.000165489
3 *753:Y 6.99168e-05
4 *56:10 0.000260133
5 *936:A *936:B 5.7661e-06
6 *936:A *938:A 3.63587e-05
7 *936:A *939:B 9.90367e-05
8 *936:A *233:6 7.49387e-06
9 *937:A *335:8 2.84494e-05
10 *937:A *441:10 1.59782e-05
11 *56:10 *335:8 3.69697e-05
12 *56:10 *441:10 2.56601e-05
13 *9:17 *56:10 1.06618e-05
*RES
1 *753:Y *56:10 15.1661 
2 *56:10 *936:A 16.55 
3 *56:10 *937:A 14.5321 
*END

*D_NET *57 0.00108065
*CONN
*I *755:A I *D sky130_fd_sc_hd__inv_1
*I *754:Y O *D sky130_fd_sc_hd__nand2_1
*CAP
1 *755:A 0.000182974
2 *754:Y 0.000182974
3 *755:A *950:B 0.000150043
4 *755:A *58:10 0.00020323
5 *9:21 *755:A 0.00030845
6 *10:23 *755:A 5.29788e-05
*RES
1 *754:Y *755:A 33.1848 
*END

*D_NET *58 0.00156878
*CONN
*I *952:A I *D sky130_fd_sc_hd__nand2_1
*I *950:B I *D sky130_fd_sc_hd__nand2_1
*I *755:Y O *D sky130_fd_sc_hd__inv_1
*CAP
1 *952:A 0
2 *950:B 0.000192311
3 *755:Y 0.00026453
4 *58:10 0.000456841
5 *950:B *954:B 1.19813e-05
6 *754:A *950:B 5.54817e-06
7 *754:B *950:B 0.000126509
8 *755:A *950:B 0.000150043
9 *755:A *58:10 0.00020323
10 *9:21 *950:B 7.92596e-06
11 *9:38 *950:B 0.000141941
12 *10:23 *58:10 7.91695e-06
*RES
1 *755:Y *58:10 17.8268 
2 *58:10 *950:B 19.0857 
3 *58:10 *952:A 13.8 
*END

*D_NET *59 0.000252378
*CONN
*I *757:A I *D sky130_fd_sc_hd__inv_1
*I *756:Y O *D sky130_fd_sc_hd__nand2_1
*CAP
1 *757:A 9.83396e-05
2 *756:Y 9.83396e-05
3 *17:34 *757:A 5.56991e-05
*RES
1 *756:Y *757:A 20.2563 
*END

*D_NET *60 0.000414022
*CONN
*I *1041:B I *D sky130_fd_sc_hd__nand2_1
*I *1043:A I *D sky130_fd_sc_hd__nand2_1
*I *757:Y O *D sky130_fd_sc_hd__inv_1
*CAP
1 *1041:B 0
2 *1043:A 2.55653e-05
3 *757:Y 0.000110199
4 *60:8 0.000135765
5 *1043:A *1044:B 1.84776e-05
6 *1043:A *338:8 0.000100165
7 *60:8 *338:8 2.38501e-05
*RES
1 *757:Y *60:8 11.2911 
2 *60:8 *1043:A 10.2464 
3 *60:8 *1041:B 9.3 
*END

*D_NET *61 0.000336263
*CONN
*I *760:A I *D sky130_fd_sc_hd__inv_1
*I *759:Y O *D sky130_fd_sc_hd__nand2_1
*CAP
1 *760:A 9.07504e-05
2 *759:Y 9.07504e-05
3 *774:A *760:A 0.000154762
4 *4:19 *760:A 0
*RES
1 *759:Y *760:A 29.783 
*END

*D_NET *62 0.0013277
*CONN
*I *1156:A I *D sky130_fd_sc_hd__nand2_1
*I *1158:A I *D sky130_fd_sc_hd__nand2_1
*I *760:Y O *D sky130_fd_sc_hd__inv_1
*CAP
1 *1156:A 0
2 *1158:A 0.000252346
3 *760:Y 0.000214951
4 *62:10 0.000467297
5 *1158:A *1158:B 0.000126439
6 *1158:A *1160:A 5.88902e-05
7 *62:10 *1160:A 0.000125724
8 *62:10 *1160:B 7.83659e-05
9 *62:10 *455:6 3.69047e-06
10 *18:5 *1158:A 0
*RES
1 *760:Y *62:10 17.0054 
2 *62:10 *1158:A 18.8 
3 *62:10 *1156:A 13.8 
*END

*D_NET *63 0.000749786
*CONN
*I *762:A I *D sky130_fd_sc_hd__inv_1
*I *761:Y O *D sky130_fd_sc_hd__nand2_1
*CAP
1 *762:A 0.000326052
2 *761:Y 0.000326052
3 *762:A *92:18 0
4 *761:B *762:A 9.24825e-05
5 *763:B *762:A 5.19842e-06
*RES
1 *761:Y *762:A 32.417 
*END

*D_NET *64 0.000903441
*CONN
*I *873:A I *D sky130_fd_sc_hd__nand2_1
*I *871:B I *D sky130_fd_sc_hd__nand2_1
*I *762:Y O *D sky130_fd_sc_hd__inv_1
*CAP
1 *873:A 0.000116658
2 *871:B 0
3 *762:Y 0.000273303
4 *64:10 0.000389961
5 *64:10 *875:A 0.00012352
6 *64:10 *167:12 0
*RES
1 *762:Y *64:10 17.8268 
2 *64:10 *871:B 13.8 
3 *64:10 *873:A 15.1571 
*END

*D_NET *65 0.000385535
*CONN
*I *764:A I *D sky130_fd_sc_hd__inv_1
*I *763:Y O *D sky130_fd_sc_hd__nand2_1
*CAP
1 *764:A 0.00011894
2 *763:Y 0.00011894
3 *764:A *898:A 9.25014e-06
4 *764:A *66:12 1.67305e-05
5 *764:A *111:14 7.18918e-05
6 *764:A *183:12 4.97825e-05
7 *749:A *764:A 0
*RES
1 *763:Y *764:A 30.2384 
*END

*D_NET *66 0.000653363
*CONN
*I *886:B I *D sky130_fd_sc_hd__nand2_1
*I *888:A I *D sky130_fd_sc_hd__nand2_1
*I *764:Y O *D sky130_fd_sc_hd__inv_1
*CAP
1 *886:B 8.5229e-05
2 *888:A 0
3 *764:Y 0.000130916
4 *66:12 0.000216145
5 *886:B *888:B 5.52238e-05
6 *886:B *889:A 0
7 *886:B *889:B 5.62995e-05
8 *66:12 *888:B 5.80706e-06
9 *66:12 *898:A 6.74911e-05
10 *66:12 *111:14 1.95199e-05
11 *764:A *66:12 1.67305e-05
12 *52:12 *66:12 0
*RES
1 *764:Y *66:12 20.6839 
2 *66:12 *888:A 9.3 
3 *66:12 *886:B 11.5143 
*END

*D_NET *67 0.000262826
*CONN
*I *766:A I *D sky130_fd_sc_hd__inv_1
*I *765:Y O *D sky130_fd_sc_hd__nand2_1
*CAP
1 *766:A 0.000114188
2 *765:Y 0.000114188
3 *765:B *766:A 1.17091e-05
4 *10:109 *766:A 2.27416e-05
*RES
1 *765:Y *766:A 20.667 
*END

*D_NET *68 0.000571206
*CONN
*I *910:B I *D sky130_fd_sc_hd__nand2_1
*I *912:A I *D sky130_fd_sc_hd__nand2_1
*I *766:Y O *D sky130_fd_sc_hd__inv_1
*CAP
1 *910:B 0.000123253
2 *912:A 2.91507e-05
3 *766:Y 6.21869e-05
4 *68:6 0.00021459
5 *910:B *203:16 7.6644e-05
6 *910:B *203:18 0
7 *910:B *208:12 1.61238e-05
8 *912:A *914:A 7.43578e-06
9 *912:A *914:B 1.39726e-05
10 *912:A *203:16 6.05161e-06
11 *68:6 *914:B 1.83136e-05
12 *906:B *910:B 3.4846e-06
*RES
1 *766:Y *68:6 10.4518 
2 *68:6 *912:A 9.83571 
3 *68:6 *910:B 20.55 
*END

*D_NET *69 0.000363988
*CONN
*I *768:A I *D sky130_fd_sc_hd__inv_1
*I *767:Y O *D sky130_fd_sc_hd__nand2_1
*CAP
1 *768:A 5.2983e-05
2 *767:Y 5.2983e-05
3 *9:13 *768:A 0.000128154
4 *10:9 *768:A 0.000129868
*RES
1 *767:Y *768:A 29.4795 
*END

*D_NET *70 0.00051285
*CONN
*I *938:A I *D sky130_fd_sc_hd__nand2_1
*I *936:B I *D sky130_fd_sc_hd__nand2_1
*I *768:Y O *D sky130_fd_sc_hd__inv_1
*CAP
1 *938:A 7.52942e-05
2 *936:B 1.60352e-05
3 *768:Y 7.90829e-05
4 *70:8 0.000170412
5 *938:A *938:B 3.57366e-05
6 *938:A *233:6 9.41642e-05
7 *70:8 *233:8 0
8 *936:A *936:B 5.7661e-06
9 *936:A *938:A 3.63587e-05
*RES
1 *768:Y *70:8 10.4696 
2 *70:8 *936:B 9.72857 
3 *70:8 *938:A 11.0857 
*END

*D_NET *71 0.000229952
*CONN
*I *771:A I *D sky130_fd_sc_hd__inv_1
*I *770:Y O *D sky130_fd_sc_hd__nand2_1
*CAP
1 *771:A 6.97233e-05
2 *770:Y 6.97233e-05
3 *771:A *1031:A 1.3701e-05
4 *770:B *771:A 7.68042e-05
*RES
1 *770:Y *771:A 20.2563 
*END

*D_NET *72 0.000415517
*CONN
*I *1032:A I *D sky130_fd_sc_hd__nand2_1
*I *1031:A I *D sky130_fd_sc_hd__nand2_1
*I *771:Y O *D sky130_fd_sc_hd__inv_1
*CAP
1 *1032:A 0
2 *1031:A 6.25666e-05
3 *771:Y 5.39484e-05
4 *72:6 0.000116515
5 *1031:A *1031:B 1.97695e-05
6 *1031:A *1032:B 4.80569e-05
7 *1031:A *1034:A 0.00010096
8 *771:A *1031:A 1.3701e-05
*RES
1 *771:Y *72:6 10.0411 
2 *72:6 *1031:A 11.5143 
3 *72:6 *1032:A 9.3 
*END

*D_NET *73 0.000242579
*CONN
*I *773:A I *D sky130_fd_sc_hd__inv_1
*I *772:Y O *D sky130_fd_sc_hd__nand2_1
*CAP
1 *773:A 8.32817e-05
2 *772:Y 8.32817e-05
3 *773:A *1048:A 9.33403e-06
4 *10:25 *773:A 6.66813e-05
*RES
1 *772:Y *773:A 29.4795 
*END

*D_NET *74 0.000844049
*CONN
*I *1045:B I *D sky130_fd_sc_hd__nand2_1
*I *1048:A I *D sky130_fd_sc_hd__nand2_1
*I *773:Y O *D sky130_fd_sc_hd__inv_1
*CAP
1 *1045:B 0.000104825
2 *1048:A 0.000236926
3 *773:Y 0
4 *74:4 0.000341751
5 *1045:B *338:8 3.49456e-06
6 *773:A *1048:A 9.33403e-06
7 *10:25 *1048:A 0.000147718
*RES
1 *773:Y *74:4 9.3 
2 *74:4 *1048:A 21.8089 
3 *74:4 *1045:B 11.0768 
*END

*D_NET *75 0.00028153
*CONN
*I *775:A I *D sky130_fd_sc_hd__inv_1
*I *774:Y O *D sky130_fd_sc_hd__nand2_1
*CAP
1 *775:A 7.8461e-05
2 *774:Y 7.8461e-05
3 *775:A *1169:B 0
4 *775:A *76:8 0.000113176
5 *774:B *775:A 3.99614e-06
6 *17:26 *775:A 7.43578e-06
*RES
1 *774:Y *775:A 20.6223 
*END

*D_NET *76 0.000843831
*CONN
*I *1156:B I *D sky130_fd_sc_hd__nand2_1
*I *1159:A I *D sky130_fd_sc_hd__nand2_1
*I *775:Y O *D sky130_fd_sc_hd__inv_1
*CAP
1 *1156:B 0
2 *1159:A 2.06557e-05
3 *775:Y 0.000162953
4 *76:8 0.000183609
5 *1159:A *452:10 5.23057e-05
6 *76:8 *1158:B 5.33005e-05
7 *76:8 *452:10 5.52238e-05
8 *774:B *76:8 3.99614e-06
9 *775:A *76:8 0.000113176
10 *17:13 *1159:A 0.000144773
11 *17:13 *76:8 4.35452e-05
12 *17:26 *76:8 1.02936e-05
*RES
1 *775:Y *76:8 12.8268 
2 *76:8 *1159:A 10.6571 
3 *76:8 *1156:B 9.3 
*END

*D_NET *77 0.000331744
*CONN
*I *777:A I *D sky130_fd_sc_hd__inv_1
*I *776:Y O *D sky130_fd_sc_hd__nand2_1
*CAP
1 *777:A 8.8216e-05
2 *776:Y 8.8216e-05
3 *777:A *1292:B 2.97126e-05
4 p[15] *777:A 0.000125599
*RES
1 *776:Y *777:A 29.5241 
*END

*D_NET *78 0.000665599
*CONN
*I *1292:A I *D sky130_fd_sc_hd__nand2_1
*I *1293:A I *D sky130_fd_sc_hd__nand2_1
*I *777:Y O *D sky130_fd_sc_hd__inv_1
*CAP
1 *1292:A 0
2 *1293:A 5.62524e-05
3 *777:Y 9.89508e-05
4 *78:8 0.000155203
5 *1293:A *1292:B 1.30765e-05
6 *1293:A *1293:B 2.79334e-05
7 *1293:A *1295:A 3.13687e-05
8 *1293:A *1295:B 0.000184855
9 *78:8 *1292:B 4.8083e-05
10 *78:8 *1293:B 3.77502e-05
11 *78:8 *1295:B 1.21258e-05
*RES
1 *777:Y *78:8 11.2911 
2 *78:8 *1293:A 11.5143 
3 *78:8 *1292:A 9.3 
*END

*D_NET *79 0.000974617
*CONN
*I *783:A I *D sky130_fd_sc_hd__inv_1
*I *779:B I *D sky130_fd_sc_hd__nand2_1
*I *781:B I *D sky130_fd_sc_hd__nand2_1
*I *778:Y O *D sky130_fd_sc_hd__nand2_1
*CAP
1 *783:A 0.00012357
2 *779:B 0
3 *781:B 0.000106406
4 *778:Y 5.83106e-05
5 *79:10 0.000106406
6 *79:8 0.000181881
7 *781:B *782:A 0
8 *781:B *782:B 4.98155e-05
9 *783:A *779:A 5.80706e-06
10 *783:A *1246:A 0
11 *783:A *92:18 8.2395e-05
12 *79:8 *779:A 8.06427e-05
13 *79:8 *781:A 0.00015234
14 *6:43 *783:A 1.14548e-05
15 *14:87 *781:B 1.55885e-05
*RES
1 *778:Y *79:8 15.7464 
2 *79:8 *79:10 4.5 
3 *79:10 *781:B 11.5143 
4 *79:10 *779:B 9.3 
5 *79:8 *783:A 16.2866 
*END

*D_NET *80 0.000326208
*CONN
*I *782:A I *D sky130_fd_sc_hd__nand2_1
*I *779:Y O *D sky130_fd_sc_hd__nand2_1
*CAP
1 *782:A 8.83314e-05
2 *779:Y 8.83314e-05
3 *782:A *782:B 5.75275e-05
4 *782:A *82:12 5.71472e-05
5 *781:B *782:A 0
6 *6:29 *782:A 0
7 *6:43 *782:A 0
8 *14:87 *782:A 3.48705e-05
*RES
1 *779:Y *782:A 20.7964 
*END

*D_NET *81 0.000499221
*CONN
*I *782:B I *D sky130_fd_sc_hd__nand2_1
*I *781:Y O *D sky130_fd_sc_hd__nand2_1
*CAP
1 *782:B 8.21698e-05
2 *781:Y 8.21698e-05
3 *781:B *782:B 4.98155e-05
4 *782:A *782:B 5.75275e-05
5 *14:87 *782:B 0.000227539
*RES
1 *781:Y *782:B 21.2071 
*END

*D_NET *82 0.00306785
*CONN
*I *983:A I *D sky130_fd_sc_hd__nand2_1
*I *982:A I *D sky130_fd_sc_hd__nand2_1
*I *782:Y O *D sky130_fd_sc_hd__nand2_1
*CAP
1 *983:A 0.000135851
2 *982:A 0
3 *782:Y 0.000633144
4 *82:12 0.000768995
5 *983:A *849:A 0
6 *983:A *983:B 3.76337e-05
7 *983:A *984:A 5.52302e-05
8 *983:A *984:B 1.04232e-05
9 *983:A *985:A 7.43578e-06
10 *983:A *990:A 3.18676e-05
11 *983:A *278:6 7.17136e-05
12 *82:12 *1246:A 0.000137983
13 *82:12 *91:10 0
14 *82:12 *137:12 0.000120645
15 *782:A *82:12 5.71472e-05
16 *6:29 *82:12 0.000872941
17 *6:43 *82:12 0.000117621
18 *14:87 *82:12 9.22103e-06
*RES
1 *782:Y *82:12 32.3714 
2 *82:12 *982:A 9.3 
3 *82:12 *983:A 12.7464 
*END

*D_NET *83 0.000931091
*CONN
*I *877:A I *D sky130_fd_sc_hd__nand2_1
*I *876:A I *D sky130_fd_sc_hd__nand2_1
*I *783:Y O *D sky130_fd_sc_hd__inv_1
*CAP
1 *877:A 7.20474e-05
2 *876:A 0
3 *783:Y 0.000164862
4 *83:10 0.00023691
5 *877:A *795:A 0
6 *877:A *92:18 0.000172375
7 *877:A *97:12 2.23987e-05
8 *877:A *174:21 0.00010326
9 *83:10 *92:18 0.00014576
10 *83:10 *97:12 5.80706e-06
11 *6:43 *83:10 7.67142e-06
*RES
1 *783:Y *83:10 16.4875 
2 *83:10 *876:A 13.8 
3 *83:10 *877:A 16.05 
*END

*D_NET *84 0.000887412
*CONN
*I *793:A I *D sky130_fd_sc_hd__nand2_1
*I *785:B I *D sky130_fd_sc_hd__nand2_1
*I *786:B I *D sky130_fd_sc_hd__nand2_1
*I *784:Y O *D sky130_fd_sc_hd__nand2_1
*CAP
1 *793:A 0.000144548
2 *785:B 0
3 *786:B 7.35709e-05
4 *784:Y 0
5 *84:21 0.00024235
6 *84:4 0.000171372
7 *786:B *784:B 4.5925e-05
8 *786:B *785:A 1.32293e-05
9 *786:B *957:A 1.12713e-05
10 *786:B *259:8 4.00668e-05
11 *84:21 *785:A 0.000125542
12 *16:53 *793:A 1.95368e-05
*RES
1 *784:Y *84:4 9.3 
2 *84:4 *786:B 11.1036 
3 *84:4 *84:21 6.67857 
4 *84:21 *785:B 13.8 
5 *84:21 *793:A 16.6571 
*END

*D_NET *85 0.000191975
*CONN
*I *787:A I *D sky130_fd_sc_hd__nand2_1
*I *785:Y O *D sky130_fd_sc_hd__nand2_1
*CAP
1 *787:A 9.42401e-05
2 *785:Y 9.42401e-05
3 *787:A *788:A 3.49456e-06
*RES
1 *785:Y *787:A 19.975 
*END

*D_NET *86 0.000211118
*CONN
*I *787:B I *D sky130_fd_sc_hd__nand2_1
*I *786:Y O *D sky130_fd_sc_hd__nand2_1
*CAP
1 *787:B 5.90232e-05
2 *786:Y 5.90232e-05
3 *787:B *785:A 3.98645e-05
4 *3:50 *787:B 5.32071e-05
*RES
1 *786:Y *787:B 29.2429 
*END

*D_NET *87 0.000709803
*CONN
*I *789:A I *D sky130_fd_sc_hd__nand2_1
*I *788:A I *D sky130_fd_sc_hd__nand2_1
*I *787:Y O *D sky130_fd_sc_hd__nand2_1
*CAP
1 *789:A 0.000141976
2 *788:A 1.73701e-05
3 *787:Y 5.68047e-05
4 *87:6 0.000216151
5 *789:A *788:B 0.000139501
6 *789:A *88:12 0.000105973
7 *87:6 *88:12 7.25873e-06
8 *787:A *788:A 3.49456e-06
9 *3:50 *789:A 2.12733e-05
*RES
1 *787:Y *87:6 10.2464 
2 *87:6 *788:A 9.72857 
3 *87:6 *789:A 21.925 
*END

*D_NET *88 0.00102151
*CONN
*I *790:B I *D sky130_fd_sc_hd__nand2_1
*I *793:B I *D sky130_fd_sc_hd__nand2_1
*I *789:B I *D sky130_fd_sc_hd__nand2_1
*I *788:Y O *D sky130_fd_sc_hd__nand2_1
*CAP
1 *790:B 7.54022e-05
2 *793:B 8.02616e-05
3 *789:B 0
4 *788:Y 0.000123624
5 *88:19 0.00016377
6 *88:12 0.00013173
7 *790:B *790:A 9.1543e-06
8 *790:B *792:A 5.66971e-05
9 *790:B *556:6 4.04683e-05
10 *793:B *1113:A 2.3541e-05
11 *793:B *92:18 0.000138432
12 *793:B *556:6 2.65789e-05
13 *88:12 *1113:A 4.27842e-06
14 *789:A *88:12 0.000105973
15 *16:53 *793:B 1.84776e-05
16 *16:53 *88:12 1.5864e-05
17 *87:6 *88:12 7.25873e-06
*RES
1 *788:Y *88:12 20.7821 
2 *88:12 *789:B 9.3 
3 *88:12 *88:19 0.428571 
4 *88:19 *793:B 11.4964 
5 *88:19 *790:B 11.0857 
*END

*D_NET *89 0.000713473
*CONN
*I *792:A I *D sky130_fd_sc_hd__nand2_1
*I *789:Y O *D sky130_fd_sc_hd__nand2_1
*CAP
1 *792:A 0.000231937
2 *789:Y 0.000231937
3 *792:A *790:A 6.93704e-06
4 *792:A *792:B 0.000178707
5 *792:A *91:10 7.25873e-06
6 *790:B *792:A 5.66971e-05
*RES
1 *789:Y *792:A 22.4571 
*END

*D_NET *90 0.00029936
*CONN
*I *792:B I *D sky130_fd_sc_hd__nand2_1
*I *790:Y O *D sky130_fd_sc_hd__nand2_1
*CAP
1 *792:B 4.70276e-05
2 *790:Y 4.70276e-05
3 *792:B *790:A 2.65975e-05
4 *792:A *792:B 0.000178707
*RES
1 *790:Y *792:B 20.3857 
*END

*D_NET *91 0.00548537
*CONN
*I *992:B I *D sky130_fd_sc_hd__nand2_1
*I *994:A I *D sky130_fd_sc_hd__nand2_1
*I *792:Y O *D sky130_fd_sc_hd__nand2_1
*CAP
1 *992:B 6.93665e-06
2 *994:A 0
3 *792:Y 0.00204443
4 *91:14 2.92579e-05
5 *91:10 0.00206675
6 *992:B *995:B 3.18676e-05
7 *992:B *288:8 4.38128e-05
8 *91:10 *831:A 0.000224316
9 *91:10 *837:A 0
10 *91:10 *845:B 0
11 *91:10 *850:B 5.31185e-05
12 *91:10 *851:A 0
13 *91:10 *853:B 6.65302e-05
14 *91:10 *874:A 0
15 *91:10 *990:A 0
16 *91:10 *1000:A 4.46186e-06
17 *91:10 *1091:A 0
18 *91:10 *137:12 0
19 *91:10 *163:12 0
20 *91:10 *167:12 0
21 *91:14 *995:B 7.43578e-06
22 *91:14 *288:8 5.52302e-05
23 *792:A *91:10 7.25873e-06
24 *855:B *91:10 0
25 *880:B *91:10 0.000141941
26 *1301:A *91:10 0.000139113
27 *1301:B *91:10 2.24718e-05
28 *1329:A *91:10 1.21365e-05
29 *1341:A *91:10 1.01912e-05
30 *4:72 *91:10 7.58841e-05
31 *5:29 *91:10 8.56812e-05
32 *5:43 *91:10 0
33 *7:36 *91:10 6.09476e-05
34 *12:120 *91:10 6.19181e-05
35 *13:46 *91:10 0
36 *13:58 *91:10 0
37 *13:89 *91:10 0
38 *14:101 *91:10 0.000164203
39 *36:12 *91:10 6.94775e-05
40 *82:12 *91:10 0
*RES
1 *792:Y *91:10 48.7464 
2 *91:10 *91:14 5.03571 
3 *91:14 *994:A 9.3 
4 *91:14 *992:B 9.83571 
*END

*D_NET *92 0.00490664
*CONN
*I *896:B I *D sky130_fd_sc_hd__nand2_1
*I *898:A I *D sky130_fd_sc_hd__nand2_1
*I *793:Y O *D sky130_fd_sc_hd__nand2_1
*CAP
1 *896:B 0
2 *898:A 0.000110832
3 *793:Y 0.00130424
4 *92:18 0.00141507
5 *898:A *98:14 0
6 *898:A *111:14 9.90367e-05
7 *898:A *183:12 9.57064e-05
8 *92:18 *780:A 6.74911e-05
9 *92:18 *781:A 0.000224599
10 *92:18 *804:B 0
11 *92:18 *879:B 0
12 *92:18 *884:A 0
13 *92:18 *897:A 4.46186e-06
14 *92:18 *935:A 0
15 *92:18 *1113:A 0.000192085
16 *92:18 *111:14 4.08637e-05
17 *92:18 *183:12 0.000522085
18 *762:A *92:18 0
19 *764:A *898:A 9.25014e-06
20 *783:A *92:18 8.2395e-05
21 *793:B *92:18 0.000138432
22 *877:A *92:18 0.000172375
23 *924:A *92:18 9.76928e-05
24 *924:B *92:18 7.48356e-05
25 *14:87 *92:18 3.0285e-05
26 *16:53 *92:18 1.16543e-05
27 *66:12 *898:A 6.74911e-05
28 *83:10 *92:18 0.00014576
*RES
1 *793:Y *92:18 45.0679 
2 *92:18 *898:A 21.4964 
3 *92:18 *896:B 9.3 
*END

*D_NET *93 0.00103443
*CONN
*I *798:A I *D sky130_fd_sc_hd__inv_1
*I *795:B I *D sky130_fd_sc_hd__nand2_1
*I *796:B I *D sky130_fd_sc_hd__nand2_1
*I *794:Y O *D sky130_fd_sc_hd__nand2_1
*CAP
1 *798:A 9.54686e-05
2 *795:B 1.03267e-05
3 *796:B 0
4 *794:Y 0.000152755
5 *93:12 5.35622e-05
6 *93:8 0.000291459
7 *795:B *794:A 3.18676e-05
8 *795:B *797:B 5.52302e-05
9 *798:A *98:14 6.05161e-06
10 *798:A *106:10 0.000141375
11 *798:A *183:12 0
12 *93:8 *794:A 2.13481e-06
13 *93:8 *796:A 1.98839e-05
14 *93:8 *797:B 2.59355e-05
15 *93:12 *795:A 2.8266e-06
16 *93:12 *106:10 8.07951e-05
17 *8:45 *798:A 1.14548e-05
18 *15:75 *93:8 5.33005e-05
*RES
1 *794:Y *93:8 15.5679 
2 *93:8 *93:12 5.53571 
3 *93:12 *796:B 9.3 
4 *93:12 *795:B 9.83571 
5 *93:8 *798:A 15.983 
*END

*D_NET *94 0.000343648
*CONN
*I *797:A I *D sky130_fd_sc_hd__nand2_1
*I *795:Y O *D sky130_fd_sc_hd__nand2_1
*CAP
1 *797:A 9.88963e-05
2 *795:Y 9.88963e-05
3 *797:A *794:A 5.52238e-05
4 *797:A *797:B 5.75275e-05
5 *797:A *877:B 1.97695e-05
6 *797:A *97:12 1.33343e-05
*RES
1 *795:Y *797:A 20.7964 
*END

*D_NET *95 0.000462083
*CONN
*I *746:A I *D sky130_fd_sc_hd__inv_1
*I *745:Y O *D sky130_fd_sc_hd__nand2_1
*CAP
1 *746:A 0.000111914
2 *745:Y 0.000111914
3 *746:A *1167:A 5.80217e-05
4 *746:A *465:8 2.89016e-05
5 *3:5 *746:A 0.000151333
*RES
1 *745:Y *746:A 30.3634 
*END

*D_NET *96 0.000397463
*CONN
*I *797:B I *D sky130_fd_sc_hd__nand2_1
*I *796:Y O *D sky130_fd_sc_hd__nand2_1
*CAP
1 *797:B 0.000116329
2 *796:Y 0.000116329
3 *797:B *794:A 2.6113e-05
4 *797:B *796:A 0
5 *795:B *797:B 5.52302e-05
6 *797:A *797:B 5.75275e-05
7 *93:8 *797:B 2.59355e-05
*RES
1 *796:Y *797:B 21.2071 
*END

*D_NET *97 0.000961228
*CONN
*I *876:B I *D sky130_fd_sc_hd__nand2_1
*I *878:A I *D sky130_fd_sc_hd__nand2_1
*I *797:Y O *D sky130_fd_sc_hd__nand2_1
*CAP
1 *876:B 0
2 *878:A 0.00010521
3 *797:Y 0.000164056
4 *97:12 0.000269266
5 *878:A *878:B 5.85477e-05
6 *878:A *879:B 5.30637e-06
7 *97:12 *877:B 1.24368e-05
8 *97:12 *106:10 0
9 *97:12 *174:21 7.83587e-05
10 *797:A *97:12 1.33343e-05
11 *877:A *97:12 2.23987e-05
12 *15:83 *878:A 0.000226507
13 *83:10 *97:12 5.80706e-06
*RES
1 *797:Y *97:12 20.8893 
2 *97:12 *878:A 12.3357 
3 *97:12 *876:B 9.3 
*END

*D_NET *98 0.00185469
*CONN
*I *893:A I *D sky130_fd_sc_hd__nand2_1
*I *890:B I *D sky130_fd_sc_hd__nand2_1
*I *798:Y O *D sky130_fd_sc_hd__inv_1
*CAP
1 *893:A 2.03529e-05
2 *890:B 0
3 *798:Y 0.000400129
4 *98:14 0.000420482
5 *893:A *893:B 2.44318e-05
6 *98:14 *888:B 0
7 *98:14 *893:B 2.28598e-05
8 *98:14 *106:10 0.000713254
9 *98:14 *183:12 0
10 *98:14 *188:10 1.24368e-05
11 *749:A *98:14 8.06427e-05
12 *798:A *98:14 6.05161e-06
13 *898:A *98:14 0
14 *8:45 *98:14 4.90046e-06
15 *13:108 *98:14 2.34204e-05
16 *52:12 *98:14 0.000125724
*RES
1 *798:Y *98:14 28.3982 
2 *98:14 *890:B 9.3 
3 *98:14 *893:A 9.83571 
*END

*D_NET *99 0.0016497
*CONN
*I *800:B I *D sky130_fd_sc_hd__nand2_1
*I *808:A I *D sky130_fd_sc_hd__nand2_1
*I *801:B I *D sky130_fd_sc_hd__nand2_1
*I *799:Y O *D sky130_fd_sc_hd__nand2_1
*CAP
1 *800:B 6.24049e-05
2 *808:A 8.56451e-05
3 *801:B 0
4 *799:Y 0.000358258
5 *99:17 0.000184586
6 *99:8 0.000394795
7 *800:B *803:A 0
8 *800:B *803:B 4.67398e-05
9 *808:A *808:B 1.02504e-05
10 *808:A *102:10 0
11 *99:8 *799:A 2.44318e-05
12 *99:8 *799:B 0.000315165
13 *99:8 *803:B 1.98839e-05
14 *99:8 *1157:A 0
15 *99:17 *803:B 6.05161e-06
16 *6:57 *808:A 0.000128154
17 *6:57 *99:17 1.33343e-05
*RES
1 *799:Y *99:8 14.5679 
2 *99:8 *801:B 9.3 
3 *99:8 *99:17 0.964286 
4 *99:17 *808:A 20.2464 
5 *99:17 *800:B 10.675 
*END

*D_NET *100 0.00034859
*CONN
*I *803:A I *D sky130_fd_sc_hd__nand2_1
*I *800:Y O *D sky130_fd_sc_hd__nand2_1
*CAP
1 *803:A 9.13008e-05
2 *800:Y 9.13008e-05
3 *803:A *799:A 4.22599e-05
4 *803:A *799:B 1.02821e-05
5 *803:A *803:B 5.62995e-05
6 *803:A *102:10 5.71472e-05
7 *800:B *803:A 0
*RES
1 *800:Y *803:A 20.7964 
*END

*D_NET *101 0.000490458
*CONN
*I *803:B I *D sky130_fd_sc_hd__nand2_1
*I *801:Y O *D sky130_fd_sc_hd__nand2_1
*CAP
1 *803:B 7.00744e-05
2 *801:Y 7.00744e-05
3 *803:B *799:A 3.46657e-05
4 *803:B *799:B 0.000186669
5 *800:B *803:B 4.67398e-05
6 *803:A *803:B 5.62995e-05
7 *99:8 *803:B 1.98839e-05
8 *99:17 *803:B 6.05161e-06
*RES
1 *801:Y *803:B 21.2071 
*END

*D_NET *102 0.00133616
*CONN
*I *805:A I *D sky130_fd_sc_hd__nand2_1
*I *804:A I *D sky130_fd_sc_hd__nand2_1
*I *803:Y O *D sky130_fd_sc_hd__nand2_1
*CAP
1 *805:A 1.63101e-05
2 *804:A 7.27843e-05
3 *803:Y 0.00020696
4 *102:10 0.000296054
5 *804:A *807:A 0.000175643
6 *804:A *103:16 0.00018372
7 *805:A *103:16 4.73656e-05
8 *805:A *107:14 5.59013e-05
9 *102:10 *1290:A 6.92626e-05
10 *102:10 *103:16 3.34366e-05
11 *102:10 *107:14 0.000121573
12 *803:A *102:10 5.71472e-05
13 *808:A *102:10 0
*RES
1 *803:Y *102:10 18.1036 
2 *102:10 *804:A 16.3 
3 *102:10 *805:A 14.5321 
*END

*D_NET *103 0.00175818
*CONN
*I *805:B I *D sky130_fd_sc_hd__nand2_1
*I *808:B I *D sky130_fd_sc_hd__nand2_1
*I *806:B I *D sky130_fd_sc_hd__nand2_1
*I *804:Y O *D sky130_fd_sc_hd__nand2_1
*CAP
1 *805:B 0
2 *808:B 9.57782e-05
3 *806:B 3.18565e-05
4 *804:Y 0.00027822
5 *103:20 0.000167457
6 *103:16 0.000318043
7 *806:B *807:B 6.05161e-06
8 *806:B *1290:A 5.52238e-05
9 *808:B *806:A 0.000125724
10 *808:B *1290:A 3.67548e-05
11 *808:B *107:14 2.89114e-05
12 *103:16 *806:A 2.84309e-05
13 *103:16 *807:A 1.98839e-05
14 *103:16 *1290:A 3.34295e-05
15 *103:16 *107:14 6.37883e-06
16 *103:20 *807:A 0
17 *103:20 *807:B 5.27915e-05
18 *103:20 *1290:A 8.17274e-05
19 *804:A *103:16 0.00018372
20 *805:A *103:16 4.73656e-05
21 *808:A *808:B 1.02504e-05
22 *1279:B *806:B 1.3701e-05
23 *6:45 *103:16 0
24 *6:57 *808:B 0.000103041
25 *102:10 *103:16 3.34366e-05
*RES
1 *804:Y *103:16 22.8893 
2 *103:16 *103:20 1.375 
3 *103:20 *806:B 10.2643 
4 *103:20 *808:B 21.3893 
5 *103:16 *805:B 9.3 
*END

*D_NET *104 0.000410441
*CONN
*I *807:A I *D sky130_fd_sc_hd__nand2_1
*I *805:Y O *D sky130_fd_sc_hd__nand2_1
*CAP
1 *807:A 8.1664e-05
2 *805:Y 8.1664e-05
3 *807:A *807:B 5.15855e-05
4 *804:A *807:A 0.000175643
5 *103:16 *807:A 1.98839e-05
6 *103:20 *807:A 0
*RES
1 *805:Y *807:A 20.7964 
*END

*D_NET *105 0.000433307
*CONN
*I *807:B I *D sky130_fd_sc_hd__nand2_1
*I *806:Y O *D sky130_fd_sc_hd__nand2_1
*CAP
1 *807:B 0.000161439
2 *806:Y 0.000161439
3 *806:B *807:B 6.05161e-06
4 *807:A *807:B 5.15855e-05
5 *103:20 *807:B 5.27915e-05
*RES
1 *806:Y *807:B 21.2071 
*END

*D_NET *106 0.00437106
*CONN
*I *1001:A I *D sky130_fd_sc_hd__nand2_1
*I *1003:A I *D sky130_fd_sc_hd__nand2_1
*I *807:Y O *D sky130_fd_sc_hd__nand2_1
*CAP
1 *1001:A 1.16062e-05
2 *1003:A 0
3 *807:Y 0.000862624
4 *106:10 0.00087423
5 *1001:A *1001:B 5.52302e-05
6 *1001:A *1005:A 5.52302e-05
7 *106:10 *795:A 0
8 *106:10 *887:B 2.84398e-05
9 *106:10 *894:A 0.000125724
10 *106:10 *894:B 4.25716e-05
11 *106:10 *895:A 0
12 *106:10 *1001:B 2.09826e-05
13 *106:10 *1004:A 1.00375e-05
14 *106:10 *107:14 0.00108728
15 *106:10 *187:12 0.000148903
16 *106:10 *191:10 0.000112777
17 *106:10 *592:10 0
18 *798:A *106:10 0.000141375
19 *14:87 *106:10 0
20 *93:12 *106:10 8.07951e-05
21 *97:12 *106:10 0
22 *98:14 *106:10 0.000713254
*RES
1 *807:Y *106:10 42.1036 
2 *106:10 *1003:A 9.3 
3 *106:10 *1001:A 9.83571 
*END

*D_NET *107 0.00484255
*CONN
*I *918:A I *D sky130_fd_sc_hd__nand2_1
*I *916:B I *D sky130_fd_sc_hd__nand2_1
*I *808:Y O *D sky130_fd_sc_hd__nand2_1
*CAP
1 *918:A 0.000208961
2 *916:B 0
3 *808:Y 0.000897382
4 *107:14 0.00110634
5 *918:A *112:6 0.000120943
6 *918:A *213:12 0.000226483
7 *107:14 *804:B 6.12955e-05
8 *107:14 *806:A 0.000119475
9 *107:14 *1290:A 1.37743e-05
10 *107:14 *111:14 0.000316184
11 *805:A *107:14 5.59013e-05
12 *808:B *107:14 2.89114e-05
13 *1257:A *107:14 0
14 *6:45 *107:14 0
15 *9:77 *107:14 0.000166686
16 *14:87 *107:14 8.45293e-05
17 *15:75 *107:14 0.000220448
18 *102:10 *107:14 0.000121573
19 *103:16 *107:14 6.37883e-06
20 *106:10 *107:14 0.00108728
*RES
1 *808:Y *107:14 41.1214 
2 *107:14 *916:B 9.3 
3 *107:14 *918:A 22.9786 
*END

*D_NET *108 0.00120137
*CONN
*I *811:B I *D sky130_fd_sc_hd__nand2_1
*I *814:A I *D sky130_fd_sc_hd__inv_1
*I *810:B I *D sky130_fd_sc_hd__nand2_1
*I *809:Y O *D sky130_fd_sc_hd__nand2_1
*CAP
1 *811:B 1.63023e-05
2 *814:A 0.000194813
3 *810:B 0
4 *809:Y 0.000100894
5 *108:21 0.000248867
6 *108:12 0.000138645
7 *814:A *111:14 0
8 *108:12 *810:A 6.09572e-05
9 *108:21 *812:A 0
10 *108:21 *812:B 5.27816e-05
11 *765:A *814:A 0
12 *765:B *811:B 0
13 *765:B *814:A 2.27416e-05
14 *765:B *108:21 1.21289e-05
15 *809:B *108:12 1.66859e-05
16 *811:A *108:12 0.000123295
17 *8:45 *108:12 1.32552e-05
18 *10:92 *814:A 0
19 *10:109 *814:A 5.52302e-05
20 *10:109 *108:21 0.000144773
*RES
1 *809:Y *108:12 20.4786 
2 *108:12 *810:B 9.3 
3 *108:12 *108:21 1.78571 
4 *108:21 *814:A 21.6705 
5 *108:21 *811:B 9.72857 
*END

*D_NET *109 0.000386725
*CONN
*I *812:A I *D sky130_fd_sc_hd__nand2_1
*I *810:Y O *D sky130_fd_sc_hd__nand2_1
*CAP
1 *812:A 5.28706e-05
2 *810:Y 5.28706e-05
3 *812:A *812:B 5.75275e-05
4 *765:B *812:A 3.48705e-05
5 *10:109 *812:A 0.000188586
6 *108:21 *812:A 0
*RES
1 *810:Y *812:A 20.7964 
*END

*D_NET *110 0.000503986
*CONN
*I *812:B I *D sky130_fd_sc_hd__nand2_1
*I *811:Y O *D sky130_fd_sc_hd__nand2_1
*CAP
1 *812:B 7.99097e-05
2 *811:Y 7.99097e-05
3 *765:B *812:B 0.000223564
4 *812:A *812:B 5.75275e-05
5 *10:109 *812:B 1.02936e-05
6 *108:21 *812:B 5.27816e-05
*RES
1 *811:Y *812:B 21.2071 
*END

*D_NET *111 0.00208419
*CONN
*I *897:A I *D sky130_fd_sc_hd__nand2_1
*I *896:A I *D sky130_fd_sc_hd__nand2_1
*I *812:Y O *D sky130_fd_sc_hd__nand2_1
*CAP
1 *897:A 0.000136988
2 *896:A 0
3 *812:Y 0.000567265
4 *111:14 0.000704253
5 *897:A *875:A 0
6 *897:A *905:A 4.46186e-06
7 *897:A *183:12 1.50181e-05
8 *897:A *194:8 6.74911e-05
9 *749:A *111:14 2.3541e-05
10 *764:A *111:14 7.18918e-05
11 *814:A *111:14 0
12 *898:A *111:14 9.90367e-05
13 *52:12 *111:14 1.3216e-05
14 *66:12 *111:14 1.95199e-05
15 *92:18 *897:A 4.46186e-06
16 *92:18 *111:14 4.08637e-05
17 *107:14 *111:14 0.000316184
*RES
1 *812:Y *111:14 29.1214 
2 *111:14 *896:A 9.3 
3 *111:14 *897:A 21.0857 
*END

*D_NET *112 0.000526123
*CONN
*I *916:A I *D sky130_fd_sc_hd__nand2_1
*I *917:A I *D sky130_fd_sc_hd__nand2_1
*I *814:Y O *D sky130_fd_sc_hd__inv_1
*CAP
1 *916:A 0
2 *917:A 0.000128805
3 *814:Y 4.16678e-05
4 *112:6 0.000170473
5 *917:A *887:B 0
6 *917:A *213:12 6.42338e-05
7 *918:A *112:6 0.000120943
*RES
1 *814:Y *112:6 10.4518 
2 *112:6 *917:A 20.55 
3 *112:6 *916:A 9.3 
*END

*D_NET *113 0.00122815
*CONN
*I *823:A I *D sky130_fd_sc_hd__nand2_1
*I *816:B I *D sky130_fd_sc_hd__nand2_1
*I *817:B I *D sky130_fd_sc_hd__nand2_1
*I *815:Y O *D sky130_fd_sc_hd__nand2_1
*CAP
1 *823:A 0.000185491
2 *816:B 0
3 *817:B 0.000175744
4 *815:Y 0
5 *113:23 0.000268323
6 *113:4 0.000258576
7 *817:B *817:A 2.80368e-05
8 *817:B *596:10 5.05391e-05
9 *823:A *818:A 3.93247e-05
10 *113:23 *816:A 7.50697e-05
11 *113:23 *818:B 1.91512e-05
12 *1279:B *823:A 1.39841e-05
13 *8:76 *823:A 0
14 *16:19 *823:A 6.28241e-05
15 *16:23 *113:23 5.10822e-05
*RES
1 *815:Y *113:4 9.3 
2 *113:4 *817:B 12.3536 
3 *113:4 *113:23 10.9464 
4 *113:23 *816:B 9.3 
5 *113:23 *823:A 12.7464 
*END

*D_NET *114 0.000239125
*CONN
*I *818:A I *D sky130_fd_sc_hd__nand2_1
*I *816:Y O *D sky130_fd_sc_hd__nand2_1
*CAP
1 *818:A 5.08914e-05
2 *816:Y 5.08914e-05
3 *823:A *818:A 3.93247e-05
4 *1279:B *818:A 9.80173e-05
*RES
1 *816:Y *818:A 19.975 
*END

*D_NET *115 0.000289948
*CONN
*I *818:B I *D sky130_fd_sc_hd__nand2_1
*I *817:Y O *D sky130_fd_sc_hd__nand2_1
*CAP
1 *818:B 5.63397e-05
2 *817:Y 5.63397e-05
3 *7:69 *818:B 5.48581e-05
4 *16:23 *818:B 0.00010326
5 *113:23 *818:B 1.91512e-05
*RES
1 *817:Y *818:B 29.5464 
*END

*D_NET *116 0.000333469
*CONN
*I *968:A I *D sky130_fd_sc_hd__inv_1
*I *857:Y O *D sky130_fd_sc_hd__nand2_1
*CAP
1 *968:A 0.000125738
2 *857:Y 0.000125738
3 *968:A *824:A 3.00023e-05
4 *745:B *968:A 4.35131e-05
5 *813:B *968:A 8.47668e-06
6 *3:16 *968:A 0
7 *4:15 *968:A 0
8 *4:19 *968:A 0
*RES
1 *857:Y *968:A 29.8277 
*END

*D_NET *117 0.000937761
*CONN
*I *820:A I *D sky130_fd_sc_hd__nand2_1
*I *819:A I *D sky130_fd_sc_hd__nand2_1
*I *818:Y O *D sky130_fd_sc_hd__nand2_1
*CAP
1 *820:A 7.85714e-05
2 *819:A 0
3 *818:Y 0.000110898
4 *117:10 0.000189469
5 *820:A *819:B 0.000101456
6 *820:A *821:A 0.000250241
7 *820:A *1318:A 7.78251e-05
8 *820:A *118:8 5.32035e-05
9 *1317:B *820:A 7.60962e-05
10 *7:65 *117:10 0
11 *7:69 *117:10 0
*RES
1 *818:Y *117:10 19.9429 
2 *117:10 *819:A 9.3 
3 *117:10 *820:A 13.1571 
*END

*D_NET *118 0.00218629
*CONN
*I *820:B I *D sky130_fd_sc_hd__nand2_1
*I *821:B I *D sky130_fd_sc_hd__nand2_1
*I *823:B I *D sky130_fd_sc_hd__nand2_1
*I *819:Y O *D sky130_fd_sc_hd__nand2_1
*CAP
1 *820:B 0
2 *821:B 9.9776e-05
3 *823:B 0.000186857
4 *819:Y 0.000320735
5 *118:10 0.000286633
6 *118:8 0.000320735
7 *821:B *821:A 9.06726e-05
8 *823:B *122:14 9.94037e-05
9 *118:8 *1318:A 0.000107037
10 *820:A *118:8 5.32035e-05
11 *1317:B *118:8 0.000147204
12 *8:61 *821:B 0.000117144
13 *8:61 *823:B 0.000170124
14 *8:76 *823:B 0.000186765
*RES
1 *819:Y *118:8 13.8536 
2 *118:8 *118:10 4.5 
3 *118:10 *823:B 18.4786 
4 *118:10 *821:B 16.6571 
5 *118:8 *820:B 9.3 
*END

*D_NET *119 0.000556679
*CONN
*I *822:A I *D sky130_fd_sc_hd__nand2_1
*I *820:Y O *D sky130_fd_sc_hd__nand2_1
*CAP
1 *822:A 0.000133227
2 *820:Y 0.000133227
3 *822:A *821:A 0.000202679
4 *1317:B *822:A 1.51245e-05
5 *7:65 *822:A 7.24209e-05
*RES
1 *820:Y *822:A 30.4929 
*END

*D_NET *120 0.000309519
*CONN
*I *822:B I *D sky130_fd_sc_hd__nand2_1
*I *821:Y O *D sky130_fd_sc_hd__nand2_1
*CAP
1 *822:B 0.00015476
2 *821:Y 0.00015476
*RES
1 *821:Y *822:B 20.7964 
*END

*D_NET *121 0.0022151
*CONN
*I *1011:A I *D sky130_fd_sc_hd__nand2_1
*I *1012:A I *D sky130_fd_sc_hd__nand2_1
*I *822:Y O *D sky130_fd_sc_hd__nand2_1
*CAP
1 *1011:A 0
2 *1012:A 0.000128967
3 *822:Y 0.000757125
4 *121:12 0.000886092
5 *1012:A *1015:B 5.00723e-05
6 *1012:A *1020:A 5.37741e-06
7 *1012:A *211:10 4.13122e-06
8 *1012:A *308:24 7.24209e-05
9 *121:12 *1015:B 7.32756e-05
10 *765:A *121:12 5.7119e-05
11 *906:B *121:12 8.91938e-05
12 *8:45 *121:12 0
13 *8:61 *121:12 0
14 *10:92 *121:12 9.13301e-05
15 *14:69 *121:12 0
*RES
1 *822:Y *121:12 31.3179 
2 *121:12 *1012:A 21.1571 
3 *121:12 *1011:A 9.3 
*END

*D_NET *122 0.00282849
*CONN
*I *940:B I *D sky130_fd_sc_hd__nand2_1
*I *942:A I *D sky130_fd_sc_hd__nand2_1
*I *823:Y O *D sky130_fd_sc_hd__nand2_1
*CAP
1 *940:B 0
2 *942:A 0.000226913
3 *823:Y 0.000765215
4 *122:14 0.000992128
5 *942:A *941:A 6.73734e-05
6 *942:A *231:12 0
7 *942:A *238:12 0.000148196
8 *942:A *241:10 4.08796e-05
9 *942:A *335:8 0
10 *122:14 *941:A 0.00010096
11 *122:14 *231:12 0
12 *823:B *122:14 9.94037e-05
13 *1335:A *122:14 0.000100163
14 *1336:A *122:14 0.000106356
15 *8:76 *122:14 2.50627e-05
16 *9:60 *122:14 6.93142e-05
17 *16:19 *122:14 7.92229e-06
18 *42:8 *122:14 7.86048e-05
*RES
1 *823:Y *122:14 30.05 
2 *122:14 *942:A 22.2286 
3 *122:14 *940:B 9.3 
*END

*D_NET *123 0.00125585
*CONN
*I *826:B I *D sky130_fd_sc_hd__nand2_1
*I *829:A I *D sky130_fd_sc_hd__inv_1
*I *827:B I *D sky130_fd_sc_hd__nand2_1
*I *825:Y O *D sky130_fd_sc_hd__nand2_1
*CAP
1 *826:B 0
2 *829:A 0.000106553
3 *827:B 8.37884e-06
4 *825:Y 0.000154839
5 *123:19 0.000197899
6 *123:8 0.000254564
7 *827:B *826:A 1.02301e-05
8 *827:B *827:A 1.92535e-05
9 *829:A *128:10 1.66856e-05
10 *123:8 *826:A 1.97617e-05
11 *123:8 *827:A 5.62995e-05
12 *123:19 *826:A 3.39873e-05
13 *5:29 *829:A 3.55406e-05
14 *6:23 *829:A 0.000119252
15 *12:32 *829:A 3.31535e-05
16 *12:89 *829:A 0.000189455
*RES
1 *825:Y *123:8 11.8 
2 *123:8 *827:B 9.72857 
3 *123:8 *123:19 1.78571 
4 *123:19 *829:A 21.8045 
5 *123:19 *826:B 9.3 
*END

*D_NET *124 0.00041728
*CONN
*I *828:A I *D sky130_fd_sc_hd__nand2_1
*I *826:Y O *D sky130_fd_sc_hd__nand2_1
*CAP
1 *828:A 8.54446e-05
2 *826:Y 8.54446e-05
3 *828:A *826:A 5.33005e-05
4 *828:A *828:B 6.66813e-05
5 *6:23 *828:A 0.000126409
*RES
1 *826:Y *828:A 29.7786 
*END

*D_NET *125 0.000211442
*CONN
*I *828:B I *D sky130_fd_sc_hd__nand2_1
*I *827:Y O *D sky130_fd_sc_hd__nand2_1
*CAP
1 *828:B 6.09246e-05
2 *827:Y 6.09246e-05
3 *828:B *347:12 2.29112e-05
4 *828:A *828:B 6.66813e-05
*RES
1 *827:Y *828:B 29.2429 
*END

*D_NET *126 0.000759542
*CONN
*I *1066:B I *D sky130_fd_sc_hd__nand2_1
*I *1069:A I *D sky130_fd_sc_hd__nand2_1
*I *828:Y O *D sky130_fd_sc_hd__nand2_1
*CAP
1 *1066:B 0
2 *1069:A 0.000144209
3 *828:Y 7.83442e-05
4 *126:8 0.000222553
5 *1069:A *1066:A 0.000175281
6 *1069:A *1067:A 2.59355e-05
7 *1069:A *257:6 2.85234e-05
8 *126:8 *1066:A 1.00887e-05
9 *11:41 *126:8 7.46072e-05
*RES
1 *828:Y *126:8 15.7464 
2 *126:8 *1069:A 16.9964 
3 *126:8 *1066:B 13.8 
*END

*D_NET *127 0.00115222
*CONN
*I *1166:A I *D sky130_fd_sc_hd__nand2_1
*I *1167:A I *D sky130_fd_sc_hd__nand2_1
*I *968:Y O *D sky130_fd_sc_hd__inv_1
*CAP
1 *1166:A 5.17975e-05
2 *1167:A 0.000110661
3 *968:Y 0.000115178
4 *127:10 0.000277636
5 *1166:A *1171:A 2.80853e-05
6 *1166:A *281:18 0.000178586
7 *1166:A *462:8 1.15172e-05
8 *1166:A *465:8 1.66856e-05
9 *1167:A *1167:B 7.8327e-05
10 *1167:A *1171:A 4.35131e-05
11 *127:10 *824:A 7.71303e-05
12 *127:10 *281:18 7.6644e-05
13 *745:B *1167:A 1.76039e-05
14 *745:B *127:10 1.08359e-05
15 *746:A *1167:A 5.80217e-05
16 *3:5 *1167:A 0
17 *4:15 *1167:A 0
18 *4:15 *127:10 0
*RES
1 *968:Y *127:10 15.8804 
2 *127:10 *1167:A 16.9607 
3 *127:10 *1166:A 15.5857 
*END

*D_NET *128 0.00108547
*CONN
*I *974:A I *D sky130_fd_sc_hd__nand2_1
*I *972:B I *D sky130_fd_sc_hd__nand2_1
*I *829:Y O *D sky130_fd_sc_hd__inv_1
*CAP
1 *974:A 0.000116211
2 *972:B 0
3 *829:Y 0.000242504
4 *128:10 0.000358715
5 *974:A *973:A 3.14347e-05
6 *974:A *974:B 4.23086e-05
7 *974:A *268:8 4.15914e-05
8 *128:10 *973:A 5.80706e-06
9 *829:A *128:10 1.66856e-05
10 *5:29 *128:10 2.80449e-05
11 *7:26 *128:10 0
12 *11:89 *128:10 7.6644e-05
13 *12:89 *974:A 0.000111796
14 *12:89 *128:10 1.37292e-05
*RES
1 *829:Y *128:10 17.0054 
2 *128:10 *972:B 13.8 
3 *128:10 *974:A 17.3179 
*END

*D_NET *129 0.00155357
*CONN
*I *839:A I *D sky130_fd_sc_hd__nand2_1
*I *832:B I *D sky130_fd_sc_hd__nand2_1
*I *831:B I *D sky130_fd_sc_hd__nand2_1
*I *830:Y O *D sky130_fd_sc_hd__nand2_1
*CAP
1 *839:A 0.000200951
2 *832:B 0
3 *831:B 7.03475e-05
4 *830:Y 8.00234e-05
5 *129:19 0.000232194
6 *129:6 0.000181614
7 *831:B *831:A 5.11538e-05
8 *831:B *1068:A 0.0001728
9 *839:A *833:A 5.80706e-06
10 *839:A *833:B 0.000138881
11 *839:A *837:A 8.59496e-06
12 *839:A *132:10 3.92757e-05
13 *839:A *517:10 9.01334e-05
14 *129:6 *832:A 9.41642e-05
15 *129:6 *833:B 1.55885e-05
16 *129:19 *832:A 1.97695e-05
17 *129:19 *833:B 0
18 *5:29 *831:B 1.52978e-05
19 *5:29 *839:A 3.98517e-05
20 *5:29 *129:6 9.71197e-05
*RES
1 *830:Y *129:6 11.0679 
2 *129:6 *831:B 20.55 
3 *129:6 *129:19 0.732143 
4 *129:19 *832:B 9.3 
5 *129:19 *839:A 22.4429 
*END

*D_NET *130 0.000810706
*CONN
*I *833:A I *D sky130_fd_sc_hd__nand2_1
*I *831:Y O *D sky130_fd_sc_hd__nand2_1
*CAP
1 *833:A 0.000347677
2 *831:Y 0.000347677
3 *833:A *1068:A 8.44803e-06
4 *833:A *1334:A 6.77725e-05
5 *833:A *517:10 3.33238e-05
6 *839:A *833:A 5.80706e-06
*RES
1 *831:Y *833:A 32.5464 
*END

*D_NET *131 0.000457992
*CONN
*I *833:B I *D sky130_fd_sc_hd__nand2_1
*I *832:Y O *D sky130_fd_sc_hd__nand2_1
*CAP
1 *833:B 0.000145133
2 *832:Y 0.000145133
3 *833:B *215:8 0
4 *839:A *833:B 0.000138881
5 *5:29 *833:B 1.32552e-05
6 *129:6 *833:B 1.55885e-05
7 *129:19 *833:B 0
*RES
1 *832:Y *833:B 21.2071 
*END

*D_NET *132 0.00110692
*CONN
*I *836:A I *D sky130_fd_sc_hd__nand2_1
*I *834:A I *D sky130_fd_sc_hd__nand2_1
*I *833:Y O *D sky130_fd_sc_hd__nand2_1
*CAP
1 *836:A 0.000164809
2 *834:A 0.000140631
3 *833:Y 5.35369e-05
4 *132:10 0.000358976
5 *834:A *133:10 5.01405e-05
6 *834:A *133:16 2.21417e-05
7 *836:A *836:B 3.03304e-05
8 *836:A *838:A 2.48092e-05
9 *836:A *838:B 5.92869e-05
10 *836:A *133:16 0.000162984
11 *839:A *132:10 3.92757e-05
12 *1057:B *834:A 0
13 *5:35 *834:A 0
*RES
1 *833:Y *132:10 19.3357 
2 *132:10 *834:A 11.3893 
3 *132:10 *836:A 12.8714 
*END

*D_NET *133 0.000752177
*CONN
*I *839:B I *D sky130_fd_sc_hd__nand2_1
*I *836:B I *D sky130_fd_sc_hd__nand2_1
*I *837:B I *D sky130_fd_sc_hd__nand2_1
*I *834:Y O *D sky130_fd_sc_hd__nand2_1
*CAP
1 *839:B 0
2 *836:B 6.29444e-06
3 *837:B 0
4 *834:Y 0.00012851
5 *133:16 5.55804e-05
6 *133:10 0.000177796
7 *836:B *838:B 5.71472e-05
8 *133:10 *834:B 6.05161e-06
9 *133:10 *137:12 3.07696e-05
10 *133:16 *838:B 2.44318e-05
11 *834:A *133:10 5.01405e-05
12 *834:A *133:16 2.21417e-05
13 *836:A *836:B 3.03304e-05
14 *836:A *133:16 0.000162984
15 *5:35 *133:10 0
*RES
1 *834:Y *133:10 11.925 
2 *133:10 *133:16 2.21429 
3 *133:16 *837:B 9.3 
4 *133:16 *836:B 9.83571 
5 *133:10 *839:B 9.3 
*END

*D_NET *134 0.00033528
*CONN
*I *838:A I *D sky130_fd_sc_hd__nand2_1
*I *836:Y O *D sky130_fd_sc_hd__nand2_1
*CAP
1 *838:A 0.00011304
2 *836:Y 0.00011304
3 *838:A *838:B 2.32013e-05
4 *838:A *136:12 1.92789e-05
5 *836:A *838:A 2.48092e-05
6 *1324:B *838:A 2.94744e-05
7 *11:99 *838:A 1.24368e-05
*RES
1 *836:Y *838:A 20.9393 
*END

*D_NET *135 0.000372844
*CONN
*I *838:B I *D sky130_fd_sc_hd__nand2_1
*I *837:Y O *D sky130_fd_sc_hd__nand2_1
*CAP
1 *838:B 0.000104388
2 *837:Y 0.000104388
3 *836:A *838:B 5.92869e-05
4 *836:B *838:B 5.71472e-05
5 *838:A *838:B 2.32013e-05
6 *133:16 *838:B 2.44318e-05
*RES
1 *837:Y *838:B 21.2071 
*END

*D_NET *136 0.00243565
*CONN
*I *1078:A I *D sky130_fd_sc_hd__nand2_1
*I *1076:B I *D sky130_fd_sc_hd__nand2_1
*I *838:Y O *D sky130_fd_sc_hd__nand2_1
*CAP
1 *1078:A 0
2 *1076:B 0.00014558
3 *838:Y 0.000668238
4 *136:12 0.000813819
5 *1076:B *1077:B 0
6 *1076:B *1078:B 5.80718e-05
7 *1076:B *1085:A 3.93247e-05
8 *1076:B *381:10 9.90431e-05
9 *136:12 *1085:B 4.1331e-06
10 *136:12 *1325:A 0.000235808
11 *136:12 *381:10 6.75007e-05
12 *136:12 *501:10 0
13 *136:12 *616:8 1.95199e-05
14 *838:A *136:12 1.92789e-05
15 *1324:B *136:12 4.58194e-05
16 *7:26 *136:12 0
17 *8:21 *136:12 0.000190209
18 *8:31 *136:12 1.02936e-05
19 *11:99 *136:12 1.90111e-05
*RES
1 *838:Y *136:12 30.5321 
2 *136:12 *1076:B 12.7464 
3 *136:12 *1078:A 9.3 
*END

*D_NET *137 0.000773454
*CONN
*I *984:A I *D sky130_fd_sc_hd__nand2_1
*I *982:B I *D sky130_fd_sc_hd__nand2_1
*I *839:Y O *D sky130_fd_sc_hd__nand2_1
*CAP
1 *984:A 1.16062e-05
2 *982:B 0
3 *839:Y 0.000244183
4 *137:12 0.000255789
5 *984:A *278:6 5.52302e-05
6 *983:A *984:A 5.52302e-05
7 *11:99 *137:12 0
8 *82:12 *137:12 0.000120645
9 *91:10 *137:12 0
10 *133:10 *137:12 3.07696e-05
*RES
1 *839:Y *137:12 22.9071 
2 *137:12 *982:B 9.3 
3 *137:12 *984:A 9.83571 
*END

*D_NET *138 0.000219296
*CONN
*I *1190:A I *D sky130_fd_sc_hd__inv_1
*I *1079:Y O *D sky130_fd_sc_hd__nand2_1
*CAP
1 *1190:A 0.000109648
2 *1079:Y 0.000109648
*RES
1 *1079:Y *1190:A 29.4795 
*END

*D_NET *139 0.00120561
*CONN
*I *844:A I *D sky130_fd_sc_hd__inv_1
*I *841:B I *D sky130_fd_sc_hd__nand2_1
*I *842:B I *D sky130_fd_sc_hd__nand2_1
*I *840:Y O *D sky130_fd_sc_hd__nand2_1
*CAP
1 *844:A 0.00016251
2 *841:B 3.36392e-05
3 *842:B 0
4 *840:Y 0
5 *139:10 0.000117514
6 *139:6 0.000246385
7 *841:B *843:B 6.05161e-06
8 *841:B *286:10 1.58163e-05
9 *844:A *277:12 0.000128154
10 *139:10 *840:B 0.000222878
11 *139:10 *277:12 0.000272665
12 *12:110 *139:10 0
*RES
1 *840:Y *139:6 13.8 
2 *139:6 *139:10 7.96429 
3 *139:10 *842:B 9.3 
4 *139:10 *841:B 9.83571 
5 *139:6 *844:A 16.9562 
*END

*D_NET *140 0.000295872
*CONN
*I *843:A I *D sky130_fd_sc_hd__nand2_1
*I *841:Y O *D sky130_fd_sc_hd__nand2_1
*CAP
1 *843:A 4.30302e-05
2 *841:Y 4.30302e-05
3 *843:A *277:12 0.000127446
4 *1213:A *843:A 4.8936e-05
5 *7:26 *843:A 3.34295e-05
*RES
1 *841:Y *843:A 29.2429 
*END

*D_NET *141 0.000385788
*CONN
*I *843:B I *D sky130_fd_sc_hd__nand2_1
*I *842:Y O *D sky130_fd_sc_hd__nand2_1
*CAP
1 *843:B 0.000121851
2 *842:Y 0.000121851
3 *843:B *840:B 7.43578e-06
4 *843:B *277:12 0.000125724
5 *843:B *286:10 2.87555e-06
6 *841:B *843:B 6.05161e-06
7 *7:26 *843:B 0
8 *12:89 *843:B 0
*RES
1 *842:Y *843:B 29.7786 
*END

*D_NET *142 0.00130506
*CONN
*I *978:A I *D sky130_fd_sc_hd__nand2_1
*I *976:B I *D sky130_fd_sc_hd__nand2_1
*I *843:Y O *D sky130_fd_sc_hd__nand2_1
*CAP
1 *978:A 0
2 *976:B 0.000243995
3 *843:Y 0.000106008
4 *142:10 0.000350003
5 *976:B *977:A 5.7661e-06
6 *976:B *981:A 5.59013e-05
7 *976:B *981:B 9.7049e-06
8 *976:B *273:6 9.80173e-05
9 *976:B *273:17 0.000126566
10 *142:10 *277:12 7.6644e-05
11 *1213:A *142:10 2.59355e-05
12 *7:26 *976:B 5.59013e-05
13 *7:26 *142:10 0.000150618
14 *12:89 *142:10 0
*RES
1 *843:Y *142:10 16.2821 
2 *142:10 *976:B 17.8536 
3 *142:10 *978:A 13.8 
*END

*D_NET *143 0.00057746
*CONN
*I *861:B I *D sky130_fd_sc_hd__nand2_1
*I *863:A I *D sky130_fd_sc_hd__nand2_1
*I *844:Y O *D sky130_fd_sc_hd__inv_1
*CAP
1 *861:B 0.000167611
2 *863:A 5.92025e-05
3 *844:Y 1.85929e-05
4 *143:6 0.000245406
5 *861:B *863:B 0
6 *861:B *864:A 2.89114e-05
7 *861:B *864:B 5.16852e-05
8 *861:B *158:8 6.05161e-06
9 *861:B *277:12 0
*RES
1 *844:Y *143:6 9.63036 
2 *143:6 *863:A 10.2464 
3 *143:6 *861:B 21.6929 
*END

*D_NET *144 0.00171181
*CONN
*I *854:A I *D sky130_fd_sc_hd__nand2_1
*I *848:B I *D sky130_fd_sc_hd__nand2_1
*I *847:B I *D sky130_fd_sc_hd__nand2_1
*I *845:Y O *D sky130_fd_sc_hd__nand2_1
*CAP
1 *854:A 0.000180715
2 *848:B 1.57795e-05
3 *847:B 0.000169589
4 *845:Y 8.90325e-05
5 *144:10 0.000185369
6 *144:8 0.000269748
7 *847:B *849:A 3.50685e-05
8 *847:B *1246:A 7.82762e-05
9 *847:B *590:6 0.000118
10 *848:B *848:A 3.57366e-05
11 *848:B *849:A 2.28499e-05
12 *848:B *849:B 1.24368e-05
13 *848:B *1246:A 0
14 *854:A *850:B 0
15 *854:A *854:B 7.05447e-05
16 *854:A *148:10 8.00806e-05
17 *144:8 *845:B 0.000100823
18 *7:55 *854:A 5.71472e-05
19 *13:58 *854:A 0.000128695
20 *13:58 *144:8 6.19181e-05
*RES
1 *845:Y *144:8 15.4429 
2 *144:8 *144:10 4.5 
3 *144:10 *847:B 12.7286 
4 *144:10 *848:B 10.2643 
5 *144:8 *854:A 18.0321 
*END

*D_NET *145 0.00134072
*CONN
*I *849:A I *D sky130_fd_sc_hd__nand2_1
*I *847:Y O *D sky130_fd_sc_hd__nand2_1
*CAP
1 *849:A 0.000292322
2 *847:Y 0.000292322
3 *849:A *849:B 0.000333011
4 *849:A *850:A 1.56e-05
5 *849:A *851:A 5.71472e-05
6 *849:A *1246:A 0.000106759
7 *849:A *148:10 0.000185643
8 *847:B *849:A 3.50685e-05
9 *848:B *849:A 2.28499e-05
10 *983:A *849:A 0
*RES
1 *847:Y *849:A 25.6179 
*END

*D_NET *146 0.000629884
*CONN
*I *849:B I *D sky130_fd_sc_hd__nand2_1
*I *848:Y O *D sky130_fd_sc_hd__nand2_1
*CAP
1 *849:B 0.000116493
2 *848:Y 0.000116493
3 *849:B *850:A 3.93247e-05
4 *849:B *590:6 1.21258e-05
5 *848:B *849:B 1.24368e-05
6 *849:A *849:B 0.000333011
*RES
1 *848:Y *849:B 22.0286 
*END

*D_NET *147 0.000766826
*CONN
*I *851:A I *D sky130_fd_sc_hd__nand2_1
*I *850:A I *D sky130_fd_sc_hd__nand2_1
*I *849:Y O *D sky130_fd_sc_hd__nand2_1
*CAP
1 *851:A 0.000253097
2 *850:A 7.42802e-05
3 *849:Y 0.000327377
4 *850:A *848:A 0
5 *851:A *990:A 0
6 *849:A *850:A 1.56e-05
7 *849:A *851:A 5.71472e-05
8 *849:B *850:A 3.93247e-05
9 *91:10 *851:A 0
*RES
1 *849:Y *850:A 19.975 
2 *849:Y *851:A 30.9036 
*END

*D_NET *148 0.0020944
*CONN
*I *854:B I *D sky130_fd_sc_hd__nand2_1
*I *851:B I *D sky130_fd_sc_hd__nand2_1
*I *852:B I *D sky130_fd_sc_hd__nand2_1
*I *850:Y O *D sky130_fd_sc_hd__nand2_1
*CAP
1 *854:B 4.73318e-05
2 *851:B 0.000108883
3 *852:B 3.01779e-05
4 *850:Y 0.000161352
5 *148:16 0.000417333
6 *148:10 0.000486956
7 *852:B *852:A 2.53134e-05
8 *854:B *850:B 6.8646e-06
9 *148:10 *850:B 2.34204e-05
10 *148:16 *852:A 0.000207026
11 *148:16 *1311:A 1.34554e-05
12 *148:16 *604:6 3.33174e-05
13 *849:A *148:10 0.000185643
14 *854:A *854:B 7.05447e-05
15 *854:A *148:10 8.00806e-05
16 *7:55 *854:B 5.33005e-05
17 *7:55 *148:16 5.61906e-06
18 *13:58 *854:B 8.25512e-05
19 *13:58 *148:16 5.52302e-05
*RES
1 *850:Y *148:10 16.6036 
2 *148:10 *148:16 8.64286 
3 *148:16 *852:B 10.2643 
4 *148:16 *851:B 11.4964 
5 *148:10 *854:B 15.3714 
*END

*D_NET *149 0.000552466
*CONN
*I *1052:A I *D sky130_fd_sc_hd__nand2_1
*I *1051:A I *D sky130_fd_sc_hd__nand2_1
*I *1190:Y O *D sky130_fd_sc_hd__inv_1
*CAP
1 *1052:A 1.29046e-05
2 *1051:A 0
3 *1190:Y 0.000223696
4 *149:12 0.000236601
5 *1052:A *1054:A 1.92905e-05
6 *1052:A *348:8 5.71472e-05
7 *149:12 *256:10 0
8 *149:12 *348:14 2.8266e-06
9 *835:A *149:12 0
10 *835:B *149:12 0
11 *991:A *149:12 0
*RES
1 *1190:Y *149:12 21.3982 
2 *149:12 *1051:A 9.3 
3 *149:12 *1052:A 9.83571 
*END

*D_NET *150 0.000223989
*CONN
*I *853:A I *D sky130_fd_sc_hd__nand2_1
*I *851:Y O *D sky130_fd_sc_hd__nand2_1
*CAP
1 *853:A 7.87296e-05
2 *851:Y 7.87296e-05
3 *853:A *853:B 6.65302e-05
4 *853:A *990:A 0
*RES
1 *851:Y *853:A 29.2429 
*END

*D_NET *151 0.000235697
*CONN
*I *853:B I *D sky130_fd_sc_hd__nand2_1
*I *852:Y O *D sky130_fd_sc_hd__nand2_1
*CAP
1 *853:B 5.13184e-05
2 *852:Y 5.13184e-05
3 *853:A *853:B 6.65302e-05
4 *91:10 *853:B 6.65302e-05
*RES
1 *852:Y *853:B 29.2429 
*END

*D_NET *152 0.00109527
*CONN
*I *986:B I *D sky130_fd_sc_hd__nand2_1
*I *988:A I *D sky130_fd_sc_hd__nand2_1
*I *853:Y O *D sky130_fd_sc_hd__nand2_1
*CAP
1 *986:B 1.22324e-05
2 *988:A 0
3 *853:Y 0.000175145
4 *152:8 0.000187377
5 *986:B *989:B 5.52302e-05
6 *152:8 *989:B 2.28499e-05
7 *152:8 *990:B 5.71472e-05
8 *152:8 *283:10 1.7895e-05
9 *152:8 *287:20 1.32552e-05
10 *7:36 *986:B 2.28598e-05
11 *7:36 *152:8 0.00053128
*RES
1 *853:Y *152:8 14.7821 
2 *152:8 *988:A 9.3 
3 *152:8 *986:B 9.83571 
*END

*D_NET *153 0.00051985
*CONN
*I *883:A I *D sky130_fd_sc_hd__nand2_1
*I *881:B I *D sky130_fd_sc_hd__nand2_1
*I *854:Y O *D sky130_fd_sc_hd__nand2_1
*CAP
1 *883:A 7.12203e-05
2 *881:B 0
3 *854:Y 0.000101428
4 *153:10 0.000172649
5 *883:A *881:A 4.80569e-05
6 *883:A *883:B 1.97695e-05
7 *883:A *178:8 0.000106726
8 *13:46 *153:10 0
9 *13:58 *153:10 0
*RES
1 *854:Y *153:10 19.9429 
2 *153:10 *881:B 9.3 
3 *153:10 *883:A 11.5143 
*END

*D_NET *154 0.000777115
*CONN
*I *856:B I *D sky130_fd_sc_hd__nand2_1
*I *859:B I *D sky130_fd_sc_hd__nand2_1
*I *865:A I *D sky130_fd_sc_hd__nand2_1
*I *855:Y O *D sky130_fd_sc_hd__nand2_1
*CAP
1 *856:B 2.20175e-05
2 *859:B 0
3 *865:A 6.6978e-05
4 *855:Y 5.49056e-05
5 *154:23 9.00822e-05
6 *154:6 0.000189948
7 *856:B *856:A 5.52238e-05
8 *865:A *181:12 0.000129868
9 *865:A *287:20 4.79842e-05
10 *154:6 *855:A 7.07554e-05
11 *154:23 *855:A 2.388e-05
12 *154:23 *856:A 2.54718e-05
13 *154:23 *860:A 0
*RES
1 *855:Y *154:6 10.2464 
2 *154:6 *865:A 20.3714 
3 *154:6 *154:23 1.375 
4 *154:23 *859:B 9.3 
5 *154:23 *856:B 9.83571 
*END

*D_NET *155 0.000301944
*CONN
*I *860:A I *D sky130_fd_sc_hd__nand2_1
*I *856:Y O *D sky130_fd_sc_hd__nand2_1
*CAP
1 *860:A 0.000107596
2 *856:Y 0.000107596
3 *860:A *856:A 3.18676e-05
4 *860:A *860:B 1.90213e-05
5 *860:A *157:8 3.58638e-05
6 *154:23 *860:A 0
*RES
1 *856:Y *860:A 20.7964 
*END

*D_NET *156 0.000565084
*CONN
*I *860:B I *D sky130_fd_sc_hd__nand2_1
*I *859:Y O *D sky130_fd_sc_hd__nand2_1
*CAP
1 *860:B 0.000206328
2 *859:Y 0.000206328
3 *860:B *855:A 6.05161e-06
4 *860:B *856:A 0.000127354
5 *860:B *157:8 0
6 *860:A *860:B 1.90213e-05
*RES
1 *859:Y *860:B 21.8143 
*END

*D_NET *157 0.0004147
*CONN
*I *861:A I *D sky130_fd_sc_hd__nand2_1
*I *862:A I *D sky130_fd_sc_hd__nand2_1
*I *860:Y O *D sky130_fd_sc_hd__nand2_1
*CAP
1 *861:A 7.99171e-06
2 *862:A 0
3 *860:Y 0.000105229
4 *157:8 0.000113221
5 *861:A *864:A 3.18676e-05
6 *861:A *158:8 2.44318e-05
7 *157:8 *158:8 9.60939e-05
8 *860:A *157:8 3.58638e-05
9 *860:B *157:8 0
*RES
1 *860:Y *157:8 11.4964 
2 *157:8 *862:A 9.3 
3 *157:8 *861:A 9.83571 
*END

*D_NET *158 0.00153253
*CONN
*I *865:B I *D sky130_fd_sc_hd__nand2_1
*I *862:B I *D sky130_fd_sc_hd__nand2_1
*I *863:B I *D sky130_fd_sc_hd__nand2_1
*I *861:Y O *D sky130_fd_sc_hd__nand2_1
*CAP
1 *865:B 0.00028099
2 *862:B 0
3 *863:B 0.000103363
4 *861:Y 9.97654e-05
5 *158:19 0.000318751
6 *158:8 0.000240889
7 *863:B *864:B 0.00010326
8 *863:B *287:20 0
9 *865:B *864:B 0.000177941
10 *865:B *287:20 0
11 *158:8 *864:A 7.48301e-06
12 *158:19 *864:B 5.59013e-05
13 *158:19 *287:20 0
14 *861:A *158:8 2.44318e-05
15 *861:B *863:B 0
16 *861:B *158:8 6.05161e-06
17 *11:99 *863:B 1.76039e-05
18 *157:8 *158:8 9.60939e-05
*RES
1 *861:Y *158:8 15.5679 
2 *158:8 *863:B 16.05 
3 *158:8 *158:19 0.732143 
4 *158:19 *862:B 13.8 
5 *158:19 *865:B 19.05 
*END

*D_NET *159 0.000465089
*CONN
*I *864:A I *D sky130_fd_sc_hd__nand2_1
*I *862:Y O *D sky130_fd_sc_hd__nand2_1
*CAP
1 *864:A 0.000198413
2 *862:Y 0.000198413
3 *864:A *864:B 0
4 *864:A *277:12 0
5 *861:A *864:A 3.18676e-05
6 *861:B *864:A 2.89114e-05
7 *158:8 *864:A 7.48301e-06
*RES
1 *862:Y *864:A 30.6 
*END

*D_NET *160 0.000801997
*CONN
*I *1312:A I *D sky130_fd_sc_hd__inv_1
*I *1301:Y O *D sky130_fd_sc_hd__nand2_1
*CAP
1 *1312:A 0.000272528
2 *1301:Y 0.000272528
3 *1312:A *869:A 2.80741e-05
4 *1312:A *891:A 2.59355e-05
5 *858:A *1312:A 0.000148514
6 *880:B *1312:A 2.33087e-05
7 *1301:A *1312:A 3.11088e-05
*RES
1 *1301:Y *1312:A 32.0062 
*END

*D_NET *161 0.000803435
*CONN
*I *864:B I *D sky130_fd_sc_hd__nand2_1
*I *863:Y O *D sky130_fd_sc_hd__nand2_1
*CAP
1 *864:B 0.000207324
2 *863:Y 0.000207324
3 *864:B *277:12 0
4 *861:B *864:B 5.16852e-05
5 *863:B *864:B 0.00010326
6 *864:A *864:B 0
7 *865:B *864:B 0.000177941
8 *158:19 *864:B 5.59013e-05
*RES
1 *863:Y *864:B 32.6179 
*END

*D_NET *162 0.000830578
*CONN
*I *1088:A I *D sky130_fd_sc_hd__nand2_1
*I *1087:A I *D sky130_fd_sc_hd__nand2_1
*I *864:Y O *D sky130_fd_sc_hd__nand2_1
*CAP
1 *1088:A 3.37136e-05
2 *1087:A 0
3 *864:Y 0.000147217
4 *162:8 0.00018093
5 *1088:A *1088:B 0.000144773
6 *1088:A *1090:A 2.27416e-05
7 *162:8 *1088:B 2.44318e-05
8 *162:8 *1089:A 5.52238e-05
9 *162:8 *1089:B 7.17235e-05
10 *162:8 *1090:B 4.88637e-05
11 *162:8 *1096:A 0.00010096
*RES
1 *864:Y *162:8 13.1393 
2 *162:8 *1087:A 9.3 
3 *162:8 *1088:A 10.6571 
*END

*D_NET *163 0.00103058
*CONN
*I *993:A I *D sky130_fd_sc_hd__nand2_1
*I *992:A I *D sky130_fd_sc_hd__nand2_1
*I *865:Y O *D sky130_fd_sc_hd__nand2_1
*CAP
1 *993:A 0
2 *992:A 0.000152472
3 *865:Y 0.000223324
4 *163:12 0.000375795
5 *992:A *993:B 0.000110929
6 *992:A *995:A 1.74352e-05
7 *992:A *288:8 0
8 *163:12 *181:12 0.000150625
9 *91:10 *163:12 0
*RES
1 *865:Y *163:12 21.6036 
2 *163:12 *992:A 12.7464 
3 *163:12 *993:A 9.3 
*END

*D_NET *164 0.00195432
*CONN
*I *867:B I *D sky130_fd_sc_hd__nand2_1
*I *868:B I *D sky130_fd_sc_hd__nand2_1
*I *875:A I *D sky130_fd_sc_hd__nand2_1
*I *866:Y O *D sky130_fd_sc_hd__nand2_1
*CAP
1 *867:B 7.103e-05
2 *868:B 0
3 *875:A 0.000165375
4 *866:Y 0.000422445
5 *164:8 0.000516789
6 *867:B *870:A 4.22908e-05
7 *164:8 *870:B 6.60044e-05
8 *866:A *867:B 5.52302e-05
9 *866:B *867:B 0.000181803
10 *866:B *164:8 0.000169366
11 *868:A *867:B 2.64402e-05
12 *868:A *164:8 0.000114024
13 *897:A *875:A 0
14 *64:10 *875:A 0.00012352
*RES
1 *866:Y *164:8 14.5679 
2 *164:8 *875:A 21.9071 
3 *164:8 *868:B 9.3 
4 *866:Y *867:B 20.7964 
*END

*D_NET *165 0.000233986
*CONN
*I *870:A I *D sky130_fd_sc_hd__nand2_1
*I *867:Y O *D sky130_fd_sc_hd__nand2_1
*CAP
1 *870:A 4.16113e-05
2 *867:Y 4.16113e-05
3 *870:A *167:12 5.71472e-05
4 *867:B *870:A 4.22908e-05
5 *868:A *870:A 5.13251e-05
*RES
1 *867:Y *870:A 19.975 
*END

*D_NET *166 0.000206951
*CONN
*I *870:B I *D sky130_fd_sc_hd__nand2_1
*I *868:Y O *D sky130_fd_sc_hd__nand2_1
*CAP
1 *870:B 3.14598e-05
2 *868:Y 3.14598e-05
3 *868:A *870:B 7.80274e-05
4 *164:8 *870:B 6.60044e-05
*RES
1 *868:Y *870:B 19.975 
*END

*D_NET *167 0.000721468
*CONN
*I *872:A I *D sky130_fd_sc_hd__nand2_1
*I *871:A I *D sky130_fd_sc_hd__nand2_1
*I *870:Y O *D sky130_fd_sc_hd__nand2_1
*CAP
1 *872:A 0
2 *871:A 0.000120633
3 *870:Y 0.000149098
4 *167:12 0.000269731
5 *871:A *872:B 2.72319e-05
6 *871:A *873:B 1.28995e-05
7 *871:A *875:B 3.99614e-06
8 *871:A *168:15 8.07313e-05
9 *870:A *167:12 5.71472e-05
10 *64:10 *167:12 0
11 *91:10 *167:12 0
*RES
1 *870:Y *167:12 20.4786 
2 *167:12 *871:A 11.925 
3 *167:12 *872:A 9.3 
*END

*D_NET *168 0.000635009
*CONN
*I *872:B I *D sky130_fd_sc_hd__nand2_1
*I *873:B I *D sky130_fd_sc_hd__nand2_1
*I *875:B I *D sky130_fd_sc_hd__nand2_1
*I *871:Y O *D sky130_fd_sc_hd__nand2_1
*CAP
1 *872:B 7.45375e-05
2 *873:B 8.08537e-06
3 *875:B 8.13421e-05
4 *871:Y 0
5 *168:15 0.000157799
6 *168:4 0.000156518
7 *872:B *874:A 3.18676e-05
8 *875:B *899:A 0
9 *871:A *872:B 2.72319e-05
10 *871:A *873:B 1.28995e-05
11 *871:A *875:B 3.99614e-06
12 *871:A *168:15 8.07313e-05
*RES
1 *871:Y *168:4 9.3 
2 *168:4 *875:B 10.675 
3 *168:4 *168:15 1.76786 
4 *168:15 *873:B 9.72857 
5 *168:15 *872:B 11.0857 
*END

*D_NET *169 0.000354282
*CONN
*I *874:A I *D sky130_fd_sc_hd__nand2_1
*I *872:Y O *D sky130_fd_sc_hd__nand2_1
*CAP
1 *874:A 0.000116354
2 *872:Y 0.000116354
3 *874:A *874:B 8.39e-05
4 *874:A *1000:A 5.80706e-06
5 *872:B *874:A 3.18676e-05
6 *91:10 *874:A 0
*RES
1 *872:Y *874:A 30.0821 
*END

*D_NET *170 0.00025355
*CONN
*I *874:B I *D sky130_fd_sc_hd__nand2_1
*I *873:Y O *D sky130_fd_sc_hd__nand2_1
*CAP
1 *874:B 8.48252e-05
2 *873:Y 8.48252e-05
3 *874:B *173:8 0
4 *874:A *874:B 8.39e-05
*RES
1 *873:Y *874:B 29.5464 
*END

*D_NET *171 0.000412013
*CONN
*I *955:A I *D sky130_fd_sc_hd__nand2_1
*I *956:A I *D sky130_fd_sc_hd__nand2_1
*I *1312:Y O *D sky130_fd_sc_hd__inv_1
*CAP
1 *955:A 9.16499e-06
2 *956:A 0
3 *1312:Y 0.0001178
4 *171:12 0.000126965
5 *955:A *956:B 5.66971e-05
6 *955:A *959:A 5.50052e-05
7 *171:12 *869:A 1.03853e-05
8 *171:12 *325:12 3.59945e-05
*RES
1 *1312:Y *171:12 20.2732 
2 *171:12 *956:A 9.3 
3 *171:12 *955:A 9.83571 
*END

*D_NET *172 0.000636401
*CONN
*I *996:B I *D sky130_fd_sc_hd__nand2_1
*I *998:A I *D sky130_fd_sc_hd__nand2_1
*I *874:Y O *D sky130_fd_sc_hd__nand2_1
*CAP
1 *996:B 2.52056e-05
2 *998:A 0
3 *874:Y 0.000186847
4 *172:12 0.000212053
5 *996:B *293:8 5.52302e-05
6 *172:12 *995:B 0
7 *172:12 *1000:A 0.000157065
*RES
1 *874:Y *172:12 21.3 
2 *172:12 *998:A 9.3 
3 *172:12 *996:B 9.83571 
*END

*D_NET *173 0.000946525
*CONN
*I *903:A I *D sky130_fd_sc_hd__nand2_1
*I *900:B I *D sky130_fd_sc_hd__nand2_1
*I *875:Y O *D sky130_fd_sc_hd__nand2_1
*CAP
1 *903:A 0.000198476
2 *900:B 0.000110609
3 *875:Y 0.000115713
4 *173:8 0.000424797
5 *903:A *901:A 0
6 *903:A *903:B 1.97695e-05
7 *903:A *904:A 3.48705e-05
8 *903:A *904:B 4.22908e-05
9 *903:A *1000:A 0
10 *173:8 *901:A 0
11 *173:8 *197:10 0
12 *874:B *173:8 0
*RES
1 *875:Y *173:8 15.7464 
2 *173:8 *900:B 15.5679 
3 *173:8 *903:A 17.6571 
*END

*D_NET *174 0.00085072
*CONN
*I *885:A I *D sky130_fd_sc_hd__nand2_1
*I *877:B I *D sky130_fd_sc_hd__nand2_1
*I *878:B I *D sky130_fd_sc_hd__nand2_1
*I *876:Y O *D sky130_fd_sc_hd__nand2_1
*CAP
1 *885:A 5.76681e-05
2 *877:B 4.77468e-05
3 *878:B 9.48796e-05
4 *876:Y 0
5 *174:21 0.000154523
6 *174:4 0.000143987
7 *885:A *879:A 6.30054e-05
8 *885:A *885:B 5.7661e-06
9 *885:A *183:12 1.07719e-05
10 *797:A *877:B 1.97695e-05
11 *877:A *174:21 0.00010326
12 *878:A *878:B 5.85477e-05
13 *97:12 *877:B 1.24368e-05
14 *97:12 *174:21 7.83587e-05
*RES
1 *876:Y *174:4 9.3 
2 *174:4 *878:B 11.1036 
3 *174:4 *174:21 10.3393 
4 *174:21 *877:B 10.2643 
5 *174:21 *885:A 10.675 
*END

*D_NET *175 0.000761362
*CONN
*I *879:A I *D sky130_fd_sc_hd__nand2_1
*I *877:Y O *D sky130_fd_sc_hd__nand2_1
*CAP
1 *879:A 0.000216263
2 *877:Y 0.000216263
3 *879:A *882:A 0
4 *879:A *882:B 3.57366e-05
5 *879:A *885:B 0.000193765
6 *879:A *177:6 3.18676e-05
7 *879:A *183:12 4.46231e-06
8 *885:A *879:A 6.30054e-05
*RES
1 *877:Y *879:A 23.1893 
*END

*D_NET *176 0.000394795
*CONN
*I *879:B I *D sky130_fd_sc_hd__nand2_1
*I *878:Y O *D sky130_fd_sc_hd__nand2_1
*CAP
1 *879:B 0.000181489
2 *878:Y 0.000181489
3 *878:A *879:B 5.30637e-06
4 *15:83 *879:B 2.65105e-05
5 *92:18 *879:B 0
*RES
1 *878:Y *879:B 30.1893 
*END

*D_NET *177 0.000605729
*CONN
*I *881:A I *D sky130_fd_sc_hd__nand2_1
*I *882:A I *D sky130_fd_sc_hd__nand2_1
*I *879:Y O *D sky130_fd_sc_hd__nand2_1
*CAP
1 *881:A 8.89677e-05
2 *882:A 1.79444e-05
3 *879:Y 8.29656e-05
4 *177:6 0.000189878
5 *881:A *178:8 2.95641e-05
6 *881:A *178:10 3.18676e-05
7 *882:A *882:B 5.7661e-06
8 *882:A *883:B 1.04232e-05
9 *177:6 *885:B 1.21289e-05
10 *177:6 *178:10 5.62995e-05
11 *879:A *882:A 0
12 *879:A *177:6 3.18676e-05
13 *883:A *881:A 4.80569e-05
*RES
1 *879:Y *177:6 11.0679 
2 *177:6 *882:A 9.72857 
3 *177:6 *881:A 11.4964 
*END

*D_NET *178 0.0010742
*CONN
*I *883:B I *D sky130_fd_sc_hd__nand2_1
*I *885:B I *D sky130_fd_sc_hd__nand2_1
*I *882:B I *D sky130_fd_sc_hd__nand2_1
*I *881:Y O *D sky130_fd_sc_hd__nand2_1
*CAP
1 *883:B 5.05864e-06
2 *885:B 0.000132058
3 *882:B 7.80768e-06
4 *881:Y 8.93895e-05
5 *178:10 0.000188745
6 *178:8 0.000143328
7 *879:A *882:B 3.57366e-05
8 *879:A *885:B 0.000193765
9 *881:A *178:8 2.95641e-05
10 *881:A *178:10 3.18676e-05
11 *882:A *882:B 5.7661e-06
12 *882:A *883:B 1.04232e-05
13 *883:A *883:B 1.97695e-05
14 *883:A *178:8 0.000106726
15 *885:A *885:B 5.7661e-06
16 *177:6 *885:B 1.21289e-05
17 *177:6 *178:10 5.62995e-05
*RES
1 *881:Y *178:8 11.4964 
2 *178:8 *178:10 1.35714 
3 *178:10 *882:B 9.72857 
4 *178:10 *885:B 12.6393 
5 *178:8 *883:B 9.72857 
*END

*D_NET *179 0.000881023
*CONN
*I *884:A I *D sky130_fd_sc_hd__nand2_1
*I *882:Y O *D sky130_fd_sc_hd__nand2_1
*CAP
1 *884:A 0.00016662
2 *882:Y 0.00016662
3 *884:A *884:B 0.000141615
4 *884:A *181:12 3.18676e-05
5 *1328:A *884:A 0
6 *8:45 *884:A 0.000315165
7 *13:108 *884:A 5.91367e-05
8 *92:18 *884:A 0
*RES
1 *882:Y *884:A 32.6714 
*END

*D_NET *180 0.000447404
*CONN
*I *884:B I *D sky130_fd_sc_hd__nand2_1
*I *883:Y O *D sky130_fd_sc_hd__nand2_1
*CAP
1 *884:B 0.000126223
2 *883:Y 0.000126223
3 *884:A *884:B 0.000141615
4 *13:46 *884:B 0
5 *13:89 *884:B 0
6 *13:108 *884:B 5.33433e-05
*RES
1 *883:Y *884:B 30.4929 
*END

*D_NET *181 0.00365796
*CONN
*I *1097:A I *D sky130_fd_sc_hd__nand2_1
*I *1098:A I *D sky130_fd_sc_hd__nand2_1
*I *884:Y O *D sky130_fd_sc_hd__nand2_1
*CAP
1 *1097:A 7.85021e-05
2 *1098:A 0
3 *884:Y 0.000914173
4 *181:12 0.000992675
5 *1097:A *997:B 1.3701e-05
6 *1097:A *1097:B 5.7661e-06
7 *1097:A *1099:B 9.7049e-06
8 *1097:A *1100:A 9.80173e-05
9 *181:12 *995:A 0
10 *181:12 *1098:B 5.80706e-06
11 *181:12 *1327:A 6.97972e-05
12 *181:12 *287:20 0
13 *855:B *181:12 8.15939e-05
14 *859:A *181:12 0.000148903
15 *865:A *181:12 0.000129868
16 *884:A *181:12 3.18676e-05
17 *8:35 *181:12 2.44318e-05
18 *8:45 *181:12 9.40071e-05
19 *12:120 *181:12 0.000578042
20 *13:108 *181:12 0.000230475
21 *163:12 *181:12 0.000150625
*RES
1 *884:Y *181:12 38.7107 
2 *181:12 *1098:A 9.3 
3 *181:12 *1097:A 11.5143 
*END

*D_NET *182 0.00103871
*CONN
*I *1334:A I *D sky130_fd_sc_hd__inv_1
*I *1323:Y O *D sky130_fd_sc_hd__nand2_1
*CAP
1 *1334:A 0.0003309
2 *1323:Y 0.0003309
3 *1334:A *831:A 5.66971e-05
4 *1334:A *1068:A 2.9766e-05
5 *1334:A *517:10 1.30324e-05
6 *833:A *1334:A 6.77725e-05
7 *1323:A *1334:A 2.85321e-05
8 *4:72 *1334:A 0.000181107
*RES
1 *1323:Y *1334:A 25.5955 
*END

*D_NET *183 0.00327581
*CONN
*I *1006:B I *D sky130_fd_sc_hd__nand2_1
*I *1008:A I *D sky130_fd_sc_hd__nand2_1
*I *885:Y O *D sky130_fd_sc_hd__nand2_1
*CAP
1 *1006:B 8.41772e-05
2 *1008:A 0
3 *885:Y 0.000931324
4 *183:12 0.0010155
5 *1006:B *1008:B 4.80569e-05
6 *1006:B *1009:A 1.21289e-05
7 *1006:B *1009:B 3.93247e-05
8 *1006:B *302:8 0
9 *183:12 *888:B 0
10 *183:12 *894:B 0
11 *183:12 *901:A 0
12 *183:12 *905:A 0.000216057
13 *183:12 *1116:A 0
14 *183:12 *194:8 0.000128154
15 *183:12 *198:21 0
16 *183:12 *202:14 0.00010326
17 *183:12 *301:10 0
18 *764:A *183:12 4.97825e-05
19 *798:A *183:12 0
20 *879:A *183:12 4.46231e-06
21 *885:A *183:12 1.07719e-05
22 *897:A *183:12 1.50181e-05
23 *898:A *183:12 9.57064e-05
24 *92:18 *183:12 0.000522085
25 *98:14 *183:12 0
*RES
1 *885:Y *183:12 37.8893 
2 *183:12 *1008:A 9.3 
3 *183:12 *1006:B 11.5143 
*END

*D_NET *184 0.00147083
*CONN
*I *888:B I *D sky130_fd_sc_hd__nand2_1
*I *887:B I *D sky130_fd_sc_hd__nand2_1
*I *895:A I *D sky130_fd_sc_hd__nand2_1
*I *886:Y O *D sky130_fd_sc_hd__nand2_1
*CAP
1 *888:B 9.72312e-05
2 *887:B 0.000102814
3 *895:A 0.00022672
4 *886:Y 0
5 *184:6 0.000439765
6 *184:4 0.000207461
7 *888:B *889:B 1.21289e-05
8 *895:A *889:A 1.24368e-05
9 *895:A *889:B 3.48705e-05
10 *895:A *921:A 0
11 *895:A *187:12 5.52238e-05
12 *895:A *217:8 0
13 *184:6 *889:A 8.46829e-05
14 *184:6 *889:B 2.40354e-05
15 *184:6 *187:12 5.52302e-05
16 *886:B *888:B 5.52238e-05
17 *887:A *184:6 2.59355e-05
18 *917:A *887:B 0
19 *52:12 *888:B 2.8266e-06
20 *66:12 *888:B 5.80706e-06
21 *98:14 *888:B 0
22 *106:10 *887:B 2.84398e-05
23 *106:10 *895:A 0
24 *183:12 *888:B 0
*RES
1 *886:Y *184:4 9.3 
2 *184:4 *184:6 2.17857 
3 *184:6 *895:A 22.3179 
4 *184:6 *887:B 19.5679 
5 *184:4 *888:B 19.9786 
*END

*D_NET *185 0.000248415
*CONN
*I *889:A I *D sky130_fd_sc_hd__nand2_1
*I *887:Y O *D sky130_fd_sc_hd__nand2_1
*CAP
1 *889:A 4.60978e-05
2 *887:Y 4.60978e-05
3 *889:A *889:B 5.90995e-05
4 *886:B *889:A 0
5 *895:A *889:A 1.24368e-05
6 *184:6 *889:A 8.46829e-05
*RES
1 *887:Y *889:A 19.975 
*END

*D_NET *186 0.000731311
*CONN
*I *889:B I *D sky130_fd_sc_hd__nand2_1
*I *888:Y O *D sky130_fd_sc_hd__nand2_1
*CAP
1 *889:B 0.000245788
2 *888:Y 0.000245788
3 *889:B *919:B 0
4 *886:B *889:B 5.62995e-05
5 *887:A *889:B 5.33005e-05
6 *888:B *889:B 1.21289e-05
7 *889:A *889:B 5.90995e-05
8 *895:A *889:B 3.48705e-05
9 *184:6 *889:B 2.40354e-05
*RES
1 *888:Y *889:B 23.2607 
*END

*D_NET *187 0.000684847
*CONN
*I *890:A I *D sky130_fd_sc_hd__nand2_1
*I *892:A I *D sky130_fd_sc_hd__nand2_1
*I *889:Y O *D sky130_fd_sc_hd__nand2_1
*CAP
1 *890:A 3.04135e-05
2 *892:A 0
3 *889:Y 0.000155681
4 *187:12 0.000186094
5 *890:A *188:10 5.33005e-05
6 *895:A *187:12 5.52238e-05
7 *106:10 *187:12 0.000148903
8 *184:6 *187:12 5.52302e-05
*RES
1 *889:Y *187:12 21.1929 
2 *187:12 *892:A 9.3 
3 *187:12 *890:A 9.83571 
*END

*D_NET *188 0.000720192
*CONN
*I *893:B I *D sky130_fd_sc_hd__nand2_1
*I *892:B I *D sky130_fd_sc_hd__nand2_1
*I *895:B I *D sky130_fd_sc_hd__nand2_1
*I *890:Y O *D sky130_fd_sc_hd__nand2_1
*CAP
1 *893:B 0.000128541
2 *892:B 0
3 *895:B 2.83799e-05
4 *890:Y 0
5 *188:10 0.00017504
6 *188:4 0.000275202
7 *890:A *188:10 5.33005e-05
8 *893:A *893:B 2.44318e-05
9 *98:14 *893:B 2.28598e-05
10 *98:14 *188:10 1.24368e-05
*RES
1 *890:Y *188:4 9.3 
2 *188:4 *188:10 2.625 
3 *188:10 *895:B 9.83571 
4 *188:10 *892:B 9.3 
5 *188:4 *893:B 11.8 
*END

*D_NET *189 0.000381937
*CONN
*I *894:A I *D sky130_fd_sc_hd__nand2_1
*I *892:Y O *D sky130_fd_sc_hd__nand2_1
*CAP
1 *894:A 9.3548e-05
2 *892:Y 9.3548e-05
3 *894:A *923:A 0
4 *894:A *191:10 1.58163e-05
5 *894:A *202:14 5.33005e-05
6 *106:10 *894:A 0.000125724
*RES
1 *892:Y *894:A 29.7786 
*END

*D_NET *190 0.000315192
*CONN
*I *894:B I *D sky130_fd_sc_hd__nand2_1
*I *893:Y O *D sky130_fd_sc_hd__nand2_1
*CAP
1 *894:B 0.000108698
2 *893:Y 0.000108698
3 *894:B *202:14 5.52238e-05
4 *106:10 *894:B 4.25716e-05
5 *183:12 *894:B 0
*RES
1 *893:Y *894:B 29.7786 
*END

*D_NET *191 0.00101455
*CONN
*I *1001:B I *D sky130_fd_sc_hd__nand2_1
*I *1004:A I *D sky130_fd_sc_hd__nand2_1
*I *894:Y O *D sky130_fd_sc_hd__nand2_1
*CAP
1 *1001:B 6.46728e-05
2 *1004:A 7.2932e-05
3 *894:Y 0.000147911
4 *191:10 0.000285515
5 *1001:B *1003:B 0
6 *1001:B *1005:A 9.40271e-05
7 *1001:B *1005:B 0.000123117
8 *191:10 *202:14 1.15281e-05
9 *894:A *191:10 1.58163e-05
10 *1001:A *1001:B 5.52302e-05
11 *106:10 *1001:B 2.09826e-05
12 *106:10 *1004:A 1.00375e-05
13 *106:10 *191:10 0.000112777
*RES
1 *894:Y *191:10 16.2375 
2 *191:10 *1004:A 15.3268 
3 *191:10 *1001:B 16.3982 
*END

*D_NET *192 0.00106499
*CONN
*I *922:A I *D sky130_fd_sc_hd__nand2_1
*I *920:B I *D sky130_fd_sc_hd__nand2_1
*I *895:Y O *D sky130_fd_sc_hd__nand2_1
*CAP
1 *922:A 0.000110927
2 *920:B 0
3 *895:Y 0.000215044
4 *192:8 0.000325971
5 *922:A *921:A 2.8266e-06
6 *922:A *921:B 5.52238e-05
7 *922:A *922:B 6.65398e-05
8 *922:A *923:A 4.48206e-05
9 *922:A *925:A 0
10 *192:8 *920:A 0.000220435
11 *192:8 *921:B 2.32013e-05
*RES
1 *895:Y *192:8 13.8536 
2 *192:8 *920:B 9.3 
3 *192:8 *922:A 21.0857 
*END

*D_NET *193 0.000609823
*CONN
*I *826:A I *D sky130_fd_sc_hd__nand2_1
*I *825:A I *D sky130_fd_sc_hd__nand2_1
*I *1334:Y O *D sky130_fd_sc_hd__inv_1
*CAP
1 *826:A 9.08749e-05
2 *825:A 1.35314e-05
3 *1334:Y 9.22728e-05
4 *193:6 0.000196679
5 *825:A *827:A 1.56939e-05
6 *826:A *827:A 3.11088e-05
7 *193:6 *827:A 5.23822e-05
8 *827:B *826:A 1.02301e-05
9 *828:A *826:A 5.33005e-05
10 *123:8 *826:A 1.97617e-05
11 *123:19 *826:A 3.39873e-05
*RES
1 *1334:Y *193:6 10.8625 
2 *193:6 *825:A 9.72857 
3 *193:6 *826:A 11.4964 
*END

*D_NET *194 0.000828731
*CONN
*I *905:A I *D sky130_fd_sc_hd__nand2_1
*I *897:B I *D sky130_fd_sc_hd__nand2_1
*I *898:B I *D sky130_fd_sc_hd__nand2_1
*I *896:Y O *D sky130_fd_sc_hd__nand2_1
*CAP
1 *905:A 0.000106609
2 *897:B 0
3 *898:B 3.04135e-05
4 *896:Y 4.26117e-05
5 *194:10 3.04135e-05
6 *194:8 0.00014922
7 *898:B *899:B 5.33005e-05
8 *905:A *197:10 0
9 *897:A *905:A 4.46186e-06
10 *897:A *194:8 6.74911e-05
11 *183:12 *905:A 0.000216057
12 *183:12 *194:8 0.000128154
*RES
1 *896:Y *194:8 15.4429 
2 *194:8 *194:10 4.5 
3 *194:10 *898:B 9.83571 
4 *194:10 *897:B 9.3 
5 *194:8 *905:A 16.6571 
*END

*D_NET *195 0.00037538
*CONN
*I *899:A I *D sky130_fd_sc_hd__nand2_1
*I *897:Y O *D sky130_fd_sc_hd__nand2_1
*CAP
1 *899:A 0.000138066
2 *897:Y 0.000138066
3 *899:A *899:B 8.19593e-05
4 *899:A *197:10 1.72894e-05
5 *875:B *899:A 0
*RES
1 *897:Y *899:A 21.2071 
*END

*D_NET *196 0.00045102
*CONN
*I *899:B I *D sky130_fd_sc_hd__nand2_1
*I *898:Y O *D sky130_fd_sc_hd__nand2_1
*CAP
1 *899:B 0.00015788
2 *898:Y 0.00015788
3 *898:B *899:B 5.33005e-05
4 *899:A *899:B 8.19593e-05
*RES
1 *898:Y *899:B 21.6179 
*END

*D_NET *197 0.000605763
*CONN
*I *901:A I *D sky130_fd_sc_hd__nand2_1
*I *900:A I *D sky130_fd_sc_hd__nand2_1
*I *899:Y O *D sky130_fd_sc_hd__nand2_1
*CAP
1 *901:A 0.000104911
2 *900:A 0
3 *899:Y 0.000150153
4 *197:10 0.000255064
5 *901:A *198:21 7.83462e-05
6 *899:A *197:10 1.72894e-05
7 *903:A *901:A 0
8 *905:A *197:10 0
9 *173:8 *901:A 0
10 *173:8 *197:10 0
11 *183:12 *901:A 0
*RES
1 *899:Y *197:10 16.2821 
2 *197:10 *900:A 13.8 
3 *197:10 *901:A 16.05 
*END

*D_NET *198 0.000925114
*CONN
*I *901:B I *D sky130_fd_sc_hd__nand2_1
*I *903:B I *D sky130_fd_sc_hd__nand2_1
*I *905:B I *D sky130_fd_sc_hd__nand2_1
*I *900:Y O *D sky130_fd_sc_hd__nand2_1
*CAP
1 *901:B 0
2 *903:B 0.000108246
3 *905:B 8.59454e-05
4 *900:Y 9.50004e-05
5 *198:21 0.000215114
6 *198:6 0.000287814
7 *903:B *904:A 3.4879e-05
8 *198:21 *202:14 0
9 *901:A *198:21 7.83462e-05
10 *903:A *903:B 1.97695e-05
11 *183:12 *198:21 0
*RES
1 *900:Y *198:6 10.6571 
2 *198:6 *905:B 10.675 
3 *198:6 *198:21 10.9464 
4 *198:21 *903:B 11.5143 
5 *198:21 *901:B 9.3 
*END

*D_NET *199 0.000580359
*CONN
*I *904:A I *D sky130_fd_sc_hd__nand2_1
*I *901:Y O *D sky130_fd_sc_hd__nand2_1
*CAP
1 *904:A 0.000166367
2 *901:Y 0.000166367
3 *904:A *904:B 0.00012073
4 *904:A *201:16 5.71472e-05
5 *903:A *904:A 3.48705e-05
6 *903:B *904:A 3.4879e-05
*RES
1 *901:Y *904:A 22.3321 
*END

*D_NET *200 0.000232152
*CONN
*I *904:B I *D sky130_fd_sc_hd__nand2_1
*I *903:Y O *D sky130_fd_sc_hd__nand2_1
*CAP
1 *904:B 3.4566e-05
2 *903:Y 3.4566e-05
3 *903:A *904:B 4.22908e-05
4 *904:A *904:B 0.00012073
*RES
1 *903:Y *904:B 19.975 
*END

*D_NET *201 0.00116638
*CONN
*I *1108:A I *D sky130_fd_sc_hd__nand2_1
*I *1107:A I *D sky130_fd_sc_hd__nand2_1
*I *904:Y O *D sky130_fd_sc_hd__nand2_1
*CAP
1 *1108:A 4.46443e-05
2 *1107:A 0
3 *904:Y 0.00028813
4 *201:16 0.000332774
5 *1108:A *1107:B 1.61893e-05
6 *1108:A *1108:B 0.000106376
7 *1108:A *1109:A 6.21846e-05
8 *1108:A *297:12 3.18676e-05
9 *1108:A *403:8 6.49287e-05
10 *201:16 *1000:B 0
11 *201:16 *1110:B 0.000128146
12 *201:16 *406:10 3.39964e-05
13 *904:A *201:16 5.71472e-05
*RES
1 *904:Y *201:16 23.5679 
2 *201:16 *1107:A 9.3 
3 *201:16 *1108:A 11.5143 
*END

*D_NET *202 0.00260263
*CONN
*I *1016:B I *D sky130_fd_sc_hd__nand2_1
*I *1018:A I *D sky130_fd_sc_hd__nand2_1
*I *905:Y O *D sky130_fd_sc_hd__nand2_1
*CAP
1 *1016:B 7.3322e-05
2 *1018:A 0
3 *905:Y 0.00101794
4 *202:14 0.00109126
5 *1016:B *1018:B 4.10796e-05
6 *1016:B *1019:A 3.08664e-05
7 *1016:B *1019:B 3.13687e-05
8 *1016:B *312:8 0
9 *202:14 *923:B 5.17614e-05
10 *202:14 *1018:B 1.8461e-05
11 *202:14 *221:16 2.32625e-05
12 *894:A *202:14 5.33005e-05
13 *894:B *202:14 5.52238e-05
14 *183:12 *202:14 0.00010326
15 *191:10 *202:14 1.15281e-05
16 *198:21 *202:14 0
*RES
1 *905:Y *202:14 34.5679 
2 *202:14 *1018:A 9.3 
3 *202:14 *1016:B 11.5143 
*END

*D_NET *203 0.00228899
*CONN
*I *915:A I *D sky130_fd_sc_hd__nand2_1
*I *907:B I *D sky130_fd_sc_hd__nand2_1
*I *908:B I *D sky130_fd_sc_hd__nand2_1
*I *906:Y O *D sky130_fd_sc_hd__nand2_1
*CAP
1 *915:A 4.05263e-05
2 *907:B 3.7311e-05
3 *908:B 0.000230879
4 *906:Y 0.00040049
5 *203:18 0.000362934
6 *203:16 0.000535759
7 *908:B *909:B 0
8 *908:B *1021:A 0
9 *908:B *231:12 0
10 *915:A *911:A 0
11 *915:A *1021:A 0
12 *915:A *1025:B 0
13 *203:16 *914:A 1.90111e-05
14 *203:16 *915:B 3.08664e-05
15 *203:16 *208:12 3.42301e-05
16 *203:16 *208:23 4.1518e-05
17 *203:16 *212:6 5.49544e-05
18 *203:18 *911:A 0
19 *203:18 *1021:A 0
20 *751:A *908:B 5.09213e-05
21 *906:A *203:16 9.00535e-06
22 *907:A *203:16 9.33978e-07
23 *910:B *203:16 7.6644e-05
24 *910:B *203:18 0
25 *912:A *203:16 6.05161e-06
26 *14:53 *908:B 0.000211958
27 *15:45 *908:B 4.48671e-05
28 *40:16 *908:B 2.34862e-05
29 *54:6 *908:B 7.66438e-05
*RES
1 *906:Y *203:16 28.1929 
2 *203:16 *203:18 1.64286 
3 *203:18 *908:B 19.4964 
4 *203:18 *907:B 14.3357 
5 *203:16 *915:A 14.5321 
*END

*D_NET *204 0.000894856
*CONN
*I *758:A I *D sky130_fd_sc_hd__inv_1
*I *747:Y O *D sky130_fd_sc_hd__nand2_1
*CAP
1 *758:A 0.000206938
2 *747:Y 0.000206938
3 *747:A *758:A 5.49995e-05
4 *769:A *758:A 0.000176234
5 *1323:A *758:A 5.50052e-05
6 *4:64 *758:A 2.38501e-05
7 *13:58 *758:A 1.78447e-05
8 *15:93 *758:A 0.000153047
*RES
1 *747:Y *758:A 32.6134 
*END

*D_NET *205 0.000194594
*CONN
*I *909:A I *D sky130_fd_sc_hd__nand2_1
*I *907:Y O *D sky130_fd_sc_hd__nand2_1
*CAP
1 *909:A 7.52404e-05
2 *907:Y 7.52404e-05
3 *909:A *909:B 5.38444e-06
4 *909:A *910:A 1.5092e-05
5 *907:A *909:A 2.36364e-05
*RES
1 *907:Y *909:A 19.975 
*END

*D_NET *206 0.000611641
*CONN
*I *909:B I *D sky130_fd_sc_hd__nand2_1
*I *908:Y O *D sky130_fd_sc_hd__nand2_1
*CAP
1 *909:B 0.000190609
2 *908:Y 0.000190609
3 *909:B *910:A 4.15819e-05
4 *906:A *909:B 1.3701e-05
5 *906:B *909:B 0
6 *907:A *909:B 3.65157e-05
7 *908:B *909:B 0
8 *909:A *909:B 5.38444e-06
9 *14:53 *909:B 5.65955e-05
10 *40:16 *909:B 7.6644e-05
*RES
1 *908:Y *909:B 31.4036 
*END

*D_NET *207 0.00055265
*CONN
*I *911:A I *D sky130_fd_sc_hd__nand2_1
*I *910:A I *D sky130_fd_sc_hd__nand2_1
*I *909:Y O *D sky130_fd_sc_hd__nand2_1
*CAP
1 *911:A 8.75348e-05
2 *910:A 6.23709e-05
3 *909:Y 0
4 *207:4 0.000149906
5 *910:A *208:12 5.68722e-05
6 *911:A *208:12 0.000125005
7 *906:A *910:A 3.99614e-06
8 *907:A *910:A 1.02911e-05
9 *909:A *910:A 1.5092e-05
10 *909:B *910:A 4.15819e-05
11 *915:A *911:A 0
12 *203:18 *911:A 0
*RES
1 *909:Y *207:4 9.3 
2 *207:4 *910:A 11.1036 
3 *207:4 *911:A 19.9429 
*END

*D_NET *208 0.000774541
*CONN
*I *911:B I *D sky130_fd_sc_hd__nand2_1
*I *915:B I *D sky130_fd_sc_hd__nand2_1
*I *912:B I *D sky130_fd_sc_hd__nand2_1
*I *910:Y O *D sky130_fd_sc_hd__nand2_1
*CAP
1 *911:B 0
2 *915:B 1.72607e-05
3 *912:B 0
4 *910:Y 9.4801e-05
5 *208:23 9.01688e-05
6 *208:12 0.000167709
7 *208:23 *914:A 9.99853e-05
8 *910:A *208:12 5.68722e-05
9 *910:B *208:12 1.61238e-05
10 *911:A *208:12 0.000125005
11 *203:16 *915:B 3.08664e-05
12 *203:16 *208:12 3.42301e-05
13 *203:16 *208:23 4.1518e-05
*RES
1 *910:Y *208:12 20.4786 
2 *208:12 *912:B 9.3 
3 *208:12 *208:23 2.21429 
4 *208:23 *915:B 9.83571 
5 *208:23 *911:B 9.3 
*END

*D_NET *209 0.000631953
*CONN
*I *914:A I *D sky130_fd_sc_hd__nand2_1
*I *911:Y O *D sky130_fd_sc_hd__nand2_1
*CAP
1 *914:A 0.000185985
2 *911:Y 0.000185985
3 *914:A *914:B 0.000133551
4 *912:A *914:A 7.43578e-06
5 *203:16 *914:A 1.90111e-05
6 *208:23 *914:A 9.99853e-05
*RES
1 *911:Y *914:A 31.6179 
*END

*D_NET *210 0.000568724
*CONN
*I *914:B I *D sky130_fd_sc_hd__nand2_1
*I *912:Y O *D sky130_fd_sc_hd__nand2_1
*CAP
1 *914:B 0.000201443
2 *912:Y 0.000201443
3 *912:A *914:B 1.39726e-05
4 *914:A *914:B 0.000133551
5 *68:6 *914:B 1.83136e-05
*RES
1 *912:Y *914:B 30.9036 
*END

*D_NET *211 0.000309147
*CONN
*I *1011:B I *D sky130_fd_sc_hd__nand2_1
*I *1014:A I *D sky130_fd_sc_hd__nand2_1
*I *914:Y O *D sky130_fd_sc_hd__nand2_1
*CAP
1 *1011:B 0
2 *1014:A 2.52229e-05
3 *914:Y 9.96729e-05
4 *211:10 0.000124896
5 *1014:A *1014:B 5.52238e-05
6 *1012:A *211:10 4.13122e-06
*RES
1 *914:Y *211:10 19.9429 
2 *211:10 *1014:A 9.83571 
3 *211:10 *1011:B 9.3 
*END

*D_NET *212 0.000691706
*CONN
*I *1021:A I *D sky130_fd_sc_hd__nand2_1
*I *1022:A I *D sky130_fd_sc_hd__nand2_1
*I *915:Y O *D sky130_fd_sc_hd__nand2_1
*CAP
1 *1021:A 0.00011866
2 *1022:A 5.54318e-05
3 *915:Y 0.000132169
4 *212:6 0.00030626
5 *1021:A *1025:B 0
6 *1021:A *231:12 4.46186e-06
7 *1021:A *318:14 0
8 *1022:A *1022:B 1.97695e-05
9 *908:B *1021:A 0
10 *915:A *1021:A 0
11 *203:16 *212:6 5.49544e-05
12 *203:18 *1021:A 0
*RES
1 *915:Y *212:6 11.4786 
2 *212:6 *1022:A 10.2643 
3 *212:6 *1021:A 20.2464 
*END

*D_NET *213 0.001274
*CONN
*I *918:B I *D sky130_fd_sc_hd__nand2_1
*I *925:A I *D sky130_fd_sc_hd__nand2_1
*I *917:B I *D sky130_fd_sc_hd__nand2_1
*I *916:Y O *D sky130_fd_sc_hd__nand2_1
*CAP
1 *918:B 0
2 *925:A 0.000252877
3 *917:B 0
4 *916:Y 0.000117917
5 *213:23 0.000342479
6 *213:12 0.000207519
7 *925:A *921:A 0
8 *925:A *217:8 0
9 *213:23 *919:A 1.3701e-05
10 *213:23 *919:B 4.87854e-05
11 *917:A *213:12 6.42338e-05
12 *918:A *213:12 0.000226483
13 *922:A *925:A 0
*RES
1 *916:Y *213:12 20.8893 
2 *213:12 *917:B 9.3 
3 *213:12 *213:23 2.21429 
4 *213:23 *925:A 22.1036 
5 *213:23 *918:B 9.3 
*END

*D_NET *214 0.00018678
*CONN
*I *919:A I *D sky130_fd_sc_hd__nand2_1
*I *917:Y O *D sky130_fd_sc_hd__nand2_1
*CAP
1 *919:A 5.77759e-05
2 *917:Y 5.77759e-05
3 *919:A *919:B 5.75275e-05
4 *213:23 *919:A 1.3701e-05
*RES
1 *917:Y *919:A 19.975 
*END

*D_NET *215 0.00137628
*CONN
*I *830:A I *D sky130_fd_sc_hd__nand2_1
*I *831:A I *D sky130_fd_sc_hd__nand2_1
*I *758:Y O *D sky130_fd_sc_hd__inv_1
*CAP
1 *830:A 0
2 *831:A 9.58178e-05
3 *758:Y 0.000260318
4 *215:8 0.000356136
5 *215:8 *832:A 5.75389e-05
6 *215:8 *913:A 0.000115615
7 *215:8 *369:6 7.86112e-05
8 *831:B *831:A 5.11538e-05
9 *833:B *215:8 0
10 *1334:A *831:A 5.66971e-05
11 *5:29 *831:A 8.00806e-05
12 *91:10 *831:A 0.000224316
*RES
1 *758:Y *215:8 13.7554 
2 *215:8 *831:A 21.6929 
3 *215:8 *830:A 9.3 
*END

*D_NET *216 0.000521088
*CONN
*I *919:B I *D sky130_fd_sc_hd__nand2_1
*I *918:Y O *D sky130_fd_sc_hd__nand2_1
*CAP
1 *919:B 0.000207388
2 *918:Y 0.000207388
3 *889:B *919:B 0
4 *919:A *919:B 5.75275e-05
5 *213:23 *919:B 4.87854e-05
*RES
1 *918:Y *919:B 22.0286 
*END

*D_NET *217 0.000939645
*CONN
*I *921:A I *D sky130_fd_sc_hd__nand2_1
*I *920:A I *D sky130_fd_sc_hd__nand2_1
*I *919:Y O *D sky130_fd_sc_hd__nand2_1
*CAP
1 *921:A 5.63461e-05
2 *920:A 0.000217549
3 *919:Y 6.58296e-05
4 *217:8 0.000339725
5 *920:A *921:B 9.22103e-06
6 *920:A *925:B 2.77126e-05
7 *895:A *921:A 0
8 *895:A *217:8 0
9 *922:A *921:A 2.8266e-06
10 *925:A *921:A 0
11 *925:A *217:8 0
12 *192:8 *920:A 0.000220435
*RES
1 *919:Y *217:8 14.8357 
2 *217:8 *920:A 17.425 
3 *217:8 *921:A 14.8357 
*END

*D_NET *218 0.000683327
*CONN
*I *922:B I *D sky130_fd_sc_hd__nand2_1
*I *921:B I *D sky130_fd_sc_hd__nand2_1
*I *925:B I *D sky130_fd_sc_hd__nand2_1
*I *920:Y O *D sky130_fd_sc_hd__nand2_1
*CAP
1 *922:B 8.09143e-05
2 *921:B 8.10912e-05
3 *925:B 7.1362e-05
4 *920:Y 0
5 *218:6 0.0001698
6 *218:4 9.8261e-05
7 *920:A *921:B 9.22103e-06
8 *920:A *925:B 2.77126e-05
9 *922:A *921:B 5.52238e-05
10 *922:A *922:B 6.65398e-05
11 *192:8 *921:B 2.32013e-05
*RES
1 *920:Y *218:4 9.3 
2 *218:4 *218:6 0.428571 
3 *218:6 *925:B 10.675 
4 *218:6 *921:B 11.0857 
5 *218:4 *922:B 19.9429 
*END

*D_NET *219 0.000203903
*CONN
*I *923:A I *D sky130_fd_sc_hd__nand2_1
*I *921:Y O *D sky130_fd_sc_hd__nand2_1
*CAP
1 *923:A 7.95413e-05
2 *921:Y 7.95413e-05
3 *894:A *923:A 0
4 *922:A *923:A 4.48206e-05
*RES
1 *921:Y *923:A 29.2429 
*END

*D_NET *220 0.000196185
*CONN
*I *923:B I *D sky130_fd_sc_hd__nand2_1
*I *922:Y O *D sky130_fd_sc_hd__nand2_1
*CAP
1 *923:B 4.40623e-05
2 *922:Y 4.40623e-05
3 *923:B *221:16 5.62995e-05
4 *202:14 *923:B 5.17614e-05
*RES
1 *922:Y *923:B 19.975 
*END

*D_NET *221 0.00122155
*CONN
*I *1117:A I *D sky130_fd_sc_hd__nand2_1
*I *1118:A I *D sky130_fd_sc_hd__nand2_1
*I *923:Y O *D sky130_fd_sc_hd__nand2_1
*CAP
1 *1117:A 1.40444e-05
2 *1118:A 2.6501e-06
3 *923:Y 0.000375237
4 *221:16 0.000391932
5 *1117:A *1120:B 5.52238e-05
6 *1117:A *412:6 2.89114e-05
7 *1118:A *1117:B 3.99614e-06
8 *1118:A *1118:B 1.11677e-05
9 *1118:A *1119:B 0
10 *221:16 *1019:B 0
11 *221:16 *1122:A 0.000125717
12 *221:16 *1122:B 1.73501e-05
13 *221:16 *1125:A 0.000115759
14 *923:B *221:16 5.62995e-05
15 *202:14 *221:16 2.32625e-05
*RES
1 *923:Y *221:16 24.8 
2 *221:16 *1118:A 9.43393 
3 *221:16 *1117:A 9.83571 
*END

*D_NET *222 0.00177717
*CONN
*I *1128:A I *D sky130_fd_sc_hd__nand2_1
*I *1127:A I *D sky130_fd_sc_hd__nand2_1
*I *925:Y O *D sky130_fd_sc_hd__nand2_1
*CAP
1 *1128:A 3.98404e-05
2 *1127:A 9.66098e-05
3 *925:Y 0.000562622
4 *222:6 0.000699073
5 *1127:A *1128:B 5.35385e-05
6 *1127:A *1129:B 0
7 *1127:A *1130:A 5.54875e-05
8 *1127:A *1130:B 3.23104e-05
9 *1128:A *1128:B 3.17163e-05
10 *1128:A *308:24 0
11 *222:6 *1015:A 9.74665e-05
12 *222:6 *1130:A 5.52302e-05
13 *222:6 *1130:B 3.23957e-05
14 *222:6 *311:14 2.08751e-05
*RES
1 *925:Y *222:6 18.05 
2 *222:6 *1127:A 11.6393 
3 *222:6 *1128:A 19.0321 
*END

*D_NET *223 0.00125603
*CONN
*I *927:B I *D sky130_fd_sc_hd__nand2_1
*I *928:B I *D sky130_fd_sc_hd__nand2_1
*I *934:A I *D sky130_fd_sc_hd__nand2_1
*I *926:Y O *D sky130_fd_sc_hd__nand2_1
*CAP
1 *927:B 9.79442e-06
2 *928:B 0
3 *934:A 0.000328845
4 *926:Y 8.17516e-05
5 *223:12 0.000420909
6 *223:8 0.00018361
7 *927:B *928:A 1.02132e-05
8 *934:A *934:B 5.80706e-06
9 *934:A *1037:A 0
10 *934:A *1040:A 5.83233e-05
11 *223:8 *927:A 5.65955e-05
12 *223:8 *928:A 4.01264e-05
13 *223:8 *598:10 2.34188e-05
14 *223:12 *928:A 3.66325e-05
15 *9:21 *934:A 0
*RES
1 *926:Y *223:8 11.0857 
2 *223:8 *223:12 1.78571 
3 *223:12 *934:A 23.9607 
4 *223:12 *928:B 9.3 
5 *223:8 *927:B 9.72857 
*END

*D_NET *224 0.000209042
*CONN
*I *929:A I *D sky130_fd_sc_hd__nand2_1
*I *927:Y O *D sky130_fd_sc_hd__nand2_1
*CAP
1 *929:A 8.52637e-05
2 *927:Y 8.52637e-05
3 *929:A *929:B 3.85148e-05
*RES
1 *927:Y *929:A 29.2429 
*END

*D_NET *225 0.000314843
*CONN
*I *929:B I *D sky130_fd_sc_hd__nand2_1
*I *928:Y O *D sky130_fd_sc_hd__nand2_1
*CAP
1 *929:B 0.000110687
2 *928:Y 0.000110687
3 *929:B *227:6 5.49544e-05
4 *929:A *929:B 3.85148e-05
5 *9:21 *929:B 0
*RES
1 *928:Y *929:B 29.7786 
*END

*D_NET *226 0.000258487
*CONN
*I *780:A I *D sky130_fd_sc_hd__inv_1
*I *769:Y O *D sky130_fd_sc_hd__nand2_1
*CAP
1 *780:A 9.54978e-05
2 *769:Y 9.54978e-05
3 *92:18 *780:A 6.74911e-05
*RES
1 *769:Y *780:A 29.5241 
*END

*D_NET *227 0.000518415
*CONN
*I *931:A I *D sky130_fd_sc_hd__nand2_1
*I *930:A I *D sky130_fd_sc_hd__nand2_1
*I *929:Y O *D sky130_fd_sc_hd__nand2_1
*CAP
1 *931:A 1.24159e-05
2 *930:A 0.000100911
3 *929:Y 7.00317e-05
4 *227:6 0.000183359
5 *930:A *931:B 5.91094e-05
6 *930:A *933:A 3.18676e-05
7 *931:A *931:B 5.7661e-06
8 *929:B *227:6 5.49544e-05
*RES
1 *929:Y *227:6 10.6571 
2 *227:6 *930:A 11.4964 
3 *227:6 *931:A 9.72857 
*END

*D_NET *228 0.000786587
*CONN
*I *931:B I *D sky130_fd_sc_hd__nand2_1
*I *932:B I *D sky130_fd_sc_hd__nand2_1
*I *934:B I *D sky130_fd_sc_hd__nand2_1
*I *930:Y O *D sky130_fd_sc_hd__nand2_1
*CAP
1 *931:B 8.54549e-05
2 *932:B 8.52116e-05
3 *934:B 3.5635e-05
4 *930:Y 0.000165393
5 *228:8 0.000200785
6 *932:B *335:8 0
7 *934:B *335:8 0
8 *930:A *931:B 5.91094e-05
9 *930:B *932:B 7.83366e-05
10 *930:B *934:B 4.58096e-05
11 *930:B *228:8 1.92789e-05
12 *931:A *931:B 5.7661e-06
13 *934:A *934:B 5.80706e-06
*RES
1 *930:Y *228:8 14.7464 
2 *228:8 *934:B 14.8357 
3 *228:8 *932:B 15.7464 
4 *930:Y *931:B 20.4036 
*END

*D_NET *229 0.000372861
*CONN
*I *933:A I *D sky130_fd_sc_hd__nand2_1
*I *931:Y O *D sky130_fd_sc_hd__nand2_1
*CAP
1 *933:A 0.000119955
2 *931:Y 0.000119955
3 *930:A *933:A 3.18676e-05
4 *930:B *933:A 1.59782e-05
5 *9:21 *933:A 5.33882e-05
6 *9:60 *933:A 3.17163e-05
*RES
1 *931:Y *933:A 30.0821 
*END

*D_NET *230 0.000261457
*CONN
*I *933:B I *D sky130_fd_sc_hd__nand2_1
*I *932:Y O *D sky130_fd_sc_hd__nand2_1
*CAP
1 *933:B 4.90047e-05
2 *932:Y 4.90047e-05
3 *933:B *231:12 1.55885e-05
4 *1336:A *933:B 0
5 *9:17 *933:B 9.60875e-05
6 *9:60 *933:B 1.24368e-05
7 *16:19 *933:B 0
8 *42:8 *933:B 3.93346e-05
*RES
1 *932:Y *933:B 19.975 
*END

*D_NET *231 0.00157503
*CONN
*I *1021:B I *D sky130_fd_sc_hd__nand2_1
*I *1023:A I *D sky130_fd_sc_hd__nand2_1
*I *933:Y O *D sky130_fd_sc_hd__nand2_1
*CAP
1 *1021:B 0
2 *1023:A 2.36895e-05
3 *933:Y 0.000622687
4 *231:12 0.000646377
5 *1023:A *318:8 5.52238e-05
6 *231:12 *941:A 0.000101911
7 *231:12 *238:12 0
8 *231:12 *241:10 0
9 *231:12 *318:14 4.1331e-06
10 *906:B *231:12 0
11 *908:B *231:12 0
12 *933:B *231:12 1.55885e-05
13 *942:A *231:12 0
14 *1021:A *231:12 4.46186e-06
15 *9:60 *231:12 0
16 *15:45 *231:12 0
17 *42:8 *231:12 0.00010096
18 *122:14 *231:12 0
*RES
1 *933:Y *231:12 28.8893 
2 *231:12 *1023:A 9.83571 
3 *231:12 *1021:B 9.3 
*END

*D_NET *232 0.00107169
*CONN
*I *1033:A I *D sky130_fd_sc_hd__nand2_1
*I *1031:B I *D sky130_fd_sc_hd__nand2_1
*I *934:Y O *D sky130_fd_sc_hd__nand2_1
*CAP
1 *1033:A 0
2 *1031:B 5.93472e-05
3 *934:Y 0.000278027
4 *232:12 0.000337374
5 *1031:B *1033:B 1.61893e-05
6 *1031:B *1034:A 0.000172694
7 *1031:B *1034:B 2.89114e-05
8 *1031:B *1040:A 8.43535e-06
9 *1031:B *328:15 2.59355e-05
10 *232:12 *1037:A 0.00012501
11 *232:12 *1040:A 0
12 *1031:A *1031:B 1.97695e-05
*RES
1 *934:Y *232:12 22.1214 
2 *232:12 *1031:B 11.5143 
3 *232:12 *1033:A 9.3 
*END

*D_NET *233 0.00157096
*CONN
*I *937:B I *D sky130_fd_sc_hd__nand2_1
*I *944:A I *D sky130_fd_sc_hd__nand2_1
*I *938:B I *D sky130_fd_sc_hd__nand2_1
*I *936:Y O *D sky130_fd_sc_hd__nand2_1
*CAP
1 *937:B 0.000107732
2 *944:A 0.000249453
3 *938:B 2.1829e-05
4 *936:Y 8.39189e-05
5 *233:8 0.000290403
6 *233:6 0.000210772
7 *937:B *939:B 5.39683e-05
8 *937:B *940:A 0
9 *937:B *236:10 9.58318e-06
10 *938:B *939:B 5.71472e-05
11 *944:A *1137:A 3.28977e-05
12 *944:A *1138:A 3.17067e-05
13 *944:A *238:16 1.17578e-05
14 *944:A *242:6 5.03772e-05
15 *944:A *335:8 0
16 *944:A *441:10 0.000222021
17 *936:A *233:6 7.49387e-06
18 *938:A *938:B 3.57366e-05
19 *938:A *233:6 9.41642e-05
20 *70:8 *233:8 0
*RES
1 *936:Y *233:6 10.6571 
2 *233:6 *233:8 0.428571 
3 *233:8 *938:B 10.2643 
4 *233:8 *944:A 23.3536 
5 *233:6 *937:B 11.8 
*END

*D_NET *234 0.000460711
*CONN
*I *939:A I *D sky130_fd_sc_hd__nand2_1
*I *937:Y O *D sky130_fd_sc_hd__nand2_1
*CAP
1 *939:A 0.000159934
2 *937:Y 0.000159934
3 *939:A *939:B 0.000117787
4 *939:A *940:A 5.7661e-06
5 *939:A *236:10 1.72894e-05
*RES
1 *937:Y *939:A 21.1 
*END

*D_NET *235 0.00049217
*CONN
*I *939:B I *D sky130_fd_sc_hd__nand2_1
*I *938:Y O *D sky130_fd_sc_hd__nand2_1
*CAP
1 *939:B 8.21153e-05
2 *938:Y 8.21153e-05
3 *936:A *939:B 9.90367e-05
4 *937:B *939:B 5.39683e-05
5 *938:B *939:B 5.71472e-05
6 *939:A *939:B 0.000117787
*RES
1 *938:Y *939:B 21.2071 
*END

*D_NET *236 0.000966261
*CONN
*I *941:A I *D sky130_fd_sc_hd__nand2_1
*I *940:A I *D sky130_fd_sc_hd__nand2_1
*I *939:Y O *D sky130_fd_sc_hd__nand2_1
*CAP
1 *941:A 0.000165348
2 *940:A 1.8171e-05
3 *939:Y 9.45504e-05
4 *236:10 0.00027807
5 *941:A *238:12 0.000107238
6 *937:B *940:A 0
7 *937:B *236:10 9.58318e-06
8 *939:A *940:A 5.7661e-06
9 *939:A *236:10 1.72894e-05
10 *942:A *941:A 6.73734e-05
11 *122:14 *941:A 0.00010096
12 *231:12 *941:A 0.000101911
*RES
1 *939:Y *236:10 11.2107 
2 *236:10 *940:A 9.72857 
3 *236:10 *941:A 22.6214 
*END

*D_NET *237 0.000710325
*CONN
*I *779:A I *D sky130_fd_sc_hd__nand2_1
*I *778:A I *D sky130_fd_sc_hd__nand2_1
*I *780:Y O *D sky130_fd_sc_hd__inv_1
*CAP
1 *779:A 0.000185048
2 *778:A 2.49332e-05
3 *780:Y 5.49102e-05
4 *237:6 0.000264891
5 *778:A *391:8 4.1896e-06
6 *779:A *781:A 6.71847e-05
7 *779:A *935:A 1.24368e-05
8 *779:A *1246:A 0
9 *779:A *391:8 1.02821e-05
10 *783:A *779:A 5.80706e-06
11 *6:43 *779:A 0
12 *15:83 *779:A 0
13 *79:8 *779:A 8.06427e-05
*RES
1 *780:Y *237:6 10.0411 
2 *237:6 *778:A 9.72857 
3 *237:6 *779:A 22.3357 
*END

*D_NET *238 0.00119406
*CONN
*I *941:B I *D sky130_fd_sc_hd__nand2_1
*I *942:B I *D sky130_fd_sc_hd__nand2_1
*I *944:B I *D sky130_fd_sc_hd__nand2_1
*I *940:Y O *D sky130_fd_sc_hd__nand2_1
*CAP
1 *941:B 0.000129542
2 *942:B 0
3 *944:B 2.88379e-05
4 *940:Y 0.00011633
5 *238:16 0.00015447
6 *238:12 0.000371504
7 *941:B *943:A 5.57575e-05
8 *238:12 *241:10 7.79781e-06
9 *238:16 *943:B 5.43733e-05
10 *238:16 *241:10 8.25843e-06
11 *941:A *238:12 0.000107238
12 *942:A *238:12 0.000148196
13 *944:A *238:16 1.17578e-05
14 *231:12 *238:12 0
*RES
1 *940:Y *238:12 21.0857 
2 *238:12 *238:16 2.19643 
3 *238:16 *944:B 9.83571 
4 *238:16 *942:B 9.3 
5 *238:12 *941:B 11.4964 
*END

*D_NET *239 0.000201428
*CONN
*I *943:A I *D sky130_fd_sc_hd__nand2_1
*I *941:Y O *D sky130_fd_sc_hd__nand2_1
*CAP
1 *943:A 6.43019e-05
2 *941:Y 6.43019e-05
3 *943:A *943:B 1.70669e-05
4 *941:B *943:A 5.57575e-05
*RES
1 *941:Y *943:A 19.975 
*END

*D_NET *240 0.000219469
*CONN
*I *943:B I *D sky130_fd_sc_hd__nand2_1
*I *942:Y O *D sky130_fd_sc_hd__nand2_1
*CAP
1 *943:B 4.88259e-05
2 *942:Y 4.88259e-05
3 *943:B *241:10 5.03772e-05
4 *943:A *943:B 1.70669e-05
5 *238:16 *943:B 5.43733e-05
*RES
1 *942:Y *943:B 19.975 
*END

*D_NET *241 0.00189318
*CONN
*I *1028:A I *D sky130_fd_sc_hd__nand2_1
*I *1026:B I *D sky130_fd_sc_hd__nand2_1
*I *943:Y O *D sky130_fd_sc_hd__nand2_1
*CAP
1 *1028:A 0.000157441
2 *1026:B 0
3 *943:Y 0.00053948
4 *241:10 0.000696921
5 *1028:A *1025:B 0
6 *1028:A *1027:A 7.73758e-05
7 *1028:A *322:16 7.99044e-05
8 *241:10 *1025:B 0
9 *241:10 *1139:A 0
10 *241:10 *1140:B 3.03933e-05
11 *241:10 *1141:B 0
12 *241:10 *1142:A 0
13 *241:10 *1145:B 0
14 *241:10 *318:14 0
15 *241:10 *322:16 2.8266e-06
16 *241:10 *335:8 0
17 *942:A *241:10 4.08796e-05
18 *943:B *241:10 5.03772e-05
19 *14:30 *241:10 0.000110933
20 *15:45 *241:10 9.05914e-05
21 *231:12 *241:10 0
22 *238:12 *241:10 7.79781e-06
23 *238:16 *241:10 8.25843e-06
*RES
1 *943:Y *241:10 23.175 
2 *241:10 *1026:B 13.8 
3 *241:10 *1028:A 17.1929 
*END

*D_NET *242 0.000858258
*CONN
*I *1138:A I *D sky130_fd_sc_hd__nand2_1
*I *1137:A I *D sky130_fd_sc_hd__nand2_1
*I *944:Y O *D sky130_fd_sc_hd__nand2_1
*CAP
1 *1138:A 0.000107985
2 *1137:A 4.57408e-05
3 *944:Y 7.11452e-05
4 *242:6 0.000224871
5 *1138:A *1139:A 8.66324e-05
6 *1138:A *1139:B 5.52302e-05
7 *1138:A *335:8 1.76135e-05
8 *1138:A *432:10 0.000128154
9 *1138:A *441:10 5.90443e-06
10 *944:A *1137:A 3.28977e-05
11 *944:A *1138:A 3.17067e-05
12 *944:A *242:6 5.03772e-05
*RES
1 *944:Y *242:6 10.6571 
2 *242:6 *1137:A 10.2643 
3 *242:6 *1138:A 21.3893 
*END

*D_NET *243 0.000888857
*CONN
*I *947:B I *D sky130_fd_sc_hd__nand2_1
*I *948:B I *D sky130_fd_sc_hd__nand2_1
*I *954:A I *D sky130_fd_sc_hd__nand2_1
*I *945:Y O *D sky130_fd_sc_hd__nand2_1
*CAP
1 *947:B 0.00012415
2 *948:B 0
3 *954:A 2.59801e-05
4 *945:Y 0.000213808
5 *243:10 0.000115638
6 *947:B *947:A 5.65955e-05
7 *947:B *614:8 1.95287e-05
8 *243:10 *949:B 7.89362e-05
9 *754:B *954:A 0.000143427
10 *948:A *243:10 3.50612e-05
11 *9:38 *954:A 7.57312e-05
*RES
1 *945:Y *243:10 20.2464 
2 *243:10 *954:A 10.6571 
3 *243:10 *948:B 9.3 
4 *945:Y *947:B 20.7964 
*END

*D_NET *244 0.0003091
*CONN
*I *949:A I *D sky130_fd_sc_hd__nand2_1
*I *947:Y O *D sky130_fd_sc_hd__nand2_1
*CAP
1 *949:A 0.000113264
2 *947:Y 0.000113264
3 *949:A *949:B 3.5848e-05
4 *949:A *246:10 2.84109e-05
5 *10:23 *949:A 1.83136e-05
*RES
1 *947:Y *949:A 29.7786 
*END

*D_NET *245 0.000643085
*CONN
*I *949:B I *D sky130_fd_sc_hd__nand2_1
*I *948:Y O *D sky130_fd_sc_hd__nand2_1
*CAP
1 *949:B 0.000188764
2 *948:Y 0.000188764
3 *948:A *949:B 0.000150773
4 *949:A *949:B 3.5848e-05
5 *243:10 *949:B 7.89362e-05
*RES
1 *948:Y *949:B 31.6714 
*END

*D_NET *246 0.00109583
*CONN
*I *951:A I *D sky130_fd_sc_hd__nand2_1
*I *950:A I *D sky130_fd_sc_hd__nand2_1
*I *949:Y O *D sky130_fd_sc_hd__nand2_1
*CAP
1 *951:A 3.68446e-05
2 *950:A 0.000178425
3 *949:Y 0.000287122
4 *246:10 0.000502391
5 *950:A *247:26 4.68532e-05
6 *949:A *246:10 2.84109e-05
7 *10:23 *246:10 1.57848e-05
*RES
1 *949:Y *246:10 17.6214 
2 *246:10 *950:A 16.6571 
3 *246:10 *951:A 14.3357 
*END

*D_NET *247 0.00132009
*CONN
*I *952:B I *D sky130_fd_sc_hd__nand2_1
*I *951:B I *D sky130_fd_sc_hd__nand2_1
*I *954:B I *D sky130_fd_sc_hd__nand2_1
*I *950:Y O *D sky130_fd_sc_hd__nand2_1
*CAP
1 *952:B 0.000190789
2 *951:B 0
3 *954:B 3.58112e-05
4 *950:Y 0.000177392
5 *247:26 0.000332369
6 *952:B *953:A 7.67307e-05
7 *952:B *953:B 8.42543e-05
8 *952:B *251:10 3.45756e-05
9 *754:B *954:B 5.46532e-05
10 *950:A *247:26 4.68532e-05
11 *950:B *954:B 1.19813e-05
12 *9:21 *247:26 7.70015e-05
13 *9:38 *954:B 9.75171e-05
14 *9:38 *247:26 0.000100165
*RES
1 *950:Y *954:B 19.975 
2 *950:Y *247:26 21.1929 
3 *247:26 *951:B 9.3 
4 *247:26 *952:B 13.6036 
*END

*D_NET *248 0.000503324
*CONN
*I *802:A I *D sky130_fd_sc_hd__inv_1
*I *791:Y O *D sky130_fd_sc_hd__nand2_1
*CAP
1 *802:A 0.000204027
2 *791:Y 0.000204027
3 *802:A *957:A 1.14548e-05
4 *4:19 *802:A 3.75868e-05
5 *4:38 *802:A 4.06796e-05
6 *4:51 *802:A 5.54817e-06
*RES
1 *791:Y *802:A 30.7295 
*END

*D_NET *249 0.000208413
*CONN
*I *953:A I *D sky130_fd_sc_hd__nand2_1
*I *951:Y O *D sky130_fd_sc_hd__nand2_1
*CAP
1 *953:A 6.58409e-05
2 *951:Y 6.58409e-05
3 *952:B *953:A 7.67307e-05
*RES
1 *951:Y *953:A 19.975 
*END

*D_NET *250 0.000264781
*CONN
*I *953:B I *D sky130_fd_sc_hd__nand2_1
*I *952:Y O *D sky130_fd_sc_hd__nand2_1
*CAP
1 *953:B 4.23316e-05
2 *952:Y 4.23316e-05
3 *953:B *251:10 9.58632e-05
4 *952:B *953:B 8.42543e-05
*RES
1 *952:Y *953:B 19.975 
*END

*D_NET *251 0.00157219
*CONN
*I *1036:B I *D sky130_fd_sc_hd__nand2_1
*I *1038:A I *D sky130_fd_sc_hd__nand2_1
*I *953:Y O *D sky130_fd_sc_hd__nand2_1
*CAP
1 *1036:B 4.05203e-05
2 *1038:A 0.000218413
3 *953:Y 0.000378132
4 *251:10 0.000637065
5 *1036:B *1036:A 5.54817e-06
6 *1036:B *1040:A 3.67279e-06
7 *1036:B *337:8 2.53112e-06
8 *1038:A *1038:B 5.46383e-06
9 *1038:A *1039:B 3.13637e-05
10 *1038:A *1040:B 5.49995e-05
11 *1038:A *332:20 4.30704e-05
12 *251:10 *337:8 2.09722e-05
13 *952:B *251:10 3.45756e-05
14 *953:B *251:10 9.58632e-05
*RES
1 *953:Y *251:10 18.6571 
2 *251:10 *1038:A 17.1214 
3 *251:10 *1036:B 14.5321 
*END

*D_NET *252 0.00082729
*CONN
*I *1147:A I *D sky130_fd_sc_hd__nand2_1
*I *1148:A I *D sky130_fd_sc_hd__nand2_1
*I *954:Y O *D sky130_fd_sc_hd__nand2_1
*CAP
1 *1147:A 1.55991e-05
2 *1148:A 0
3 *954:Y 0.000343075
4 *252:16 0.000358674
5 *1147:A *1150:B 1.83136e-05
6 *1147:A *442:8 3.08664e-05
7 *252:16 *1148:B 5.80706e-06
8 *754:B *252:16 5.49544e-05
*RES
1 *954:Y *252:16 23.8714 
2 *252:16 *1148:A 9.3 
3 *252:16 *1147:A 9.83571 
*END

*D_NET *253 0.00110049
*CONN
*I *960:A I *D sky130_fd_sc_hd__inv_1
*I *958:B I *D sky130_fd_sc_hd__nand2_1
*I *956:B I *D sky130_fd_sc_hd__nand2_1
*I *955:Y O *D sky130_fd_sc_hd__nand2_1
*CAP
1 *960:A 0.000100605
2 *958:B 2.13249e-05
3 *956:B 0.000106864
4 *955:Y 0
5 *253:17 0.000173241
6 *253:4 0.000158176
7 *956:B *959:A 4.77002e-05
8 *958:B *959:A 1.02301e-05
9 *960:A *959:A 2.11336e-05
10 *960:A *959:B 3.35388e-05
11 *960:A *256:10 8.69355e-05
12 *253:17 *958:A 5.4959e-05
13 *253:17 *959:A 4.36762e-05
14 *253:17 *256:10 0.000185408
15 *955:A *956:B 5.66971e-05
*RES
1 *955:Y *253:4 9.3 
2 *253:4 *956:B 11.925 
3 *253:4 *253:17 2.17857 
4 *253:17 *958:B 10.0321 
5 *253:17 *960:A 12.0813 
*END

*D_NET *254 0.000744391
*CONN
*I *959:A I *D sky130_fd_sc_hd__nand2_1
*I *956:Y O *D sky130_fd_sc_hd__nand2_1
*CAP
1 *959:A 0.000174637
2 *956:Y 0.000174637
3 *959:A *958:A 9.84729e-05
4 *959:A *959:B 0.000118898
5 *955:A *959:A 5.50052e-05
6 *956:B *959:A 4.77002e-05
7 *958:B *959:A 1.02301e-05
8 *960:A *959:A 2.11336e-05
9 *253:17 *959:A 4.36762e-05
*RES
1 *956:Y *959:A 22.85 
*END

*D_NET *255 0.000450088
*CONN
*I *959:B I *D sky130_fd_sc_hd__nand2_1
*I *958:Y O *D sky130_fd_sc_hd__nand2_1
*CAP
1 *959:B 0.000148826
2 *958:Y 0.000148826
3 *959:A *959:B 0.000118898
4 *960:A *959:B 3.35388e-05
*RES
1 *958:Y *959:B 21.1 
*END

*D_NET *256 0.00248067
*CONN
*I *1182:A I *D sky130_fd_sc_hd__nand2_1
*I *1183:A I *D sky130_fd_sc_hd__nand2_1
*I *959:Y O *D sky130_fd_sc_hd__nand2_1
*CAP
1 *1182:A 0
2 *1183:A 0.000474706
3 *959:Y 0.000583664
4 *256:10 0.00105837
5 *1183:A *1063:A 0
6 *1183:A *1183:B 6.45419e-05
7 *1183:A *1184:A 2.70413e-05
8 *1183:A *1192:B 0
9 *1183:A *475:10 0
10 *256:10 *1063:A 0
11 *256:10 *348:14 0
12 *256:10 *352:10 0
13 p[3] *1183:A 0
14 *960:A *256:10 8.69355e-05
15 *149:12 *256:10 0
16 *253:17 *256:10 0.000185408
*RES
1 *959:Y *256:10 23.1929 
2 *256:10 *1183:A 21.2821 
3 *256:10 *1182:A 13.8 
*END

*D_NET *257 0.00139876
*CONN
*I *1067:A I *D sky130_fd_sc_hd__nand2_1
*I *1066:A I *D sky130_fd_sc_hd__nand2_1
*I *960:Y O *D sky130_fd_sc_hd__inv_1
*CAP
1 *1067:A 0.000115461
2 *1066:A 0.000113423
3 *960:Y 0.000119673
4 *257:6 0.000348557
5 *1066:A *363:14 6.05161e-06
6 *1067:A *1070:A 1.54502e-05
7 *1067:A *1070:B 0.000159769
8 *1067:A *363:14 3.11088e-05
9 *1067:A *363:23 2.92156e-05
10 *1069:A *1066:A 0.000175281
11 *1069:A *1067:A 2.59355e-05
12 *1069:A *257:6 2.85234e-05
13 *11:41 *1066:A 0.000220219
14 *126:8 *1066:A 1.00887e-05
*RES
1 *960:Y *257:6 11.2732 
2 *257:6 *1066:A 21.6929 
3 *257:6 *1067:A 12.6661 
*END

*D_NET *258 0.000854828
*CONN
*I *962:B I *D sky130_fd_sc_hd__nand2_1
*I *971:A I *D sky130_fd_sc_hd__nand2_1
*I *963:B I *D sky130_fd_sc_hd__nand2_1
*I *961:Y O *D sky130_fd_sc_hd__nand2_1
*CAP
1 *962:B 4.05051e-05
2 *971:A 3.5428e-05
3 *963:B 4.85153e-05
4 *961:Y 4.85153e-05
5 *258:20 7.59331e-05
6 *962:B *961:A 3.63587e-05
7 *962:B *962:A 5.04841e-06
8 *962:B *267:12 9.60875e-05
9 *963:B *961:B 0.000149275
10 *963:B *501:10 0.000149275
11 *971:A *961:A 3.99614e-06
12 *971:A *971:B 1.97695e-05
13 *971:A *267:12 0.00010096
14 *5:29 *962:B 1.02821e-05
15 *5:29 *971:A 3.4879e-05
*RES
1 *961:Y *963:B 29.5464 
2 *961:Y *258:20 9.3 
3 *258:20 *971:A 10.675 
4 *258:20 *962:B 10.675 
*END

*D_NET *259 0.000816528
*CONN
*I *785:A I *D sky130_fd_sc_hd__nand2_1
*I *784:A I *D sky130_fd_sc_hd__nand2_1
*I *802:Y O *D sky130_fd_sc_hd__inv_1
*CAP
1 *785:A 0.000193992
2 *784:A 0
3 *802:Y 7.81465e-05
4 *259:8 0.000272139
5 *785:A *957:A 3.11088e-05
6 *259:8 *784:B 5.46383e-06
7 *259:8 *957:A 1.69756e-05
8 *786:B *785:A 1.32293e-05
9 *786:B *259:8 4.00668e-05
10 *787:B *785:A 3.98645e-05
11 *84:21 *785:A 0.000125542
*RES
1 *802:Y *259:8 10.7732 
2 *259:8 *784:A 9.3 
3 *259:8 *785:A 21.6214 
*END

*D_NET *260 0.000335785
*CONN
*I *964:A I *D sky130_fd_sc_hd__nand2_1
*I *962:Y O *D sky130_fd_sc_hd__nand2_1
*CAP
1 *964:A 5.41853e-05
2 *962:Y 5.41853e-05
3 *964:A *501:10 7.57177e-05
4 *5:11 *964:A 0.000151697
*RES
1 *962:Y *964:A 29.5464 
*END

*D_NET *261 0.000197639
*CONN
*I *964:B I *D sky130_fd_sc_hd__nand2_1
*I *963:Y O *D sky130_fd_sc_hd__nand2_1
*CAP
1 *964:B 7.26327e-05
2 *963:Y 7.26327e-05
3 *12:19 *964:B 5.23735e-05
*RES
1 *963:Y *964:B 19.975 
*END

*D_NET *262 0.00193556
*CONN
*I *966:A I *D sky130_fd_sc_hd__nand2_1
*I *965:A I *D sky130_fd_sc_hd__nand2_1
*I *964:Y O *D sky130_fd_sc_hd__nand2_1
*CAP
1 *966:A 0.000147446
2 *965:A 0.000100357
3 *964:Y 0.000280246
4 *262:14 0.000528048
5 *966:A *970:A 0.000283317
6 *966:A *970:B 0.00032781
7 *966:A *263:10 6.8646e-06
8 *966:A *381:10 3.74032e-05
9 *262:14 *381:10 2.87912e-05
10 *262:14 *501:10 9.94068e-05
11 *12:19 *262:14 9.58689e-05
*RES
1 *964:Y *262:14 22.7643 
2 *262:14 *965:A 10.675 
3 *262:14 *966:A 22.9786 
*END

*D_NET *263 0.00113487
*CONN
*I *971:B I *D sky130_fd_sc_hd__nand2_1
*I *966:B I *D sky130_fd_sc_hd__nand2_1
*I *967:B I *D sky130_fd_sc_hd__nand2_1
*I *965:Y O *D sky130_fd_sc_hd__nand2_1
*CAP
1 *971:B 9.67501e-05
2 *966:B 0
3 *967:B 0
4 *965:Y 0.000180494
5 *263:17 0.00011875
6 *263:10 0.000202494
7 *971:B *970:B 2.14658e-05
8 *263:10 *965:B 8.91309e-05
9 *263:10 *967:A 8.71143e-05
10 *263:10 *970:B 8.03367e-05
11 *263:17 *970:B 5.52302e-05
12 *966:A *263:10 6.8646e-06
13 *971:A *971:B 1.97695e-05
14 *1191:A *263:10 0.000148744
15 *5:29 *971:B 2.77258e-05
*RES
1 *965:Y *263:10 22.675 
2 *263:10 *967:B 9.3 
3 *263:10 *263:17 0.535714 
4 *263:17 *966:B 9.3 
5 *263:17 *971:B 11.5143 
*END

*D_NET *264 0.00107627
*CONN
*I *970:A I *D sky130_fd_sc_hd__nand2_1
*I *966:Y O *D sky130_fd_sc_hd__nand2_1
*CAP
1 *970:A 0.000189115
2 *966:Y 0.000189115
3 *970:A *970:B 1.03403e-05
4 *970:A *381:10 0.000310222
5 *966:A *970:A 0.000283317
6 *5:29 *970:A 9.41642e-05
*RES
1 *966:Y *970:A 32.6179 
*END

*D_NET *265 0.00120232
*CONN
*I *970:B I *D sky130_fd_sc_hd__nand2_1
*I *967:Y O *D sky130_fd_sc_hd__nand2_1
*CAP
1 *970:B 0.00019081
2 *967:Y 0.00019081
3 *966:A *970:B 0.00032781
4 *970:A *970:B 1.03403e-05
5 *971:B *970:B 2.14658e-05
6 *1191:A *970:B 0.000178877
7 *5:29 *970:B 0.000139907
8 *6:17 *970:B 6.73707e-06
9 *263:10 *970:B 8.03367e-05
10 *263:17 *970:B 5.52302e-05
*RES
1 *967:Y *970:B 33.6357 
*END

*D_NET *266 0.00124516
*CONN
*I *1194:A I *D sky130_fd_sc_hd__nand2_1
*I *1193:A I *D sky130_fd_sc_hd__nand2_1
*I *970:Y O *D sky130_fd_sc_hd__nand2_1
*CAP
1 *1194:A 2.25499e-05
2 *1193:A 0
3 *970:Y 0.000490691
4 *266:10 0.000513241
5 *1194:A *484:8 5.71472e-05
6 *266:10 *1203:B 1.16107e-05
7 *266:10 *1209:A 0
8 *266:10 *371:12 0
9 *266:10 *381:10 0.00014992
10 *266:10 *492:8 0
*RES
1 *970:Y *266:10 27.2286 
2 *266:10 *1193:A 9.3 
3 *266:10 *1194:A 9.83571 
*END

*D_NET *267 0.00144034
*CONN
*I *1077:A I *D sky130_fd_sc_hd__nand2_1
*I *1076:A I *D sky130_fd_sc_hd__nand2_1
*I *971:Y O *D sky130_fd_sc_hd__nand2_1
*CAP
1 *1077:A 1.16062e-05
2 *1076:A 0
3 *971:Y 0.000307768
4 *267:12 0.000319374
5 *1077:A *1077:B 5.52302e-05
6 *1077:A *1085:A 5.52302e-05
7 *267:12 *961:A 1.56e-05
8 *962:B *267:12 9.60875e-05
9 *971:A *267:12 0.00010096
10 *1035:A *267:12 0.000125731
11 *13:9 *267:12 0.000125731
12 *13:34 *267:12 0.000227021
*RES
1 *971:Y *267:12 24.8536 
2 *267:12 *1076:A 9.3 
3 *267:12 *1077:A 9.83571 
*END

*D_NET *268 0.00156629
*CONN
*I *974:B I *D sky130_fd_sc_hd__nand2_1
*I *973:B I *D sky130_fd_sc_hd__nand2_1
*I *981:A I *D sky130_fd_sc_hd__nand2_1
*I *972:Y O *D sky130_fd_sc_hd__nand2_1
*CAP
1 *974:B 4.01189e-05
2 *973:B 0.000103989
3 *981:A 0.000150301
4 *972:Y 3.11165e-05
5 *268:12 0.000385746
6 *268:8 0.000202691
7 *973:B *973:A 7.34868e-05
8 *973:B *975:A 2.08282e-05
9 *974:B *973:A 3.34366e-05
10 *981:A *973:A 9.69119e-06
11 *981:A *272:12 3.93986e-05
12 *268:8 *973:A 7.83587e-05
13 *268:12 *973:A 0.000140933
14 *268:12 *975:B 1.98839e-05
15 *974:A *974:B 4.23086e-05
16 *974:A *268:8 4.15914e-05
17 *976:B *981:A 5.59013e-05
18 *7:26 *981:A 9.65075e-05
19 *12:89 *981:A 0
*RES
1 *972:Y *268:8 14.8357 
2 *268:8 *268:12 6.26786 
3 *268:12 *981:A 21.4607 
4 *268:12 *973:B 11.4071 
5 *268:8 *974:B 14.8357 
*END

*D_NET *269 0.000203885
*CONN
*I *975:A I *D sky130_fd_sc_hd__nand2_1
*I *973:Y O *D sky130_fd_sc_hd__nand2_1
*CAP
1 *975:A 7.37942e-05
2 *973:Y 7.37942e-05
3 *975:A *973:A 2.97021e-05
4 *975:A *975:B 5.7661e-06
5 *973:B *975:A 2.08282e-05
*RES
1 *973:Y *975:A 19.975 
*END

*D_NET *270 0.000493866
*CONN
*I *824:A I *D sky130_fd_sc_hd__inv_1
*I *813:Y O *D sky130_fd_sc_hd__nand2_1
*CAP
1 *824:A 0.000148918
2 *813:Y 0.000148918
3 *824:A *281:18 2.23787e-05
4 *813:B *824:A 6.32229e-05
5 *968:A *824:A 3.00023e-05
6 *11:49 *824:A 3.29506e-06
7 *127:10 *824:A 7.71303e-05
*RES
1 *813:Y *824:A 21.8545 
*END

*D_NET *271 0.000193435
*CONN
*I *975:B I *D sky130_fd_sc_hd__nand2_1
*I *974:Y O *D sky130_fd_sc_hd__nand2_1
*CAP
1 *975:B 7.01685e-05
2 *974:Y 7.01685e-05
3 *975:B *973:A 2.21417e-05
4 *975:B *272:12 5.30637e-06
5 *975:A *975:B 5.7661e-06
6 *268:12 *975:B 1.98839e-05
*RES
1 *974:Y *975:B 19.975 
*END

*D_NET *272 0.00130017
*CONN
*I *977:A I *D sky130_fd_sc_hd__nand2_1
*I *976:A I *D sky130_fd_sc_hd__nand2_1
*I *975:Y O *D sky130_fd_sc_hd__nand2_1
*CAP
1 *977:A 0.000210749
2 *976:A 0
3 *975:Y 0.000143987
4 *272:12 0.000354737
5 *977:A *977:B 5.62995e-05
6 *977:A *979:A 2.27416e-05
7 *977:A *979:B 0.000291532
8 *977:A *981:B 1.04232e-05
9 *977:A *273:6 1.92905e-05
10 *977:A *273:17 7.12595e-05
11 *977:A *277:12 5.71472e-05
12 *272:12 *973:A 1.15281e-05
13 *975:B *272:12 5.30637e-06
14 *976:B *977:A 5.7661e-06
15 *981:A *272:12 3.93986e-05
16 *12:89 *272:12 0
*RES
1 *975:Y *272:12 20.4786 
2 *272:12 *976:A 9.3 
3 *272:12 *977:A 14.9964 
*END

*D_NET *273 0.000757456
*CONN
*I *977:B I *D sky130_fd_sc_hd__nand2_1
*I *978:B I *D sky130_fd_sc_hd__nand2_1
*I *981:B I *D sky130_fd_sc_hd__nand2_1
*I *976:Y O *D sky130_fd_sc_hd__nand2_1
*CAP
1 *977:B 3.38818e-05
2 *978:B 0
3 *981:B 1.56769e-05
4 *976:Y 3.19733e-05
5 *273:17 0.000135297
6 *273:6 0.000149066
7 *273:17 *979:A 0
8 *976:B *981:B 9.7049e-06
9 *976:B *273:6 9.80173e-05
10 *976:B *273:17 0.000126566
11 *977:A *977:B 5.62995e-05
12 *977:A *981:B 1.04232e-05
13 *977:A *273:6 1.92905e-05
14 *977:A *273:17 7.12595e-05
*RES
1 *976:Y *273:6 10.2464 
2 *273:6 *981:B 9.72857 
3 *273:6 *273:17 2.60714 
4 *273:17 *978:B 9.3 
5 *273:17 *977:B 10.2464 
*END

*D_NET *274 0.000299975
*CONN
*I *979:A I *D sky130_fd_sc_hd__nand2_1
*I *977:Y O *D sky130_fd_sc_hd__nand2_1
*CAP
1 *979:A 0.000107961
2 *977:Y 0.000107961
3 *979:A *979:B 1.90213e-05
4 *979:A *1084:A 1.04232e-05
5 *979:A *276:6 3.18676e-05
6 *979:A *377:8 0
7 *977:A *979:A 2.27416e-05
8 *273:17 *979:A 0
*RES
1 *977:Y *979:A 20.7964 
*END

*D_NET *275 0.00073832
*CONN
*I *979:B I *D sky130_fd_sc_hd__nand2_1
*I *978:Y O *D sky130_fd_sc_hd__nand2_1
*CAP
1 *979:B 0.000209031
2 *978:Y 0.000209031
3 *979:B *1084:A 9.7049e-06
4 *977:A *979:B 0.000291532
5 *979:A *979:B 1.90213e-05
*RES
1 *978:Y *979:B 22.225 
*END

*D_NET *276 0.000606884
*CONN
*I *1082:B I *D sky130_fd_sc_hd__nand2_1
*I *1084:A I *D sky130_fd_sc_hd__nand2_1
*I *979:Y O *D sky130_fd_sc_hd__nand2_1
*CAP
1 *1082:B 0.000129307
2 *1084:A 1.39026e-05
3 *979:Y 4.58485e-05
4 *276:6 0.000189058
5 *1082:B *1083:B 0
6 *1082:B *1084:B 5.71472e-05
7 *1082:B *1085:B 1.39841e-05
8 *1082:B *377:8 6.97776e-05
9 *1082:B *382:14 3.18676e-05
10 *1084:A *377:8 3.99614e-06
11 *979:A *1084:A 1.04232e-05
12 *979:A *276:6 3.18676e-05
13 *979:B *1084:A 9.7049e-06
*RES
1 *979:Y *276:6 10.2464 
2 *276:6 *1084:A 9.72857 
3 *276:6 *1082:B 12.3179 
*END

*D_NET *277 0.00239411
*CONN
*I *1087:B I *D sky130_fd_sc_hd__nand2_1
*I *1089:A I *D sky130_fd_sc_hd__nand2_1
*I *981:Y O *D sky130_fd_sc_hd__nand2_1
*CAP
1 *1087:B 0
2 *1089:A 1.1624e-05
3 *981:Y 0.000636487
4 *277:12 0.000648111
5 *1089:A *1089:B 5.52238e-05
6 *277:12 *840:A 3.98428e-05
7 *277:12 *841:A 3.17163e-05
8 *277:12 *1092:B 0
9 *277:12 *1094:B 0
10 *277:12 *286:10 0
11 *843:A *277:12 0.000127446
12 *843:B *277:12 0.000125724
13 *844:A *277:12 0.000128154
14 *861:B *277:12 0
15 *864:A *277:12 0
16 *864:B *277:12 0
17 *977:A *277:12 5.71472e-05
18 *1213:A *277:12 1.50087e-05
19 *1308:A *277:12 0
20 *7:26 *277:12 3.2293e-05
21 *12:89 *277:12 0
22 *13:44 *277:12 8.08022e-05
23 *139:10 *277:12 0.000272665
24 *142:10 *277:12 7.6644e-05
25 *162:8 *1089:A 5.52238e-05
*RES
1 *981:Y *277:12 32.6214 
2 *277:12 *1089:A 9.83571 
3 *277:12 *1087:B 9.3 
*END

*D_NET *278 0.00118115
*CONN
*I *990:A I *D sky130_fd_sc_hd__nand2_1
*I *983:B I *D sky130_fd_sc_hd__nand2_1
*I *984:B I *D sky130_fd_sc_hd__nand2_1
*I *982:Y O *D sky130_fd_sc_hd__nand2_1
*CAP
1 *990:A 0.000255127
2 *983:B 7.97864e-05
3 *984:B 1.56769e-05
4 *982:Y 0.000344253
5 *278:6 0.000184589
6 *983:B *985:A 1.32552e-05
7 *990:A *985:B 8.15939e-05
8 *990:A *987:B 0
9 *851:A *990:A 0
10 *853:A *990:A 0
11 *983:A *983:B 3.76337e-05
12 *983:A *984:B 1.04232e-05
13 *983:A *990:A 3.18676e-05
14 *983:A *278:6 7.17136e-05
15 *984:A *278:6 5.52302e-05
16 *91:10 *990:A 0
*RES
1 *982:Y *278:6 11.0679 
2 *278:6 *984:B 9.72857 
3 *278:6 *983:B 11.0857 
4 *982:Y *990:A 32.2071 
*END

*D_NET *279 0.000356216
*CONN
*I *985:A I *D sky130_fd_sc_hd__nand2_1
*I *983:Y O *D sky130_fd_sc_hd__nand2_1
*CAP
1 *985:A 0.000120687
2 *983:Y 0.000120687
3 *985:A *985:B 8.39e-05
4 *985:A *987:B 1.02504e-05
5 *983:A *985:A 7.43578e-06
6 *983:B *985:A 1.32552e-05
7 *11:99 *985:A 0
*RES
1 *983:Y *985:A 30.0821 
*END

*D_NET *280 0.000267659
*CONN
*I *985:B I *D sky130_fd_sc_hd__nand2_1
*I *984:Y O *D sky130_fd_sc_hd__nand2_1
*CAP
1 *985:B 5.10825e-05
2 *984:Y 5.10825e-05
3 *985:A *985:B 8.39e-05
4 *990:A *985:B 8.15939e-05
*RES
1 *984:Y *985:B 29.5464 
*END

*D_NET *281 0.00106084
*CONN
*I *1166:B I *D sky130_fd_sc_hd__nand2_1
*I *1169:A I *D sky130_fd_sc_hd__nand2_1
*I *824:Y O *D sky130_fd_sc_hd__inv_1
*CAP
1 *1166:B 0
2 *1169:A 2.00323e-05
3 *824:Y 0.000273437
4 *281:18 0.000293469
5 *1169:A *1169:B 5.71472e-05
6 *281:18 *1169:B 4.18895e-05
7 *281:18 *462:8 2.88018e-06
8 *281:18 *465:8 1.02936e-05
9 *745:B *281:18 8.40798e-05
10 *824:A *281:18 2.23787e-05
11 *1166:A *281:18 0.000178586
12 *127:10 *281:18 7.6644e-05
*RES
1 *824:Y *281:18 23.1125 
2 *281:18 *1169:A 9.83571 
3 *281:18 *1166:B 9.3 
*END

*D_NET *282 0.000748395
*CONN
*I *986:A I *D sky130_fd_sc_hd__nand2_1
*I *987:A I *D sky130_fd_sc_hd__nand2_1
*I *985:Y O *D sky130_fd_sc_hd__nand2_1
*CAP
1 *986:A 9.30222e-05
2 *987:A 0
3 *985:Y 0.00012507
4 *282:8 0.000218093
5 *986:A *987:B 5.94644e-05
6 *986:A *989:A 5.52238e-05
7 *282:8 *989:A 2.44318e-05
8 *11:99 *986:A 0.00017309
*RES
1 *985:Y *282:8 11.4964 
2 *282:8 *987:A 9.3 
3 *282:8 *986:A 21.0857 
*END

*D_NET *283 0.000971631
*CONN
*I *987:B I *D sky130_fd_sc_hd__nand2_1
*I *988:B I *D sky130_fd_sc_hd__nand2_1
*I *990:B I *D sky130_fd_sc_hd__nand2_1
*I *986:Y O *D sky130_fd_sc_hd__nand2_1
*CAP
1 *987:B 0.000186167
2 *988:B 0
3 *990:B 8.43036e-06
4 *986:Y 4.46104e-05
5 *283:10 7.44532e-05
6 *283:6 0.0002968
7 *990:B *287:20 1.74352e-05
8 *283:6 *989:B 8.66063e-05
9 *283:10 *989:B 5.52238e-05
10 *283:10 *287:20 5.71472e-05
11 *985:A *987:B 1.02504e-05
12 *986:A *987:B 5.94644e-05
13 *990:A *987:B 0
14 *152:8 *990:B 5.71472e-05
15 *152:8 *283:10 1.7895e-05
*RES
1 *986:Y *283:6 10.2464 
2 *283:6 *283:10 1.67857 
3 *283:10 *990:B 9.83571 
4 *283:10 *988:B 9.3 
5 *283:6 *987:B 21.1571 
*END

*D_NET *284 0.000703126
*CONN
*I *989:A I *D sky130_fd_sc_hd__nand2_1
*I *987:Y O *D sky130_fd_sc_hd__nand2_1
*CAP
1 *989:A 0.000194228
2 *987:Y 0.000194228
3 *986:A *989:A 5.52238e-05
4 *1213:A *989:A 6.05161e-06
5 *8:31 *989:A 0.000150625
6 *11:99 *989:A 7.83366e-05
7 *282:8 *989:A 2.44318e-05
*RES
1 *987:Y *989:A 31.725 
*END

*D_NET *285 0.000458594
*CONN
*I *989:B I *D sky130_fd_sc_hd__nand2_1
*I *988:Y O *D sky130_fd_sc_hd__nand2_1
*CAP
1 *989:B 9.75752e-05
2 *988:Y 9.75752e-05
3 *986:B *989:B 5.52302e-05
4 *1308:B *989:B 0
5 *7:36 *989:B 4.35336e-05
6 *152:8 *989:B 2.28499e-05
7 *283:6 *989:B 8.66063e-05
8 *283:10 *989:B 5.52238e-05
*RES
1 *988:Y *989:B 21.2071 
*END

*D_NET *286 0.00319082
*CONN
*I *1092:B I *D sky130_fd_sc_hd__nand2_1
*I *1094:A I *D sky130_fd_sc_hd__nand2_1
*I *989:Y O *D sky130_fd_sc_hd__nand2_1
*CAP
1 *1092:B 0.000238321
2 *1094:A 1.1624e-05
3 *989:Y 0.000946931
4 *286:10 0.00119688
5 *1092:B *1088:B 2.61378e-05
6 *1092:B *1094:B 5.10822e-05
7 *1092:B *1095:A 6.8646e-06
8 *1094:A *1094:B 5.52238e-05
9 *1094:A *1095:B 5.52238e-05
10 *286:10 *840:B 1.92789e-05
11 *286:10 *1095:A 2.8266e-06
12 *286:10 *1216:B 0
13 *286:10 *1221:B 0
14 *286:10 *1224:A 8.36295e-05
15 *286:10 *1309:A 2.76916e-05
16 *286:10 *390:12 5.80217e-05
17 *286:10 *510:10 0
18 *286:10 *588:8 0.000161364
19 *286:10 *602:6 3.14592e-05
20 *841:B *286:10 1.58163e-05
21 *843:B *286:10 2.87555e-06
22 *1213:A *286:10 0
23 *1308:B *286:10 1.58163e-05
24 *7:36 *286:10 7.52646e-06
25 *13:34 *286:10 0.000176226
26 *277:12 *1092:B 0
27 *277:12 *286:10 0
*RES
1 *989:Y *286:10 28.1214 
2 *286:10 *1094:A 14.3357 
3 *286:10 *1092:B 17.5321 
*END

*D_NET *287 0.00253313
*CONN
*I *1099:A I *D sky130_fd_sc_hd__nand2_1
*I *1097:B I *D sky130_fd_sc_hd__nand2_1
*I *990:Y O *D sky130_fd_sc_hd__nand2_1
*CAP
1 *1099:A 0.000105973
2 *1097:B 2.38856e-05
3 *990:Y 0.000940515
4 *287:20 0.00107037
5 *1097:B *1099:B 1.04232e-05
6 *1099:A *1099:B 2.97137e-05
7 *1099:A *1100:A 9.22103e-06
8 *1099:A *1100:B 6.29133e-05
9 *287:20 *1327:A 6.74911e-05
10 *287:20 *618:12 6.19181e-05
11 *859:A *287:20 9.11365e-06
12 *863:B *287:20 0
13 *865:A *287:20 4.79842e-05
14 *865:B *287:20 0
15 *990:B *287:20 1.74352e-05
16 *1097:A *1097:B 5.7661e-06
17 *11:99 *287:20 0
18 *152:8 *287:20 1.32552e-05
19 *158:19 *287:20 0
20 *181:12 *287:20 0
21 *283:10 *287:20 5.71472e-05
*RES
1 *990:Y *287:20 34.1571 
2 *287:20 *1097:B 10.0321 
3 *287:20 *1099:A 11.5143 
*END

*D_NET *288 0.00164632
*CONN
*I *993:B I *D sky130_fd_sc_hd__nand2_1
*I *994:B I *D sky130_fd_sc_hd__nand2_1
*I *1000:A I *D sky130_fd_sc_hd__nand2_1
*I *992:Y O *D sky130_fd_sc_hd__nand2_1
*CAP
1 *993:B 7.80504e-05
2 *994:B 0
3 *1000:A 0.000257161
4 *992:Y 0.000182733
5 *288:8 0.000361844
6 *993:B *995:A 0.000144773
7 *1000:A *999:B 0
8 *1000:A *1000:B 0.000227021
9 *288:8 *995:B 1.74352e-05
10 *874:A *1000:A 5.80706e-06
11 *903:A *1000:A 0
12 *992:A *993:B 0.000110929
13 *992:A *288:8 0
14 *992:B *288:8 4.38128e-05
15 *91:10 *1000:A 4.46186e-06
16 *91:14 *288:8 5.52302e-05
17 *172:12 *1000:A 0.000157065
*RES
1 *992:Y *288:8 11.4964 
2 *288:8 *1000:A 24.3536 
3 *288:8 *994:B 9.3 
4 *992:Y *993:B 21.225 
*END

*D_NET *289 0.000648793
*CONN
*I *995:A I *D sky130_fd_sc_hd__nand2_1
*I *993:Y O *D sky130_fd_sc_hd__nand2_1
*CAP
1 *995:A 0.000211176
2 *993:Y 0.000211176
3 *995:A *995:B 6.42338e-05
4 *992:A *995:A 1.74352e-05
5 *993:B *995:A 0.000144773
6 *181:12 *995:A 0
*RES
1 *993:Y *995:A 31.0107 
*END

*D_NET *290 0.00041543
*CONN
*I *995:B I *D sky130_fd_sc_hd__nand2_1
*I *994:Y O *D sky130_fd_sc_hd__nand2_1
*CAP
1 *995:B 0.000147229
2 *994:Y 0.000147229
3 *992:B *995:B 3.18676e-05
4 *995:A *995:B 6.42338e-05
5 *91:14 *995:B 7.43578e-06
6 *172:12 *995:B 0
7 *288:8 *995:B 1.74352e-05
*RES
1 *994:Y *995:B 30.1893 
*END

*D_NET *291 0.00037582
*CONN
*I *997:A I *D sky130_fd_sc_hd__nand2_1
*I *996:A I *D sky130_fd_sc_hd__nand2_1
*I *995:Y O *D sky130_fd_sc_hd__nand2_1
*CAP
1 *997:A 5.7629e-05
2 *996:A 7.56364e-05
3 *995:Y 0
4 *291:4 0.000133265
5 *996:A *997:B 5.17614e-05
6 *996:A *293:8 0
7 *997:A *997:B 5.75275e-05
*RES
1 *995:Y *291:4 9.3 
2 *291:4 *996:A 10.675 
3 *291:4 *997:A 10.675 
*END

*D_NET *292 0.000230903
*CONN
*I *846:A I *D sky130_fd_sc_hd__inv_1
*I *835:Y O *D sky130_fd_sc_hd__nand2_1
*CAP
1 *846:A 7.51153e-05
2 *835:Y 7.51153e-05
3 *846:A *1051:B 1.3701e-05
4 *846:A *1053:A 2.01595e-05
5 *846:A *1054:A 3.34639e-05
6 *846:A *1054:B 3.99614e-06
7 *835:A *846:A 9.35228e-06
*RES
1 *835:Y *846:A 20.2563 
*END

*D_NET *293 0.00129737
*CONN
*I *997:B I *D sky130_fd_sc_hd__nand2_1
*I *998:B I *D sky130_fd_sc_hd__nand2_1
*I *1000:B I *D sky130_fd_sc_hd__nand2_1
*I *996:Y O *D sky130_fd_sc_hd__nand2_1
*CAP
1 *997:B 0.000123497
2 *998:B 0
3 *1000:B 0.000126759
4 *996:Y 0
5 *293:8 0.00022738
6 *293:4 0.000224118
7 *997:B *999:A 3.18676e-05
8 *997:B *999:B 8.07313e-05
9 *1000:B *1110:A 0
10 *293:8 *999:B 7.77751e-05
11 *996:A *997:B 5.17614e-05
12 *996:A *293:8 0
13 *996:B *293:8 5.52302e-05
14 *997:A *997:B 5.75275e-05
15 *1000:A *1000:B 0.000227021
16 *1097:A *997:B 1.3701e-05
17 *201:16 *1000:B 0
*RES
1 *996:Y *293:4 9.3 
2 *293:4 *293:8 2.19643 
3 *293:8 *1000:B 21.1571 
4 *293:8 *998:B 9.3 
5 *293:4 *997:B 12.7286 
*END

*D_NET *294 0.000355939
*CONN
*I *999:A I *D sky130_fd_sc_hd__nand2_1
*I *997:Y O *D sky130_fd_sc_hd__nand2_1
*CAP
1 *999:A 0.000121239
2 *997:Y 0.000121239
3 *999:A *999:B 8.15939e-05
4 *999:A *1106:A 0
5 *997:B *999:A 3.18676e-05
*RES
1 *997:Y *999:A 30.0821 
*END

*D_NET *295 0.000777936
*CONN
*I *999:B I *D sky130_fd_sc_hd__nand2_1
*I *998:Y O *D sky130_fd_sc_hd__nand2_1
*CAP
1 *999:B 0.000268918
2 *998:Y 0.000268918
3 *997:B *999:B 8.07313e-05
4 *999:A *999:B 8.15939e-05
5 *1000:A *999:B 0
6 *293:8 *999:B 7.77751e-05
*RES
1 *998:Y *999:B 32.1357 
*END

*D_NET *296 0.000976698
*CONN
*I *1104:A I *D sky130_fd_sc_hd__nand2_1
*I *1101:B I *D sky130_fd_sc_hd__nand2_1
*I *999:Y O *D sky130_fd_sc_hd__nand2_1
*CAP
1 *1104:A 0.00011542
2 *1101:B 1.34745e-05
3 *999:Y 0.00030057
4 *296:6 0.000429465
5 *1101:B *1106:B 1.04232e-05
6 *1104:A *1106:B 2.44318e-05
7 *1104:A *397:19 5.10457e-05
8 *296:6 *1106:B 3.18676e-05
*RES
1 *999:Y *296:6 13.9429 
2 *296:6 *1101:B 9.72857 
3 *296:6 *1104:A 11.9429 
*END

*D_NET *297 0.000955443
*CONN
*I *1107:B I *D sky130_fd_sc_hd__nand2_1
*I *1109:A I *D sky130_fd_sc_hd__nand2_1
*I *1000:Y O *D sky130_fd_sc_hd__nand2_1
*CAP
1 *1107:B 1.36046e-05
2 *1109:A 8.22366e-05
3 *1000:Y 0.000245184
4 *297:12 0.000341025
5 *1109:A *1110:A 1.24368e-05
6 *1109:A *1110:B 5.33005e-05
7 *1109:A *403:8 1.97502e-05
8 *297:12 *1108:B 3.48705e-05
9 *297:12 *1110:A 4.27935e-05
10 *297:12 *406:10 0
11 *1108:A *1107:B 1.61893e-05
12 *1108:A *1109:A 6.21846e-05
13 *1108:A *297:12 3.18676e-05
*RES
1 *1000:Y *297:12 22.6393 
2 *297:12 *1109:A 11.0857 
3 *297:12 *1107:B 9.72857 
*END

*D_NET *298 0.000785
*CONN
*I *1010:A I *D sky130_fd_sc_hd__nand2_1
*I *1003:B I *D sky130_fd_sc_hd__nand2_1
*I *1004:B I *D sky130_fd_sc_hd__nand2_1
*I *1001:Y O *D sky130_fd_sc_hd__nand2_1
*CAP
1 *1010:A 0.000104227
2 *1003:B 1.11927e-05
3 *1004:B 8.62325e-05
4 *1001:Y 3.58313e-05
5 *298:10 0.000185252
6 *298:6 0.000227885
7 *1004:B *1005:B 3.05446e-05
8 *1010:A *301:10 0
9 *298:6 *1005:A 4.38128e-05
10 *298:10 *1005:A 5.71472e-05
11 *298:10 *1005:B 2.87555e-06
12 *1001:B *1003:B 0
*RES
1 *1001:Y *298:6 9.83571 
2 *298:6 *298:10 1.375 
3 *298:10 *1004:B 11.0857 
4 *298:10 *1003:B 9.72857 
5 *298:6 *1010:A 19.9429 
*END

*D_NET *299 0.000580784
*CONN
*I *1005:A I *D sky130_fd_sc_hd__nand2_1
*I *1003:Y O *D sky130_fd_sc_hd__nand2_1
*CAP
1 *1005:A 0.000150185
2 *1003:Y 0.000150185
3 *1005:A *1005:B 3.01979e-05
4 *1001:A *1005:A 5.52302e-05
5 *1001:B *1005:A 9.40271e-05
6 *298:6 *1005:A 4.38128e-05
7 *298:10 *1005:A 5.71472e-05
*RES
1 *1003:Y *1005:A 22.0286 
*END

*D_NET *300 0.000765672
*CONN
*I *1005:B I *D sky130_fd_sc_hd__nand2_1
*I *1004:Y O *D sky130_fd_sc_hd__nand2_1
*CAP
1 *1005:B 0.000289469
2 *1004:Y 0.000289469
3 *1001:B *1005:B 0.000123117
4 *1004:B *1005:B 3.05446e-05
5 *1005:A *1005:B 3.01979e-05
6 *298:10 *1005:B 2.87555e-06
*RES
1 *1004:Y *1005:B 23.2964 
*END

*D_NET *301 0.000339354
*CONN
*I *1006:A I *D sky130_fd_sc_hd__nand2_1
*I *1007:A I *D sky130_fd_sc_hd__nand2_1
*I *1005:Y O *D sky130_fd_sc_hd__nand2_1
*CAP
1 *1006:A 2.3671e-05
2 *1007:A 0
3 *1005:Y 0.000118391
4 *301:10 0.000142062
5 *1006:A *302:8 5.52302e-05
6 *1010:A *301:10 0
7 *183:12 *301:10 0
*RES
1 *1005:Y *301:10 19.9429 
2 *301:10 *1007:A 9.3 
3 *301:10 *1006:A 9.83571 
*END

*D_NET *302 0.000609124
*CONN
*I *1008:B I *D sky130_fd_sc_hd__nand2_1
*I *1007:B I *D sky130_fd_sc_hd__nand2_1
*I *1010:B I *D sky130_fd_sc_hd__nand2_1
*I *1006:Y O *D sky130_fd_sc_hd__nand2_1
*CAP
1 *1008:B 2.59844e-05
2 *1007:B 0
3 *1010:B 2.79386e-05
4 *1006:Y 0
5 *302:8 0.000128747
6 *302:4 0.000126793
7 *1008:B *1009:A 8.76257e-05
8 *1008:B *1009:B 9.7049e-06
9 *302:8 *1009:A 9.90431e-05
10 *1006:A *302:8 5.52302e-05
11 *1006:B *1008:B 4.80569e-05
12 *1006:B *302:8 0
*RES
1 *1006:Y *302:4 9.3 
2 *302:4 *302:8 2.19643 
3 *302:8 *1010:B 9.83571 
4 *302:8 *1007:B 9.3 
5 *302:4 *1008:B 10.675 
*END

*D_NET *303 0.000647673
*CONN
*I *1051:B I *D sky130_fd_sc_hd__nand2_1
*I *1053:A I *D sky130_fd_sc_hd__nand2_1
*I *846:Y O *D sky130_fd_sc_hd__inv_1
*CAP
1 *1051:B 8.36647e-05
2 *1053:A 0.000149369
3 *846:Y 0
4 *303:4 0.000233034
5 *1051:B *1054:A 9.37976e-06
6 *1051:B *1054:B 0
7 *1051:B *348:8 0
8 *1053:A *1054:A 5.81997e-06
9 *1053:A *348:14 0
10 *835:B *1053:A 0.000100831
11 *846:A *1051:B 1.3701e-05
12 *846:A *1053:A 2.01595e-05
13 *857:B *1053:A 3.17148e-05
*RES
1 *846:Y *303:4 9.3 
2 *303:4 *1053:A 20.6839 
3 *303:4 *1051:B 10.7732 
*END

*D_NET *304 0.000934899
*CONN
*I *1009:A I *D sky130_fd_sc_hd__nand2_1
*I *1007:Y O *D sky130_fd_sc_hd__nand2_1
*CAP
1 *1009:A 0.000305767
2 *1007:Y 0.000305767
3 *1009:A *1009:B 0.000117787
4 *1009:A *306:12 6.78055e-06
5 *1006:B *1009:A 1.21289e-05
6 *1008:B *1009:A 8.76257e-05
7 *302:8 *1009:A 9.90431e-05
*RES
1 *1007:Y *1009:A 23.1536 
*END

*D_NET *305 0.000245073
*CONN
*I *1009:B I *D sky130_fd_sc_hd__nand2_1
*I *1008:Y O *D sky130_fd_sc_hd__nand2_1
*CAP
1 *1009:B 3.91285e-05
2 *1008:Y 3.91285e-05
3 *1006:B *1009:B 3.93247e-05
4 *1008:B *1009:B 9.7049e-06
5 *1009:A *1009:B 0.000117787
*RES
1 *1008:Y *1009:B 19.975 
*END

*D_NET *306 0.000904608
*CONN
*I *1111:B I *D sky130_fd_sc_hd__nand2_1
*I *1114:A I *D sky130_fd_sc_hd__nand2_1
*I *1009:Y O *D sky130_fd_sc_hd__nand2_1
*CAP
1 *1111:B 1.40355e-05
2 *1114:A 0
3 *1009:Y 0.000348292
4 *306:12 0.000362327
5 *1111:B *1115:B 2.89114e-05
6 *1111:B *407:8 5.52302e-05
7 *306:12 *1116:A 8.90314e-05
8 *306:12 *406:10 0
9 *1009:A *306:12 6.78055e-06
*RES
1 *1009:Y *306:12 23.2464 
2 *306:12 *1114:A 9.3 
3 *306:12 *1111:B 9.83571 
*END

*D_NET *307 0.000912637
*CONN
*I *1119:A I *D sky130_fd_sc_hd__nand2_1
*I *1117:B I *D sky130_fd_sc_hd__nand2_1
*I *1010:Y O *D sky130_fd_sc_hd__nand2_1
*CAP
1 *1119:A 1.24159e-05
2 *1117:B 6.08631e-05
3 *1010:Y 0.000304213
4 *307:6 0.000377492
5 *1117:B *1119:B 4.22908e-05
6 *1117:B *1120:B 0.0001056
7 *1119:A *1119:B 5.7661e-06
8 *1118:A *1117:B 3.99614e-06
*RES
1 *1010:Y *307:6 13.9429 
2 *307:6 *1117:B 11.0857 
3 *307:6 *1119:A 9.72857 
*END

*D_NET *308 0.00156478
*CONN
*I *1020:A I *D sky130_fd_sc_hd__nand2_1
*I *1012:B I *D sky130_fd_sc_hd__nand2_1
*I *1014:B I *D sky130_fd_sc_hd__nand2_1
*I *1011:Y O *D sky130_fd_sc_hd__nand2_1
*CAP
1 *1020:A 0.000278412
2 *1012:B 0
3 *1014:B 8.613e-05
4 *1011:Y 0.000222551
5 *308:24 0.000414833
6 *1014:B *1015:B 0.000144074
7 *1020:A *1020:B 2.39329e-05
8 *1020:A *1133:A 0
9 *1020:A *1133:B 0
10 *1020:A *311:14 7.6644e-05
11 *1020:A *312:8 0.000107797
12 *1020:A *317:6 2.07878e-05
13 *308:24 *1015:B 5.65955e-05
14 *1012:A *1020:A 5.37741e-06
15 *1012:A *308:24 7.24209e-05
16 *1014:A *1014:B 5.52238e-05
17 *1128:A *308:24 0
*RES
1 *1011:Y *1014:B 20.7964 
2 *1011:Y *308:24 16.2821 
3 *308:24 *1012:B 13.8 
4 *308:24 *1020:A 18.3536 
*END

*D_NET *309 0.000229944
*CONN
*I *1015:A I *D sky130_fd_sc_hd__nand2_1
*I *1012:Y O *D sky130_fd_sc_hd__nand2_1
*CAP
1 *1015:A 4.97748e-05
2 *1012:Y 4.97748e-05
3 *1015:A *311:14 3.29284e-05
4 *222:6 *1015:A 9.74665e-05
*RES
1 *1012:Y *1015:A 19.975 
*END

*D_NET *310 0.000841983
*CONN
*I *1015:B I *D sky130_fd_sc_hd__nand2_1
*I *1014:Y O *D sky130_fd_sc_hd__nand2_1
*CAP
1 *1015:B 0.000258983
2 *1014:Y 0.000258983
3 *1012:A *1015:B 5.00723e-05
4 *1014:B *1015:B 0.000144074
5 *121:12 *1015:B 7.32756e-05
6 *308:24 *1015:B 5.65955e-05
*RES
1 *1014:Y *1015:B 32.85 
*END

*D_NET *311 0.000814653
*CONN
*I *1016:A I *D sky130_fd_sc_hd__nand2_1
*I *1017:A I *D sky130_fd_sc_hd__nand2_1
*I *1015:Y O *D sky130_fd_sc_hd__nand2_1
*CAP
1 *1016:A 9.39708e-06
2 *1017:A 0
3 *1015:Y 0.000263983
4 *311:14 0.00027338
5 *1016:A *1019:A 2.07878e-05
6 *1016:A *312:8 4.33899e-05
7 *311:14 *1019:A 1.83136e-05
8 *311:14 *312:8 5.49544e-05
9 *1015:A *311:14 3.29284e-05
10 *1020:A *311:14 7.6644e-05
11 *222:6 *311:14 2.08751e-05
*RES
1 *1015:Y *311:14 22.2464 
2 *311:14 *1017:A 9.3 
3 *311:14 *1016:A 9.83571 
*END

*D_NET *312 0.00064596
*CONN
*I *1018:B I *D sky130_fd_sc_hd__nand2_1
*I *1017:B I *D sky130_fd_sc_hd__nand2_1
*I *1020:B I *D sky130_fd_sc_hd__nand2_1
*I *1016:Y O *D sky130_fd_sc_hd__nand2_1
*CAP
1 *1018:B 5.53515e-05
2 *1017:B 0
3 *1020:B 1.88671e-05
4 *1016:Y 0
5 *312:8 0.000111433
6 *312:4 0.000147918
7 *1018:B *1019:A 1.13883e-05
8 *312:8 *1019:A 1.13883e-05
9 *1016:A *312:8 4.33899e-05
10 *1016:B *1018:B 4.10796e-05
11 *1016:B *312:8 0
12 *1020:A *1020:B 2.39329e-05
13 *1020:A *312:8 0.000107797
14 *202:14 *1018:B 1.8461e-05
15 *311:14 *312:8 5.49544e-05
*RES
1 *1016:Y *312:4 9.3 
2 *312:4 *312:8 2.19643 
3 *312:8 *1020:B 9.83571 
4 *312:8 *1017:B 9.3 
5 *312:4 *1018:B 10.675 
*END

*D_NET *313 0.000677535
*CONN
*I *1019:A I *D sky130_fd_sc_hd__nand2_1
*I *1017:Y O *D sky130_fd_sc_hd__nand2_1
*CAP
1 *1019:A 0.000254638
2 *1017:Y 0.000254638
3 *1019:A *1019:B 7.55152e-05
4 *1016:A *1019:A 2.07878e-05
5 *1016:B *1019:A 3.08664e-05
6 *1018:B *1019:A 1.13883e-05
7 *311:14 *1019:A 1.83136e-05
8 *312:8 *1019:A 1.13883e-05
*RES
1 *1017:Y *1019:A 31.725 
*END

*D_NET *314 0.00036455
*CONN
*I *869:A I *D sky130_fd_sc_hd__inv_1
*I *858:Y O *D sky130_fd_sc_hd__nand2_1
*CAP
1 *869:A 0.000163045
2 *858:Y 0.000163045
3 *1312:A *869:A 2.80741e-05
4 *171:12 *869:A 1.03853e-05
*RES
1 *858:Y *869:A 21.4884 
*END

*D_NET *315 0.000359722
*CONN
*I *1019:B I *D sky130_fd_sc_hd__nand2_1
*I *1018:Y O *D sky130_fd_sc_hd__nand2_1
*CAP
1 *1019:B 0.000126419
2 *1018:Y 0.000126419
3 *1019:B *1122:B 0
4 *1016:B *1019:B 3.13687e-05
5 *1019:A *1019:B 7.55152e-05
6 *221:16 *1019:B 0
*RES
1 *1018:Y *1019:B 30.0821 
*END

*D_NET *316 0.000781963
*CONN
*I *1123:A I *D sky130_fd_sc_hd__nand2_1
*I *1121:B I *D sky130_fd_sc_hd__nand2_1
*I *1019:Y O *D sky130_fd_sc_hd__nand2_1
*CAP
1 *1123:A 0.000288811
2 *1121:B 0
3 *1019:Y 9.39599e-05
4 *316:8 0.00038277
5 *1123:A *1120:A 1.29378e-05
6 *1123:A *1255:A 0
7 *316:8 *1120:A 3.4846e-06
*RES
1 *1019:Y *316:8 15.4429 
2 *316:8 *1121:B 13.8 
3 *316:8 *1123:A 18.425 
*END

*D_NET *317 0.000570641
*CONN
*I *1133:A I *D sky130_fd_sc_hd__nand2_1
*I *1131:B I *D sky130_fd_sc_hd__nand2_1
*I *1020:Y O *D sky130_fd_sc_hd__nand2_1
*CAP
1 *1133:A 1.24159e-05
2 *1131:B 9.46847e-05
3 *1020:Y 0.000117977
4 *317:6 0.000225077
5 *1131:B *1133:B 6.20656e-05
6 *1131:B *1134:A 3.18676e-05
7 *1131:B *427:8 0
8 *1133:A *1133:B 5.7661e-06
9 *1020:A *1133:A 0
10 *1020:A *317:6 2.07878e-05
*RES
1 *1020:Y *317:6 11.4786 
2 *317:6 *1131:B 11.4964 
3 *317:6 *1133:A 9.72857 
*END

*D_NET *318 0.00131887
*CONN
*I *1023:B I *D sky130_fd_sc_hd__nand2_1
*I *1022:B I *D sky130_fd_sc_hd__nand2_1
*I *1030:A I *D sky130_fd_sc_hd__nand2_1
*I *1021:Y O *D sky130_fd_sc_hd__nand2_1
*CAP
1 *1023:B 0
2 *1022:B 8.62774e-05
3 *1030:A 0.000209192
4 *1021:Y 0.000132361
5 *318:14 0.000393739
6 *318:8 0.000230631
7 *1022:B *1025:A 3.54124e-05
8 *1030:A *1025:A 1.92789e-05
9 *1030:A *1026:A 3.99614e-06
10 *1030:A *321:6 5.19842e-06
11 *1030:A *322:10 4.53021e-05
12 *318:14 *1025:B 7.83587e-05
13 *1021:A *318:14 0
14 *1022:A *1022:B 1.97695e-05
15 *1023:A *318:8 5.52238e-05
16 *231:12 *318:14 4.1331e-06
17 *241:10 *318:14 0
*RES
1 *1021:Y *318:8 11.4964 
2 *318:8 *318:14 10.6429 
3 *318:14 *1030:A 12.2107 
4 *318:14 *1022:B 10.9786 
5 *318:8 *1023:B 9.3 
*END

*D_NET *319 0.000317339
*CONN
*I *1025:A I *D sky130_fd_sc_hd__nand2_1
*I *1022:Y O *D sky130_fd_sc_hd__nand2_1
*CAP
1 *1025:A 9.75214e-05
2 *1022:Y 9.75214e-05
3 *1025:A *1026:A 3.57366e-05
4 *1025:A *321:6 3.18676e-05
5 *1022:B *1025:A 3.54124e-05
6 *1030:A *1025:A 1.92789e-05
*RES
1 *1022:Y *1025:A 20.7964 
*END

*D_NET *320 0.000273804
*CONN
*I *1025:B I *D sky130_fd_sc_hd__nand2_1
*I *1023:Y O *D sky130_fd_sc_hd__nand2_1
*CAP
1 *1025:B 9.77227e-05
2 *1023:Y 9.77227e-05
3 *915:A *1025:B 0
4 *1021:A *1025:B 0
5 *1028:A *1025:B 0
6 *241:10 *1025:B 0
7 *318:14 *1025:B 7.83587e-05
*RES
1 *1023:Y *1025:B 29.2429 
*END

*D_NET *321 0.000610169
*CONN
*I *1027:A I *D sky130_fd_sc_hd__nand2_1
*I *1026:A I *D sky130_fd_sc_hd__nand2_1
*I *1025:Y O *D sky130_fd_sc_hd__nand2_1
*CAP
1 *1027:A 0.000113312
2 *1026:A 4.40963e-05
3 *1025:Y 7.05894e-05
4 *321:6 0.000227997
5 *1026:A *322:10 0
6 *1025:A *1026:A 3.57366e-05
7 *1025:A *321:6 3.18676e-05
8 *1028:A *1027:A 7.73758e-05
9 *1030:A *1026:A 3.99614e-06
10 *1030:A *321:6 5.19842e-06
*RES
1 *1025:Y *321:6 10.2464 
2 *321:6 *1026:A 10.3357 
3 *321:6 *1027:A 20.2464 
*END

*D_NET *322 0.000959472
*CONN
*I *1030:B I *D sky130_fd_sc_hd__nand2_1
*I *1027:B I *D sky130_fd_sc_hd__nand2_1
*I *1028:B I *D sky130_fd_sc_hd__nand2_1
*I *1026:Y O *D sky130_fd_sc_hd__nand2_1
*CAP
1 *1030:B 0
2 *1027:B 0.000101574
3 *1028:B 0
4 *1026:Y 0.000109129
5 *322:16 0.000239984
6 *322:10 0.000247538
7 *1027:B *1029:A 0
8 *1027:B *1029:B 5.58097e-05
9 *322:10 *1144:A 0
10 *322:10 *327:6 5.71472e-05
11 *322:16 *1142:A 1.02504e-05
12 *322:16 *440:10 0
13 *322:16 *554:8 0
14 *1026:A *322:10 0
15 *1028:A *322:16 7.99044e-05
16 *1030:A *322:10 4.53021e-05
17 *10:92 *1027:B 1.00073e-05
18 *241:10 *322:16 2.8266e-06
*RES
1 *1026:Y *322:10 11.6214 
2 *322:10 *322:16 11.8571 
3 *322:16 *1028:B 9.3 
4 *322:16 *1027:B 11.5143 
5 *322:10 *1030:B 9.3 
*END

*D_NET *323 0.000313517
*CONN
*I *1029:A I *D sky130_fd_sc_hd__nand2_1
*I *1027:Y O *D sky130_fd_sc_hd__nand2_1
*CAP
1 *1029:A 0.000108072
2 *1027:Y 0.000108072
3 *1029:A *1029:B 5.75275e-05
4 *1029:A *326:12 1.33343e-05
5 *1027:B *1029:A 0
6 *10:92 *1029:A 2.65105e-05
*RES
1 *1027:Y *1029:A 20.7964 
*END

*D_NET *324 0.00040463
*CONN
*I *1029:B I *D sky130_fd_sc_hd__nand2_1
*I *1028:Y O *D sky130_fd_sc_hd__nand2_1
*CAP
1 *1029:B 8.53868e-05
2 *1028:Y 8.53868e-05
3 *1027:B *1029:B 5.58097e-05
4 *1029:A *1029:B 5.75275e-05
5 *10:92 *1029:B 0.000120519
*RES
1 *1028:Y *1029:B 21.2071 
*END

*D_NET *325 0.000471771
*CONN
*I *958:A I *D sky130_fd_sc_hd__nand2_1
*I *955:B I *D sky130_fd_sc_hd__nand2_1
*I *869:Y O *D sky130_fd_sc_hd__inv_1
*CAP
1 *958:A 1.68273e-05
2 *955:B 0
3 *869:Y 0.000124345
4 *325:12 0.000141172
5 *959:A *958:A 9.84729e-05
6 *171:12 *325:12 3.59945e-05
7 *253:17 *958:A 5.4959e-05
*RES
1 *869:Y *325:12 20.2732 
2 *325:12 *955:B 9.3 
3 *325:12 *958:A 10.2464 
*END

*D_NET *326 0.000747867
*CONN
*I *1127:B I *D sky130_fd_sc_hd__nand2_1
*I *1129:A I *D sky130_fd_sc_hd__nand2_1
*I *1029:Y O *D sky130_fd_sc_hd__nand2_1
*CAP
1 *1127:B 1.16062e-05
2 *1129:A 0
3 *1029:Y 0.000297831
4 *326:12 0.000309437
5 *1127:B *1130:B 5.52302e-05
6 *1127:B *422:24 5.52302e-05
7 *326:12 *1128:B 0
8 *1029:A *326:12 1.33343e-05
9 *10:92 *326:12 5.19842e-06
*RES
1 *1029:Y *326:12 23.2107 
2 *326:12 *1129:A 9.3 
3 *326:12 *1127:B 9.83571 
*END

*D_NET *327 0.00116437
*CONN
*I *1141:B I *D sky130_fd_sc_hd__nand2_1
*I *1143:A I *D sky130_fd_sc_hd__nand2_1
*I *1030:Y O *D sky130_fd_sc_hd__nand2_1
*CAP
1 *1141:B 0.000125816
2 *1143:A 4.97845e-05
3 *1030:Y 0.000124528
4 *327:6 0.000300129
5 *1141:B *1140:A 4.46186e-06
6 *1141:B *1142:A 0
7 *1141:B *1142:B 1.52978e-05
8 *1141:B *437:8 1.92905e-05
9 *1141:B *437:23 0.000126439
10 *1141:B *554:8 1.08359e-05
11 *1143:A *1142:B 5.33005e-05
12 *1143:A *1143:B 8.90371e-05
13 *1143:A *1144:B 3.93346e-05
14 *1143:A *440:10 2.51343e-06
15 *327:6 *1142:B 8.46829e-05
16 *327:6 *1144:A 5.17614e-05
17 *327:6 *440:10 1.00073e-05
18 *241:10 *1141:B 0
19 *322:10 *327:6 5.71472e-05
*RES
1 *1030:Y *327:6 11.8893 
2 *327:6 *1143:A 10.675 
3 *327:6 *1141:B 20.7821 
*END

*D_NET *328 0.0014958
*CONN
*I *1040:A I *D sky130_fd_sc_hd__nand2_1
*I *1033:B I *D sky130_fd_sc_hd__nand2_1
*I *1032:B I *D sky130_fd_sc_hd__nand2_1
*I *1031:Y O *D sky130_fd_sc_hd__nand2_1
*CAP
1 *1040:A 0.000426514
2 *1033:B 1.00162e-05
3 *1032:B 6.93324e-05
4 *1031:Y 0
5 *328:15 0.000495199
6 *328:4 0.000128001
7 *1032:B *1034:A 1.39726e-05
8 *1033:B *1034:B 0
9 *1040:A *1034:B 0.00018372
10 *1040:A *1036:A 0
11 *1040:A *1037:A 0
12 *328:15 *1034:A 8.43535e-06
13 *770:B *1032:B 0
14 *934:A *1040:A 5.83233e-05
15 *1031:A *1032:B 4.80569e-05
16 *1031:B *1033:B 1.61893e-05
17 *1031:B *1040:A 8.43535e-06
18 *1031:B *328:15 2.59355e-05
19 *1036:B *1040:A 3.67279e-06
20 *9:21 *1040:A 0
21 *232:12 *1040:A 0
*RES
1 *1031:Y *328:4 9.3 
2 *328:4 *1032:B 10.675 
3 *328:4 *328:15 0.946429 
4 *328:15 *1033:B 9.72857 
5 *328:15 *1040:A 24.7821 
*END

*D_NET *329 0.000790982
*CONN
*I *1034:A I *D sky130_fd_sc_hd__nand2_1
*I *1032:Y O *D sky130_fd_sc_hd__nand2_1
*CAP
1 *1034:A 0.000186338
2 *1032:Y 0.000186338
3 *1034:A *1034:B 2.32013e-05
4 *1034:A *331:8 9.90431e-05
5 *1031:A *1034:A 0.00010096
6 *1031:B *1034:A 0.000172694
7 *1032:B *1034:A 1.39726e-05
8 *328:15 *1034:A 8.43535e-06
*RES
1 *1032:Y *1034:A 22.7429 
*END

*D_NET *330 0.00038707
*CONN
*I *1034:B I *D sky130_fd_sc_hd__nand2_1
*I *1033:Y O *D sky130_fd_sc_hd__nand2_1
*CAP
1 *1034:B 6.89911e-05
2 *1033:Y 6.89911e-05
3 *1034:B *331:8 1.32552e-05
4 *1031:B *1034:B 2.89114e-05
5 *1033:B *1034:B 0
6 *1034:A *1034:B 2.32013e-05
7 *1040:A *1034:B 0.00018372
*RES
1 *1033:Y *1034:B 20.7964 
*END

*D_NET *331 0.0012144
*CONN
*I *1037:A I *D sky130_fd_sc_hd__nand2_1
*I *1036:A I *D sky130_fd_sc_hd__nand2_1
*I *1034:Y O *D sky130_fd_sc_hd__nand2_1
*CAP
1 *1037:A 0.000125707
2 *1036:A 8.48636e-05
3 *1034:Y 9.51408e-05
4 *331:8 0.000305712
5 *1036:A *1039:A 0.000149628
6 *1037:A *1039:A 0.00018459
7 *1037:A *335:8 2.58997e-05
8 *934:A *1037:A 0
9 *1034:A *331:8 9.90431e-05
10 *1034:B *331:8 1.32552e-05
11 *1036:B *1036:A 5.54817e-06
12 *1040:A *1036:A 0
13 *1040:A *1037:A 0
14 *232:12 *1037:A 0.00012501
*RES
1 *1034:Y *331:8 15.1571 
2 *331:8 *1036:A 15.7464 
3 *331:8 *1037:A 16.9607 
*END

*D_NET *332 0.00170329
*CONN
*I *1037:B I *D sky130_fd_sc_hd__nand2_1
*I *1038:B I *D sky130_fd_sc_hd__nand2_1
*I *1040:B I *D sky130_fd_sc_hd__nand2_1
*I *1036:Y O *D sky130_fd_sc_hd__nand2_1
*CAP
1 *1037:B 0.000239555
2 *1038:B 5.84101e-05
3 *1040:B 6.17494e-05
4 *1036:Y 0.000107279
5 *332:20 0.000343495
6 *1037:B *335:8 0.000338359
7 *1037:B *441:10 0
8 *1038:B *1039:B 0.00011031
9 *1038:A *1038:B 5.46383e-06
10 *1038:A *1040:B 5.49995e-05
11 *1038:A *332:20 4.30704e-05
12 *10:23 *1038:B 0.00014285
13 *10:23 *1040:B 1.99271e-05
14 *10:23 *332:20 0.000177821
*RES
1 *1036:Y *1040:B 19.975 
2 *1036:Y *332:20 11.0679 
3 *332:20 *1038:B 11.3893 
4 *332:20 *1037:B 23.2107 
*END

*D_NET *333 0.000939161
*CONN
*I *1039:A I *D sky130_fd_sc_hd__nand2_1
*I *1037:Y O *D sky130_fd_sc_hd__nand2_1
*CAP
1 *1039:A 0.000146454
2 *1037:Y 0.000146454
3 *1039:A *335:8 0.000312036
4 *1039:A *441:10 0
5 *1036:A *1039:A 0.000149628
6 *1037:A *1039:A 0.00018459
*RES
1 *1037:Y *1039:A 31.975 
*END

*D_NET *334 0.000217948
*CONN
*I *1039:B I *D sky130_fd_sc_hd__nand2_1
*I *1038:Y O *D sky130_fd_sc_hd__nand2_1
*CAP
1 *1039:B 3.81371e-05
2 *1038:Y 3.81371e-05
3 *1038:A *1039:B 3.13637e-05
4 *1038:B *1039:B 0.00011031
*RES
1 *1038:Y *1039:B 19.975 
*END

*D_NET *335 0.00231516
*CONN
*I *1139:A I *D sky130_fd_sc_hd__nand2_1
*I *1137:B I *D sky130_fd_sc_hd__nand2_1
*I *1039:Y O *D sky130_fd_sc_hd__nand2_1
*CAP
1 *1139:A 0.000108799
2 *1137:B 4.05792e-05
3 *1039:Y 0.000585221
4 *335:8 0.000734599
5 *335:8 *441:10 0
6 *932:B *335:8 0
7 *934:B *335:8 0
8 *937:A *335:8 2.84494e-05
9 *942:A *335:8 0
10 *944:A *335:8 0
11 *1037:A *335:8 2.58997e-05
12 *1037:B *335:8 0.000338359
13 *1039:A *335:8 0.000312036
14 *1138:A *1139:A 8.66324e-05
15 *1138:A *335:8 1.76135e-05
16 *56:10 *335:8 3.69697e-05
17 *241:10 *1139:A 0
18 *241:10 *335:8 0
*RES
1 *1039:Y *335:8 26.0679 
2 *335:8 *1137:B 14.3357 
3 *335:8 *1139:A 16.05 
*END

*D_NET *336 0.000436247
*CONN
*I *891:A I *D sky130_fd_sc_hd__inv_1
*I *880:Y O *D sky130_fd_sc_hd__nand2_1
*CAP
1 *891:A 0.000205156
2 *880:Y 0.000205156
3 *1312:A *891:A 2.59355e-05
*RES
1 *880:Y *891:A 22.3098 
*END

*D_NET *337 0.00146618
*CONN
*I *1153:A I *D sky130_fd_sc_hd__nand2_1
*I *1151:B I *D sky130_fd_sc_hd__nand2_1
*I *1040:Y O *D sky130_fd_sc_hd__nand2_1
*CAP
1 *1153:A 0.000119378
2 *1151:B 0.000152063
3 *1040:Y 0.0003438
4 *337:8 0.00061524
5 *1151:B *1148:B 0
6 *1151:B *1153:B 2.97838e-05
7 *1151:B *1154:A 7.48554e-05
8 *1153:A *1153:B 5.46383e-06
9 *1153:A *1154:A 5.50052e-05
10 *1153:A *1154:B 4.13389e-05
11 *1153:A *450:8 5.74499e-06
12 *1036:B *337:8 2.53112e-06
13 *251:10 *337:8 2.09722e-05
*RES
1 *1040:Y *337:8 19.9964 
2 *337:8 *1151:B 16.9607 
3 *337:8 *1153:A 15.9964 
*END

*D_NET *338 0.00139916
*CONN
*I *1042:B I *D sky130_fd_sc_hd__nand2_1
*I *1050:A I *D sky130_fd_sc_hd__nand2_1
*I *1043:B I *D sky130_fd_sc_hd__nand2_1
*I *1041:Y O *D sky130_fd_sc_hd__nand2_1
*CAP
1 *1042:B 0.000150055
2 *1050:A 0
3 *1043:B 0
4 *1041:Y 0.000120818
5 *338:23 0.00027959
6 *338:8 0.000250353
7 *1042:B *1044:A 6.42917e-05
8 *1042:B *341:6 4.88637e-05
9 *1042:B *342:23 1.97695e-05
10 *338:8 *1044:B 6.93704e-06
11 *338:23 *1044:B 8.11045e-05
12 *338:23 *1045:A 3.94849e-05
13 *338:23 *341:6 5.71472e-05
14 *338:23 *342:12 0.000153241
15 *1043:A *338:8 0.000100165
16 *1045:B *338:8 3.49456e-06
17 *60:8 *338:8 2.38501e-05
*RES
1 *1041:Y *338:8 11.9071 
2 *338:8 *1043:B 9.3 
3 *338:8 *338:23 12.9286 
4 *338:23 *1050:A 9.3 
5 *338:23 *1042:B 12.7464 
*END

*D_NET *339 0.000190232
*CONN
*I *1044:A I *D sky130_fd_sc_hd__nand2_1
*I *1042:Y O *D sky130_fd_sc_hd__nand2_1
*CAP
1 *1044:A 6.29701e-05
2 *1042:Y 6.29701e-05
3 *1042:B *1044:A 6.42917e-05
*RES
1 *1042:Y *1044:A 19.975 
*END

*D_NET *340 0.000463794
*CONN
*I *1044:B I *D sky130_fd_sc_hd__nand2_1
*I *1043:Y O *D sky130_fd_sc_hd__nand2_1
*CAP
1 *1044:B 0.000153876
2 *1043:Y 0.000153876
3 *1042:A *1044:B 4.95233e-05
4 *1043:A *1044:B 1.84776e-05
5 *338:8 *1044:B 6.93704e-06
6 *338:23 *1044:B 8.11045e-05
*RES
1 *1043:Y *1044:B 30.4929 
*END

*D_NET *341 0.00106963
*CONN
*I *1045:A I *D sky130_fd_sc_hd__nand2_1
*I *1047:A I *D sky130_fd_sc_hd__nand2_1
*I *1044:Y O *D sky130_fd_sc_hd__nand2_1
*CAP
1 *1045:A 0.000167139
2 *1047:A 6.63885e-05
3 *1044:Y 0.000107762
4 *341:6 0.00034129
5 *1045:A *342:12 0.000149551
6 *1047:A *342:23 6.30956e-05
7 *341:6 *342:23 2.89114e-05
8 *1042:B *341:6 4.88637e-05
9 *10:25 *1045:A 0
10 *17:26 *1045:A 0
11 *338:23 *1045:A 3.94849e-05
12 *338:23 *341:6 5.71472e-05
*RES
1 *1044:Y *341:6 11.4786 
2 *341:6 *1047:A 10.675 
3 *341:6 *1045:A 21.4607 
*END

*D_NET *342 0.00108651
*CONN
*I *1047:B I *D sky130_fd_sc_hd__nand2_1
*I *1048:B I *D sky130_fd_sc_hd__nand2_1
*I *1050:B I *D sky130_fd_sc_hd__nand2_1
*I *1045:Y O *D sky130_fd_sc_hd__nand2_1
*CAP
1 *1047:B 0
2 *1048:B 2.10873e-05
3 *1050:B 0
4 *1045:Y 0.000147355
5 *342:23 0.000147829
6 *342:12 0.000274096
7 *1048:B *1049:A 2.44318e-05
8 *342:23 *1049:A 5.71472e-05
9 *1042:B *342:23 1.97695e-05
10 *1045:A *342:12 0.000149551
11 *1047:A *342:23 6.30956e-05
12 *338:23 *342:12 0.000153241
13 *341:6 *342:23 2.89114e-05
*RES
1 *1045:Y *342:12 21.1929 
2 *342:12 *1050:B 9.3 
3 *342:12 *342:23 3.03571 
4 *342:23 *1048:B 9.83571 
5 *342:23 *1047:B 9.3 
*END

*D_NET *343 0.000550116
*CONN
*I *1049:A I *D sky130_fd_sc_hd__nand2_1
*I *1047:Y O *D sky130_fd_sc_hd__nand2_1
*CAP
1 *1049:A 0.000204061
2 *1047:Y 0.000204061
3 *1049:A *1049:B 3.96271e-05
4 *1049:A *1149:A 0
5 *1049:A *345:6 2.07878e-05
6 *1048:B *1049:A 2.44318e-05
7 *342:23 *1049:A 5.71472e-05
*RES
1 *1047:Y *1049:A 22.3321 
*END

*D_NET *344 0.000189074
*CONN
*I *1049:B I *D sky130_fd_sc_hd__nand2_1
*I *1048:Y O *D sky130_fd_sc_hd__nand2_1
*CAP
1 *1049:B 7.47236e-05
2 *1048:Y 7.47236e-05
3 *1049:B *1149:A 0
4 *1049:A *1049:B 3.96271e-05
*RES
1 *1048:Y *1049:B 19.975 
*END

*D_NET *345 0.000538865
*CONN
*I *1149:A I *D sky130_fd_sc_hd__nand2_1
*I *1147:B I *D sky130_fd_sc_hd__nand2_1
*I *1049:Y O *D sky130_fd_sc_hd__nand2_1
*CAP
1 *1149:A 1.48063e-05
2 *1147:B 9.00334e-05
3 *1049:Y 0.000130312
4 *345:6 0.000235152
5 *1147:B *1149:B 3.1001e-05
6 *1147:B *1150:B 1.13883e-05
7 *1149:A *1149:B 5.38444e-06
8 *1049:A *1149:A 0
9 *1049:A *345:6 2.07878e-05
10 *1049:B *1149:A 0
*RES
1 *1049:Y *345:6 11.4786 
2 *345:6 *1147:B 11.0857 
3 *345:6 *1149:A 9.72857 
*END

*D_NET *346 0.00115204
*CONN
*I *1161:B I *D sky130_fd_sc_hd__nand2_1
*I *1163:A I *D sky130_fd_sc_hd__nand2_1
*I *1050:Y O *D sky130_fd_sc_hd__nand2_1
*CAP
1 *1161:B 0
2 *1163:A 5.98582e-05
3 *1050:Y 0.00020697
4 *346:10 0.000266828
5 *1163:A *1161:A 5.7661e-06
6 *1163:A *1162:A 4.22908e-05
7 *1163:A *1163:B 2.8616e-05
8 *1163:A *456:8 1.21289e-05
9 *1163:A *456:21 6.09963e-05
10 *346:10 *1164:A 7.50601e-05
11 *346:10 *1165:B 2.8266e-06
12 *776:A *346:10 0
13 *776:B *1163:A 0.000193425
14 *10:25 *346:10 0
15 *17:26 *346:10 0
16 *18:28 *346:10 0.000197276
*RES
1 *1050:Y *346:10 22.675 
2 *346:10 *1163:A 11.925 
3 *346:10 *1161:B 9.3 
*END

*D_NET *347 0.000923006
*CONN
*I *827:A I *D sky130_fd_sc_hd__nand2_1
*I *825:B I *D sky130_fd_sc_hd__nand2_1
*I *891:Y O *D sky130_fd_sc_hd__inv_1
*CAP
1 *827:A 5.89086e-05
2 *825:B 0
3 *891:Y 0.00030377
4 *347:12 0.000362679
5 *825:A *827:A 1.56939e-05
6 *826:A *827:A 3.11088e-05
7 *827:B *827:A 1.92535e-05
8 *828:B *347:12 2.29112e-05
9 *123:8 *827:A 5.62995e-05
10 *193:6 *827:A 5.23822e-05
*RES
1 *891:Y *347:12 22.3268 
2 *347:12 *825:B 9.3 
3 *347:12 *827:A 11.5143 
*END

*D_NET *348 0.00143828
*CONN
*I *1052:B I *D sky130_fd_sc_hd__nand2_1
*I *1055:A I *D sky130_fd_sc_hd__inv_1
*I *1053:B I *D sky130_fd_sc_hd__nand2_1
*I *1051:Y O *D sky130_fd_sc_hd__nand2_1
*CAP
1 *1052:B 0
2 *1055:A 7.37324e-05
3 *1053:B 9.93486e-05
4 *1051:Y 0.000119039
5 *348:14 0.000322792
6 *348:8 0.00026875
7 *348:8 *1054:A 2.65105e-05
8 *835:B *348:14 0
9 *1051:B *348:8 0
10 *1052:A *348:8 5.71472e-05
11 *1053:A *348:14 0
12 *12:48 *1053:B 0.000276211
13 *12:48 *1055:A 0.000191919
14 *149:12 *348:14 2.8266e-06
15 *256:10 *348:14 0
*RES
1 *1051:Y *348:8 11.4964 
2 *348:8 *348:14 11.25 
3 *348:14 *1053:B 11.8893 
4 *348:14 *1055:A 11.2241 
5 *348:8 *1052:B 9.3 
*END

*D_NET *349 0.0010876
*CONN
*I *1054:A I *D sky130_fd_sc_hd__nand2_1
*I *1052:Y O *D sky130_fd_sc_hd__nand2_1
*CAP
1 *1054:A 0.000457113
2 *1052:Y 0.000457113
3 *1054:A *1054:B 7.89086e-05
4 *835:A *1054:A 0
5 *846:A *1054:A 3.34639e-05
6 *1051:B *1054:A 9.37976e-06
7 *1052:A *1054:A 1.92905e-05
8 *1053:A *1054:A 5.81997e-06
9 *348:8 *1054:A 2.65105e-05
*RES
1 *1052:Y *1054:A 25.225 
*END

*D_NET *350 0.000818951
*CONN
*I *1054:B I *D sky130_fd_sc_hd__nand2_1
*I *1053:Y O *D sky130_fd_sc_hd__nand2_1
*CAP
1 *1054:B 0.000265353
2 *1053:Y 0.000265353
3 *1054:B *1002:A 5.30637e-06
4 *1054:B *351:10 8.00806e-05
5 *835:B *1054:B 3.92854e-05
6 *846:A *1054:B 3.99614e-06
7 *857:B *1054:B 7.48301e-06
8 *1051:B *1054:B 0
9 *1054:A *1054:B 7.89086e-05
10 *11:41 *1054:B 1.98839e-05
11 *12:48 *1054:B 5.33005e-05
*RES
1 *1053:Y *1054:B 32.2071 
*END

*D_NET *351 0.00114984
*CONN
*I *1172:B I *D sky130_fd_sc_hd__nand2_1
*I *1174:A I *D sky130_fd_sc_hd__nand2_1
*I *1054:Y O *D sky130_fd_sc_hd__nand2_1
*CAP
1 *1172:B 4.0181e-05
2 *1174:A 0
3 *1054:Y 0.00025931
4 *351:10 0.000299491
5 *1172:B *1174:B 4.80569e-05
6 *1172:B *1175:A 0.000156859
7 *1172:B *1175:B 4.22908e-05
8 *1172:B *457:16 3.57366e-05
9 *835:B *351:10 4.98055e-06
10 *857:B *351:10 7.79781e-06
11 *991:A *351:10 0.000103267
12 *1054:B *351:10 8.00806e-05
13 *3:16 *351:10 0
14 *3:50 *351:10 0
15 *11:49 *351:10 7.17932e-05
*RES
1 *1054:Y *351:10 22.675 
2 *351:10 *1174:A 9.3 
3 *351:10 *1172:B 11.5143 
*END

*D_NET *352 0.00124912
*CONN
*I *1061:B I *D sky130_fd_sc_hd__nand2_1
*I *1063:A I *D sky130_fd_sc_hd__nand2_1
*I *1055:Y O *D sky130_fd_sc_hd__inv_1
*CAP
1 *1061:B 6.20133e-05
2 *1063:A 4.88025e-05
3 *1055:Y 0.000250389
4 *352:10 0.000361205
5 *1061:B *1063:B 2.97021e-05
6 *1061:B *1064:A 9.22103e-06
7 *1061:B *1064:B 5.52302e-05
8 *1061:B *356:8 1.3701e-05
9 *1061:B *475:10 0.000140933
10 *1063:A *475:10 1.87955e-05
11 *352:10 *475:10 9.69119e-06
12 *1183:A *1063:A 0
13 *11:41 *352:10 0.000249439
14 *256:10 *1063:A 0
15 *256:10 *352:10 0
*RES
1 *1055:Y *352:10 17.5232 
2 *352:10 *1063:A 14.5321 
3 *352:10 *1061:B 15.8893 
*END

*D_NET *353 0.00157818
*CONN
*I *1059:B I *D sky130_fd_sc_hd__nand2_1
*I *1065:A I *D sky130_fd_sc_hd__nand2_1
*I *1058:B I *D sky130_fd_sc_hd__nand2_1
*I *1056:Y O *D sky130_fd_sc_hd__nand2_1
*CAP
1 *1059:B 0
2 *1065:A 0.000209776
3 *1058:B 0.000179091
4 *1056:Y 6.14268e-05
5 *353:10 0.000388867
6 *353:8 6.14268e-05
7 *1058:B *1056:B 1.02504e-05
8 *1058:B *1058:A 0.000108805
9 *1058:B *1060:A 5.71472e-05
10 *1058:B *1185:B 0
11 *1065:A *1024:A 6.05161e-06
12 *1065:A *1056:B 5.58941e-05
13 *1065:A *1065:B 0
14 *1065:A *1071:B 3.30237e-05
15 *1065:A *584:10 0.00013966
16 *353:8 *1059:A 7.30699e-05
17 *353:8 *477:8 1.3701e-05
18 *1013:B *1065:A 5.52302e-05
19 *12:48 *1065:A 0.000124758
*RES
1 *1056:Y *353:8 10.675 
2 *353:8 *353:10 4.5 
3 *353:10 *1058:B 17.5321 
4 *353:10 *1065:A 18.55 
5 *353:8 *1059:B 9.3 
*END

*D_NET *354 0.00048821
*CONN
*I *1060:A I *D sky130_fd_sc_hd__nand2_1
*I *1058:Y O *D sky130_fd_sc_hd__nand2_1
*CAP
1 *1060:A 0.000214118
2 *1058:Y 0.000214118
3 *1060:A *1065:B 2.8266e-06
4 *1060:A *475:10 0
5 *1058:B *1060:A 5.71472e-05
*RES
1 *1058:Y *1060:A 30.6 
*END

*D_NET *355 0.000178302
*CONN
*I *1060:B I *D sky130_fd_sc_hd__nand2_1
*I *1059:Y O *D sky130_fd_sc_hd__nand2_1
*CAP
1 *1060:B 7.25685e-05
2 *1059:Y 7.25685e-05
3 *1060:B *1059:A 3.31648e-05
4 *1060:B *357:19 0
*RES
1 *1059:Y *1060:B 19.975 
*END

*D_NET *356 0.000488913
*CONN
*I *1062:A I *D sky130_fd_sc_hd__nand2_1
*I *1061:A I *D sky130_fd_sc_hd__nand2_1
*I *1060:Y O *D sky130_fd_sc_hd__nand2_1
*CAP
1 *1062:A 0
2 *1061:A 1.53769e-05
3 *1060:Y 0.00015872
4 *356:8 0.000174097
5 *1061:A *357:19 5.71472e-05
6 *356:8 *357:19 6.98713e-05
7 *1061:B *356:8 1.3701e-05
*RES
1 *1060:Y *356:8 12.3179 
2 *356:8 *1061:A 9.83571 
3 *356:8 *1062:A 9.3 
*END

*D_NET *357 0.00115678
*CONN
*I *1062:B I *D sky130_fd_sc_hd__nand2_1
*I *1065:B I *D sky130_fd_sc_hd__nand2_1
*I *1063:B I *D sky130_fd_sc_hd__nand2_1
*I *1061:Y O *D sky130_fd_sc_hd__nand2_1
*CAP
1 *1062:B 0
2 *1065:B 0.000223135
3 *1063:B 4.84144e-05
4 *1061:Y 0
5 *357:19 0.000293776
6 *357:4 0.000119055
7 *1063:B *1064:A 0.000102013
8 *1063:B *1064:B 3.99614e-06
9 *1065:B *475:10 0
10 *357:19 *1064:A 8.76257e-05
11 *1060:A *1065:B 2.8266e-06
12 *1060:B *357:19 0
13 *1061:A *357:19 5.71472e-05
14 *1061:B *1063:B 2.97021e-05
15 *1065:A *1065:B 0
16 *11:41 *1065:B 2.01767e-05
17 *12:48 *1065:B 9.90431e-05
18 *356:8 *357:19 6.98713e-05
*RES
1 *1061:Y *357:4 9.3 
2 *357:4 *1063:B 10.675 
3 *357:4 *357:19 2.32143 
4 *357:19 *1065:B 22.1036 
5 *357:19 *1062:B 9.3 
*END

*D_NET *358 0.000459441
*CONN
*I *913:A I *D sky130_fd_sc_hd__inv_1
*I *902:Y O *D sky130_fd_sc_hd__nand2_1
*CAP
1 *913:A 0.000100831
2 *902:Y 0.000100831
3 *5:43 *913:A 7.71321e-05
4 *14:101 *913:A 5.5782e-05
5 *15:93 *913:A 9.25014e-06
6 *215:8 *913:A 0.000115615
*RES
1 *902:Y *913:A 30.6491 
*END

*D_NET *359 0.000889127
*CONN
*I *1064:A I *D sky130_fd_sc_hd__nand2_1
*I *1062:Y O *D sky130_fd_sc_hd__nand2_1
*CAP
1 *1064:A 0.000266231
2 *1062:Y 0.000266231
3 *1064:A *1064:B 4.62371e-05
4 *1064:A *1182:B 8.50568e-05
5 *1064:A *475:10 2.65105e-05
6 *1061:B *1064:A 9.22103e-06
7 *1063:B *1064:A 0.000102013
8 *357:19 *1064:A 8.76257e-05
*RES
1 *1062:Y *1064:A 23.4036 
*END

*D_NET *360 0.000211498
*CONN
*I *1064:B I *D sky130_fd_sc_hd__nand2_1
*I *1063:Y O *D sky130_fd_sc_hd__nand2_1
*CAP
1 *1064:B 4.15924e-05
2 *1063:Y 4.15924e-05
3 *1064:B *475:10 2.28499e-05
4 *1061:B *1064:B 5.52302e-05
5 *1063:B *1064:B 3.99614e-06
6 *1064:A *1064:B 4.62371e-05
*RES
1 *1063:Y *1064:B 19.975 
*END

*D_NET *361 0.00098002
*CONN
*I *1184:A I *D sky130_fd_sc_hd__nand2_1
*I *1182:B I *D sky130_fd_sc_hd__nand2_1
*I *1064:Y O *D sky130_fd_sc_hd__nand2_1
*CAP
1 *1184:A 0.000215134
2 *1182:B 0.000156129
3 *1064:Y 0
4 *361:4 0.000371263
5 *1182:B *475:10 1.69108e-05
6 *1184:A *1185:B 0
7 *1184:A *479:8 1.56e-05
8 *1184:A *480:17 9.28838e-05
9 *1064:A *1182:B 8.50568e-05
10 *1183:A *1184:A 2.70413e-05
*RES
1 *1064:Y *361:4 9.3 
2 *361:4 *1182:B 12.05 
3 *361:4 *1184:A 21.675 
*END

*D_NET *362 0.000840216
*CONN
*I *1071:B I *D sky130_fd_sc_hd__nand2_1
*I *1073:A I *D sky130_fd_sc_hd__nand2_1
*I *1065:Y O *D sky130_fd_sc_hd__nand2_1
*CAP
1 *1071:B 0.000155027
2 *1073:A 4.04509e-05
3 *1065:Y 0
4 *362:4 0.000195478
5 *1071:B *584:10 6.42338e-05
6 *1013:B *1071:B 2.89114e-05
7 *1065:A *1071:B 3.30237e-05
8 *11:41 *1073:A 0.000129868
9 *12:32 *1071:B 0.000125731
10 *12:32 *1073:A 6.74911e-05
*RES
1 *1065:Y *362:4 9.3 
2 *362:4 *1073:A 19.9429 
3 *362:4 *1071:B 21.3 
*END

*D_NET *363 0.00153965
*CONN
*I *1075:A I *D sky130_fd_sc_hd__nand2_1
*I *1067:B I *D sky130_fd_sc_hd__nand2_1
*I *1069:B I *D sky130_fd_sc_hd__nand2_1
*I *1066:Y O *D sky130_fd_sc_hd__nand2_1
*CAP
1 *1075:A 0.000238605
2 *1067:B 2.35783e-05
3 *1069:B 0
4 *1066:Y 0.00012369
5 *363:23 0.000402045
6 *363:14 0.000263551
7 *1067:B *584:10 5.51649e-05
8 *1075:A *1070:A 4.08637e-05
9 *1075:A *1070:B 3.44931e-05
10 *1075:A *372:6 2.11336e-05
11 *363:23 *1070:A 5.49995e-05
12 *1066:A *363:14 6.05161e-06
13 *1067:A *363:14 3.11088e-05
14 *1067:A *363:23 2.92156e-05
15 *11:41 *363:14 0.000124749
16 *12:32 *1067:B 2.80728e-05
17 *12:32 *363:14 6.23278e-05
*RES
1 *1066:Y *363:14 21.0143 
2 *363:14 *1069:B 9.3 
3 *363:14 *363:23 2.08929 
4 *363:23 *1067:B 19.0321 
5 *363:23 *1075:A 12.6214 
*END

*D_NET *364 0.000232566
*CONN
*I *1070:A I *D sky130_fd_sc_hd__nand2_1
*I *1067:Y O *D sky130_fd_sc_hd__nand2_1
*CAP
1 *1070:A 4.55767e-05
2 *1067:Y 4.55767e-05
3 *1070:A *1070:B 3.00995e-05
4 *1067:A *1070:A 1.54502e-05
5 *1075:A *1070:A 4.08637e-05
6 *363:23 *1070:A 5.49995e-05
*RES
1 *1067:Y *1070:A 19.975 
*END

*D_NET *365 0.000719718
*CONN
*I *1070:B I *D sky130_fd_sc_hd__nand2_1
*I *1069:Y O *D sky130_fd_sc_hd__nand2_1
*CAP
1 *1070:B 0.000247678
2 *1069:Y 0.000247678
3 *1067:A *1070:B 0.000159769
4 *1070:A *1070:B 3.00995e-05
5 *1075:A *1070:B 3.44931e-05
*RES
1 *1069:Y *1070:B 22.8857 
*END

*D_NET *366 0.000455719
*CONN
*I *1072:A I *D sky130_fd_sc_hd__nand2_1
*I *1071:A I *D sky130_fd_sc_hd__nand2_1
*I *1070:Y O *D sky130_fd_sc_hd__nand2_1
*CAP
1 *1072:A 0
2 *1071:A 1.77691e-05
3 *1070:Y 5.74347e-05
4 *366:10 7.52038e-05
5 *1071:A *1074:B 5.52302e-05
6 *1071:A *367:17 2.59355e-05
7 *366:10 *1072:B 2.94103e-05
8 *366:10 *1075:B 4.68926e-05
9 *366:10 *584:10 0.000147843
*RES
1 *1070:Y *366:10 20.2464 
2 *366:10 *1071:A 9.83571 
3 *366:10 *1072:A 9.3 
*END

*D_NET *367 0.000937244
*CONN
*I *1075:B I *D sky130_fd_sc_hd__nand2_1
*I *1072:B I *D sky130_fd_sc_hd__nand2_1
*I *1073:B I *D sky130_fd_sc_hd__nand2_1
*I *1071:Y O *D sky130_fd_sc_hd__nand2_1
*CAP
1 *1075:B 0.000107672
2 *1072:B 4.4091e-05
3 *1073:B 9.71265e-05
4 *1071:Y 0
5 *367:17 0.000254297
6 *367:4 0.000199661
7 *1073:B *1074:B 3.14163e-05
8 *1075:B *584:10 2.31084e-05
9 *367:17 *1074:A 5.52238e-05
10 *367:17 *1074:B 2.2411e-05
11 *1071:A *367:17 2.59355e-05
12 *366:10 *1072:B 2.94103e-05
13 *366:10 *1075:B 4.68926e-05
*RES
1 *1071:Y *367:4 9.3 
2 *367:4 *1073:B 10.9786 
3 *367:4 *367:17 6.26786 
4 *367:17 *1072:B 14.5321 
5 *367:17 *1075:B 16.05 
*END

*D_NET *368 0.000312796
*CONN
*I *1074:A I *D sky130_fd_sc_hd__nand2_1
*I *1072:Y O *D sky130_fd_sc_hd__nand2_1
*CAP
1 *1074:A 9.50999e-05
2 *1072:Y 9.50999e-05
3 *1074:A *1074:B 6.20656e-05
4 *1074:A *371:12 5.30637e-06
5 *367:17 *1074:A 5.52238e-05
*RES
1 *1072:Y *1074:A 20.7964 
*END

*D_NET *369 0.000462581
*CONN
*I *830:B I *D sky130_fd_sc_hd__nand2_1
*I *832:A I *D sky130_fd_sc_hd__nand2_1
*I *913:Y O *D sky130_fd_sc_hd__inv_1
*CAP
1 *830:B 0
2 *832:A 8.33761e-05
3 *913:Y 2.28727e-05
4 *369:6 0.000106249
5 *129:6 *832:A 9.41642e-05
6 *129:19 *832:A 1.97695e-05
7 *215:8 *832:A 5.75389e-05
8 *215:8 *369:6 7.86112e-05
*RES
1 *913:Y *369:6 10.0411 
2 *369:6 *832:A 11.5143 
3 *369:6 *830:B 9.3 
*END

*D_NET *370 0.000602941
*CONN
*I *1074:B I *D sky130_fd_sc_hd__nand2_1
*I *1073:Y O *D sky130_fd_sc_hd__nand2_1
*CAP
1 *1074:B 0.000215909
2 *1073:Y 0.000215909
3 *1071:A *1074:B 5.52302e-05
4 *1073:B *1074:B 3.14163e-05
5 *1074:A *1074:B 6.20656e-05
6 *367:17 *1074:B 2.2411e-05
*RES
1 *1073:Y *1074:B 22.4393 
*END

*D_NET *371 0.000880609
*CONN
*I *1195:A I *D sky130_fd_sc_hd__nand2_1
*I *1193:B I *D sky130_fd_sc_hd__nand2_1
*I *1074:Y O *D sky130_fd_sc_hd__nand2_1
*CAP
1 *1195:A 0
2 *1193:B 5.53525e-05
3 *1074:Y 0.000268016
4 *371:12 0.000323368
5 *1193:B *1195:B 4.80569e-05
6 *1193:B *484:8 0
7 *371:12 *584:10 0
8 *1013:A *1193:B 0.00018051
9 *1074:A *371:12 5.30637e-06
10 *266:10 *371:12 0
*RES
1 *1074:Y *371:12 21.7107 
2 *371:12 *1193:B 11.5143 
3 *371:12 *1195:A 9.3 
*END

*D_NET *372 0.000745156
*CONN
*I *1203:A I *D sky130_fd_sc_hd__nand2_1
*I *1204:A I *D sky130_fd_sc_hd__nand2_1
*I *1075:Y O *D sky130_fd_sc_hd__nand2_1
*CAP
1 *1203:A 6.23379e-05
2 *1204:A 1.39316e-05
3 *1075:Y 0.000212473
4 *372:6 0.000288743
5 *1203:A *1204:B 3.87621e-05
6 *1203:A *1205:B 4.74261e-06
7 *1203:A *1206:A 9.75679e-05
8 *1204:A *1204:B 5.46383e-06
9 *1075:A *372:6 2.11336e-05
*RES
1 *1075:Y *372:6 13.1214 
2 *372:6 *1204:A 9.72857 
3 *372:6 *1203:A 11.0857 
*END

*D_NET *373 0.00118066
*CONN
*I *1086:A I *D sky130_fd_sc_hd__nand2_1
*I *1078:B I *D sky130_fd_sc_hd__nand2_1
*I *1077:B I *D sky130_fd_sc_hd__nand2_1
*I *1076:Y O *D sky130_fd_sc_hd__nand2_1
*CAP
1 *1086:A 6.31917e-05
2 *1078:B 0.000128202
3 *1077:B 0.000122463
4 *1076:Y 0.000196097
5 *373:20 0.000265027
6 *1077:B *1085:A 1.98839e-05
7 *1078:B *1085:A 2.70354e-05
8 *1086:A *1081:B 0
9 *1086:A *1085:B 3.69697e-05
10 *1086:A *501:10 0.000125731
11 *373:20 *1085:A 8.27532e-05
12 *1076:B *1077:B 0
13 *1076:B *1078:B 5.80718e-05
14 *1077:A *1077:B 5.52302e-05
*RES
1 *1076:Y *1077:B 20.7964 
2 *1076:Y *373:20 10.2464 
3 *373:20 *1078:B 11.3893 
4 *373:20 *1086:A 19.9429 
*END

*D_NET *374 0.000841258
*CONN
*I *1081:A I *D sky130_fd_sc_hd__nand2_1
*I *1077:Y O *D sky130_fd_sc_hd__nand2_1
*CAP
1 *1081:A 0.00030711
2 *1077:Y 0.00030711
3 *1081:A *1085:A 8.00806e-05
4 *1081:A *376:12 0.00010723
5 *13:34 *1081:A 3.97273e-05
*RES
1 *1077:Y *1081:A 33.7429 
*END

*D_NET *375 0.000770676
*CONN
*I *1081:B I *D sky130_fd_sc_hd__nand2_1
*I *1078:Y O *D sky130_fd_sc_hd__nand2_1
*CAP
1 *1081:B 0.000324903
2 *1078:Y 0.000324903
3 *1081:B *1085:B 3.92757e-05
4 *1081:B *382:14 8.15939e-05
5 *1081:B *501:10 0
6 *1086:A *1081:B 0
7 *1213:A *1081:B 0
8 *7:26 *1081:B 0
*RES
1 *1078:Y *1081:B 33.3321 
*END

*D_NET *376 0.000708035
*CONN
*I *1083:A I *D sky130_fd_sc_hd__nand2_1
*I *1082:A I *D sky130_fd_sc_hd__nand2_1
*I *1081:Y O *D sky130_fd_sc_hd__nand2_1
*CAP
1 *1083:A 2.10154e-05
2 *1082:A 0
3 *1081:Y 0.000174293
4 *376:12 0.000195309
5 *1083:A *1083:B 5.71472e-05
6 *1081:A *376:12 0.00010723
7 *13:34 *376:12 0.00015304
*RES
1 *1081:Y *376:12 21.6036 
2 *376:12 *1082:A 9.3 
3 *376:12 *1083:A 9.83571 
*END

*D_NET *377 0.000774551
*CONN
*I *1083:B I *D sky130_fd_sc_hd__nand2_1
*I *1086:B I *D sky130_fd_sc_hd__nand2_1
*I *1084:B I *D sky130_fd_sc_hd__nand2_1
*I *1082:Y O *D sky130_fd_sc_hd__nand2_1
*CAP
1 *1083:B 0.000136918
2 *1086:B 0
3 *1084:B 8.60018e-06
4 *1082:Y 0
5 *377:8 0.00013868
6 *377:4 0.000266998
7 *1084:B *1085:B 2.28499e-05
8 *377:8 *1085:B 1.24368e-05
9 *979:A *377:8 0
10 *1082:B *1083:B 0
11 *1082:B *1084:B 5.71472e-05
12 *1082:B *377:8 6.97776e-05
13 *1083:A *1083:B 5.71472e-05
14 *1084:A *377:8 3.99614e-06
*RES
1 *1082:Y *377:4 9.3 
2 *377:4 *377:8 2.19643 
3 *377:8 *1084:B 9.83571 
4 *377:8 *1086:B 9.3 
5 *377:4 *1083:B 11.4964 
*END

*D_NET *378 0.000636658
*CONN
*I *1085:A I *D sky130_fd_sc_hd__nand2_1
*I *1083:Y O *D sky130_fd_sc_hd__nand2_1
*CAP
1 *1085:A 0.000146532
2 *1083:Y 0.000146532
3 *1076:B *1085:A 3.93247e-05
4 *1077:A *1085:A 5.52302e-05
5 *1077:B *1085:A 1.98839e-05
6 *1078:B *1085:A 2.70354e-05
7 *1081:A *1085:A 8.00806e-05
8 *13:34 *1085:A 3.92854e-05
9 *373:20 *1085:A 8.27532e-05
*RES
1 *1083:Y *1085:A 31.2607 
*END

*D_NET *379 0.000436444
*CONN
*I *1085:B I *D sky130_fd_sc_hd__nand2_1
*I *1084:Y O *D sky130_fd_sc_hd__nand2_1
*CAP
1 *1085:B 0.000143826
2 *1084:Y 0.000143826
3 *1085:B *501:10 1.91418e-05
4 *1081:B *1085:B 3.92757e-05
5 *1082:B *1085:B 1.39841e-05
6 *1084:B *1085:B 2.28499e-05
7 *1086:A *1085:B 3.69697e-05
8 *136:12 *1085:B 4.1331e-06
9 *377:8 *1085:B 1.24368e-05
*RES
1 *1084:Y *1085:B 30.1893 
*END

*D_NET *380 0.000504834
*CONN
*I *935:A I *D sky130_fd_sc_hd__inv_1
*I *924:Y O *D sky130_fd_sc_hd__nand2_1
*CAP
1 *935:A 0.000211133
2 *924:Y 0.000211133
3 *935:A *781:A 4.1331e-06
4 *935:A *391:8 4.11274e-05
5 *769:A *935:A 1.74352e-05
6 *779:A *935:A 1.24368e-05
7 *924:A *935:A 7.43578e-06
8 *15:93 *935:A 0
9 *92:18 *935:A 0
*RES
1 *924:Y *935:A 30.8366 
*END

*D_NET *381 0.00280802
*CONN
*I *1205:A I *D sky130_fd_sc_hd__nand2_1
*I *1203:B I *D sky130_fd_sc_hd__nand2_1
*I *1085:Y O *D sky130_fd_sc_hd__nand2_1
*CAP
1 *1205:A 0.000157259
2 *1203:B 2.30848e-05
3 *1085:Y 0.000647264
4 *381:10 0.000827608
5 *1203:B *1204:B 1.24368e-05
6 *1203:B *1205:B 4.25684e-05
7 *1203:B *1206:A 3.11088e-05
8 *1205:A *1205:B 3.3328e-05
9 *1205:A *1206:B 5.84024e-05
10 *1205:A *1208:A 0
11 *1205:A *1209:A 2.90508e-05
12 *381:10 *961:B 0.000115007
13 *381:10 *1211:A 0.000126416
14 *381:10 *501:10 0
15 *966:A *381:10 3.74032e-05
16 *970:A *381:10 0.000310222
17 *1076:B *381:10 9.90431e-05
18 *136:12 *381:10 6.75007e-05
19 *262:14 *381:10 2.87912e-05
20 *266:10 *1203:B 1.16107e-05
21 *266:10 *381:10 0.00014992
*RES
1 *1085:Y *381:10 28.6839 
2 *381:10 *1203:B 14.6125 
3 *381:10 *1205:A 16.3982 
*END

*D_NET *382 0.00187477
*CONN
*I *1212:A I *D sky130_fd_sc_hd__nand2_1
*I *1214:A I *D sky130_fd_sc_hd__nand2_1
*I *1086:Y O *D sky130_fd_sc_hd__nand2_1
*CAP
1 *1212:A 0.000157116
2 *1214:A 2.62853e-05
3 *1086:Y 0.000312533
4 *382:14 0.000495935
5 *1212:A *1214:B 0.00012501
6 *1212:A *1216:A 4.27935e-05
7 *1212:A *1217:B 6.12819e-05
8 *1212:A *1219:B 1.78447e-05
9 *1212:A *1221:B 1.69115e-05
10 *1212:A *505:8 4.70078e-05
11 *1214:A *1216:A 3.37729e-05
12 *1214:A *1217:B 0
13 *382:14 *1216:A 5.93521e-05
14 *382:14 *1219:B 0.000173076
15 *382:14 *1224:A 0
16 *382:14 *501:10 0.000112411
17 *382:14 *505:8 1.21258e-05
18 p[6] *1212:A 6.7848e-05
19 *1081:B *382:14 8.15939e-05
20 *1082:B *382:14 3.18676e-05
21 *13:34 *382:14 0
*RES
1 *1086:Y *382:14 25.5679 
2 *382:14 *1214:A 10.0321 
3 *382:14 *1212:A 22.5143 
*END

*D_NET *383 0.00133203
*CONN
*I *1096:A I *D sky130_fd_sc_hd__nand2_1
*I *1088:B I *D sky130_fd_sc_hd__nand2_1
*I *1089:B I *D sky130_fd_sc_hd__nand2_1
*I *1087:Y O *D sky130_fd_sc_hd__nand2_1
*CAP
1 *1096:A 0.0001228
2 *1088:B 0.000136041
3 *1089:B 0.000111508
4 *1087:Y 0.0001228
5 *383:4 0.000247549
6 *1088:B *1090:A 1.32552e-05
7 *1096:A *1090:B 0.000154825
8 *1088:A *1088:B 0.000144773
9 *1089:A *1089:B 5.52238e-05
10 *1092:B *1088:B 2.61378e-05
11 *162:8 *1088:B 2.44318e-05
12 *162:8 *1089:B 7.17235e-05
13 *162:8 *1096:A 0.00010096
*RES
1 *1087:Y *383:4 9.3 
2 *383:4 *1089:B 11.4964 
3 *383:4 *1088:B 12.3179 
4 *1087:Y *1096:A 30.7964 
*END

*D_NET *384 0.000426848
*CONN
*I *1090:A I *D sky130_fd_sc_hd__nand2_1
*I *1088:Y O *D sky130_fd_sc_hd__nand2_1
*CAP
1 *1090:A 0.000154629
2 *1088:Y 0.000154629
3 *1090:A *1090:B 8.15939e-05
4 *1090:A *1092:A 0
5 *1090:A *387:25 0
6 *1088:A *1090:A 2.27416e-05
7 *1088:B *1090:A 1.32552e-05
*RES
1 *1088:Y *1090:A 30.4929 
*END

*D_NET *385 0.000650298
*CONN
*I *1090:B I *D sky130_fd_sc_hd__nand2_1
*I *1089:Y O *D sky130_fd_sc_hd__nand2_1
*CAP
1 *1090:B 0.000182507
2 *1089:Y 0.000182507
3 *1090:A *1090:B 8.15939e-05
4 *1096:A *1090:B 0.000154825
5 *162:8 *1090:B 4.88637e-05
*RES
1 *1089:Y *1090:B 31.3143 
*END

*D_NET *386 0.000814463
*CONN
*I *1092:A I *D sky130_fd_sc_hd__nand2_1
*I *1093:A I *D sky130_fd_sc_hd__nand2_1
*I *1090:Y O *D sky130_fd_sc_hd__nand2_1
*CAP
1 *1092:A 0.000124527
2 *1093:A 2.03441e-05
3 *1090:Y 6.78449e-05
4 *386:6 0.000212716
5 *1092:A *1094:B 8.49318e-05
6 *1092:A *1095:A 2.14658e-05
7 *1092:A *387:25 0.000144375
8 *1093:A *1093:B 5.7661e-06
9 *386:6 *1095:A 3.18676e-05
10 *386:6 *1096:B 5.17614e-05
11 *386:6 *387:25 4.88637e-05
12 *1090:A *1092:A 0
*RES
1 *1090:Y *386:6 11.0679 
2 *386:6 *1093:A 9.72857 
3 *386:6 *1092:A 21.3893 
*END

*D_NET *387 0.0019408
*CONN
*I *1093:B I *D sky130_fd_sc_hd__nand2_1
*I *1096:B I *D sky130_fd_sc_hd__nand2_1
*I *1094:B I *D sky130_fd_sc_hd__nand2_1
*I *1092:Y O *D sky130_fd_sc_hd__nand2_1
*CAP
1 *1093:B 9.15136e-06
2 *1096:B 0.000112863
3 *1094:B 0.000226833
4 *1092:Y 0
5 *387:25 0.00028579
6 *387:6 0.000390609
7 *1094:B *1095:A 0.000225307
8 *1094:B *1095:B 4.72917e-05
9 *1094:B *390:12 4.0342e-06
10 *1096:B *392:10 5.71472e-05
11 *387:25 *1095:A 8.66172e-05
12 *387:25 *510:10 5.31541e-05
13 *1090:A *387:25 0
14 *1092:A *1094:B 8.49318e-05
15 *1092:A *387:25 0.000144375
16 *1092:B *1094:B 5.10822e-05
17 *1093:A *1093:B 5.7661e-06
18 *1094:A *1094:B 5.52238e-05
19 *277:12 *1094:B 0
20 *386:6 *1096:B 5.17614e-05
21 *386:6 *387:25 4.88637e-05
*RES
1 *1092:Y *387:6 13.8 
2 *387:6 *1094:B 19.2643 
3 *387:6 *387:25 8.51786 
4 *387:25 *1096:B 11.4964 
5 *387:25 *1093:B 9.72857 
*END

*D_NET *388 0.00121916
*CONN
*I *1095:A I *D sky130_fd_sc_hd__nand2_1
*I *1093:Y O *D sky130_fd_sc_hd__nand2_1
*CAP
1 *1095:A 0.000262096
2 *1093:Y 0.000262096
3 *1095:A *510:10 0.000320016
4 *1092:A *1095:A 2.14658e-05
5 *1092:B *1095:A 6.8646e-06
6 *1094:B *1095:A 0.000225307
7 *286:10 *1095:A 2.8266e-06
8 *386:6 *1095:A 3.18676e-05
9 *387:25 *1095:A 8.66172e-05
*RES
1 *1093:Y *1095:A 33.4393 
*END

*D_NET *389 0.000270007
*CONN
*I *1095:B I *D sky130_fd_sc_hd__nand2_1
*I *1094:Y O *D sky130_fd_sc_hd__nand2_1
*CAP
1 *1095:B 8.37456e-05
2 *1094:Y 8.37456e-05
3 *1094:A *1095:B 5.52238e-05
4 *1094:B *1095:B 4.72917e-05
*RES
1 *1094:Y *1095:B 20.3857 
*END

*D_NET *390 0.000895651
*CONN
*I *1215:A I *D sky130_fd_sc_hd__nand2_1
*I *1212:B I *D sky130_fd_sc_hd__nand2_1
*I *1095:Y O *D sky130_fd_sc_hd__nand2_1
*CAP
1 *1215:A 0
2 *1212:B 0.000157177
3 *1095:Y 0.000119253
4 *390:12 0.00027643
5 *1212:B *1215:B 5.71472e-05
6 *1212:B *1216:B 5.52238e-05
7 *1212:B *502:24 7.67497e-05
8 *1212:B *510:10 1.32552e-05
9 *390:12 *1221:B 0
10 *390:12 *510:10 7.83587e-05
11 *1094:B *390:12 4.0342e-06
12 *286:10 *390:12 5.80217e-05
*RES
1 *1095:Y *390:12 20.7821 
2 *390:12 *1212:B 12.7464 
3 *390:12 *1215:A 9.3 
*END

*D_NET *391 0.00102461
*CONN
*I *778:B I *D sky130_fd_sc_hd__nand2_1
*I *781:A I *D sky130_fd_sc_hd__nand2_1
*I *935:Y O *D sky130_fd_sc_hd__inv_1
*CAP
1 *778:B 0
2 *781:A 0.000135209
3 *935:Y 0.00012517
4 *391:8 0.000260379
5 *778:A *391:8 4.1896e-06
6 *779:A *781:A 6.71847e-05
7 *779:A *391:8 1.02821e-05
8 *935:A *781:A 4.1331e-06
9 *935:A *391:8 4.11274e-05
10 *79:8 *781:A 0.00015234
11 *92:18 *781:A 0.000224599
*RES
1 *935:Y *391:8 11.1839 
2 *391:8 *781:A 22.2286 
3 *391:8 *778:B 9.3 
*END

*D_NET *392 0.000993866
*CONN
*I *1223:A I *D sky130_fd_sc_hd__nand2_1
*I *1222:A I *D sky130_fd_sc_hd__nand2_1
*I *1096:Y O *D sky130_fd_sc_hd__nand2_1
*CAP
1 *1223:A 0.00013031
2 *1222:A 0
3 *1096:Y 0.00033805
4 *392:10 0.000468359
5 *1223:A *1229:A 0
6 *1223:A *510:10 0
7 *392:10 *1103:A 0
8 *392:10 *510:10 0
9 *1096:B *392:10 5.71472e-05
*RES
1 *1096:Y *392:10 19.1214 
2 *392:10 *1222:A 13.8 
3 *392:10 *1223:A 15.7107 
*END

*D_NET *393 0.000859897
*CONN
*I *1106:A I *D sky130_fd_sc_hd__nand2_1
*I *1098:B I *D sky130_fd_sc_hd__nand2_1
*I *1099:B I *D sky130_fd_sc_hd__nand2_1
*I *1097:Y O *D sky130_fd_sc_hd__nand2_1
*CAP
1 *1106:A 0.000120345
2 *1098:B 7.36521e-05
3 *1099:B 3.73192e-05
4 *1097:Y 0.000103273
5 *393:22 0.000259951
6 *1099:B *1100:A 0.00010096
7 *1099:B *1100:B 9.7049e-06
8 *1106:A *1101:A 0
9 *393:22 *1100:A 9.90431e-05
10 *999:A *1106:A 0
11 *1097:A *1099:B 9.7049e-06
12 *1097:B *1099:B 1.04232e-05
13 *1099:A *1099:B 2.97137e-05
14 *181:12 *1098:B 5.80706e-06
*RES
1 *1097:Y *1099:B 19.975 
2 *1097:Y *393:22 14.7464 
3 *393:22 *1098:B 14.8357 
4 *393:22 *1106:A 15.7464 
*END

*D_NET *394 0.000941762
*CONN
*I *1100:A I *D sky130_fd_sc_hd__nand2_1
*I *1098:Y O *D sky130_fd_sc_hd__nand2_1
*CAP
1 *1100:A 0.000162602
2 *1098:Y 0.000162602
3 *1100:A *1100:B 0.00012073
4 *1100:A *1101:A 0.000144773
5 *1100:A *1103:A 4.38128e-05
6 *1097:A *1100:A 9.80173e-05
7 *1099:A *1100:A 9.22103e-06
8 *1099:B *1100:A 0.00010096
9 *393:22 *1100:A 9.90431e-05
*RES
1 *1098:Y *1100:A 23.5643 
*END

*D_NET *395 0.000251826
*CONN
*I *1100:B I *D sky130_fd_sc_hd__nand2_1
*I *1099:Y O *D sky130_fd_sc_hd__nand2_1
*CAP
1 *1100:B 2.92393e-05
2 *1099:Y 2.92393e-05
3 *1099:A *1100:B 6.29133e-05
4 *1099:B *1100:B 9.7049e-06
5 *1100:A *1100:B 0.00012073
*RES
1 *1099:Y *1100:B 19.975 
*END

*D_NET *396 0.000940088
*CONN
*I *1103:A I *D sky130_fd_sc_hd__nand2_1
*I *1101:A I *D sky130_fd_sc_hd__nand2_1
*I *1100:Y O *D sky130_fd_sc_hd__nand2_1
*CAP
1 *1103:A 0.000185169
2 *1101:A 0.000190583
3 *1100:Y 0
4 *396:4 0.000375751
5 *1100:A *1101:A 0.000144773
6 *1100:A *1103:A 4.38128e-05
7 *1106:A *1101:A 0
8 *392:10 *1103:A 0
*RES
1 *1100:Y *396:4 9.3 
2 *396:4 *1101:A 21.6036 
3 *396:4 *1103:A 21.6036 
*END

*D_NET *397 0.000556749
*CONN
*I *1103:B I *D sky130_fd_sc_hd__nand2_1
*I *1104:B I *D sky130_fd_sc_hd__nand2_1
*I *1106:B I *D sky130_fd_sc_hd__nand2_1
*I *1101:Y O *D sky130_fd_sc_hd__nand2_1
*CAP
1 *1103:B 1.92979e-05
2 *1104:B 0
3 *1106:B 5.78073e-05
4 *1101:Y 0
5 *397:19 0.000112732
6 *397:4 0.000151242
7 *1103:B *1105:B 4.38128e-05
8 *397:19 *1105:B 5.40879e-05
9 *1101:B *1106:B 1.04232e-05
10 *1104:A *1106:B 2.44318e-05
11 *1104:A *397:19 5.10457e-05
12 *296:6 *1106:B 3.18676e-05
*RES
1 *1101:Y *397:4 9.3 
2 *397:4 *1106:B 10.675 
3 *397:4 *397:19 2.32143 
4 *397:19 *1104:B 9.3 
5 *397:19 *1103:B 9.83571 
*END

*D_NET *398 0.000323434
*CONN
*I *1105:A I *D sky130_fd_sc_hd__nand2_1
*I *1103:Y O *D sky130_fd_sc_hd__nand2_1
*CAP
1 *1105:A 0.000106955
2 *1103:Y 0.000106955
3 *1105:A *1105:B 5.75275e-05
4 *1105:A *1225:A 1.04232e-05
5 *1105:A *1225:B 9.7049e-06
6 *1105:A *400:6 3.18676e-05
*RES
1 *1103:Y *1105:A 20.7964 
*END

*D_NET *399 0.000440272
*CONN
*I *1105:B I *D sky130_fd_sc_hd__nand2_1
*I *1104:Y O *D sky130_fd_sc_hd__nand2_1
*CAP
1 *1105:B 0.000137569
2 *1104:Y 0.000137569
3 *1105:B *1225:A 9.7049e-06
4 *1103:B *1105:B 4.38128e-05
5 *1105:A *1105:B 5.75275e-05
6 *397:19 *1105:B 5.40879e-05
*RES
1 *1104:Y *1105:B 21.7607 
*END

*D_NET *400 0.000425709
*CONN
*I *1222:B I *D sky130_fd_sc_hd__nand2_1
*I *1225:A I *D sky130_fd_sc_hd__nand2_1
*I *1105:Y O *D sky130_fd_sc_hd__nand2_1
*CAP
1 *1222:B 4.99631e-05
2 *1225:A 9.32664e-06
3 *1105:Y 4.58485e-05
4 *400:6 0.000105138
5 *1222:B *1223:B 3.99614e-06
6 *1222:B *1225:B 4.22908e-05
7 *1222:B *1226:B 0.000111383
8 *1225:A *1225:B 5.7661e-06
9 *1105:A *1225:A 1.04232e-05
10 *1105:A *400:6 3.18676e-05
11 *1105:B *1225:A 9.7049e-06
*RES
1 *1105:Y *400:6 10.2464 
2 *400:6 *1225:A 9.72857 
3 *400:6 *1222:B 11.0857 
*END

*D_NET *401 0.000884116
*CONN
*I *1233:A I *D sky130_fd_sc_hd__nand2_1
*I *1232:A I *D sky130_fd_sc_hd__nand2_1
*I *1106:Y O *D sky130_fd_sc_hd__nand2_1
*CAP
1 *1233:A 0
2 *1232:A 8.56621e-05
3 *1106:Y 0.000204084
4 *401:10 0.000289746
5 *1232:A *1233:B 4.80569e-05
6 *1232:A *1236:A 5.33433e-05
7 *1232:A *410:8 0
8 *401:10 *1236:A 5.25998e-05
9 *401:10 *1241:A 0
10 *401:10 *523:10 0.000150625
*RES
1 *1106:Y *401:10 22.675 
2 *401:10 *1232:A 11.5143 
3 *401:10 *1233:A 9.3 
*END

*D_NET *402 0.0011652
*CONN
*I *957:A I *D sky130_fd_sc_hd__inv_1
*I *946:Y O *D sky130_fd_sc_hd__nand2_1
*CAP
1 *957:A 0.000187824
2 *946:Y 0.000187824
3 *957:A *784:B 0.000155614
4 *957:A *413:6 3.51729e-05
5 *785:A *957:A 3.11088e-05
6 *786:B *957:A 1.12713e-05
7 *802:A *957:A 1.14548e-05
8 *835:A *957:A 0.000527957
9 *259:8 *957:A 1.69756e-05
*RES
1 *946:Y *957:A 25.0777 
*END

*D_NET *403 0.00144394
*CONN
*I *1108:B I *D sky130_fd_sc_hd__nand2_1
*I *1109:B I *D sky130_fd_sc_hd__nand2_1
*I *1116:A I *D sky130_fd_sc_hd__nand2_1
*I *1107:Y O *D sky130_fd_sc_hd__nand2_1
*CAP
1 *1108:B 0.000115676
2 *1109:B 0
3 *1116:A 0.000312715
4 *1107:Y 0
5 *403:8 0.000448817
6 *403:4 0.000251778
7 *1108:A *1108:B 0.000106376
8 *1108:A *403:8 6.49287e-05
9 *1109:A *403:8 1.97502e-05
10 *183:12 *1116:A 0
11 *297:12 *1108:B 3.48705e-05
12 *306:12 *1116:A 8.90314e-05
*RES
1 *1107:Y *403:4 9.3 
2 *403:4 *403:8 2.5 
3 *403:8 *1116:A 24.1571 
4 *403:8 *1109:B 9.3 
5 *403:4 *1108:B 11.8 
*END

*D_NET *404 0.000374451
*CONN
*I *1110:A I *D sky130_fd_sc_hd__nand2_1
*I *1108:Y O *D sky130_fd_sc_hd__nand2_1
*CAP
1 *1110:A 0.000105467
2 *1108:Y 0.000105467
3 *1110:A *1110:B 2.82057e-05
4 *1110:A *406:10 8.00806e-05
5 *1000:B *1110:A 0
6 *1109:A *1110:A 1.24368e-05
7 *297:12 *1110:A 4.27935e-05
*RES
1 *1108:Y *1110:A 29.7786 
*END

*D_NET *405 0.000450532
*CONN
*I *1110:B I *D sky130_fd_sc_hd__nand2_1
*I *1109:Y O *D sky130_fd_sc_hd__nand2_1
*CAP
1 *1110:B 8.12603e-05
2 *1109:Y 8.12603e-05
3 *1110:B *406:10 7.83587e-05
4 *1109:A *1110:B 5.33005e-05
5 *1110:A *1110:B 2.82057e-05
6 *201:16 *1110:B 0.000128146
*RES
1 *1109:Y *1110:B 29.7786 
*END

*D_NET *406 0.00106938
*CONN
*I *1112:A I *D sky130_fd_sc_hd__nand2_1
*I *1111:A I *D sky130_fd_sc_hd__nand2_1
*I *1110:Y O *D sky130_fd_sc_hd__nand2_1
*CAP
1 *1112:A 0
2 *1111:A 5.03549e-05
3 *1110:Y 0.000255966
4 *406:10 0.000306321
5 *1111:A *1112:B 5.68128e-05
6 *1111:A *1115:A 2.89016e-05
7 *1111:A *1115:B 0.000178586
8 *1111:A *407:8 0
9 *1110:A *406:10 8.00806e-05
10 *1110:B *406:10 7.83587e-05
11 *201:16 *406:10 3.39964e-05
12 *297:12 *406:10 0
13 *306:12 *406:10 0
*RES
1 *1110:Y *406:10 22.675 
2 *406:10 *1111:A 11.5143 
3 *406:10 *1112:A 9.3 
*END

*D_NET *407 0.000552666
*CONN
*I *1112:B I *D sky130_fd_sc_hd__nand2_1
*I *1114:B I *D sky130_fd_sc_hd__nand2_1
*I *1116:B I *D sky130_fd_sc_hd__nand2_1
*I *1111:Y O *D sky130_fd_sc_hd__nand2_1
*CAP
1 *1112:B 5.5037e-05
2 *1114:B 0
3 *1116:B 2.8673e-05
4 *1111:Y 0
5 *407:8 0.000142698
6 *407:4 0.000169062
7 *1112:B *1115:A 0
8 *1112:B *1115:B 1.21289e-05
9 *407:8 *1115:B 3.30237e-05
10 *1111:A *1112:B 5.68128e-05
11 *1111:A *407:8 0
12 *1111:B *407:8 5.52302e-05
*RES
1 *1111:Y *407:4 9.3 
2 *407:4 *407:8 2.19643 
3 *407:8 *1116:B 9.83571 
4 *407:8 *1114:B 9.3 
5 *407:4 *1112:B 10.8268 
*END

*D_NET *408 0.00031155
*CONN
*I *1115:A I *D sky130_fd_sc_hd__nand2_1
*I *1112:Y O *D sky130_fd_sc_hd__nand2_1
*CAP
1 *1115:A 0.000114707
2 *1112:Y 0.000114707
3 *1115:A *1115:B 2.13661e-05
4 *1115:A *410:8 3.18676e-05
5 *1111:A *1115:A 2.89016e-05
6 *1112:B *1115:A 0
*RES
1 *1112:Y *1115:A 20.7964 
*END

*D_NET *409 0.000682192
*CONN
*I *1115:B I *D sky130_fd_sc_hd__nand2_1
*I *1114:Y O *D sky130_fd_sc_hd__nand2_1
*CAP
1 *1115:B 0.000204088
2 *1114:Y 0.000204088
3 *1111:A *1115:B 0.000178586
4 *1111:B *1115:B 2.89114e-05
5 *1112:B *1115:B 1.21289e-05
6 *1115:A *1115:B 2.13661e-05
7 *407:8 *1115:B 3.30237e-05
*RES
1 *1114:Y *1115:B 22.7429 
*END

*D_NET *410 0.000943868
*CONN
*I *1232:B I *D sky130_fd_sc_hd__nand2_1
*I *1234:A I *D sky130_fd_sc_hd__nand2_1
*I *1115:Y O *D sky130_fd_sc_hd__nand2_1
*CAP
1 *1232:B 1.82727e-05
2 *1234:A 0
3 *1115:Y 0.000328295
4 *410:8 0.000346567
5 *1232:B *1236:B 3.14078e-05
6 *1232:B *520:8 0.00010096
7 *410:8 *1236:B 3.18676e-05
8 *410:8 *520:8 5.46298e-05
9 *1115:A *410:8 3.18676e-05
10 *1232:A *410:8 0
*RES
1 *1115:Y *410:8 15.6036 
2 *410:8 *1234:A 9.3 
3 *410:8 *1232:B 10.2464 
*END

*D_NET *411 0.00122931
*CONN
*I *1243:A I *D sky130_fd_sc_hd__nand2_1
*I *1242:A I *D sky130_fd_sc_hd__nand2_1
*I *1116:Y O *D sky130_fd_sc_hd__nand2_1
*CAP
1 *1243:A 0.000134383
2 *1242:A 7.4589e-05
3 *1116:Y 0.000356812
4 *411:6 0.000565784
5 *1242:A *1242:B 1.97695e-05
6 *1243:A *1243:B 2.84494e-05
7 *1243:A *1244:A 0
8 *1243:A *1248:A 1.02504e-05
9 *1243:A *529:8 3.92757e-05
*RES
1 *1116:Y *411:6 15.175 
2 *411:6 *1242:A 10.675 
3 *411:6 *1243:A 20.8536 
*END

*D_NET *412 0.00135958
*CONN
*I *1119:B I *D sky130_fd_sc_hd__nand2_1
*I *1118:B I *D sky130_fd_sc_hd__nand2_1
*I *1126:A I *D sky130_fd_sc_hd__nand2_1
*I *1117:Y O *D sky130_fd_sc_hd__nand2_1
*CAP
1 *1119:B 6.54699e-05
2 *1118:B 3.68618e-05
3 *1126:A 0.000194079
4 *1117:Y 0
5 *412:6 0.000307598
6 *412:4 0.000142127
7 *1118:B *1120:B 6.09963e-05
8 *1119:B *1120:B 1.39841e-05
9 *1126:A *1120:B 1.55885e-05
10 *1126:A *1121:A 4.01768e-05
11 *1126:A *1122:A 9.22103e-06
12 *1126:A *1126:B 0.000116203
13 *1126:A *417:22 0.000230475
14 *1126:A *421:8 2.07878e-05
15 *412:6 *1120:B 1.78738e-05
16 *1117:A *412:6 2.89114e-05
17 *1117:B *1119:B 4.22908e-05
18 *1118:A *1118:B 1.11677e-05
19 *1118:A *1119:B 0
20 *1119:A *1119:B 5.7661e-06
*RES
1 *1117:Y *412:4 9.3 
2 *412:4 *412:6 1.35714 
3 *412:6 *1126:A 14.2643 
4 *412:6 *1118:B 10.5679 
5 *412:4 *1119:B 11.1036 
*END

*D_NET *413 0.000413187
*CONN
*I *786:A I *D sky130_fd_sc_hd__nand2_1
*I *784:B I *D sky130_fd_sc_hd__nand2_1
*I *957:Y O *D sky130_fd_sc_hd__inv_1
*CAP
1 *786:A 0
2 *784:B 5.53471e-05
3 *957:Y 3.01587e-05
4 *413:6 8.55058e-05
5 *786:B *784:B 4.5925e-05
6 *957:A *784:B 0.000155614
7 *957:A *413:6 3.51729e-05
8 *259:8 *784:B 5.46383e-06
*RES
1 *957:Y *413:6 10.0411 
2 *413:6 *784:B 11.5143 
3 *413:6 *786:A 9.3 
*END

*D_NET *414 0.000573666
*CONN
*I *1120:A I *D sky130_fd_sc_hd__nand2_1
*I *1118:Y O *D sky130_fd_sc_hd__nand2_1
*CAP
1 *1120:A 0.000239243
2 *1118:Y 0.000239243
3 *1120:A *1122:B 5.64085e-05
4 *1120:A *1123:B 9.25014e-06
5 *1120:A *1125:A 1.30998e-05
6 *1123:A *1120:A 1.29378e-05
7 *316:8 *1120:A 3.4846e-06
*RES
1 *1118:Y *1120:A 35.916 
*END

*D_NET *415 0.000858017
*CONN
*I *1120:B I *D sky130_fd_sc_hd__nand2_1
*I *1119:Y O *D sky130_fd_sc_hd__nand2_1
*CAP
1 *1120:B 0.000214358
2 *1119:Y 0.000214358
3 *1120:B *1121:A 2.01281e-05
4 *1120:B *1122:A 0.000139907
5 *1117:A *1120:B 5.52238e-05
6 *1117:B *1120:B 0.0001056
7 *1118:B *1120:B 6.09963e-05
8 *1119:B *1120:B 1.39841e-05
9 *1126:A *1120:B 1.55885e-05
10 *412:6 *1120:B 1.78738e-05
*RES
1 *1119:Y *1120:B 22.9929 
*END

*D_NET *416 0.000897845
*CONN
*I *1122:A I *D sky130_fd_sc_hd__nand2_1
*I *1121:A I *D sky130_fd_sc_hd__nand2_1
*I *1120:Y O *D sky130_fd_sc_hd__nand2_1
*CAP
1 *1122:A 0.000173517
2 *1121:A 7.23824e-05
3 *1120:Y 0
4 *416:4 0.000245899
5 *1121:A *1126:B 3.41517e-06
6 *1122:A *1122:B 6.74815e-05
7 *1120:B *1121:A 2.01281e-05
8 *1120:B *1122:A 0.000139907
9 *1126:A *1121:A 4.01768e-05
10 *1126:A *1122:A 9.22103e-06
11 *221:16 *1122:A 0.000125717
*RES
1 *1120:Y *416:4 9.3 
2 *416:4 *1121:A 11.1036 
3 *416:4 *1122:A 21.7107 
*END

*D_NET *417 0.00144379
*CONN
*I *1123:B I *D sky130_fd_sc_hd__nand2_1
*I *1122:B I *D sky130_fd_sc_hd__nand2_1
*I *1126:B I *D sky130_fd_sc_hd__nand2_1
*I *1121:Y O *D sky130_fd_sc_hd__nand2_1
*CAP
1 *1123:B 0.000111669
2 *1122:B 0.000155423
3 *1126:B 5.83482e-05
4 *1121:Y 0.000204514
5 *417:22 0.000413257
6 *1122:B *1125:A 0
7 *1123:B *1125:A 0
8 *1019:B *1122:B 0
9 *1120:A *1122:B 5.64085e-05
10 *1120:A *1123:B 9.25014e-06
11 *1121:A *1126:B 3.41517e-06
12 *1122:A *1122:B 6.74815e-05
13 *1126:A *1126:B 0.000116203
14 *1126:A *417:22 0.000230475
15 *221:16 *1122:B 1.73501e-05
*RES
1 *1121:Y *1126:B 19.975 
2 *1121:Y *417:22 15.9786 
3 *417:22 *1122:B 16.9607 
4 *417:22 *1123:B 15.7464 
*END

*D_NET *418 0.000825256
*CONN
*I *1125:A I *D sky130_fd_sc_hd__nand2_1
*I *1122:Y O *D sky130_fd_sc_hd__nand2_1
*CAP
1 *1125:A 0.000348199
2 *1122:Y 0.000348199
3 *1125:A *1244:A 0
4 *1120:A *1125:A 1.30998e-05
5 *1122:B *1125:A 0
6 *1123:B *1125:A 0
7 *221:16 *1125:A 0.000115759
*RES
1 *1122:Y *1125:A 32.9214 
*END

*D_NET *419 0.000222843
*CONN
*I *1125:B I *D sky130_fd_sc_hd__nand2_1
*I *1123:Y O *D sky130_fd_sc_hd__nand2_1
*CAP
1 *1125:B 0.000111421
2 *1123:Y 0.000111421
*RES
1 *1123:Y *1125:B 20.3857 
*END

*D_NET *420 0.00106804
*CONN
*I *1242:B I *D sky130_fd_sc_hd__nand2_1
*I *1244:A I *D sky130_fd_sc_hd__nand2_1
*I *1125:Y O *D sky130_fd_sc_hd__nand2_1
*CAP
1 *1242:B 7.06396e-05
2 *1244:A 0.000166053
3 *1125:Y 0.000287441
4 *420:6 0.000524133
5 *1244:A *1243:B 0
6 *1244:A *529:8 0
7 *1125:A *1244:A 0
8 *1242:A *1242:B 1.97695e-05
9 *1243:A *1244:A 0
*RES
1 *1125:Y *420:6 13.9429 
2 *420:6 *1244:A 20.8536 
3 *420:6 *1242:B 10.675 
*END

*D_NET *421 0.00065316
*CONN
*I *1252:A I *D sky130_fd_sc_hd__nand2_1
*I *1253:A I *D sky130_fd_sc_hd__nand2_1
*I *1126:Y O *D sky130_fd_sc_hd__nand2_1
*CAP
1 *1252:A 8.44015e-05
2 *1253:A 0
3 *1126:Y 0.000180276
4 *421:8 0.000264678
5 *1252:A *1253:B 4.10796e-05
6 *1252:A *1254:B 0
7 *1252:A *1255:A 3.08664e-05
8 *421:8 *1253:B 1.8461e-05
9 *421:8 *1255:A 1.26099e-05
10 *1126:A *421:8 2.07878e-05
*RES
1 *1126:Y *421:8 12.3179 
2 *421:8 *1253:A 9.3 
3 *421:8 *1252:A 11.5143 
*END

*D_NET *422 0.000874738
*CONN
*I *1129:B I *D sky130_fd_sc_hd__nand2_1
*I *1136:A I *D sky130_fd_sc_hd__nand2_1
*I *1128:B I *D sky130_fd_sc_hd__nand2_1
*I *1127:Y O *D sky130_fd_sc_hd__nand2_1
*CAP
1 *1129:B 1.20576e-05
2 *1136:A 7.07612e-05
3 *1128:B 0.000135441
4 *1127:Y 0.000211153
5 *422:24 0.000158531
6 *1128:B *1130:B 9.22103e-06
7 *1129:B *1136:B 1.04232e-05
8 *1136:A *1136:B 2.85077e-05
9 *1136:A *1265:B 1.3701e-05
10 *1136:A *431:6 3.18676e-05
11 *422:24 *1130:B 4.72818e-05
12 *422:24 *1136:B 5.30637e-06
13 *1127:A *1128:B 5.35385e-05
14 *1127:A *1129:B 0
15 *1127:B *422:24 5.52302e-05
16 *1128:A *1128:B 3.17163e-05
17 *326:12 *1128:B 0
*RES
1 *1127:Y *1128:B 29.5821 
2 *1127:Y *422:24 11.0679 
3 *422:24 *1136:A 11.0857 
4 *422:24 *1129:B 9.72857 
*END

*D_NET *423 0.000259291
*CONN
*I *1130:A I *D sky130_fd_sc_hd__nand2_1
*I *1128:Y O *D sky130_fd_sc_hd__nand2_1
*CAP
1 *1130:A 4.55227e-05
2 *1128:Y 4.55227e-05
3 *1130:A *1130:B 5.75275e-05
4 *1127:A *1130:A 5.54875e-05
5 *222:6 *1130:A 5.52302e-05
*RES
1 *1128:Y *1130:A 19.975 
*END

*D_NET *424 0.0002727
*CONN
*I *980:A I *D sky130_fd_sc_hd__inv_1
*I *969:Y O *D sky130_fd_sc_hd__nand2_1
*CAP
1 *980:A 4.70574e-05
2 *969:Y 4.70574e-05
3 *769:B *980:A 2.36116e-05
4 *969:B *980:A 0.000114513
5 *4:60 *980:A 4.04611e-05
*RES
1 *969:Y *980:A 20.2563 
*END

*D_NET *425 0.000819826
*CONN
*I *1130:B I *D sky130_fd_sc_hd__nand2_1
*I *1129:Y O *D sky130_fd_sc_hd__nand2_1
*CAP
1 *1130:B 0.000154824
2 *1129:Y 0.000154824
3 *1130:B *426:12 0.000276211
4 *1127:A *1130:B 3.23104e-05
5 *1127:B *1130:B 5.52302e-05
6 *1128:B *1130:B 9.22103e-06
7 *1130:A *1130:B 5.75275e-05
8 *222:6 *1130:B 3.23957e-05
9 *422:24 *1130:B 4.72818e-05
*RES
1 *1129:Y *1130:B 23.2607 
*END

*D_NET *426 0.000939458
*CONN
*I *1131:A I *D sky130_fd_sc_hd__nand2_1
*I *1132:A I *D sky130_fd_sc_hd__nand2_1
*I *1130:Y O *D sky130_fd_sc_hd__nand2_1
*CAP
1 *1131:A 0
2 *1132:A 1.55834e-05
3 *1130:Y 0.000257498
4 *426:12 0.000273082
5 *1132:A *1134:A 1.92789e-05
6 *1132:A *427:8 5.52238e-05
7 *426:12 *1136:B 4.25809e-05
8 *1130:B *426:12 0.000276211
*RES
1 *1130:Y *426:12 22.5321 
2 *426:12 *1132:A 9.83571 
3 *426:12 *1131:A 9.3 
*END

*D_NET *427 0.00101472
*CONN
*I *1133:B I *D sky130_fd_sc_hd__nand2_1
*I *1132:B I *D sky130_fd_sc_hd__nand2_1
*I *1136:B I *D sky130_fd_sc_hd__nand2_1
*I *1131:Y O *D sky130_fd_sc_hd__nand2_1
*CAP
1 *1133:B 7.02858e-05
2 *1132:B 0
3 *1136:B 0.00018099
4 *1131:Y 0
5 *427:8 0.000308492
6 *427:4 0.000197788
7 *1133:B *1134:A 1.32552e-05
8 *1136:B *545:14 9.25014e-06
9 *427:8 *1134:A 2.47833e-05
10 *1020:A *1133:B 0
11 *1129:B *1136:B 1.04232e-05
12 *1131:B *1133:B 6.20656e-05
13 *1131:B *427:8 0
14 *1132:A *427:8 5.52238e-05
15 *1133:A *1133:B 5.7661e-06
16 *1136:A *1136:B 2.85077e-05
17 *422:24 *1136:B 5.30637e-06
18 *426:12 *1136:B 4.25809e-05
*RES
1 *1131:Y *427:4 9.3 
2 *427:4 *427:8 2.19643 
3 *427:8 *1136:B 21.2107 
4 *427:8 *1132:B 9.3 
5 *427:4 *1133:B 11.0857 
*END

*D_NET *428 0.000656806
*CONN
*I *1134:A I *D sky130_fd_sc_hd__nand2_1
*I *1132:Y O *D sky130_fd_sc_hd__nand2_1
*CAP
1 *1134:A 0.000243014
2 *1132:Y 0.000243014
3 *1134:A *1134:B 8.15939e-05
4 *1134:A *545:14 0
5 *1131:B *1134:A 3.18676e-05
6 *1132:A *1134:A 1.92789e-05
7 *1133:B *1134:A 1.32552e-05
8 *427:8 *1134:A 2.47833e-05
*RES
1 *1132:Y *1134:A 31.725 
*END

*D_NET *429 0.000243639
*CONN
*I *1134:B I *D sky130_fd_sc_hd__nand2_1
*I *1133:Y O *D sky130_fd_sc_hd__nand2_1
*CAP
1 *1134:B 8.10224e-05
2 *1133:Y 8.10224e-05
3 *1134:A *1134:B 8.15939e-05
*RES
1 *1133:Y *1134:B 29.5464 
*END

*D_NET *430 0.000497902
*CONN
*I *1252:B I *D sky130_fd_sc_hd__nand2_1
*I *1254:A I *D sky130_fd_sc_hd__nand2_1
*I *1134:Y O *D sky130_fd_sc_hd__nand2_1
*CAP
1 *1252:B 1.63605e-05
2 *1254:A 0
3 *1134:Y 0.000195957
4 *430:12 0.000212317
5 *1252:B *1255:B 1.83136e-05
6 *1252:B *538:6 5.49544e-05
7 *430:12 *1261:B 0
8 *430:12 *545:14 0
*RES
1 *1134:Y *430:12 20.8893 
2 *430:12 *1254:A 9.3 
3 *430:12 *1252:B 9.83571 
*END

*D_NET *431 0.000787489
*CONN
*I *1262:A I *D sky130_fd_sc_hd__nand2_1
*I *1263:A I *D sky130_fd_sc_hd__nand2_1
*I *1136:Y O *D sky130_fd_sc_hd__nand2_1
*CAP
1 *1262:A 1.23814e-05
2 *1263:A 4.7169e-05
3 *1136:Y 0.000143154
4 *431:6 0.000202705
5 *1262:A *1265:A 1.04232e-05
6 *1263:A *1263:B 5.31567e-06
7 *1263:A *1265:A 7.61932e-05
8 *1263:A *550:12 0.00014183
9 *431:6 *1265:A 2.44318e-05
10 *431:6 *1265:B 3.48705e-05
11 *431:6 *550:12 5.71472e-05
12 *1136:A *431:6 3.18676e-05
*RES
1 *1136:Y *431:6 12.3 
2 *431:6 *1263:A 11.0857 
3 *431:6 *1262:A 9.72857 
*END

*D_NET *432 0.000739332
*CONN
*I *1139:B I *D sky130_fd_sc_hd__nand2_1
*I *1138:B I *D sky130_fd_sc_hd__nand2_1
*I *1145:A I *D sky130_fd_sc_hd__nand2_1
*I *1137:Y O *D sky130_fd_sc_hd__nand2_1
*CAP
1 *1139:B 0.000152876
2 *1138:B 0
3 *1145:A 3.3433e-05
4 *1137:Y 4.89697e-05
5 *432:10 0.000235279
6 *432:10 *1145:B 4.46186e-06
7 *432:10 *441:10 4.15914e-05
8 *432:10 *554:8 1.50087e-05
9 *1138:A *1139:B 5.52302e-05
10 *1138:A *432:10 0.000128154
11 *14:30 *1139:B 2.43292e-05
*RES
1 *1137:Y *432:10 19.9429 
2 *432:10 *1145:A 9.83571 
3 *432:10 *1138:B 9.3 
4 *432:10 *1139:B 12.3357 
*END

*D_NET *433 0.000267969
*CONN
*I *1140:A I *D sky130_fd_sc_hd__nand2_1
*I *1138:Y O *D sky130_fd_sc_hd__nand2_1
*CAP
1 *1140:A 8.18702e-05
2 *1138:Y 8.18702e-05
3 *1140:A *1140:B 5.25974e-05
4 *1140:A *1145:B 2.18103e-05
5 *1140:A *437:23 2.53587e-05
6 *1141:B *1140:A 4.46186e-06
*RES
1 *1138:Y *1140:A 29.5464 
*END

*D_NET *434 0.000329134
*CONN
*I *1140:B I *D sky130_fd_sc_hd__nand2_1
*I *1139:Y O *D sky130_fd_sc_hd__nand2_1
*CAP
1 *1140:B 0.000103594
2 *1139:Y 0.000103594
3 *1140:B *1142:A 7.43578e-06
4 *1140:A *1140:B 5.25974e-05
5 *14:30 *1140:B 3.15196e-05
6 *241:10 *1140:B 3.03933e-05
*RES
1 *1139:Y *1140:B 30.0821 
*END

*D_NET *435 0.00108691
*CONN
*I *799:A I *D sky130_fd_sc_hd__nand2_1
*I *800:A I *D sky130_fd_sc_hd__nand2_1
*I *980:Y O *D sky130_fd_sc_hd__inv_1
*CAP
1 *799:A 0.000101774
2 *800:A 0.000100949
3 *980:Y 0.000187743
4 *435:10 0.000390465
5 *799:A *799:B 9.71197e-05
6 *435:10 *799:B 2.84494e-05
7 *435:10 *801:A 0
8 *769:A *799:A 0
9 *769:B *435:10 7.90536e-05
10 *803:A *799:A 4.22599e-05
11 *803:B *799:A 3.46657e-05
12 *99:8 *799:A 2.44318e-05
*RES
1 *980:Y *435:10 16.4875 
2 *435:10 *800:A 14.7464 
3 *435:10 *799:A 16.425 
*END

*D_NET *436 0.000517788
*CONN
*I *1142:A I *D sky130_fd_sc_hd__nand2_1
*I *1141:A I *D sky130_fd_sc_hd__nand2_1
*I *1140:Y O *D sky130_fd_sc_hd__nand2_1
*CAP
1 *1142:A 0.000134341
2 *1141:A 0.000101486
3 *1140:Y 0
4 *436:4 0.000235826
5 *1142:A *1142:B 2.84494e-05
6 *1140:B *1142:A 7.43578e-06
7 *1141:B *1142:A 0
8 *241:10 *1142:A 0
9 *322:16 *1142:A 1.02504e-05
*RES
1 *1140:Y *436:4 9.3 
2 *436:4 *1141:A 11.1036 
3 *436:4 *1142:A 20.4786 
*END

*D_NET *437 0.00179726
*CONN
*I *1142:B I *D sky130_fd_sc_hd__nand2_1
*I *1143:B I *D sky130_fd_sc_hd__nand2_1
*I *1145:B I *D sky130_fd_sc_hd__nand2_1
*I *1141:Y O *D sky130_fd_sc_hd__nand2_1
*CAP
1 *1142:B 0.000126587
2 *1143:B 0.000130287
3 *1145:B 0.00012402
4 *1141:Y 4.31754e-05
5 *437:23 0.000316092
6 *437:8 0.000226414
7 *1142:B *554:8 0
8 *1143:B *1144:B 2.36164e-05
9 *1145:B *554:8 0.000146859
10 *437:23 *554:8 0.000192081
11 *1140:A *1145:B 2.18103e-05
12 *1140:A *437:23 2.53587e-05
13 *1141:B *1142:B 1.52978e-05
14 *1141:B *437:8 1.92905e-05
15 *1141:B *437:23 0.000126439
16 *1142:A *1142:B 2.84494e-05
17 *1143:A *1142:B 5.33005e-05
18 *1143:A *1143:B 8.90371e-05
19 *14:30 *1145:B 0
20 *241:10 *1145:B 0
21 *327:6 *1142:B 8.46829e-05
22 *432:10 *1145:B 4.46186e-06
*RES
1 *1141:Y *437:8 14.3357 
2 *437:8 *1145:B 16.2821 
3 *437:8 *437:23 7.05357 
4 *437:23 *1143:B 11.5143 
5 *437:23 *1142:B 20.3893 
*END

*D_NET *438 0.000191001
*CONN
*I *1144:A I *D sky130_fd_sc_hd__nand2_1
*I *1142:Y O *D sky130_fd_sc_hd__nand2_1
*CAP
1 *1144:A 5.60172e-05
2 *1142:Y 5.60172e-05
3 *1144:A *1144:B 1.97695e-05
4 *1144:A *440:10 7.43578e-06
5 *322:10 *1144:A 0
6 *327:6 *1144:A 5.17614e-05
*RES
1 *1142:Y *1144:A 19.975 
*END

*D_NET *439 0.00020444
*CONN
*I *1144:B I *D sky130_fd_sc_hd__nand2_1
*I *1143:Y O *D sky130_fd_sc_hd__nand2_1
*CAP
1 *1144:B 6.08597e-05
2 *1143:Y 6.08597e-05
3 *1143:A *1144:B 3.93346e-05
4 *1143:B *1144:B 2.36164e-05
5 *1144:A *1144:B 1.97695e-05
*RES
1 *1143:Y *1144:B 19.975 
*END

*D_NET *440 0.00138492
*CONN
*I *1264:A I *D sky130_fd_sc_hd__nand2_1
*I *1262:B I *D sky130_fd_sc_hd__nand2_1
*I *1144:Y O *D sky130_fd_sc_hd__nand2_1
*CAP
1 *1264:A 0.000176019
2 *1262:B 0
3 *1144:Y 0.000358867
4 *440:10 0.000534886
5 *1264:A *1271:B 2.26973e-05
6 *440:10 *1271:A 0.000173797
7 *440:10 *1271:B 0
8 *440:10 *554:8 9.86999e-05
9 *1143:A *440:10 2.51343e-06
10 *1144:A *440:10 7.43578e-06
11 *322:16 *440:10 0
12 *327:6 *440:10 1.00073e-05
*RES
1 *1144:Y *440:10 21.1393 
2 *440:10 *1262:B 13.8 
3 *440:10 *1264:A 16.1214 
*END

*D_NET *441 0.00438918
*CONN
*I *1273:A I *D sky130_fd_sc_hd__nand2_1
*I *1272:A I *D sky130_fd_sc_hd__nand2_1
*I *1145:Y O *D sky130_fd_sc_hd__nand2_1
*CAP
1 *1273:A 0
2 *1272:A 0.000179852
3 *1145:Y 0.000943879
4 *441:10 0.00112373
5 *1272:A *1153:B 0
6 *1272:A *1281:B 0.000107306
7 *1272:A *1288:A 0
8 *1272:A *555:24 4.79773e-05
9 *441:10 *1276:B 0.000217505
10 *441:10 *1280:B 4.21415e-05
11 *441:10 *1281:B 0.000125679
12 *441:10 *554:8 0.00127258
13 *441:10 *559:12 1.73698e-05
14 *937:A *441:10 1.59782e-05
15 *944:A *441:10 0.000222021
16 *1037:B *441:10 0
17 *1039:A *441:10 0
18 *1138:A *441:10 5.90443e-06
19 *56:10 *441:10 2.56601e-05
20 *335:8 *441:10 0
21 *432:10 *441:10 4.15914e-05
*RES
1 *1145:Y *441:10 35.4071 
2 *441:10 *1272:A 17.1929 
3 *441:10 *1273:A 13.8 
*END

*D_NET *442 0.00102245
*CONN
*I *1149:B I *D sky130_fd_sc_hd__nand2_1
*I *1148:B I *D sky130_fd_sc_hd__nand2_1
*I *1155:A I *D sky130_fd_sc_hd__nand2_1
*I *1147:Y O *D sky130_fd_sc_hd__nand2_1
*CAP
1 *1149:B 5.80679e-05
2 *1148:B 4.25908e-05
3 *1155:A 0.000164342
4 *1147:Y 0.000157545
5 *442:8 0.00030641
6 *1149:B *1150:B 9.99853e-05
7 *1155:A *1155:B 0
8 *1155:A *460:10 3.30352e-05
9 *1155:A *572:10 2.89016e-05
10 *442:8 *1150:A 5.52302e-05
11 *442:8 *1150:B 3.28169e-06
12 *1147:A *442:8 3.08664e-05
13 *1147:B *1149:B 3.1001e-05
14 *1149:A *1149:B 5.38444e-06
15 *1151:B *1148:B 0
16 *252:16 *1148:B 5.80706e-06
*RES
1 *1147:Y *442:8 15.1571 
2 *442:8 *1155:A 16.8 
3 *442:8 *1148:B 14.5321 
4 *1147:Y *1149:B 20.2786 
*END

*D_NET *443 0.000504741
*CONN
*I *1150:A I *D sky130_fd_sc_hd__nand2_1
*I *1148:Y O *D sky130_fd_sc_hd__nand2_1
*CAP
1 *1150:A 0.000138478
2 *1148:Y 0.000138478
3 *1150:A *1150:B 0.000122485
4 *1150:A *1151:A 5.7661e-06
5 *1150:A *1155:B 1.24368e-05
6 *1150:A *445:6 3.18676e-05
7 *1150:A *447:8 0
8 *442:8 *1150:A 5.52302e-05
*RES
1 *1148:Y *1150:A 21.6179 
*END

*D_NET *444 0.000940222
*CONN
*I *1150:B I *D sky130_fd_sc_hd__nand2_1
*I *1149:Y O *D sky130_fd_sc_hd__nand2_1
*CAP
1 *1150:B 0.000342384
2 *1149:Y 0.000342384
3 *1150:B *1151:A 0
4 *1147:A *1150:B 1.83136e-05
5 *1147:B *1150:B 1.13883e-05
6 *1149:B *1150:B 9.99853e-05
7 *1150:A *1150:B 0.000122485
8 *442:8 *1150:B 3.28169e-06
*RES
1 *1149:Y *1150:B 23.9929 
*END

*D_NET *445 0.000420851
*CONN
*I *1151:A I *D sky130_fd_sc_hd__nand2_1
*I *1152:A I *D sky130_fd_sc_hd__nand2_1
*I *1150:Y O *D sky130_fd_sc_hd__nand2_1
*CAP
1 *1151:A 9.15136e-06
2 *1152:A 7.81756e-05
3 *1150:Y 5.67373e-05
4 *445:6 0.000144064
5 *1152:A *1155:B 5.30637e-06
6 *1152:A *1272:B 0
7 *1152:A *447:8 6.20656e-05
8 *445:6 *1155:B 2.77173e-05
9 *1150:A *1151:A 5.7661e-06
10 *1150:A *445:6 3.18676e-05
11 *1150:B *1151:A 0
*RES
1 *1150:Y *445:6 10.6571 
2 *445:6 *1152:A 11.0857 
3 *445:6 *1151:A 9.72857 
*END

*D_NET *446 0.00031955
*CONN
*I *1002:A I *D sky130_fd_sc_hd__inv_1
*I *991:Y O *D sky130_fd_sc_hd__nand2_1
*CAP
1 *1002:A 6.9966e-05
2 *991:Y 6.9966e-05
3 *857:B *1002:A 0.000129088
4 *991:A *1002:A 4.52233e-05
5 *1054:B *1002:A 5.30637e-06
6 *11:41 *1002:A 0
*RES
1 *991:Y *1002:A 20.6223 
*END

*D_NET *447 0.00139383
*CONN
*I *1155:B I *D sky130_fd_sc_hd__nand2_1
*I *1152:B I *D sky130_fd_sc_hd__nand2_1
*I *1153:B I *D sky130_fd_sc_hd__nand2_1
*I *1151:Y O *D sky130_fd_sc_hd__nand2_1
*CAP
1 *1155:B 0.000167905
2 *1152:B 0
3 *1153:B 0.000153188
4 *1151:Y 0.000285605
5 *447:8 0.000270888
6 *1153:B *1154:A 9.96487e-05
7 *1153:B *1154:B 0.000106954
8 *1153:B *1273:B 2.04681e-05
9 *1153:B *450:8 0.000141935
10 *1155:B *1291:A 4.46186e-06
11 *447:8 *1272:B 0
12 *1150:A *1155:B 1.24368e-05
13 *1150:A *447:8 0
14 *1151:B *1153:B 2.97838e-05
15 *1152:A *1155:B 5.30637e-06
16 *1152:A *447:8 6.20656e-05
17 *1153:A *1153:B 5.46383e-06
18 *1155:A *1155:B 0
19 *1272:A *1153:B 0
20 *445:6 *1155:B 2.77173e-05
*RES
1 *1151:Y *447:8 11.4964 
2 *447:8 *1153:B 22.6393 
3 *447:8 *1152:B 9.3 
4 *1151:Y *1155:B 30.1893 
*END

*D_NET *448 0.000430761
*CONN
*I *1154:A I *D sky130_fd_sc_hd__nand2_1
*I *1152:Y O *D sky130_fd_sc_hd__nand2_1
*CAP
1 *1154:A 9.87806e-05
2 *1152:Y 9.87806e-05
3 *1154:A *450:8 3.69047e-06
4 *1151:B *1154:A 7.48554e-05
5 *1153:A *1154:A 5.50052e-05
6 *1153:B *1154:A 9.96487e-05
*RES
1 *1152:Y *1154:A 30.0821 
*END

*D_NET *449 0.000227862
*CONN
*I *1154:B I *D sky130_fd_sc_hd__nand2_1
*I *1153:Y O *D sky130_fd_sc_hd__nand2_1
*CAP
1 *1154:B 3.97847e-05
2 *1153:Y 3.97847e-05
3 *1153:A *1154:B 4.13389e-05
4 *1153:B *1154:B 0.000106954
*RES
1 *1153:Y *1154:B 19.975 
*END

*D_NET *450 0.00210035
*CONN
*I *1274:A I *D sky130_fd_sc_hd__nand2_1
*I *1272:B I *D sky130_fd_sc_hd__nand2_1
*I *1154:Y O *D sky130_fd_sc_hd__nand2_1
*CAP
1 *1274:A 7.2445e-05
2 *1272:B 0.000271787
3 *1154:Y 0.000417688
4 *450:8 0.00076192
5 *1272:B *1281:A 5.87758e-05
6 *1272:B *1281:B 6.33112e-05
7 *1274:A *1281:B 3.75959e-05
8 *450:8 *1274:B 0.000265453
9 *1152:A *1272:B 0
10 *1153:A *450:8 5.74499e-06
11 *1153:B *450:8 0.000141935
12 *1154:A *450:8 3.69047e-06
13 *447:8 *1272:B 0
*RES
1 *1154:Y *450:8 19.2643 
2 *450:8 *1272:B 18.8714 
3 *450:8 *1274:A 14.8357 
*END

*D_NET *451 0.000661902
*CONN
*I *1282:A I *D sky130_fd_sc_hd__nand2_1
*I *1283:A I *D sky130_fd_sc_hd__nand2_1
*I *1155:Y O *D sky130_fd_sc_hd__nand2_1
*CAP
1 *1282:A 0
2 *1283:A 3.21357e-05
3 *1155:Y 0.000133105
4 *451:12 0.000165241
5 *1283:A *1283:B 1.24368e-05
6 *1283:A *564:6 1.21258e-05
7 *451:12 *1284:A 2.8266e-06
8 *451:12 *1284:B 7.90803e-05
9 *451:12 *1291:A 7.83659e-05
10 *451:12 *460:10 4.75428e-05
11 *451:12 *572:10 9.90431e-05
*RES
1 *1155:Y *451:12 21.1929 
2 *451:12 *1283:A 9.83571 
3 *451:12 *1282:A 9.3 
*END

*D_NET *452 0.00116989
*CONN
*I *1158:B I *D sky130_fd_sc_hd__nand2_1
*I *1159:B I *D sky130_fd_sc_hd__nand2_1
*I *1165:A I *D sky130_fd_sc_hd__nand2_1
*I *1156:Y O *D sky130_fd_sc_hd__nand2_1
*CAP
1 *1158:B 0.000114058
2 *1159:B 0
3 *1165:A 1.95172e-05
4 *1156:Y 0
5 *452:10 0.000248751
6 *452:4 0.000343292
7 *1158:B *1160:A 7.83587e-05
8 *452:10 *1165:B 3.99614e-06
9 *1158:A *1158:B 0.000126439
10 *1159:A *452:10 5.23057e-05
11 *17:13 *1165:A 3.18676e-05
12 *17:13 *452:10 4.27806e-05
13 *18:5 *1158:B 0
14 *76:8 *1158:B 5.33005e-05
15 *76:8 *452:10 5.52238e-05
*RES
1 *1156:Y *452:4 9.3 
2 *452:4 *452:10 3.75 
3 *452:10 *1165:A 9.83571 
4 *452:10 *1159:B 9.3 
5 *452:4 *1158:B 20.7821 
*END

*D_NET *453 0.000747662
*CONN
*I *1160:A I *D sky130_fd_sc_hd__nand2_1
*I *1158:Y O *D sky130_fd_sc_hd__nand2_1
*CAP
1 *1160:A 0.000146358
2 *1158:Y 0.000146358
3 *1160:A *1160:B 2.82057e-05
4 *774:A *1160:A 1.3142e-05
5 *1158:A *1160:A 5.88902e-05
6 *1158:B *1160:A 7.83587e-05
7 *17:26 *1160:A 0.000150625
8 *62:10 *1160:A 0.000125724
*RES
1 *1158:Y *1160:A 31.6714 
*END

*D_NET *454 0.000665489
*CONN
*I *1160:B I *D sky130_fd_sc_hd__nand2_1
*I *1159:Y O *D sky130_fd_sc_hd__nand2_1
*CAP
1 *1160:B 0.000185166
2 *1159:Y 0.000185166
3 *1160:A *1160:B 2.82057e-05
4 *17:13 *1160:B 0.000188586
5 *18:28 *1160:B 0
6 *62:10 *1160:B 7.83659e-05
*RES
1 *1159:Y *1160:B 31.0107 
*END

*D_NET *455 0.000561599
*CONN
*I *1161:A I *D sky130_fd_sc_hd__nand2_1
*I *1162:A I *D sky130_fd_sc_hd__nand2_1
*I *1160:Y O *D sky130_fd_sc_hd__nand2_1
*CAP
1 *1161:A 1.24159e-05
2 *1162:A 6.3951e-05
3 *1160:Y 0.000107435
4 *455:6 0.000183802
5 *1162:A *456:8 0.000106511
6 *1162:A *456:21 3.57366e-05
7 *1163:A *1161:A 5.7661e-06
8 *1163:A *1162:A 4.22908e-05
9 *62:10 *455:6 3.69047e-06
*RES
1 *1160:Y *455:6 11.0679 
2 *455:6 *1162:A 11.0857 
3 *455:6 *1161:A 9.72857 
*END

*D_NET *456 0.00113489
*CONN
*I *1162:B I *D sky130_fd_sc_hd__nand2_1
*I *1165:B I *D sky130_fd_sc_hd__nand2_1
*I *1163:B I *D sky130_fd_sc_hd__nand2_1
*I *1161:Y O *D sky130_fd_sc_hd__nand2_1
*CAP
1 *1162:B 0
2 *1165:B 0.000152717
3 *1163:B 8.64785e-05
4 *1161:Y 8.94682e-05
5 *456:21 0.0001664
6 *456:8 0.000189629
7 *1165:B *461:6 5.52302e-05
8 p[15] *1165:B 0
9 *776:B *1163:B 4.52936e-05
10 *776:B *1165:B 3.4323e-06
11 *1162:A *456:8 0.000106511
12 *1162:A *456:21 3.57366e-05
13 *1163:A *1163:B 2.8616e-05
14 *1163:A *456:8 1.21289e-05
15 *1163:A *456:21 6.09963e-05
16 *17:13 *1165:B 6.63371e-05
17 *18:5 *1165:B 2.90924e-05
18 *346:10 *1165:B 2.8266e-06
19 *452:10 *1165:B 3.99614e-06
*RES
1 *1161:Y *456:8 11.0857 
2 *456:8 *1163:B 11.4964 
3 *456:8 *456:21 0.964286 
4 *456:21 *1165:B 21.2107 
5 *456:21 *1162:B 9.3 
*END

*D_NET *457 0.00110674
*CONN
*I *1173:A I *D sky130_fd_sc_hd__nand2_1
*I *1172:A I *D sky130_fd_sc_hd__nand2_1
*I *1002:Y O *D sky130_fd_sc_hd__inv_1
*CAP
1 *1173:A 6.93665e-06
2 *1172:A 0
3 *1002:Y 0.00029817
4 *457:16 0.000305106
5 *1173:A *1173:B 4.38128e-05
6 *1173:A *1175:A 3.18676e-05
7 *457:16 *1173:B 1.33343e-05
8 *457:16 *1174:B 1.33343e-05
9 *457:16 *1175:A 3.18676e-05
10 *457:16 *466:15 5.71472e-05
11 *857:B *457:16 0.000204607
12 *1172:B *457:16 3.57366e-05
13 *11:41 *457:16 2.78509e-05
14 *11:49 *457:16 3.69697e-05
*RES
1 *1002:Y *457:16 23.2911 
2 *457:16 *1172:A 9.3 
3 *457:16 *1173:A 9.83571 
*END

*D_NET *458 0.000359565
*CONN
*I *1164:A I *D sky130_fd_sc_hd__nand2_1
*I *1162:Y O *D sky130_fd_sc_hd__nand2_1
*CAP
1 *1164:A 0.000103079
2 *1162:Y 0.000103079
3 *1164:A *1164:B 4.94362e-05
4 *774:A *1164:A 2.89114e-05
5 *346:10 *1164:A 7.50601e-05
*RES
1 *1162:Y *1164:A 30.0821 
*END

*D_NET *459 0.000406734
*CONN
*I *1164:B I *D sky130_fd_sc_hd__nand2_1
*I *1163:Y O *D sky130_fd_sc_hd__nand2_1
*CAP
1 *1164:B 0.000124726
2 *1163:Y 0.000124726
3 *774:A *1164:B 5.33433e-05
4 *776:A *1164:B 3.25247e-05
5 *1164:A *1164:B 4.94362e-05
6 *10:25 *1164:B 2.19778e-05
*RES
1 *1163:Y *1164:B 30.4929 
*END

*D_NET *460 0.00298933
*CONN
*I *1282:B I *D sky130_fd_sc_hd__nand2_1
*I *1284:A I *D sky130_fd_sc_hd__nand2_1
*I *1164:Y O *D sky130_fd_sc_hd__nand2_1
*CAP
1 *1282:B 3.72884e-05
2 *1284:A 0.000175169
3 *1164:Y 0.00091536
4 *460:10 0.00112782
5 *1284:A *1284:B 0
6 *1284:A *1296:B 9.25014e-06
7 *1284:A *572:10 0.000166983
8 *460:10 *572:10 0.000204633
9 *774:A *460:10 0.000269428
10 *1155:A *460:10 3.30352e-05
11 *451:12 *1284:A 2.8266e-06
12 *451:12 *460:10 4.75428e-05
*RES
1 *1164:Y *460:10 26.1393 
2 *460:10 *1284:A 17.4071 
3 *460:10 *1282:B 14.3357 
*END

*D_NET *461 0.00134784
*CONN
*I *1294:A I *D sky130_fd_sc_hd__nand2_1
*I *1292:B I *D sky130_fd_sc_hd__nand2_1
*I *1165:Y O *D sky130_fd_sc_hd__nand2_1
*CAP
1 *1294:A 0.000245229
2 *1292:B 0.000165784
3 *1165:Y 7.72445e-05
4 *461:6 0.000488257
5 *1292:B *1295:B 1.02132e-05
6 p[15] *1294:A 0.000107503
7 *777:A *1292:B 2.97126e-05
8 *1165:B *461:6 5.52302e-05
9 *1293:A *1292:B 1.30765e-05
10 *17:13 *1294:A 0.000107503
11 *78:8 *1292:B 4.8083e-05
*RES
1 *1165:Y *461:6 10.6571 
2 *461:6 *1292:B 12.3179 
3 *461:6 *1294:A 23.4429 
*END

*D_NET *462 0.00100587
*CONN
*I *1169:B I *D sky130_fd_sc_hd__nand2_1
*I *1171:A I *D sky130_fd_sc_hd__inv_1
*I *1167:B I *D sky130_fd_sc_hd__nand2_1
*I *1166:Y O *D sky130_fd_sc_hd__nand2_1
*CAP
1 *1169:B 9.13543e-05
2 *1171:A 4.38674e-05
3 *1167:B 7.31316e-05
4 *1166:Y 0.000168905
5 *462:8 0.00019455
6 *1169:B *1170:B 5.33334e-05
7 *775:A *1169:B 0
8 *1166:A *1171:A 2.80853e-05
9 *1166:A *462:8 1.15172e-05
10 *1167:A *1167:B 7.8327e-05
11 *1167:A *1171:A 4.35131e-05
12 *1169:A *1169:B 5.71472e-05
13 *4:15 *1167:B 8.15843e-05
14 *4:15 *1171:A 3.57844e-05
15 *281:18 *1169:B 4.18895e-05
16 *281:18 *462:8 2.88018e-06
*RES
1 *1166:Y *462:8 14.7464 
2 *462:8 *1167:B 15.7464 
3 *462:8 *1171:A 15.117 
4 *1166:Y *1169:B 20.7964 
*END

*D_NET *463 0.00017182
*CONN
*I *1170:A I *D sky130_fd_sc_hd__nand2_1
*I *1167:Y O *D sky130_fd_sc_hd__nand2_1
*CAP
1 *1170:A 6.58216e-05
2 *1167:Y 6.58216e-05
3 p[1] *1170:A 4.01768e-05
*RES
1 *1167:Y *1170:A 19.975 
*END

*D_NET *464 0.00049791
*CONN
*I *1170:B I *D sky130_fd_sc_hd__nand2_1
*I *1169:Y O *D sky130_fd_sc_hd__nand2_1
*CAP
1 *1170:B 0.000145768
2 *1169:Y 0.000145768
3 *1169:B *1170:B 5.33334e-05
4 *4:15 *1170:B 0.00015304
*RES
1 *1169:Y *1170:B 30.4929 
*END

*D_NET *465 0.000760787
*CONN
*I *1176:B I *D sky130_fd_sc_hd__nand2_1
*I *1178:A I *D sky130_fd_sc_hd__nand2_1
*I *1171:Y O *D sky130_fd_sc_hd__inv_1
*CAP
1 *1176:B 0.000107709
2 *1178:A 0
3 *1171:Y 0.000154646
4 *465:8 0.000262354
5 *1176:B *1178:B 4.80569e-05
6 *1176:B *471:17 0
7 *465:8 *1178:B 1.97695e-05
8 *745:A *465:8 5.52238e-05
9 *745:B *465:8 5.71472e-05
10 *746:A *465:8 2.89016e-05
11 *1166:A *465:8 1.66856e-05
12 *281:18 *465:8 1.02936e-05
*RES
1 *1171:Y *465:8 12.5232 
2 *465:8 *1178:A 9.3 
3 *465:8 *1176:B 11.5143 
*END

*D_NET *466 0.000762649
*CONN
*I *1173:B I *D sky130_fd_sc_hd__nand2_1
*I *1181:A I *D sky130_fd_sc_hd__nand2_1
*I *1174:B I *D sky130_fd_sc_hd__nand2_1
*I *1172:Y O *D sky130_fd_sc_hd__nand2_1
*CAP
1 *1173:B 8.09977e-05
2 *1181:A 0.000115578
3 *1174:B 5.62015e-05
4 *1172:Y 0
5 *466:15 0.000217646
6 *466:4 7.72712e-05
7 *1173:B *1175:A 1.74352e-05
8 *1174:B *1175:A 1.21289e-05
9 *1174:B *1175:B 9.7049e-06
10 *1181:A *470:10 0
11 *1172:B *1174:B 4.80569e-05
12 *1173:A *1173:B 4.38128e-05
13 *457:16 *1173:B 1.33343e-05
14 *457:16 *1174:B 1.33343e-05
15 *457:16 *466:15 5.71472e-05
*RES
1 *1172:Y *466:4 9.3 
2 *466:4 *1174:B 10.675 
3 *466:4 *466:15 0.535714 
4 *466:15 *1181:A 20.3714 
5 *466:15 *1173:B 11.0857 
*END

*D_NET *467 0.000726889
*CONN
*I *1024:A I *D sky130_fd_sc_hd__inv_1
*I *1013:Y O *D sky130_fd_sc_hd__nand2_1
*CAP
1 *1024:A 0.000323448
2 *1013:Y 0.000323448
3 *1024:A *1056:B 0
4 *1024:A *1058:A 5.80706e-06
5 *1024:A *1196:B 0
6 *1024:A *584:10 0
7 *1013:A *1024:A 6.81335e-05
8 *1065:A *1024:A 6.05161e-06
*RES
1 *1013:Y *1024:A 31.9616 
*END

*D_NET *468 0.000862198
*CONN
*I *1175:A I *D sky130_fd_sc_hd__nand2_1
*I *1173:Y O *D sky130_fd_sc_hd__nand2_1
*CAP
1 *1175:A 0.000190551
2 *1173:Y 0.000190551
3 *1175:A *1175:B 2.78584e-05
4 *1172:B *1175:A 0.000156859
5 *1173:A *1175:A 3.18676e-05
6 *1173:B *1175:A 1.74352e-05
7 *1174:B *1175:A 1.21289e-05
8 *11:49 *1175:A 0.000203078
9 *457:16 *1175:A 3.18676e-05
*RES
1 *1173:Y *1175:A 23.6893 
*END

*D_NET *469 0.000196193
*CONN
*I *1175:B I *D sky130_fd_sc_hd__nand2_1
*I *1174:Y O *D sky130_fd_sc_hd__nand2_1
*CAP
1 *1175:B 5.81696e-05
2 *1174:Y 5.81696e-05
3 *1172:B *1175:B 4.22908e-05
4 *1174:B *1175:B 9.7049e-06
5 *1175:A *1175:B 2.78584e-05
*RES
1 *1174:Y *1175:B 19.975 
*END

*D_NET *470 0.000314319
*CONN
*I *1177:A I *D sky130_fd_sc_hd__nand2_1
*I *1176:A I *D sky130_fd_sc_hd__nand2_1
*I *1175:Y O *D sky130_fd_sc_hd__nand2_1
*CAP
1 *1177:A 2.25499e-05
2 *1176:A 0
3 *1175:Y 0.000106036
4 *470:10 0.000128586
5 *1177:A *471:17 5.71472e-05
6 *1181:A *470:10 0
7 *3:16 *470:10 0
*RES
1 *1175:Y *470:10 19.9429 
2 *470:10 *1176:A 9.3 
3 *470:10 *1177:A 9.83571 
*END

*D_NET *471 0.000616124
*CONN
*I *1181:B I *D sky130_fd_sc_hd__nand2_1
*I *1177:B I *D sky130_fd_sc_hd__nand2_1
*I *1178:B I *D sky130_fd_sc_hd__nand2_1
*I *1176:Y O *D sky130_fd_sc_hd__nand2_1
*CAP
1 *1181:B 7.72601e-05
2 *1177:B 0
3 *1178:B 6.00585e-05
4 *1176:Y 0
5 *471:17 0.000171061
6 *471:4 0.000153859
7 *471:17 *1180:A 2.89114e-05
8 *1176:B *1178:B 4.80569e-05
9 *1176:B *471:17 0
10 *1177:A *471:17 5.71472e-05
11 *465:8 *1178:B 1.97695e-05
*RES
1 *1176:Y *471:4 9.3 
2 *471:4 *1178:B 10.675 
3 *471:4 *471:17 2.19643 
4 *471:17 *1177:B 9.3 
5 *471:17 *1181:B 10.6571 
*END

*D_NET *472 0.000337522
*CONN
*I *1180:A I *D sky130_fd_sc_hd__nand2_1
*I *1177:Y O *D sky130_fd_sc_hd__nand2_1
*CAP
1 *1180:A 0.000154305
2 *1177:Y 0.000154305
3 *1180:A *1180:B 0
4 *471:17 *1180:A 2.89114e-05
*RES
1 *1177:Y *1180:A 30.0821 
*END

*D_NET *473 0.000414157
*CONN
*I *1180:B I *D sky130_fd_sc_hd__nand2_1
*I *1178:Y O *D sky130_fd_sc_hd__nand2_1
*CAP
1 *1180:B 0.000151396
2 *1178:Y 0.000151396
3 p[2] *1180:B 5.33433e-05
4 *1180:A *1180:B 0
5 *3:5 *1180:B 5.80217e-05
*RES
1 *1178:Y *1180:B 30.9036 
*END

*D_NET *474 0.000741336
*CONN
*I *1186:B I *D sky130_fd_sc_hd__nand2_1
*I *1188:A I *D sky130_fd_sc_hd__nand2_1
*I *1181:Y O *D sky130_fd_sc_hd__nand2_1
*CAP
1 *1186:B 6.28807e-05
2 *1188:A 1.36355e-05
3 *1181:Y 0.000195089
4 *474:6 0.000271605
5 *1186:B *1188:B 4.22908e-05
6 *1186:B *1189:A 1.21289e-05
7 *1186:B *1189:B 3.18676e-05
8 *1186:B *479:8 0
9 *1188:A *1188:B 5.7661e-06
10 *1188:A *1189:B 1.04232e-05
11 *474:6 *1189:A 3.48705e-05
12 *474:6 *1189:B 3.18676e-05
13 p[3] *474:6 2.89114e-05
*RES
1 *1181:Y *474:6 13.1214 
2 *474:6 *1188:A 9.72857 
3 *474:6 *1186:B 11.0857 
*END

*D_NET *475 0.00210875
*CONN
*I *1184:B I *D sky130_fd_sc_hd__nand2_1
*I *1183:B I *D sky130_fd_sc_hd__nand2_1
*I *1192:A I *D sky130_fd_sc_hd__nand2_1
*I *1182:Y O *D sky130_fd_sc_hd__nand2_1
*CAP
1 *1184:B 0
2 *1183:B 0.00011247
3 *1192:A 0
4 *1182:Y 0.000497361
5 *475:14 0.000225152
6 *475:10 0.000610043
7 *1183:B *1185:A 6.87574e-05
8 *1183:B *483:12 5.52238e-05
9 *475:10 *1185:A 1.02504e-05
10 *475:14 *1185:A 0.000150625
11 *475:14 *1192:B 7.86342e-05
12 *1060:A *475:10 0
13 *1061:B *475:10 0.000140933
14 *1063:A *475:10 1.87955e-05
15 *1064:A *475:10 2.65105e-05
16 *1064:B *475:10 2.28499e-05
17 *1065:B *475:10 0
18 *1182:B *475:10 1.69108e-05
19 *1183:A *1183:B 6.45419e-05
20 *1183:A *475:10 0
21 *352:10 *475:10 9.69119e-06
*RES
1 *1182:Y *475:10 20.3714 
2 *475:10 *475:14 7.35714 
3 *475:14 *1192:A 9.3 
4 *475:14 *1183:B 12.3357 
5 *475:10 *1184:B 13.8 
*END

*D_NET *476 0.000820761
*CONN
*I *1185:A I *D sky130_fd_sc_hd__nand2_1
*I *1183:Y O *D sky130_fd_sc_hd__nand2_1
*CAP
1 *1185:A 0.000246555
2 *1183:Y 0.000246555
3 *1185:A *483:12 9.80173e-05
4 *1183:B *1185:A 6.87574e-05
5 *475:10 *1185:A 1.02504e-05
6 *475:14 *1185:A 0.000150625
*RES
1 *1183:Y *1185:A 31.725 
*END

*D_NET *477 0.000700261
*CONN
*I *1056:A I *D sky130_fd_sc_hd__nand2_1
*I *1058:A I *D sky130_fd_sc_hd__nand2_1
*I *1024:Y O *D sky130_fd_sc_hd__inv_1
*CAP
1 *1056:A 0
2 *1058:A 0.000199287
3 *1024:Y 8.37833e-05
4 *477:8 0.00028307
5 *1058:A *1056:B 5.80706e-06
6 *477:8 *1059:A 0
7 *1024:A *1058:A 5.80706e-06
8 *1058:B *1058:A 0.000108805
9 *353:8 *477:8 1.3701e-05
*RES
1 *1024:Y *477:8 10.7732 
2 *477:8 *1058:A 22.3179 
3 *477:8 *1056:A 9.3 
*END

*D_NET *478 0.000325857
*CONN
*I *1185:B I *D sky130_fd_sc_hd__nand2_1
*I *1184:Y O *D sky130_fd_sc_hd__nand2_1
*CAP
1 *1185:B 0.000127106
2 *1184:Y 0.000127106
3 *1185:B *479:8 7.16452e-05
4 *1058:B *1185:B 0
5 *1184:A *1185:B 0
*RES
1 *1184:Y *1185:B 20.7964 
*END

*D_NET *479 0.000733102
*CONN
*I *1187:A I *D sky130_fd_sc_hd__nand2_1
*I *1186:A I *D sky130_fd_sc_hd__nand2_1
*I *1185:Y O *D sky130_fd_sc_hd__nand2_1
*CAP
1 *1187:A 0
2 *1186:A 5.0948e-05
3 *1185:Y 0.000175233
4 *479:8 0.000226181
5 *1186:A *480:17 0.00014183
6 *479:8 *480:17 5.16637e-05
7 *1184:A *479:8 1.56e-05
8 *1185:B *479:8 7.16452e-05
9 *1186:B *479:8 0
*RES
1 *1185:Y *479:8 12.7286 
2 *479:8 *1186:A 10.6571 
3 *479:8 *1187:A 9.3 
*END

*D_NET *480 0.00130655
*CONN
*I *1187:B I *D sky130_fd_sc_hd__nand2_1
*I *1192:B I *D sky130_fd_sc_hd__nand2_1
*I *1188:B I *D sky130_fd_sc_hd__nand2_1
*I *1186:Y O *D sky130_fd_sc_hd__nand2_1
*CAP
1 *1187:B 0
2 *1192:B 0.000192991
3 *1188:B 3.46469e-05
4 *1186:Y 0
5 *480:17 0.000263938
6 *480:4 0.000105594
7 *1188:B *1189:A 0.00010096
8 *1188:B *1189:B 9.7049e-06
9 *480:17 *1189:A 0.000185643
10 *1183:A *1192:B 0
11 *1184:A *480:17 9.28838e-05
12 *1186:A *480:17 0.00014183
13 *1186:B *1188:B 4.22908e-05
14 *1188:A *1188:B 5.7661e-06
15 *475:14 *1192:B 7.86342e-05
16 *479:8 *480:17 5.16637e-05
*RES
1 *1186:Y *480:4 9.3 
2 *480:4 *1188:B 10.675 
3 *480:4 *480:17 3.01786 
4 *480:17 *1192:B 21.6929 
5 *480:17 *1187:B 9.3 
*END

*D_NET *481 0.00114582
*CONN
*I *1189:A I *D sky130_fd_sc_hd__nand2_1
*I *1187:Y O *D sky130_fd_sc_hd__nand2_1
*CAP
1 *1189:A 0.000345744
2 *1187:Y 0.000345744
3 *1189:A *1189:B 0.00012073
4 *1186:B *1189:A 1.21289e-05
5 *1188:B *1189:A 0.00010096
6 *474:6 *1189:A 3.48705e-05
7 *480:17 *1189:A 0.000185643
*RES
1 *1187:Y *1189:A 23.975 
*END

*D_NET *482 0.000251164
*CONN
*I *1189:B I *D sky130_fd_sc_hd__nand2_1
*I *1188:Y O *D sky130_fd_sc_hd__nand2_1
*CAP
1 *1189:B 2.32856e-05
2 *1188:Y 2.32856e-05
3 *1186:B *1189:B 3.18676e-05
4 *1188:A *1189:B 1.04232e-05
5 *1188:B *1189:B 9.7049e-06
6 *1189:A *1189:B 0.00012073
7 *474:6 *1189:B 3.18676e-05
*RES
1 *1188:Y *1189:B 19.975 
*END

*D_NET *483 0.00292085
*CONN
*I *1197:B I *D sky130_fd_sc_hd__nand2_1
*I *1199:A I *D sky130_fd_sc_hd__nand2_1
*I *1192:Y O *D sky130_fd_sc_hd__nand2_1
*CAP
1 *1197:B 0
2 *1199:A 0.000110282
3 *1192:Y 0.00110046
4 *483:12 0.00121074
5 *1199:A *1199:B 1.61893e-05
6 *1199:A *1200:B 4.22908e-05
7 *1199:A *488:8 5.7661e-06
8 *1199:A *489:6 1.07719e-05
9 *483:12 *1198:A 9.80029e-05
10 *483:12 *1198:B 0.000173097
11 *1183:B *483:12 5.52238e-05
12 *1185:A *483:12 9.80173e-05
*RES
1 *1192:Y *483:12 37.175 
2 *483:12 *1199:A 11.5143 
3 *483:12 *1197:B 9.3 
*END

*D_NET *484 0.000624552
*CONN
*I *1195:B I *D sky130_fd_sc_hd__nand2_1
*I *1201:A I *D sky130_fd_sc_hd__nand2_1
*I *1194:B I *D sky130_fd_sc_hd__nand2_1
*I *1193:Y O *D sky130_fd_sc_hd__nand2_1
*CAP
1 *1195:B 6.15502e-05
2 *1201:A 2.03529e-05
3 *1194:B 0
4 *1193:Y 0.000126748
5 *484:8 8.55505e-05
6 *1013:A *1195:B 1.21289e-05
7 *1013:A *1201:A 2.44318e-05
8 *1013:A *484:8 0.000188586
9 *1193:B *1195:B 4.80569e-05
10 *1193:B *484:8 0
11 *1194:A *484:8 5.71472e-05
*RES
1 *1193:Y *484:8 11.4964 
2 *484:8 *1194:B 9.3 
3 *484:8 *1201:A 9.83571 
4 *1193:Y *1195:B 19.975 
*END

*D_NET *485 0.000254243
*CONN
*I *1196:A I *D sky130_fd_sc_hd__nand2_1
*I *1194:Y O *D sky130_fd_sc_hd__nand2_1
*CAP
1 *1196:A 0.000121996
2 *1194:Y 0.000121996
3 *1196:A *1196:B 0
4 *1196:A *1198:A 1.02504e-05
5 *1196:A *1198:B 0
6 *1196:A *1201:B 0
*RES
1 *1194:Y *1196:A 29.5464 
*END

*D_NET *486 0.000445986
*CONN
*I *1196:B I *D sky130_fd_sc_hd__nand2_1
*I *1195:Y O *D sky130_fd_sc_hd__nand2_1
*CAP
1 *1196:B 0.000222993
2 *1195:Y 0.000222993
3 *1024:A *1196:B 0
4 *1196:A *1196:B 0
*RES
1 *1195:Y *1196:B 31.3143 
*END

*D_NET *487 0.000535504
*CONN
*I *1046:A I *D sky130_fd_sc_hd__inv_1
*I *1035:Y O *D sky130_fd_sc_hd__nand2_1
*CAP
1 *1046:A 0.000178481
2 *1035:Y 0.000178481
3 *8:21 *1046:A 0.000178542
*RES
1 *1035:Y *1046:A 30.4259 
*END

*D_NET *488 0.000464357
*CONN
*I *1197:A I *D sky130_fd_sc_hd__nand2_1
*I *1198:A I *D sky130_fd_sc_hd__nand2_1
*I *1196:Y O *D sky130_fd_sc_hd__nand2_1
*CAP
1 *1197:A 0
2 *1198:A 9.12141e-05
3 *1196:Y 7.91025e-05
4 *488:8 0.000170317
5 *488:8 *1199:B 9.7049e-06
6 *1196:A *1198:A 1.02504e-05
7 *1199:A *488:8 5.7661e-06
8 *483:12 *1198:A 9.80029e-05
*RES
1 *1196:Y *488:8 10.675 
2 *488:8 *1198:A 20.55 
3 *488:8 *1197:A 9.3 
*END

*D_NET *489 0.00118038
*CONN
*I *1201:B I *D sky130_fd_sc_hd__nand2_1
*I *1198:B I *D sky130_fd_sc_hd__nand2_1
*I *1199:B I *D sky130_fd_sc_hd__nand2_1
*I *1197:Y O *D sky130_fd_sc_hd__nand2_1
*CAP
1 *1201:B 0.000119022
2 *1198:B 0.000221883
3 *1199:B 4.10393e-05
4 *1197:Y 8.5542e-05
5 *489:15 0.000340906
6 *489:6 0.000126581
7 *1198:B *1200:A 2.59355e-05
8 *1199:B *1200:B 9.7049e-06
9 p[4] *1198:B 0
10 *1013:A *1201:B 0
11 *1196:A *1198:B 0
12 *1196:A *1201:B 0
13 *1199:A *1199:B 1.61893e-05
14 *1199:A *489:6 1.07719e-05
15 *483:12 *1198:B 0.000173097
16 *488:8 *1199:B 9.7049e-06
*RES
1 *1197:Y *489:6 10.2464 
2 *489:6 *1199:B 10.3357 
3 *489:6 *489:15 4.5 
4 *489:15 *1198:B 17.4964 
5 *489:15 *1201:B 15.7464 
*END

*D_NET *490 0.000756305
*CONN
*I *1200:A I *D sky130_fd_sc_hd__nand2_1
*I *1198:Y O *D sky130_fd_sc_hd__nand2_1
*CAP
1 *1200:A 0.000365185
2 *1198:Y 0.000365185
3 *1198:B *1200:A 2.59355e-05
*RES
1 *1198:Y *1200:A 32.2429 
*END

*D_NET *491 0.000175047
*CONN
*I *1200:B I *D sky130_fd_sc_hd__nand2_1
*I *1199:Y O *D sky130_fd_sc_hd__nand2_1
*CAP
1 *1200:B 6.15254e-05
2 *1199:Y 6.15254e-05
3 *1199:A *1200:B 4.22908e-05
4 *1199:B *1200:B 9.7049e-06
*RES
1 *1199:Y *1200:B 19.975 
*END

*D_NET *492 0.00112584
*CONN
*I *1209:A I *D sky130_fd_sc_hd__nand2_1
*I *1207:B I *D sky130_fd_sc_hd__nand2_1
*I *1201:Y O *D sky130_fd_sc_hd__nand2_1
*CAP
1 *1209:A 0.000231383
2 *1207:B 3.52361e-05
3 *1201:Y 9.31535e-05
4 *492:8 0.000359773
5 *1207:B *498:10 6.05161e-06
6 *1209:A *1207:A 0.000149373
7 *1209:A *1210:B 0.000171816
8 *1209:A *1211:A 4.07505e-05
9 *492:8 *1207:A 9.25014e-06
10 *1013:A *492:8 0
11 *1205:A *1209:A 2.90508e-05
12 *266:10 *1209:A 0
13 *266:10 *492:8 0
*RES
1 *1201:Y *492:8 15.4429 
2 *492:8 *1207:B 14.3357 
3 *492:8 *1209:A 19.4429 
*END

*D_NET *493 0.00074407
*CONN
*I *1211:A I *D sky130_fd_sc_hd__nand2_1
*I *1205:B I *D sky130_fd_sc_hd__nand2_1
*I *1204:B I *D sky130_fd_sc_hd__nand2_1
*I *1203:Y O *D sky130_fd_sc_hd__nand2_1
*CAP
1 *1211:A 8.8187e-05
2 *1205:B 3.87818e-05
3 *1204:B 6.18063e-05
4 *1203:Y 0
5 *493:6 0.000117253
6 *493:4 0.000104852
7 *1204:B *1206:A 1.12713e-05
8 *1205:B *1206:A 1.62025e-05
9 *1205:B *1206:B 1.24806e-06
10 *1203:A *1204:B 3.87621e-05
11 *1203:A *1205:B 4.74261e-06
12 *1203:B *1204:B 1.24368e-05
13 *1203:B *1205:B 4.25684e-05
14 *1204:A *1204:B 5.46383e-06
15 *1205:A *1205:B 3.3328e-05
16 *1209:A *1211:A 4.07505e-05
17 *381:10 *1211:A 0.000126416
*RES
1 *1203:Y *493:4 9.3 
2 *493:4 *493:6 0.428571 
3 *493:6 *1204:B 10.675 
4 *493:6 *1205:B 10.7196 
5 *493:4 *1211:A 20.4786 
*END

*D_NET *494 0.000884648
*CONN
*I *1206:A I *D sky130_fd_sc_hd__nand2_1
*I *1204:Y O *D sky130_fd_sc_hd__nand2_1
*CAP
1 *1206:A 0.000238836
2 *1204:Y 0.000238836
3 *1206:A *1206:B 0.000115509
4 *1206:A *1207:A 9.41642e-05
5 *1206:A *1208:A 2.87166e-05
6 *1206:A *1210:A 1.24368e-05
7 *1203:A *1206:A 9.75679e-05
8 *1203:B *1206:A 3.11088e-05
9 *1204:B *1206:A 1.12713e-05
10 *1205:B *1206:A 1.62025e-05
*RES
1 *1204:Y *1206:A 23.5643 
*END

*D_NET *495 0.0002726
*CONN
*I *1206:B I *D sky130_fd_sc_hd__nand2_1
*I *1205:Y O *D sky130_fd_sc_hd__nand2_1
*CAP
1 *1206:B 4.87203e-05
2 *1205:Y 4.87203e-05
3 *1205:A *1206:B 5.84024e-05
4 *1205:B *1206:B 1.24806e-06
5 *1206:A *1206:B 0.000115509
*RES
1 *1205:Y *1206:B 19.975 
*END

*D_NET *496 0.000865915
*CONN
*I *1208:A I *D sky130_fd_sc_hd__nand2_1
*I *1207:A I *D sky130_fd_sc_hd__nand2_1
*I *1206:Y O *D sky130_fd_sc_hd__nand2_1
*CAP
1 *1208:A 8.74411e-05
2 *1207:A 0.00012586
3 *1206:Y 0.000213301
4 *1207:A *1210:B 0.000149551
5 *1208:A *1210:A 8.25843e-06
6 *1205:A *1208:A 0
7 *1206:A *1207:A 9.41642e-05
8 *1206:A *1208:A 2.87166e-05
9 *1209:A *1207:A 0.000149373
10 *492:8 *1207:A 9.25014e-06
*RES
1 *1206:Y *1207:A 30.4929 
2 *1206:Y *1208:A 19.975 
*END

*D_NET *497 0.00047312
*CONN
*I *962:A I *D sky130_fd_sc_hd__nand2_1
*I *961:A I *D sky130_fd_sc_hd__nand2_1
*I *1046:Y O *D sky130_fd_sc_hd__inv_1
*CAP
1 *962:A 1.38966e-05
2 *961:A 8.33677e-05
3 *1046:Y 8.21439e-05
4 *497:8 0.000179408
5 *962:B *961:A 3.63587e-05
6 *962:B *962:A 5.04841e-06
7 *971:A *961:A 3.99614e-06
8 *5:29 *961:A 5.33005e-05
9 *267:12 *961:A 1.56e-05
*RES
1 *1046:Y *497:8 10.4696 
2 *497:8 *961:A 11.0857 
3 *497:8 *962:A 9.72857 
*END

*D_NET *498 0.00154126
*CONN
*I *1208:B I *D sky130_fd_sc_hd__nand2_1
*I *1211:B I *D sky130_fd_sc_hd__nand2_1
*I *1209:B I *D sky130_fd_sc_hd__nand2_1
*I *1207:Y O *D sky130_fd_sc_hd__nand2_1
*CAP
1 *1208:B 7.46359e-05
2 *1211:B 0.000101929
3 *1209:B 0
4 *1207:Y 0.000247055
5 *498:16 0.000244679
6 *498:10 0.000464441
7 *1208:B *1210:A 4.93118e-06
8 *1211:B *501:10 3.11088e-05
9 *498:10 *1210:A 0.000100478
10 *498:16 *1210:B 4.45982e-06
11 p[5] *498:10 4.24637e-05
12 p[5] *498:16 4.27757e-05
13 *1013:A *1208:B 2.06791e-05
14 *1013:A *498:10 8.3145e-05
15 *1013:A *498:16 7.24294e-05
16 *1207:B *498:10 6.05161e-06
*RES
1 *1207:Y *498:10 18.3804 
2 *498:10 *498:16 7.54464 
3 *498:16 *1209:B 9.3 
4 *498:16 *1211:B 11.5143 
5 *498:10 *1208:B 15.1482 
*END

*D_NET *499 0.000535573
*CONN
*I *1210:A I *D sky130_fd_sc_hd__nand2_1
*I *1208:Y O *D sky130_fd_sc_hd__nand2_1
*CAP
1 *1210:A 0.000137027
2 *1208:Y 0.000137027
3 *1210:A *1210:B 3.88664e-05
4 p[5] *1210:A 7.74068e-05
5 *1013:A *1210:A 1.91418e-05
6 *1206:A *1210:A 1.24368e-05
7 *1208:A *1210:A 8.25843e-06
8 *1208:B *1210:A 4.93118e-06
9 *498:10 *1210:A 0.000100478
*RES
1 *1208:Y *1210:A 30.4929 
*END

*D_NET *500 0.00085769
*CONN
*I *1210:B I *D sky130_fd_sc_hd__nand2_1
*I *1209:Y O *D sky130_fd_sc_hd__nand2_1
*CAP
1 *1210:B 0.000120868
2 *1209:Y 0.000120868
3 p[5] *1210:B 0.000251261
4 *1207:A *1210:B 0.000149551
5 *1209:A *1210:B 0.000171816
6 *1210:A *1210:B 3.88664e-05
7 *498:16 *1210:B 4.45982e-06
*RES
1 *1209:Y *1210:B 31.975 
*END

*D_NET *501 0.00399783
*CONN
*I *1217:B I *D sky130_fd_sc_hd__nand2_1
*I *1219:A I *D sky130_fd_sc_hd__nand2_1
*I *1211:Y O *D sky130_fd_sc_hd__nand2_1
*CAP
1 *1217:B 0.000198233
2 *1219:A 0
3 *1211:Y 0.000793154
4 *501:10 0.000991387
5 *1217:B *1216:A 0
6 *1217:B *1219:B 7.25104e-05
7 *1217:B *505:8 6.33738e-05
8 *501:10 *961:B 3.81995e-05
9 *501:10 *1219:B 5.80706e-06
10 p[6] *1217:B 3.25078e-05
11 *963:B *501:10 0.000149275
12 *964:A *501:10 7.57177e-05
13 *1035:A *501:10 1.34316e-05
14 *1081:B *501:10 0
15 *1085:B *501:10 1.91418e-05
16 *1086:A *501:10 0.000125731
17 *1211:B *501:10 3.11088e-05
18 *1212:A *1217:B 6.12819e-05
19 *1214:A *1217:B 0
20 *5:11 *501:10 9.37252e-05
21 *5:29 *501:10 2.04825e-05
22 *13:9 *501:10 0.000159929
23 *13:34 *1217:B 8.07951e-05
24 *13:34 *501:10 0.000760221
25 *136:12 *501:10 0
26 *262:14 *501:10 9.94068e-05
27 *381:10 *501:10 0
28 *382:14 *501:10 0.000112411
*RES
1 *1211:Y *501:10 33.3893 
2 *501:10 *1219:A 13.8 
3 *501:10 *1217:B 18.2643 
*END

*D_NET *502 0.000686509
*CONN
*I *1221:A I *D sky130_fd_sc_hd__nand2_1
*I *1215:B I *D sky130_fd_sc_hd__nand2_1
*I *1214:B I *D sky130_fd_sc_hd__nand2_1
*I *1212:Y O *D sky130_fd_sc_hd__nand2_1
*CAP
1 *1221:A 0
2 *1215:B 8.10925e-06
3 *1214:B 5.45057e-05
4 *1212:Y 0.000147178
5 *502:24 0.000100782
6 *1214:B *1219:B 2.84398e-05
7 *1214:B *1221:B 3.92854e-05
8 *1215:B *510:10 1.74352e-05
9 *502:24 *510:10 3.18676e-05
10 *1212:A *1214:B 0.00012501
11 *1212:B *1215:B 5.71472e-05
12 *1212:B *502:24 7.67497e-05
*RES
1 *1212:Y *1214:B 29.2429 
2 *1212:Y *502:24 11.4964 
3 *502:24 *1215:B 9.83571 
4 *502:24 *1221:A 9.3 
*END

*D_NET *503 0.00049798
*CONN
*I *1216:A I *D sky130_fd_sc_hd__nand2_1
*I *1214:Y O *D sky130_fd_sc_hd__nand2_1
*CAP
1 *1216:A 0.000152457
2 *1214:Y 0.000152457
3 *1216:A *505:8 5.71472e-05
4 *1212:A *1216:A 4.27935e-05
5 *1214:A *1216:A 3.37729e-05
6 *1217:B *1216:A 0
7 *382:14 *1216:A 5.93521e-05
*RES
1 *1214:Y *1216:A 21.5286 
*END

*D_NET *504 0.000344752
*CONN
*I *1216:B I *D sky130_fd_sc_hd__nand2_1
*I *1215:Y O *D sky130_fd_sc_hd__nand2_1
*CAP
1 *1216:B 0.000121897
2 *1215:Y 0.000121897
3 *1216:B *1219:B 2.42082e-05
4 *1216:B *1221:B 2.1527e-05
5 *1212:B *1216:B 5.52238e-05
6 *13:34 *1216:B 0
7 *286:10 *1216:B 0
*RES
1 *1215:Y *1216:B 29.7786 
*END

*D_NET *505 0.000741579
*CONN
*I *1218:A I *D sky130_fd_sc_hd__nand2_1
*I *1217:A I *D sky130_fd_sc_hd__nand2_1
*I *1216:Y O *D sky130_fd_sc_hd__nand2_1
*CAP
1 *1218:A 1.39597e-05
2 *1217:A 0
3 *1216:Y 0.000124192
4 *505:8 0.000138152
5 *1218:A *1218:B 2.44318e-05
6 *1218:A *1220:A 1.92905e-05
7 *505:8 *1218:B 6.11217e-05
8 *505:8 *506:8 0.000180777
9 *1212:A *505:8 4.70078e-05
10 *1216:A *505:8 5.71472e-05
11 *1217:B *505:8 6.33738e-05
12 *382:14 *505:8 1.21258e-05
*RES
1 *1216:Y *505:8 12.7286 
2 *505:8 *1217:A 9.3 
3 *505:8 *1218:A 9.83571 
*END

*D_NET *506 0.00165477
*CONN
*I *1218:B I *D sky130_fd_sc_hd__nand2_1
*I *1221:B I *D sky130_fd_sc_hd__nand2_1
*I *1219:B I *D sky130_fd_sc_hd__nand2_1
*I *1217:Y O *D sky130_fd_sc_hd__nand2_1
*CAP
1 *1218:B 0.00015278
2 *1221:B 6.59712e-05
3 *1219:B 0.000138404
4 *1217:Y 0
5 *506:8 0.000337172
6 *506:4 0.000285577
7 *1218:B *1220:A 8.92267e-06
8 *1212:A *1219:B 1.78447e-05
9 *1212:A *1221:B 1.69115e-05
10 *1214:B *1219:B 2.84398e-05
11 *1214:B *1221:B 3.92854e-05
12 *1216:B *1219:B 2.42082e-05
13 *1216:B *1221:B 2.1527e-05
14 *1217:B *1219:B 7.25104e-05
15 *1218:A *1218:B 2.44318e-05
16 *13:34 *1219:B 0
17 *286:10 *1221:B 0
18 *382:14 *1219:B 0.000173076
19 *390:12 *1221:B 0
20 *501:10 *1219:B 5.80706e-06
21 *505:8 *1218:B 6.11217e-05
22 *505:8 *506:8 0.000180777
*RES
1 *1217:Y *506:4 9.3 
2 *506:4 *506:8 6.26786 
3 *506:8 *1219:B 17.2643 
4 *506:8 *1221:B 15.4429 
5 *506:4 *1218:B 11.925 
*END

*D_NET *507 0.00104531
*CONN
*I *1068:A I *D sky130_fd_sc_hd__inv_1
*I *1057:Y O *D sky130_fd_sc_hd__nand2_1
*CAP
1 *1068:A 0.00023657
2 *1057:Y 0.00023657
3 *1068:A *834:B 6.05161e-06
4 *1068:A *517:10 0.000287842
5 *831:B *1068:A 0.0001728
6 *833:A *1068:A 8.44803e-06
7 *1057:A *1068:A 7.43578e-06
8 *1334:A *1068:A 2.9766e-05
9 *5:29 *1068:A 5.98293e-05
*RES
1 *1057:Y *1068:A 33.2027 
*END

*D_NET *508 0.000460947
*CONN
*I *1220:A I *D sky130_fd_sc_hd__nand2_1
*I *1218:Y O *D sky130_fd_sc_hd__nand2_1
*CAP
1 *1220:A 0.000158142
2 *1218:Y 0.000158142
3 p[6] *1220:A 7.83587e-05
4 *1218:A *1220:A 1.92905e-05
5 *1218:B *1220:A 8.92267e-06
6 *13:34 *1220:A 3.80904e-05
*RES
1 *1218:Y *1220:A 30.4929 
*END

*D_NET *509 0.000195983
*CONN
*I *1220:B I *D sky130_fd_sc_hd__nand2_1
*I *1219:Y O *D sky130_fd_sc_hd__nand2_1
*CAP
1 *1220:B 7.35989e-05
2 *1219:Y 7.35989e-05
3 *13:34 *1220:B 4.87854e-05
*RES
1 *1219:Y *1220:B 19.975 
*END

*D_NET *510 0.00228286
*CONN
*I *1229:A I *D sky130_fd_sc_hd__nand2_1
*I *1227:B I *D sky130_fd_sc_hd__nand2_1
*I *1221:Y O *D sky130_fd_sc_hd__nand2_1
*CAP
1 *1229:A 0.000206933
2 *1227:B 0
3 *1221:Y 0.000642213
4 *510:10 0.000849146
5 *1229:A *1230:A 5.71472e-05
6 *1229:A *1230:B 1.33343e-05
7 *1095:A *510:10 0.000320016
8 *1212:B *510:10 1.32552e-05
9 *1215:B *510:10 1.74352e-05
10 *1223:A *1229:A 0
11 *1223:A *510:10 0
12 *286:10 *510:10 0
13 *387:25 *510:10 5.31541e-05
14 *390:12 *510:10 7.83587e-05
15 *392:10 *510:10 0
16 *502:24 *510:10 3.18676e-05
*RES
1 *1221:Y *510:10 26.8179 
2 *510:10 *1227:B 13.8 
3 *510:10 *1229:A 17.0679 
*END

*D_NET *511 0.000638817
*CONN
*I *1231:A I *D sky130_fd_sc_hd__nand2_1
*I *1223:B I *D sky130_fd_sc_hd__nand2_1
*I *1225:B I *D sky130_fd_sc_hd__nand2_1
*I *1222:Y O *D sky130_fd_sc_hd__nand2_1
*CAP
1 *1231:A 0.000103229
2 *1223:B 6.85228e-05
3 *1225:B 3.21779e-05
4 *1222:Y 3.34182e-05
5 *511:8 0.000118047
6 *511:6 0.000153994
7 *1223:B *1226:A 0
8 *1223:B *1226:B 6.76693e-05
9 *1231:A *1231:B 0
10 *1105:A *1225:B 9.7049e-06
11 *1222:B *1223:B 3.99614e-06
12 *1222:B *1225:B 4.22908e-05
13 *1225:A *1225:B 5.7661e-06
*RES
1 *1222:Y *511:6 9.83571 
2 *511:6 *511:8 0.428571 
3 *511:8 *1225:B 10.2643 
4 *511:8 *1223:B 11.0857 
5 *511:6 *1231:A 19.9429 
*END

*D_NET *512 0.00032784
*CONN
*I *1226:A I *D sky130_fd_sc_hd__nand2_1
*I *1223:Y O *D sky130_fd_sc_hd__nand2_1
*CAP
1 *1226:A 0.000111742
2 *1223:Y 0.000111742
3 *1226:A *1226:B 6.20656e-05
4 *1226:A *1227:A 1.04232e-05
5 *1226:A *514:6 3.18676e-05
6 *1226:A *515:21 0
7 *1223:B *1226:A 0
*RES
1 *1223:Y *1226:A 20.7964 
*END

*D_NET *513 0.00063204
*CONN
*I *1226:B I *D sky130_fd_sc_hd__nand2_1
*I *1225:Y O *D sky130_fd_sc_hd__nand2_1
*CAP
1 *1226:B 0.000190608
2 *1225:Y 0.000190608
3 *1226:B *1227:A 9.7049e-06
4 *1222:B *1226:B 0.000111383
5 *1223:B *1226:B 6.76693e-05
6 *1226:A *1226:B 6.20656e-05
*RES
1 *1225:Y *1226:B 22.9929 
*END

*D_NET *514 0.000366837
*CONN
*I *1228:A I *D sky130_fd_sc_hd__nand2_1
*I *1227:A I *D sky130_fd_sc_hd__nand2_1
*I *1226:Y O *D sky130_fd_sc_hd__nand2_1
*CAP
1 *1228:A 7.26097e-05
2 *1227:A 9.59375e-06
3 *1226:Y 4.36366e-05
4 *514:6 0.00012584
5 *1228:A *515:21 5.78551e-05
6 *514:6 *515:21 5.30637e-06
7 *1226:A *1227:A 1.04232e-05
8 *1226:A *514:6 3.18676e-05
9 *1226:B *1227:A 9.7049e-06
*RES
1 *1226:Y *514:6 10.2464 
2 *514:6 *1227:A 9.72857 
3 *514:6 *1228:A 11.0857 
*END

*D_NET *515 0.00114865
*CONN
*I *1229:B I *D sky130_fd_sc_hd__nand2_1
*I *1228:B I *D sky130_fd_sc_hd__nand2_1
*I *1231:B I *D sky130_fd_sc_hd__nand2_1
*I *1227:Y O *D sky130_fd_sc_hd__nand2_1
*CAP
1 *1229:B 1.7148e-05
2 *1228:B 0
3 *1231:B 0.000284005
4 *1227:Y 0
5 *515:21 0.000214918
6 *515:4 0.000481775
7 *1229:B *1230:A 5.71472e-05
8 *515:21 *1230:A 1.74352e-05
9 *515:21 *1230:B 1.30605e-05
10 *1226:A *515:21 0
11 *1228:A *515:21 5.78551e-05
12 *1231:A *1231:B 0
13 *514:6 *515:21 5.30637e-06
*RES
1 *1227:Y *515:4 9.3 
2 *515:4 *1231:B 22.9429 
3 *515:4 *515:21 2.91071 
4 *515:21 *1228:B 9.3 
5 *515:21 *1229:B 9.83571 
*END

*D_NET *516 0.00048168
*CONN
*I *1230:A I *D sky130_fd_sc_hd__nand2_1
*I *1228:Y O *D sky130_fd_sc_hd__nand2_1
*CAP
1 *1230:A 0.000159876
2 *1228:Y 0.000159876
3 *1230:A *1230:B 3.01979e-05
4 *1229:A *1230:A 5.71472e-05
5 *1229:B *1230:A 5.71472e-05
6 *515:21 *1230:A 1.74352e-05
*RES
1 *1228:Y *1230:A 22.0286 
*END

*D_NET *517 0.00133007
*CONN
*I *837:A I *D sky130_fd_sc_hd__nand2_1
*I *834:B I *D sky130_fd_sc_hd__nand2_1
*I *1068:Y O *D sky130_fd_sc_hd__inv_1
*CAP
1 *837:A 0.000222631
2 *834:B 3.54356e-05
3 *1068:Y 0.000184452
4 *517:10 0.000442518
5 *833:A *517:10 3.33238e-05
6 *839:A *837:A 8.59496e-06
7 *839:A *517:10 9.01334e-05
8 *1068:A *834:B 6.05161e-06
9 *1068:A *517:10 0.000287842
10 *1334:A *517:10 1.30324e-05
11 *5:29 *517:10 0
12 *11:99 *837:A 0
13 *91:10 *837:A 0
14 *133:10 *834:B 6.05161e-06
*RES
1 *1068:Y *517:10 18.5054 
2 *517:10 *834:B 14.3357 
3 *517:10 *837:A 17.1393 
*END

*D_NET *518 0.000174322
*CONN
*I *1230:B I *D sky130_fd_sc_hd__nand2_1
*I *1229:Y O *D sky130_fd_sc_hd__nand2_1
*CAP
1 *1230:B 5.88647e-05
2 *1229:Y 5.88647e-05
3 *1229:A *1230:B 1.33343e-05
4 *1230:A *1230:B 3.01979e-05
5 *515:21 *1230:B 1.30605e-05
*RES
1 *1229:Y *1230:B 19.9929 
*END

*D_NET *519 0.00214299
*CONN
*I *1239:A I *D sky130_fd_sc_hd__nand2_1
*I *1237:B I *D sky130_fd_sc_hd__nand2_1
*I *1231:Y O *D sky130_fd_sc_hd__nand2_1
*CAP
1 *1239:A 0.000222648
2 *1237:B 0
3 *1231:Y 0.00066229
4 *519:10 0.000884938
5 *1239:A *1238:A 7.95459e-05
6 *1239:A *524:12 0.00015656
7 *1239:A *524:23 4.96082e-05
8 *519:10 *1238:A 5.80706e-06
9 *519:10 *523:10 8.15939e-05
*RES
1 *1231:Y *519:10 22.4429 
2 *519:10 *1237:B 13.8 
3 *519:10 *1239:A 18.3536 
*END

*D_NET *520 0.000894024
*CONN
*I *1233:B I *D sky130_fd_sc_hd__nand2_1
*I *1234:B I *D sky130_fd_sc_hd__nand2_1
*I *1241:A I *D sky130_fd_sc_hd__nand2_1
*I *1232:Y O *D sky130_fd_sc_hd__nand2_1
*CAP
1 *1233:B 5.99344e-05
2 *1234:B 0
3 *1241:A 0.00015442
4 *1232:Y 0
5 *520:8 0.000285254
6 *520:4 0.000190768
7 *1241:A *1238:A 0
8 *1232:A *1233:B 4.80569e-05
9 *1232:B *520:8 0.00010096
10 *401:10 *1241:A 0
11 *410:8 *520:8 5.46298e-05
*RES
1 *1232:Y *520:4 9.3 
2 *520:4 *520:8 2.60714 
3 *520:8 *1241:A 20.55 
4 *520:8 *1234:B 9.3 
5 *520:4 *1233:B 10.675 
*END

*D_NET *521 0.000452172
*CONN
*I *1236:A I *D sky130_fd_sc_hd__nand2_1
*I *1233:Y O *D sky130_fd_sc_hd__nand2_1
*CAP
1 *1236:A 0.000132322
2 *1233:Y 0.000132322
3 *1236:A *1236:B 8.15843e-05
4 *1232:A *1236:A 5.33433e-05
5 *401:10 *1236:A 5.25998e-05
*RES
1 *1233:Y *1236:A 30.4929 
*END

*D_NET *522 0.000510093
*CONN
*I *1236:B I *D sky130_fd_sc_hd__nand2_1
*I *1234:Y O *D sky130_fd_sc_hd__nand2_1
*CAP
1 *1236:B 0.000182617
2 *1234:Y 0.000182617
3 *1232:B *1236:B 3.14078e-05
4 *1236:A *1236:B 8.15843e-05
5 *410:8 *1236:B 3.18676e-05
*RES
1 *1234:Y *1236:B 30.9036 
*END

*D_NET *523 0.00130365
*CONN
*I *1238:A I *D sky130_fd_sc_hd__nand2_1
*I *1237:A I *D sky130_fd_sc_hd__nand2_1
*I *1236:Y O *D sky130_fd_sc_hd__nand2_1
*CAP
1 *1238:A 0.000157801
2 *1237:A 0
3 *1236:Y 0.00024767
4 *523:10 0.000405471
5 *1238:A *524:12 0.00011991
6 *1238:A *524:23 5.52238e-05
7 *1239:A *1238:A 7.95459e-05
8 *1241:A *1238:A 0
9 *401:10 *523:10 0.000150625
10 *519:10 *1238:A 5.80706e-06
11 *519:10 *523:10 8.15939e-05
*RES
1 *1236:Y *523:10 17.925 
2 *523:10 *1237:A 13.8 
3 *523:10 *1238:A 17.2464 
*END

*D_NET *524 0.000959344
*CONN
*I *1239:B I *D sky130_fd_sc_hd__nand2_1
*I *1241:B I *D sky130_fd_sc_hd__nand2_1
*I *1238:B I *D sky130_fd_sc_hd__nand2_1
*I *1237:Y O *D sky130_fd_sc_hd__nand2_1
*CAP
1 *1239:B 0
2 *1241:B 7.79945e-05
3 *1238:B 0
4 *1237:Y 7.25928e-05
5 *524:23 0.000200494
6 *524:12 0.000195093
7 *524:23 *1240:B 3.18676e-05
8 *1238:A *524:12 0.00011991
9 *1238:A *524:23 5.52238e-05
10 *1239:A *524:12 0.00015656
11 *1239:A *524:23 4.96082e-05
*RES
1 *1237:Y *524:12 20.4786 
2 *524:12 *1238:B 9.3 
3 *524:12 *524:23 3.03571 
4 *524:23 *1241:B 10.6571 
5 *524:23 *1239:B 9.3 
*END

*D_NET *525 0.000348767
*CONN
*I *1240:A I *D sky130_fd_sc_hd__nand2_1
*I *1238:Y O *D sky130_fd_sc_hd__nand2_1
*CAP
1 *1240:A 0.000174383
2 *1238:Y 0.000174383
3 *1240:A *1240:B 0
*RES
1 *1238:Y *1240:A 30.4929 
*END

*D_NET *526 0.000333061
*CONN
*I *1240:B I *D sky130_fd_sc_hd__nand2_1
*I *1239:Y O *D sky130_fd_sc_hd__nand2_1
*CAP
1 *1240:B 0.000150597
2 *1239:Y 0.000150597
3 *1240:A *1240:B 0
4 *524:23 *1240:B 3.18676e-05
*RES
1 *1239:Y *1240:B 30.0821 
*END

*D_NET *527 0.000744537
*CONN
*I *1091:A I *D sky130_fd_sc_hd__inv_1
*I *1080:Y O *D sky130_fd_sc_hd__nand2_1
*CAP
1 *1091:A 0.000280733
2 *1080:Y 0.000280733
3 *1091:A *845:B 1.02504e-05
4 *1091:A *536:8 1.66955e-05
5 *5:35 *1091:A 8.07313e-05
6 *6:29 *1091:A 6.71359e-05
7 *13:58 *1091:A 0
8 *14:95 *1091:A 8.25843e-06
9 *91:10 *1091:A 0
*RES
1 *1080:Y *1091:A 31.9616 
*END

*D_NET *528 0.0027018
*CONN
*I *1249:A I *D sky130_fd_sc_hd__nand2_1
*I *1247:B I *D sky130_fd_sc_hd__nand2_1
*I *1241:Y O *D sky130_fd_sc_hd__nand2_1
*CAP
1 *1249:A 0.000170609
2 *1247:B 0
3 *1241:Y 0.000987617
4 *528:8 0.00115823
5 *1249:A *1245:A 0
6 *1249:A *1248:A 0.000170661
7 *1249:A *1249:B 2.84494e-05
8 *1249:A *532:8 1.92905e-05
9 *1249:A *533:6 9.60939e-05
10 *1249:A *533:19 5.10822e-05
11 *528:8 *532:8 1.97695e-05
*RES
1 *1241:Y *528:8 24.6393 
2 *528:8 *1247:B 9.3 
3 *528:8 *1249:A 22.6393 
*END

*D_NET *529 0.00110423
*CONN
*I *1243:B I *D sky130_fd_sc_hd__nand2_1
*I *1244:B I *D sky130_fd_sc_hd__nand2_1
*I *1251:A I *D sky130_fd_sc_hd__nand2_1
*I *1242:Y O *D sky130_fd_sc_hd__nand2_1
*CAP
1 *1243:B 3.1935e-05
2 *1244:B 5.97445e-06
3 *1251:A 8.72518e-05
4 *1242:Y 5.35369e-05
5 *529:14 0.000298383
6 *529:8 0.000290629
7 *1244:B *1245:B 1.3701e-05
8 *1244:B *1251:B 1.04232e-05
9 *1251:A *1251:B 2.30555e-05
10 *1251:A *537:6 1.33343e-05
11 *529:14 *1245:B 0.000102013
12 *529:14 *1251:B 7.23258e-06
13 *529:14 *532:8 9.90367e-05
14 *1243:A *1243:B 2.84494e-05
15 *1243:A *529:8 3.92757e-05
16 *1244:A *1243:B 0
17 *1244:A *529:8 0
*RES
1 *1242:Y *529:8 14.8357 
2 *529:8 *529:14 7.51786 
3 *529:14 *1251:A 11.0857 
4 *529:14 *1244:B 9.72857 
5 *529:8 *1243:B 14.5321 
*END

*D_NET *530 0.000197869
*CONN
*I *1245:A I *D sky130_fd_sc_hd__nand2_1
*I *1243:Y O *D sky130_fd_sc_hd__nand2_1
*CAP
1 *1245:A 4.20209e-05
2 *1243:Y 4.20209e-05
3 *1245:A *1245:B 5.7661e-06
4 *1245:A *1251:B 3.18676e-05
5 *1245:A *532:8 5.17614e-05
6 *1245:A *533:6 2.44318e-05
7 *1249:A *1245:A 0
*RES
1 *1243:Y *1245:A 19.975 
*END

*D_NET *531 0.00023406
*CONN
*I *1245:B I *D sky130_fd_sc_hd__nand2_1
*I *1244:Y O *D sky130_fd_sc_hd__nand2_1
*CAP
1 *1245:B 4.35103e-05
2 *1244:Y 4.35103e-05
3 *1245:B *1251:B 2.55587e-05
4 *1245:B *532:8 0
5 *1244:B *1245:B 1.3701e-05
6 *1245:A *1245:B 5.7661e-06
7 *529:14 *1245:B 0.000102013
*RES
1 *1244:Y *1245:B 19.975 
*END

*D_NET *532 0.000920352
*CONN
*I *1247:A I *D sky130_fd_sc_hd__nand2_1
*I *1248:A I *D sky130_fd_sc_hd__nand2_1
*I *1245:Y O *D sky130_fd_sc_hd__nand2_1
*CAP
1 *1247:A 0
2 *1248:A 0.000155045
3 *1245:Y 0.000109377
4 *532:8 0.000264422
5 *532:8 *1251:B 1.32552e-05
6 *532:8 *533:6 7.48301e-06
7 *1243:A *1248:A 1.02504e-05
8 *1245:A *532:8 5.17614e-05
9 *1245:B *532:8 0
10 *1249:A *1248:A 0.000170661
11 *1249:A *532:8 1.92905e-05
12 *528:8 *532:8 1.97695e-05
13 *529:14 *532:8 9.90367e-05
*RES
1 *1245:Y *532:8 11.9071 
2 *532:8 *1248:A 21.1571 
3 *532:8 *1247:A 9.3 
*END

*D_NET *533 0.00186514
*CONN
*I *1249:B I *D sky130_fd_sc_hd__nand2_1
*I *1248:B I *D sky130_fd_sc_hd__nand2_1
*I *1251:B I *D sky130_fd_sc_hd__nand2_1
*I *1247:Y O *D sky130_fd_sc_hd__nand2_1
*CAP
1 *1249:B 4.3887e-05
2 *1248:B 0.000162654
3 *1251:B 0.000274446
4 *1247:Y 0.000133156
5 *533:19 0.000275115
6 *533:6 0.000476176
7 *1248:B *1250:A 0.000180777
8 *1244:B *1251:B 1.04232e-05
9 *1245:A *1251:B 3.18676e-05
10 *1245:A *533:6 2.44318e-05
11 *1245:B *1251:B 2.55587e-05
12 *1249:A *1249:B 2.84494e-05
13 *1249:A *533:6 9.60939e-05
14 *1249:A *533:19 5.10822e-05
15 *1251:A *1251:B 2.30555e-05
16 *529:14 *1251:B 7.23258e-06
17 *532:8 *1251:B 1.32552e-05
18 *532:8 *533:6 7.48301e-06
*RES
1 *1247:Y *533:6 11.0679 
2 *533:6 *1251:B 13.3357 
3 *533:6 *533:19 5.83929 
4 *533:19 *1248:B 16.7107 
5 *533:19 *1249:B 14.5321 
*END

*D_NET *534 0.000467982
*CONN
*I *1250:A I *D sky130_fd_sc_hd__nand2_1
*I *1248:Y O *D sky130_fd_sc_hd__nand2_1
*CAP
1 *1250:A 0.00010179
2 *1248:Y 0.00010179
3 *1250:A *1250:B 5.75275e-05
4 p[9] *1250:A 2.60984e-05
5 *1248:B *1250:A 0.000180777
*RES
1 *1248:Y *1250:A 21.2071 
*END

*D_NET *535 0.000344112
*CONN
*I *1250:B I *D sky130_fd_sc_hd__nand2_1
*I *1249:Y O *D sky130_fd_sc_hd__nand2_1
*CAP
1 *1250:B 9.28124e-05
2 *1249:Y 9.28124e-05
3 p[9] *1250:B 0.00010096
4 *1250:A *1250:B 5.75275e-05
*RES
1 *1249:Y *1250:B 20.7964 
*END

*D_NET *536 0.00117091
*CONN
*I *845:A I *D sky130_fd_sc_hd__nand2_1
*I *847:A I *D sky130_fd_sc_hd__nand2_1
*I *1091:Y O *D sky130_fd_sc_hd__inv_1
*CAP
1 *845:A 2.06112e-05
2 *847:A 0.000123062
3 *1091:Y 0.000140286
4 *536:8 0.000283959
5 *847:A *1246:A 0.000149911
6 *1091:A *536:8 1.66955e-05
7 *1235:A *845:A 3.99614e-06
8 *1235:A *847:A 4.15499e-05
9 *1235:B *847:A 5.33005e-05
10 *6:29 *847:A 3.66921e-05
11 *6:29 *536:8 4.51526e-05
12 *6:43 *847:A 1.33343e-05
13 *14:87 *847:A 9.41642e-05
14 *15:83 *847:A 0.000148196
*RES
1 *1091:Y *536:8 11.2911 
2 *536:8 *847:A 22.0143 
3 *536:8 *845:A 9.72857 
*END

*D_NET *537 0.00240213
*CONN
*I *1259:A I *D sky130_fd_sc_hd__nand2_1
*I *1256:B I *D sky130_fd_sc_hd__nand2_1
*I *1251:Y O *D sky130_fd_sc_hd__nand2_1
*CAP
1 *1259:A 3.58312e-05
2 *1256:B 0.000116767
3 *1251:Y 0.000969927
4 *537:6 0.00112252
5 *1256:B *1255:A 3.41517e-06
6 *1256:B *1256:A 3.17016e-05
7 *1256:B *1258:A 3.41517e-06
8 *1256:B *1259:B 4.15914e-05
9 *1256:B *1260:A 2.16315e-05
10 *1259:A *1260:B 1.02132e-05
11 *537:6 *1260:B 1.83136e-05
12 p[10] *537:6 1.34672e-05
13 *1251:A *537:6 1.33343e-05
*RES
1 *1251:Y *537:6 20.5143 
2 *537:6 *1256:B 20.7286 
3 *537:6 *1259:A 10.0321 
*END

*D_NET *538 0.00073886
*CONN
*I *1253:B I *D sky130_fd_sc_hd__nand2_1
*I *1254:B I *D sky130_fd_sc_hd__nand2_1
*I *1261:A I *D sky130_fd_sc_hd__nand2_1
*I *1252:Y O *D sky130_fd_sc_hd__nand2_1
*CAP
1 *1253:B 5.39909e-05
2 *1254:B 1.11927e-05
3 *1261:A 0.000132891
4 *1252:Y 0
5 *538:6 0.000245766
6 *538:4 0.000155673
7 *1261:A *545:14 1.33343e-05
8 *538:6 *1255:B 1.15172e-05
9 *1252:A *1253:B 4.10796e-05
10 *1252:A *1254:B 0
11 *1252:B *538:6 5.49544e-05
12 *421:8 *1253:B 1.8461e-05
*RES
1 *1252:Y *538:4 9.3 
2 *538:4 *538:6 1.76786 
3 *538:6 *1261:A 11.4964 
4 *538:6 *1254:B 9.72857 
5 *538:4 *1253:B 10.675 
*END

*D_NET *539 0.000684608
*CONN
*I *1255:A I *D sky130_fd_sc_hd__nand2_1
*I *1253:Y O *D sky130_fd_sc_hd__nand2_1
*CAP
1 *1255:A 0.000236856
2 *1253:Y 0.000236856
3 *1255:A *1256:A 0
4 *1255:A *1258:A 4.10796e-05
5 *1255:A *1258:B 0.000122925
6 *1123:A *1255:A 0
7 *1252:A *1255:A 3.08664e-05
8 *1256:B *1255:A 3.41517e-06
9 *421:8 *1255:A 1.26099e-05
*RES
1 *1253:Y *1255:A 32.1 
*END

*D_NET *540 0.000529277
*CONN
*I *1255:B I *D sky130_fd_sc_hd__nand2_1
*I *1254:Y O *D sky130_fd_sc_hd__nand2_1
*CAP
1 *1255:B 0.000249723
2 *1254:Y 0.000249723
3 *1255:B *1261:B 0
4 *1252:B *1255:B 1.83136e-05
5 *538:6 *1255:B 1.15172e-05
*RES
1 *1254:Y *1255:B 31.1536 
*END

*D_NET *541 0.000502606
*CONN
*I *1258:A I *D sky130_fd_sc_hd__nand2_1
*I *1256:A I *D sky130_fd_sc_hd__nand2_1
*I *1255:Y O *D sky130_fd_sc_hd__nand2_1
*CAP
1 *1258:A 6.45101e-05
2 *1256:A 9.04346e-05
3 *1255:Y 0.000154945
4 *1256:A *1258:B 7.40784e-05
5 *1256:A *1261:B 3.18676e-05
6 *1258:A *1258:B 1.05742e-05
7 *1255:A *1256:A 0
8 *1255:A *1258:A 4.10796e-05
9 *1256:B *1256:A 3.17016e-05
10 *1256:B *1258:A 3.41517e-06
*RES
1 *1255:Y *1256:A 20.7964 
2 *1255:Y *1258:A 19.975 
*END

*D_NET *542 0.00161093
*CONN
*I *1259:B I *D sky130_fd_sc_hd__nand2_1
*I *1258:B I *D sky130_fd_sc_hd__nand2_1
*I *1261:B I *D sky130_fd_sc_hd__nand2_1
*I *1256:Y O *D sky130_fd_sc_hd__nand2_1
*CAP
1 *1259:B 9.35664e-05
2 *1258:B 0.000312456
3 *1261:B 0.000258924
4 *1256:Y 9.35664e-05
5 *542:4 0.00057138
6 *1259:B *1260:A 0
7 *1255:A *1258:B 0.000122925
8 *1255:B *1261:B 0
9 *1256:A *1258:B 7.40784e-05
10 *1256:A *1261:B 3.18676e-05
11 *1256:B *1259:B 4.15914e-05
12 *1258:A *1258:B 1.05742e-05
13 *430:12 *1261:B 0
*RES
1 *1256:Y *542:4 9.3 
2 *542:4 *1261:B 22.0143 
3 *542:4 *1258:B 14.2821 
4 *1256:Y *1259:B 29.2429 
*END

*D_NET *543 0.000203712
*CONN
*I *1260:A I *D sky130_fd_sc_hd__nand2_1
*I *1258:Y O *D sky130_fd_sc_hd__nand2_1
*CAP
1 *1260:A 9.10404e-05
2 *1258:Y 9.10404e-05
3 *1256:B *1260:A 2.16315e-05
4 *1259:B *1260:A 0
*RES
1 *1258:Y *1260:A 29.2429 
*END

*D_NET *544 0.000175148
*CONN
*I *1260:B I *D sky130_fd_sc_hd__nand2_1
*I *1259:Y O *D sky130_fd_sc_hd__nand2_1
*CAP
1 *1260:B 7.33105e-05
2 *1259:Y 7.33105e-05
3 *1259:A *1260:B 1.02132e-05
4 *537:6 *1260:B 1.83136e-05
*RES
1 *1259:Y *1260:B 19.975 
*END

*D_NET *545 0.00178221
*CONN
*I *1269:A I *D sky130_fd_sc_hd__nand2_1
*I *1266:B I *D sky130_fd_sc_hd__nand2_1
*I *1261:Y O *D sky130_fd_sc_hd__nand2_1
*CAP
1 *1269:A 0.00013077
2 *1266:B 0
3 *1261:Y 0.000651673
4 *545:14 0.000782443
5 *1269:A *1267:A 5.52238e-05
6 *1269:A *1267:B 1.04232e-05
7 *1269:A *1269:B 3.76337e-05
8 *1269:A *1270:A 3.18676e-05
9 *1269:A *1270:B 3.18676e-05
10 *1269:A *551:6 2.77289e-05
11 *1134:A *545:14 0
12 *1136:B *545:14 9.25014e-06
13 *1261:A *545:14 1.33343e-05
14 *430:12 *545:14 0
*RES
1 *1261:Y *545:14 28.675 
2 *545:14 *1266:B 9.3 
3 *545:14 *1269:A 12.7464 
*END

*D_NET *546 0.00103899
*CONN
*I *1113:A I *D sky130_fd_sc_hd__inv_1
*I *1102:Y O *D sky130_fd_sc_hd__nand2_1
*CAP
1 *1113:A 0.000216017
2 *1102:Y 0.000216017
3 *793:B *1113:A 2.3541e-05
4 *924:B *1113:A 3.34366e-05
5 *16:53 *1113:A 0.000215627
6 *16:59 *1113:A 0.000137983
7 *88:12 *1113:A 4.27842e-06
8 *92:18 *1113:A 0.000192085
*RES
1 *1102:Y *1113:A 32.3545 
*END

*D_NET *547 0.0011378
*CONN
*I *1271:A I *D sky130_fd_sc_hd__nand2_1
*I *1263:B I *D sky130_fd_sc_hd__nand2_1
*I *1264:B I *D sky130_fd_sc_hd__nand2_1
*I *1262:Y O *D sky130_fd_sc_hd__nand2_1
*CAP
1 *1271:A 0.000131927
2 *1263:B 9.70298e-06
3 *1264:B 8.36358e-05
4 *1262:Y 2.26257e-05
5 *547:10 0.000134833
6 *547:6 0.000196046
7 *1263:B *1265:A 0
8 *1264:B *1265:B 4.59075e-05
9 *1271:A *1271:B 0
10 *547:6 *1265:A 9.60939e-05
11 *547:6 *1265:B 8.36572e-05
12 *547:10 *1265:A 5.52238e-05
13 *547:10 *1265:B 9.90367e-05
14 *1263:A *1263:B 5.31567e-06
15 *440:10 *1271:A 0.000173797
*RES
1 *1262:Y *547:6 10.2464 
2 *547:6 *547:10 1.375 
3 *547:10 *1264:B 11.0857 
4 *547:10 *1263:B 9.72857 
5 *547:6 *1271:A 21.0857 
*END

*D_NET *548 0.000485991
*CONN
*I *1265:A I *D sky130_fd_sc_hd__nand2_1
*I *1263:Y O *D sky130_fd_sc_hd__nand2_1
*CAP
1 *1265:A 6.5829e-05
2 *1263:Y 6.5829e-05
3 *1265:A *1265:B 7.45317e-05
4 *1265:A *550:12 1.74352e-05
5 *1262:A *1265:A 1.04232e-05
6 *1263:A *1265:A 7.61932e-05
7 *1263:B *1265:A 0
8 *431:6 *1265:A 2.44318e-05
9 *547:6 *1265:A 9.60939e-05
10 *547:10 *1265:A 5.52238e-05
*RES
1 *1263:Y *1265:A 21.2071 
*END

*D_NET *549 0.00100666
*CONN
*I *1265:B I *D sky130_fd_sc_hd__nand2_1
*I *1264:Y O *D sky130_fd_sc_hd__nand2_1
*CAP
1 *1265:B 0.000327476
2 *1264:Y 0.000327476
3 *1136:A *1265:B 1.3701e-05
4 *1264:B *1265:B 4.59075e-05
5 *1265:A *1265:B 7.45317e-05
6 *431:6 *1265:B 3.48705e-05
7 *547:6 *1265:B 8.36572e-05
8 *547:10 *1265:B 9.90367e-05
*RES
1 *1264:Y *1265:B 24.1179 
*END

*D_NET *550 0.000849875
*CONN
*I *1266:A I *D sky130_fd_sc_hd__nand2_1
*I *1267:A I *D sky130_fd_sc_hd__nand2_1
*I *1265:Y O *D sky130_fd_sc_hd__nand2_1
*CAP
1 *1266:A 0
2 *1267:A 1.40568e-05
3 *1265:Y 0.000247782
4 *550:12 0.000261839
5 *1267:A *551:6 2.89016e-05
6 *550:12 *1271:B 2.56601e-05
7 *1263:A *550:12 0.00014183
8 *1265:A *550:12 1.74352e-05
9 *1269:A *1267:A 5.52238e-05
10 *431:6 *550:12 5.71472e-05
*RES
1 *1265:Y *550:12 22.1214 
2 *550:12 *1267:A 9.83571 
3 *550:12 *1266:A 9.3 
*END

*D_NET *551 0.0012026
*CONN
*I *1267:B I *D sky130_fd_sc_hd__nand2_1
*I *1269:B I *D sky130_fd_sc_hd__nand2_1
*I *1271:B I *D sky130_fd_sc_hd__nand2_1
*I *1266:Y O *D sky130_fd_sc_hd__nand2_1
*CAP
1 *1267:B 1.20576e-05
2 *1269:B 8.55883e-05
3 *1271:B 0.000298966
4 *1266:Y 0.000102418
5 *551:21 0.000116767
6 *551:6 0.000420505
7 *1269:B *1270:B 1.32552e-05
8 *1264:A *1271:B 2.26973e-05
9 *1267:A *551:6 2.89016e-05
10 *1269:A *1267:B 1.04232e-05
11 *1269:A *1269:B 3.76337e-05
12 *1269:A *551:6 2.77289e-05
13 *1271:A *1271:B 0
14 *440:10 *1271:B 0
15 *550:12 *1271:B 2.56601e-05
*RES
1 *1266:Y *551:6 10.6571 
2 *551:6 *1271:B 23.2107 
3 *551:6 *551:21 0.428571 
4 *551:21 *1269:B 11.0857 
5 *551:21 *1267:B 9.72857 
*END

*D_NET *552 0.000407366
*CONN
*I *1270:A I *D sky130_fd_sc_hd__nand2_1
*I *1267:Y O *D sky130_fd_sc_hd__nand2_1
*CAP
1 *1270:A 0.000116621
2 *1267:Y 0.000116621
3 *1270:A *1270:B 1.41029e-05
4 p[11] *1270:A 0.000128154
5 *1269:A *1270:A 3.18676e-05
*RES
1 *1267:Y *1270:A 30.0821 
*END

*D_NET *553 0.000475589
*CONN
*I *1270:B I *D sky130_fd_sc_hd__nand2_1
*I *1269:Y O *D sky130_fd_sc_hd__nand2_1
*CAP
1 *1270:B 0.000144105
2 *1269:Y 0.000144105
3 p[11] *1270:B 0.000128154
4 *1269:A *1270:B 3.18676e-05
5 *1269:B *1270:B 1.32552e-05
6 *1270:A *1270:B 1.41029e-05
*RES
1 *1269:Y *1270:B 30.4929 
*END

*D_NET *554 0.00512711
*CONN
*I *1278:A I *D sky130_fd_sc_hd__nand2_1
*I *1276:B I *D sky130_fd_sc_hd__nand2_1
*I *1271:Y O *D sky130_fd_sc_hd__nand2_1
*CAP
1 *1278:A 0
2 *1276:B 0.000115056
3 *1271:Y 0.000791582
4 *554:8 0.000906638
5 *1276:B *1278:B 6.71142e-05
6 *1276:B *1280:A 5.33005e-05
7 *1276:B *559:12 9.15842e-06
8 *1276:B *560:19 1.32293e-05
9 *767:B *554:8 4.45524e-05
10 *770:B *554:8 0.000346639
11 *1141:B *554:8 1.08359e-05
12 *1142:B *554:8 0
13 *1145:B *554:8 0.000146859
14 *9:13 *554:8 0.000170557
15 *10:13 *554:8 0
16 *10:23 *554:8 5.26184e-05
17 *10:92 *554:8 7.69776e-06
18 *15:9 *554:8 0.000595401
19 *322:16 *554:8 0
20 *432:10 *554:8 1.50087e-05
21 *437:23 *554:8 0.000192081
22 *440:10 *554:8 9.86999e-05
23 *441:10 *1276:B 0.000217505
24 *441:10 *554:8 0.00127258
*RES
1 *1271:Y *554:8 39.7286 
2 *554:8 *1276:B 17.1929 
3 *554:8 *1278:A 13.8 
*END

*D_NET *555 0.00124837
*CONN
*I *1273:B I *D sky130_fd_sc_hd__nand2_1
*I *1274:B I *D sky130_fd_sc_hd__nand2_1
*I *1281:A I *D sky130_fd_sc_hd__nand2_1
*I *1272:Y O *D sky130_fd_sc_hd__nand2_1
*CAP
1 *1273:B 2.81882e-05
2 *1274:B 0.000162006
3 *1281:A 5.61532e-05
4 *1272:Y 0.000132669
5 *555:24 0.000266711
6 *1273:B *1275:A 2.47631e-06
7 *1274:B *1275:A 3.32737e-05
8 *1274:B *1275:B 0.000109549
9 *1274:B *559:12 9.44309e-06
10 *1281:A *563:10 5.52238e-05
11 *1153:B *1273:B 2.04681e-05
12 *1272:A *555:24 4.79773e-05
13 *1272:B *1281:A 5.87758e-05
14 *450:8 *1274:B 0.000265453
*RES
1 *1272:Y *1281:A 19.975 
2 *1272:Y *555:24 19.6393 
3 *555:24 *1274:B 13.4429 
4 *555:24 *1273:B 10.0321 
*END

*D_NET *556 0.000974495
*CONN
*I *790:A I *D sky130_fd_sc_hd__nand2_1
*I *788:B I *D sky130_fd_sc_hd__nand2_1
*I *1113:Y O *D sky130_fd_sc_hd__inv_1
*CAP
1 *790:A 8.03169e-05
2 *788:B 0.000131449
3 *1113:Y 0.000122514
4 *556:6 0.00033428
5 *789:A *788:B 0.000139501
6 *790:B *790:A 9.1543e-06
7 *790:B *556:6 4.04683e-05
8 *792:A *790:A 6.93704e-06
9 *792:B *790:A 2.65975e-05
10 *793:B *556:6 2.65789e-05
11 *3:50 *788:B 5.66971e-05
*RES
1 *1113:Y *556:6 11.2732 
2 *556:6 *788:B 21.0857 
3 *556:6 *790:A 10.9786 
*END

*D_NET *557 0.000195612
*CONN
*I *1275:A I *D sky130_fd_sc_hd__nand2_1
*I *1273:Y O *D sky130_fd_sc_hd__nand2_1
*CAP
1 *1275:A 7.71988e-05
2 *1273:Y 7.71988e-05
3 *1275:A *1275:B 5.46383e-06
4 *1273:B *1275:A 2.47631e-06
5 *1274:B *1275:A 3.32737e-05
*RES
1 *1273:Y *1275:A 19.975 
*END

*D_NET *558 0.000225138
*CONN
*I *1275:B I *D sky130_fd_sc_hd__nand2_1
*I *1274:Y O *D sky130_fd_sc_hd__nand2_1
*CAP
1 *1275:B 5.25968e-05
2 *1274:Y 5.25968e-05
3 *1275:B *559:12 4.93118e-06
4 *1274:B *1275:B 0.000109549
5 *1275:A *1275:B 5.46383e-06
*RES
1 *1274:Y *1275:B 19.975 
*END

*D_NET *559 0.000504493
*CONN
*I *1276:A I *D sky130_fd_sc_hd__nand2_1
*I *1277:A I *D sky130_fd_sc_hd__nand2_1
*I *1275:Y O *D sky130_fd_sc_hd__nand2_1
*CAP
1 *1276:A 0
2 *1277:A 1.17665e-05
3 *1275:Y 0.000117915
4 *559:12 0.000129682
5 *1277:A *1280:A 5.49995e-05
6 *1277:A *560:19 5.49995e-05
7 *559:12 *1278:B 1.6815e-05
8 *559:12 *1281:B 7.74135e-05
9 *1274:B *559:12 9.44309e-06
10 *1275:B *559:12 4.93118e-06
11 *1276:B *559:12 9.15842e-06
12 *441:10 *559:12 1.73698e-05
*RES
1 *1275:Y *559:12 20.4786 
2 *559:12 *1277:A 9.83571 
3 *559:12 *1276:A 9.3 
*END

*D_NET *560 0.00163107
*CONN
*I *1278:B I *D sky130_fd_sc_hd__nand2_1
*I *1277:B I *D sky130_fd_sc_hd__nand2_1
*I *1281:B I *D sky130_fd_sc_hd__nand2_1
*I *1276:Y O *D sky130_fd_sc_hd__nand2_1
*CAP
1 *1278:B 0.00020405
2 *1277:B 4.9578e-05
3 *1281:B 0.000160821
4 *1276:Y 0
5 *560:19 0.000344317
6 *560:4 0.00025151
7 *1277:B *1280:A 6.05161e-06
8 *560:19 *1280:A 3.6495e-05
9 p[12] *1277:B 1.47872e-05
10 *1272:A *1281:B 0.000107306
11 *1272:B *1281:B 6.33112e-05
12 *1274:A *1281:B 3.75959e-05
13 *1276:B *1278:B 6.71142e-05
14 *1276:B *560:19 1.32293e-05
15 *1277:A *560:19 5.49995e-05
16 *441:10 *1281:B 0.000125679
17 *559:12 *1278:B 1.6815e-05
18 *559:12 *1281:B 7.74135e-05
*RES
1 *1276:Y *560:4 9.3 
2 *560:4 *1281:B 22.675 
3 *560:4 *560:19 1.78571 
4 *560:19 *1277:B 10.2643 
5 *560:19 *1278:B 21.9964 
*END

*D_NET *561 0.000548203
*CONN
*I *1280:A I *D sky130_fd_sc_hd__nand2_1
*I *1277:Y O *D sky130_fd_sc_hd__nand2_1
*CAP
1 *1280:A 8.68406e-05
2 *1277:Y 8.68406e-05
3 p[12] *1280:A 0.000223675
4 *1276:B *1280:A 5.33005e-05
5 *1277:A *1280:A 5.49995e-05
6 *1277:B *1280:A 6.05161e-06
7 *560:19 *1280:A 3.6495e-05
*RES
1 *1277:Y *1280:A 21.2071 
*END

*D_NET *562 0.000652023
*CONN
*I *1280:B I *D sky130_fd_sc_hd__nand2_1
*I *1278:Y O *D sky130_fd_sc_hd__nand2_1
*CAP
1 *1280:B 0.000304941
2 *1278:Y 0.000304941
3 *441:10 *1280:B 4.21415e-05
*RES
1 *1278:Y *1280:B 31.725 
*END

*D_NET *563 0.00132429
*CONN
*I *1286:B I *D sky130_fd_sc_hd__nand2_1
*I *1288:A I *D sky130_fd_sc_hd__nand2_1
*I *1281:Y O *D sky130_fd_sc_hd__nand2_1
*CAP
1 *1286:B 6.52025e-05
2 *1288:A 0.000232029
3 *1281:Y 0.000126733
4 *563:10 0.000423965
5 *1286:B *1291:B 0
6 *1286:B *569:12 2.59355e-05
7 *1288:A *1286:A 0.000103285
8 *1288:A *1287:A 0
9 *1288:A *1288:B 5.52238e-05
10 *1288:A *1289:A 6.28883e-05
11 *1288:A *569:12 0.000173804
12 *1272:A *1288:A 0
13 *1281:A *563:10 5.52238e-05
*RES
1 *1281:Y *563:10 15.675 
2 *563:10 *1288:A 19.5143 
3 *563:10 *1286:B 14.7643 
*END

*D_NET *564 0.0013654
*CONN
*I *1291:A I *D sky130_fd_sc_hd__nand2_1
*I *1284:B I *D sky130_fd_sc_hd__nand2_1
*I *1283:B I *D sky130_fd_sc_hd__nand2_1
*I *1282:Y O *D sky130_fd_sc_hd__nand2_1
*CAP
1 *1291:A 0.000122416
2 *1284:B 0.000217479
3 *1283:B 9.82165e-05
4 *1282:Y 8.32265e-05
5 *564:19 0.000339895
6 *564:6 0.000181443
7 *1283:B *1285:A 3.58638e-05
8 *1284:B *1285:B 7.14824e-05
9 *1284:B *1286:A 0
10 *1291:A *1286:A 0
11 *1291:A *572:10 2.89114e-05
12 *1155:B *1291:A 4.46186e-06
13 *1283:A *1283:B 1.24368e-05
14 *1283:A *564:6 1.21258e-05
15 *1284:A *1284:B 0
16 *451:12 *1284:B 7.90803e-05
17 *451:12 *1291:A 7.83659e-05
*RES
1 *1282:Y *564:6 10.2464 
2 *564:6 *1283:B 11.4071 
3 *564:6 *564:19 4.5 
4 *564:19 *1284:B 17.4964 
5 *564:19 *1291:A 16.2821 
*END

*D_NET *565 0.00031545
*CONN
*I *1285:A I *D sky130_fd_sc_hd__nand2_1
*I *1283:Y O *D sky130_fd_sc_hd__nand2_1
*CAP
1 *1285:A 0.000123859
2 *1283:Y 0.000123859
3 *1285:A *1287:A 0
4 *1285:A *568:6 3.18676e-05
5 *1283:B *1285:A 3.58638e-05
*RES
1 *1283:Y *1285:A 20.7964 
*END

*D_NET *566 0.000290907
*CONN
*I *1135:A I *D sky130_fd_sc_hd__inv_1
*I *1124:Y O *D sky130_fd_sc_hd__nand2_1
*CAP
1 *1135:A 4.20665e-05
2 *1124:Y 4.20665e-05
3 *969:B *1135:A 6.40786e-05
4 *1124:A *1135:A 1.02301e-05
5 *1146:A *1135:A 3.11088e-05
6 *5:63 *1135:A 4.63573e-05
7 *18:47 *1135:A 5.49995e-05
*RES
1 *1124:Y *1135:A 20.2563 
*END

*D_NET *567 0.000489684
*CONN
*I *1285:B I *D sky130_fd_sc_hd__nand2_1
*I *1284:Y O *D sky130_fd_sc_hd__nand2_1
*CAP
1 *1285:B 0.000209101
2 *1284:Y 0.000209101
3 *1284:B *1285:B 7.14824e-05
*RES
1 *1284:Y *1285:B 30.6 
*END

*D_NET *568 0.000728572
*CONN
*I *1286:A I *D sky130_fd_sc_hd__nand2_1
*I *1287:A I *D sky130_fd_sc_hd__nand2_1
*I *1285:Y O *D sky130_fd_sc_hd__nand2_1
*CAP
1 *1286:A 0.000121732
2 *1287:A 5.67899e-05
3 *1285:Y 0.000118188
4 *568:6 0.00029671
5 *1284:B *1286:A 0
6 *1285:A *1287:A 0
7 *1285:A *568:6 3.18676e-05
8 *1288:A *1286:A 0.000103285
9 *1288:A *1287:A 0
10 *1291:A *1286:A 0
*RES
1 *1285:Y *568:6 11.4786 
2 *568:6 *1287:A 10.2643 
3 *568:6 *1286:A 20.8536 
*END

*D_NET *569 0.00125535
*CONN
*I *1291:B I *D sky130_fd_sc_hd__nand2_1
*I *1287:B I *D sky130_fd_sc_hd__nand2_1
*I *1288:B I *D sky130_fd_sc_hd__nand2_1
*I *1286:Y O *D sky130_fd_sc_hd__nand2_1
*CAP
1 *1291:B 0.000255934
2 *1287:B 0
3 *1288:B 2.26968e-05
4 *1286:Y 0
5 *569:12 0.000180181
6 *569:4 0.000413418
7 *569:12 *1289:A 0.000128154
8 *1286:B *1291:B 0
9 *1286:B *569:12 2.59355e-05
10 *1288:A *1288:B 5.52238e-05
11 *1288:A *569:12 0.000173804
*RES
1 *1286:Y *569:4 9.3 
2 *569:4 *569:12 12.5 
3 *569:12 *1288:B 9.83571 
4 *569:12 *1287:B 9.3 
5 *569:4 *1291:B 13.675 
*END

*D_NET *570 0.000587953
*CONN
*I *1289:A I *D sky130_fd_sc_hd__nand2_1
*I *1287:Y O *D sky130_fd_sc_hd__nand2_1
*CAP
1 *1289:A 0.000123146
2 *1287:Y 0.000123146
3 *1289:A *1289:B 0.000150618
4 *1288:A *1289:A 6.28883e-05
5 *569:12 *1289:A 0.000128154
*RES
1 *1287:Y *1289:A 30.4929 
*END

*D_NET *571 0.000395477
*CONN
*I *1289:B I *D sky130_fd_sc_hd__nand2_1
*I *1288:Y O *D sky130_fd_sc_hd__nand2_1
*CAP
1 *1289:B 0.00011279
2 *1288:Y 0.00011279
3 p[13] *1289:B 1.92789e-05
4 *1289:A *1289:B 0.000150618
*RES
1 *1288:Y *1289:B 30.0821 
*END

*D_NET *572 0.00178572
*CONN
*I *1298:A I *D sky130_fd_sc_hd__nand2_1
*I *1296:B I *D sky130_fd_sc_hd__nand2_1
*I *1291:Y O *D sky130_fd_sc_hd__nand2_1
*CAP
1 *1298:A 0
2 *1296:B 0.000298333
3 *1291:Y 0.000242368
4 *572:10 0.0005407
5 *1296:B *1296:A 0
6 *1296:B *578:10 3.67252e-05
7 *572:10 *1299:B 0.000129868
8 *572:10 *1300:B 0
9 *572:10 *578:10 0
10 *1155:A *572:10 2.89016e-05
11 *1284:A *1296:B 9.25014e-06
12 *1284:A *572:10 0.000166983
13 *1291:A *572:10 2.89114e-05
14 *451:12 *572:10 9.90431e-05
15 *460:10 *572:10 0.000204633
*RES
1 *1291:Y *572:10 20.3536 
2 *572:10 *1296:B 19.2464 
3 *572:10 *1298:A 13.8 
*END

*D_NET *573 0.0014118
*CONN
*I *1300:A I *D sky130_fd_sc_hd__nand2_1
*I *1294:B I *D sky130_fd_sc_hd__nand2_1
*I *1293:B I *D sky130_fd_sc_hd__nand2_1
*I *1292:Y O *D sky130_fd_sc_hd__nand2_1
*CAP
1 *1300:A 0.000222197
2 *1294:B 5.6596e-05
3 *1293:B 7.60248e-05
4 *1292:Y 0.000119628
5 *573:22 0.000322396
6 *1294:B *1295:B 7.6997e-05
7 *1300:A *1295:B 5.33614e-05
8 *1300:A *1299:A 1.23511e-05
9 *573:22 *1295:B 5.33005e-05
10 p[14] *1294:B 0.000154762
11 p[14] *1300:A 0.000185297
12 p[15] *1300:A 1.32056e-05
13 *1293:A *1293:B 2.79334e-05
14 *78:8 *1293:B 3.77502e-05
*RES
1 *1292:Y *1293:B 19.8679 
2 *1292:Y *573:22 14.3357 
3 *573:22 *1294:B 15.7464 
4 *573:22 *1300:A 17.4964 
*END

*D_NET *574 0.000372226
*CONN
*I *1295:A I *D sky130_fd_sc_hd__nand2_1
*I *1293:Y O *D sky130_fd_sc_hd__nand2_1
*CAP
1 *1295:A 6.4206e-05
2 *1293:Y 6.4206e-05
3 *1295:A *1295:B 2.13218e-05
4 *1295:A *1296:A 7.15905e-06
5 *1295:A *1297:A 4.05892e-05
6 *1295:A *1299:A 0.000143375
7 *1293:A *1295:A 3.13687e-05
*RES
1 *1293:Y *1295:A 20.7964 
*END

*D_NET *575 0.000939506
*CONN
*I *1295:B I *D sky130_fd_sc_hd__nand2_1
*I *1294:Y O *D sky130_fd_sc_hd__nand2_1
*CAP
1 *1295:B 0.000210582
2 *1294:Y 0.000210582
3 *1295:B *1296:A 9.78745e-05
4 *1295:B *1297:A 8.29398e-06
5 *1292:B *1295:B 1.02132e-05
6 *1293:A *1295:B 0.000184855
7 *1294:B *1295:B 7.6997e-05
8 *1295:A *1295:B 2.13218e-05
9 *1300:A *1295:B 5.33614e-05
10 *78:8 *1295:B 1.21258e-05
11 *573:22 *1295:B 5.33005e-05
*RES
1 *1294:Y *1295:B 32.5821 
*END

*D_NET *576 0.00153782
*CONN
*I *801:A I *D sky130_fd_sc_hd__nand2_1
*I *799:B I *D sky130_fd_sc_hd__nand2_1
*I *1135:Y O *D sky130_fd_sc_hd__inv_1
*CAP
1 *801:A 3.16527e-05
2 *799:B 9.7481e-05
3 *1135:Y 0.000172819
4 *576:10 0.000301953
5 *769:B *799:B 0
6 *769:B *576:10 0.000166679
7 *799:A *799:B 9.71197e-05
8 *803:A *799:B 1.02821e-05
9 *803:B *799:B 0.000186669
10 *1146:A *801:A 2.70031e-05
11 *1146:A *576:10 0.000102545
12 *99:8 *799:B 0.000315165
13 *435:10 *799:B 2.84494e-05
14 *435:10 *801:A 0
*RES
1 *1135:Y *576:10 16.7018 
2 *576:10 *799:B 26.5321 
3 *576:10 *801:A 14.5321 
*END

*D_NET *577 0.000936369
*CONN
*I *1297:A I *D sky130_fd_sc_hd__nand2_1
*I *1296:A I *D sky130_fd_sc_hd__nand2_1
*I *1295:Y O *D sky130_fd_sc_hd__nand2_1
*CAP
1 *1297:A 6.28027e-05
2 *1296:A 0.000244789
3 *1295:Y 0.000307591
4 *1297:A *1299:A 1.59373e-05
5 p[14] *1296:A 0.000151333
6 *1295:A *1296:A 7.15905e-06
7 *1295:A *1297:A 4.05892e-05
8 *1295:B *1296:A 9.78745e-05
9 *1295:B *1297:A 8.29398e-06
10 *1296:B *1296:A 0
*RES
1 *1295:Y *1296:A 31.85 
2 *1295:Y *1297:A 19.975 
*END

*D_NET *578 0.00150678
*CONN
*I *1300:B I *D sky130_fd_sc_hd__nand2_1
*I *1297:B I *D sky130_fd_sc_hd__nand2_1
*I *1298:B I *D sky130_fd_sc_hd__nand2_1
*I *1296:Y O *D sky130_fd_sc_hd__nand2_1
*CAP
1 *1300:B 0.000303746
2 *1297:B 0
3 *1298:B 3.18784e-05
4 *1296:Y 0.000236635
5 *578:14 6.56683e-05
6 *578:10 0.000574171
7 *1300:B *1299:A 5.52302e-05
8 *1300:B *1299:B 0.000141734
9 p[14] *1300:B 5.52238e-05
10 p[15] *1300:B 5.7661e-06
11 *1296:B *578:10 3.67252e-05
12 *572:10 *1300:B 0
13 *572:10 *578:10 0
*RES
1 *1296:Y *578:10 17.1036 
2 *578:10 *578:14 5.03571 
3 *578:14 *1298:B 9.83571 
4 *578:14 *1297:B 9.3 
5 *578:10 *1300:B 19.425 
*END

*D_NET *579 0.000739833
*CONN
*I *1299:A I *D sky130_fd_sc_hd__nand2_1
*I *1297:Y O *D sky130_fd_sc_hd__nand2_1
*CAP
1 *1299:A 0.000238301
2 *1297:Y 0.000238301
3 *1299:A *1299:B 0
4 p[14] *1299:A 3.6337e-05
5 *1295:A *1299:A 0.000143375
6 *1297:A *1299:A 1.59373e-05
7 *1300:A *1299:A 1.23511e-05
8 *1300:B *1299:A 5.52302e-05
*RES
1 *1297:Y *1299:A 31.5464 
*END

*D_NET *580 0.000710078
*CONN
*I *1299:B I *D sky130_fd_sc_hd__nand2_1
*I *1298:Y O *D sky130_fd_sc_hd__nand2_1
*CAP
1 *1299:B 0.000219238
2 *1298:Y 0.000219238
3 *1299:A *1299:B 0
4 *1300:B *1299:B 0.000141734
5 *572:10 *1299:B 0.000129868
*RES
1 *1298:Y *1299:B 32.2429 
*END

*D_NET *581 0.000323909
*CONN
*I *1157:A I *D sky130_fd_sc_hd__inv_1
*I *1146:Y O *D sky130_fd_sc_hd__nand2_1
*CAP
1 *1157:A 0.000107735
2 *1146:Y 0.000107735
3 *6:57 *1157:A 0.000108439
4 *99:8 *1157:A 0
*RES
1 *1146:Y *1157:A 21.0777 
*END

*D_NET *582 0.00081609
*CONN
*I *816:A I *D sky130_fd_sc_hd__nand2_1
*I *815:A I *D sky130_fd_sc_hd__nand2_1
*I *1157:Y O *D sky130_fd_sc_hd__inv_1
*CAP
1 *816:A 0.000152141
2 *815:A 1.40568e-05
3 *1157:Y 0.000130674
4 *582:10 0.000296872
5 *815:A *1303:A 5.52238e-05
6 *815:A *596:10 2.89016e-05
7 *582:10 *1303:A 2.79092e-05
8 *6:57 *816:A 0
9 *6:57 *582:10 3.52408e-05
10 *16:23 *816:A 0
11 *16:23 *582:10 0
12 *113:23 *816:A 7.50697e-05
*RES
1 *1157:Y *582:10 15.7732 
2 *582:10 *815:A 14.3357 
3 *582:10 *816:A 16.6571 
*END

*D_NET *583 0.000360384
*CONN
*I *1179:A I *D sky130_fd_sc_hd__inv_1
*I *1168:Y O *D sky130_fd_sc_hd__nand2_1
*CAP
1 *1179:A 6.58281e-05
2 *1168:Y 6.58281e-05
3 *11:41 *1179:A 7.79481e-05
4 *12:32 *1179:A 0.00015078
*RES
1 *1168:Y *1179:A 29.783 
*END

*D_NET *584 0.00210415
*CONN
*I *1059:A I *D sky130_fd_sc_hd__nand2_1
*I *1056:B I *D sky130_fd_sc_hd__nand2_1
*I *1179:Y O *D sky130_fd_sc_hd__inv_1
*CAP
1 *1059:A 0.000109582
2 *1056:B 3.17502e-05
3 *1179:Y 0.000553522
4 *584:10 0.000694854
5 *1024:A *1056:B 0
6 *1024:A *584:10 0
7 *1058:A *1056:B 5.80706e-06
8 *1058:B *1056:B 1.02504e-05
9 *1060:B *1059:A 3.31648e-05
10 *1065:A *1056:B 5.58941e-05
11 *1065:A *584:10 0.00013966
12 *1067:B *584:10 5.51649e-05
13 *1071:B *584:10 6.42338e-05
14 *1075:B *584:10 2.31084e-05
15 *12:32 *584:10 9.93809e-05
16 *12:48 *584:10 6.8646e-06
17 *353:8 *1059:A 7.30699e-05
18 *366:10 *584:10 0.000147843
19 *371:12 *584:10 0
20 *477:8 *1059:A 0
*RES
1 *1179:Y *584:10 23.9875 
2 *584:10 *1056:B 14.5321 
3 *584:10 *1059:A 15.8893 
*END

*D_NET *585 0.000302227
*CONN
*I *1202:A I *D sky130_fd_sc_hd__inv_1
*I *1191:Y O *D sky130_fd_sc_hd__nand2_1
*CAP
1 *1202:A 6.66235e-05
2 *1191:Y 6.66235e-05
3 *1191:A *1202:A 5.87643e-05
4 *12:19 *1202:A 0.000110215
*RES
1 *1191:Y *1202:A 20.2563 
*END

*D_NET *586 0.000665996
*CONN
*I *963:A I *D sky130_fd_sc_hd__nand2_1
*I *961:B I *D sky130_fd_sc_hd__nand2_1
*I *1202:Y O *D sky130_fd_sc_hd__inv_1
*CAP
1 *963:A 0
2 *961:B 0.000123999
3 *1202:Y 3.85216e-05
4 *586:6 0.00016252
5 *963:B *961:B 0.000149275
6 *12:19 *586:6 3.8474e-05
7 *381:10 *961:B 0.000115007
8 *501:10 *961:B 3.81995e-05
*RES
1 *1202:Y *586:6 10.0411 
2 *586:6 *961:B 21.6929 
3 *586:6 *963:A 9.3 
*END

*D_NET *587 0.000668115
*CONN
*I *1224:A I *D sky130_fd_sc_hd__inv_1
*I *1213:Y O *D sky130_fd_sc_hd__nand2_1
*CAP
1 *1224:A 0.000242984
2 *1213:Y 0.000242984
3 *1224:A *840:A 6.05161e-06
4 *1213:A *1224:A 4.94268e-05
5 *13:34 *1224:A 4.30382e-05
6 *286:10 *1224:A 8.36295e-05
7 *382:14 *1224:A 0
*RES
1 *1213:Y *1224:A 31.5509 
*END

*D_NET *588 0.000993621
*CONN
*I *840:A I *D sky130_fd_sc_hd__nand2_1
*I *841:A I *D sky130_fd_sc_hd__nand2_1
*I *1224:Y O *D sky130_fd_sc_hd__inv_1
*CAP
1 *840:A 0.000130287
2 *841:A 1.54336e-05
3 *1224:Y 6.28523e-05
4 *588:8 0.000208572
5 *1213:A *840:A 0.000146474
6 *1213:A *841:A 5.83233e-05
7 *1224:A *840:A 6.05161e-06
8 *13:34 *840:A 5.01524e-05
9 *13:44 *840:A 8.25512e-05
10 *277:12 *840:A 3.98428e-05
11 *277:12 *841:A 3.17163e-05
12 *286:10 *588:8 0.000161364
*RES
1 *1224:Y *588:8 15.3625 
2 *588:8 *841:A 14.5321 
3 *588:8 *840:A 17.1214 
*END

*D_NET *589 0.00114704
*CONN
*I *1246:A I *D sky130_fd_sc_hd__inv_1
*I *1235:Y O *D sky130_fd_sc_hd__nand2_1
*CAP
1 *1246:A 0.000313259
2 *1235:Y 0.000313259
3 *779:A *1246:A 0
4 *783:A *1246:A 0
5 *847:A *1246:A 0.000149911
6 *847:B *1246:A 7.82762e-05
7 *848:B *1246:A 0
8 *849:A *1246:A 0.000106759
9 *6:43 *1246:A 0
10 *15:83 *1246:A 4.75908e-05
11 *82:12 *1246:A 0.000137983
*RES
1 *1235:Y *1246:A 34.2027 
*END

*D_NET *590 0.000750082
*CONN
*I *848:A I *D sky130_fd_sc_hd__nand2_1
*I *845:B I *D sky130_fd_sc_hd__nand2_1
*I *1246:Y O *D sky130_fd_sc_hd__inv_1
*CAP
1 *848:A 3.00142e-05
2 *845:B 7.94235e-05
3 *1246:Y 0.000123703
4 *590:6 0.00023314
5 *847:B *590:6 0.000118
6 *848:B *848:A 3.57366e-05
7 *849:B *590:6 1.21258e-05
8 *850:A *848:A 0
9 *1091:A *845:B 1.02504e-05
10 *13:58 *845:B 6.8646e-06
11 *91:10 *845:B 0
12 *144:8 *845:B 0.000100823
*RES
1 *1246:Y *590:6 10.8625 
2 *590:6 *845:B 19.9429 
3 *590:6 *848:A 10.0321 
*END

*D_NET *591 0.000272228
*CONN
*I *1268:A I *D sky130_fd_sc_hd__inv_1
*I *1257:Y O *D sky130_fd_sc_hd__nand2_1
*CAP
1 *1268:A 6.0388e-05
2 *1257:Y 6.0388e-05
3 *1257:A *1268:A 3.63587e-05
4 *15:83 *1268:A 0.000115094
*RES
1 *1257:Y *1268:A 20.2563 
*END

*D_NET *592 0.000986318
*CONN
*I *795:A I *D sky130_fd_sc_hd__nand2_1
*I *794:A I *D sky130_fd_sc_hd__nand2_1
*I *1268:Y O *D sky130_fd_sc_hd__inv_1
*CAP
1 *795:A 3.92182e-05
2 *794:A 0.000242501
3 *1268:Y 0.000124754
4 *592:10 0.000406473
5 *794:A *796:A 3.12879e-05
6 *794:A *1314:A 0
7 *795:B *794:A 3.18676e-05
8 *797:A *794:A 5.52238e-05
9 *797:B *794:A 2.6113e-05
10 *877:A *795:A 0
11 *15:83 *592:10 2.3917e-05
12 *93:8 *794:A 2.13481e-06
13 *93:12 *795:A 2.8266e-06
14 *106:10 *795:A 0
15 *106:10 *592:10 0
*RES
1 *1268:Y *592:10 15.5768 
2 *592:10 *794:A 17.1214 
3 *592:10 *795:A 14.5321 
*END

*D_NET *593 0.00084709
*CONN
*I *1290:A I *D sky130_fd_sc_hd__inv_1
*I *1279:Y O *D sky130_fd_sc_hd__nand2_1
*CAP
1 *1290:A 0.000227686
2 *1279:Y 0.000227686
3 *1290:A *806:A 0.000101545
4 *806:B *1290:A 5.52238e-05
5 *808:B *1290:A 3.67548e-05
6 *102:10 *1290:A 6.92626e-05
7 *103:16 *1290:A 3.34295e-05
8 *103:20 *1290:A 8.17274e-05
9 *107:14 *1290:A 1.37743e-05
*RES
1 *1279:Y *1290:A 32.3098 
*END

*D_NET *594 0.00146972
*CONN
*I *804:B I *D sky130_fd_sc_hd__nand2_1
*I *806:A I *D sky130_fd_sc_hd__nand2_1
*I *1290:Y O *D sky130_fd_sc_hd__inv_1
*CAP
1 *804:B 0.000371297
2 *806:A 0.000138242
3 *1290:Y 0
4 *594:4 0.000509539
5 *808:B *806:A 0.000125724
6 *1290:A *806:A 0.000101545
7 *6:45 *806:A 4.1331e-06
8 *6:57 *806:A 1.00375e-05
9 *92:18 *804:B 0
10 *103:16 *806:A 2.84309e-05
11 *107:14 *804:B 6.12955e-05
12 *107:14 *806:A 0.000119475
*RES
1 *1290:Y *594:4 9.3 
2 *594:4 *806:A 21.3982 
3 *594:4 *804:B 23.0411 
*END

*D_NET *595 0.000596259
*CONN
*I *1303:A I *D sky130_fd_sc_hd__inv_1
*I *1302:Y O *D sky130_fd_sc_hd__nand2_1
*CAP
1 *1303:A 0.000176445
2 *1302:Y 0.000176445
3 *1303:A *817:A 1.33343e-05
4 *1303:A *596:10 6.68202e-05
5 *815:A *1303:A 5.52238e-05
6 *16:23 *1303:A 8.00806e-05
7 *582:10 *1303:A 2.79092e-05
*RES
1 *1302:Y *1303:A 31.4973 
*END

*D_NET *596 0.000431839
*CONN
*I *815:B I *D sky130_fd_sc_hd__nand2_1
*I *817:A I *D sky130_fd_sc_hd__nand2_1
*I *1303:Y O *D sky130_fd_sc_hd__inv_1
*CAP
1 *815:B 0
2 *817:A 2.60144e-05
3 *1303:Y 9.60892e-05
4 *596:10 0.000122104
5 *815:A *596:10 2.89016e-05
6 *817:B *817:A 2.80368e-05
7 *817:B *596:10 5.05391e-05
8 *1303:A *817:A 1.33343e-05
9 *1303:A *596:10 6.68202e-05
*RES
1 *1303:Y *596:10 11.7196 
2 *596:10 *817:A 9.83571 
3 *596:10 *815:B 9.3 
*END

*D_NET *597 0.00089196
*CONN
*I *1305:A I *D sky130_fd_sc_hd__inv_1
*I *1304:Y O *D sky130_fd_sc_hd__nand2_1
*CAP
1 *1305:A 0.000234085
2 *1304:Y 0.000234085
3 *1305:A *1320:A 7.66466e-05
4 *1321:A *1305:A 0.00015234
5 *1321:B *1305:A 1.84776e-05
6 *6:57 *1305:A 0
7 *7:69 *1305:A 1.08359e-05
8 *16:23 *1305:A 1.17968e-05
9 *17:67 *1305:A 0.000150625
10 *18:51 *1305:A 3.06878e-06
*RES
1 *1304:Y *1305:A 32.4527 
*END

*D_NET *598 0.000841513
*CONN
*I *926:A I *D sky130_fd_sc_hd__nand2_1
*I *927:A I *D sky130_fd_sc_hd__nand2_1
*I *1305:Y O *D sky130_fd_sc_hd__inv_1
*CAP
1 *926:A 0
2 *927:A 7.41148e-06
3 *1305:Y 0.000184809
4 *598:10 0.00019222
5 *927:A *928:A 5.65955e-05
6 *598:10 *928:A 7.03338e-05
7 *598:10 *1320:A 8.4361e-05
8 *598:10 *612:6 0.000165769
9 *223:8 *927:A 5.65955e-05
10 *223:8 *598:10 2.34188e-05
*RES
1 *1305:Y *598:10 13.4696 
2 *598:10 *927:A 9.83571 
3 *598:10 *926:A 9.3 
*END

*D_NET *599 0.000338858
*CONN
*I *1307:A I *D sky130_fd_sc_hd__inv_1
*I *1306:Y O *D sky130_fd_sc_hd__nand2_1
*CAP
1 *1307:A 9.91955e-05
2 *1306:Y 9.91955e-05
3 *12:30 *1307:A 0.000140467
*RES
1 *1306:Y *1307:A 21.0955 
*END

*D_NET *600 0.000854215
*CONN
*I *967:A I *D sky130_fd_sc_hd__nand2_1
*I *965:B I *D sky130_fd_sc_hd__nand2_1
*I *1307:Y O *D sky130_fd_sc_hd__inv_1
*CAP
1 *967:A 0.000108904
2 *965:B 0.000155736
3 *1307:Y 1.94427e-05
4 *600:8 0.000284082
5 *1191:A *965:B 9.70666e-06
6 *1306:A *965:B 0
7 *1306:A *967:A 0
8 *6:17 *965:B 6.6775e-05
9 *7:26 *967:A 0
10 *12:30 *600:8 3.33238e-05
11 *263:10 *965:B 8.91309e-05
12 *263:10 *967:A 8.71143e-05
*RES
1 *1307:Y *600:8 14.1304 
2 *600:8 *965:B 17.1929 
3 *600:8 *967:A 16.05 
*END

*D_NET *601 0.000246773
*CONN
*I *1309:A I *D sky130_fd_sc_hd__inv_1
*I *1308:Y O *D sky130_fd_sc_hd__nand2_1
*CAP
1 *1309:A 7.37888e-05
2 *1308:Y 7.37888e-05
3 *1308:B *1309:A 1.82029e-05
4 *7:36 *1309:A 5.33005e-05
5 *286:10 *1309:A 2.76916e-05
*RES
1 *1308:Y *1309:A 20.2563 
*END

*D_NET *602 0.000619333
*CONN
*I *840:B I *D sky130_fd_sc_hd__nand2_1
*I *842:A I *D sky130_fd_sc_hd__nand2_1
*I *1309:Y O *D sky130_fd_sc_hd__inv_1
*CAP
1 *840:B 0.000138156
2 *842:A 0
3 *1309:Y 3.0985e-05
4 *602:6 0.000169141
5 *843:B *840:B 7.43578e-06
6 *1308:A *840:B 0
7 *12:89 *840:B 0
8 *12:110 *840:B 0
9 *139:10 *840:B 0.000222878
10 *286:10 *840:B 1.92789e-05
11 *286:10 *602:6 3.14592e-05
*RES
1 *1309:Y *602:6 10.0411 
2 *602:6 *842:A 9.3 
3 *602:6 *840:B 21.6929 
*END

*D_NET *603 0.000362624
*CONN
*I *1311:A I *D sky130_fd_sc_hd__inv_1
*I *1310:Y O *D sky130_fd_sc_hd__nand2_1
*CAP
1 *1311:A 4.88418e-05
2 *1310:Y 4.88418e-05
3 *1311:A *852:A 9.90431e-05
4 *1311:A *604:6 2.30708e-05
5 *1310:B *1311:A 2.54632e-05
6 *7:55 *1311:A 0.000103908
7 *148:16 *1311:A 1.34554e-05
*RES
1 *1310:Y *1311:A 20.6223 
*END

*D_NET *604 0.000892258
*CONN
*I *852:A I *D sky130_fd_sc_hd__nand2_1
*I *850:B I *D sky130_fd_sc_hd__nand2_1
*I *1311:Y O *D sky130_fd_sc_hd__inv_1
*CAP
1 *852:A 6.52602e-05
2 *850:B 0.000119133
3 *1311:Y 1.0302e-05
4 *604:6 0.000194695
5 *852:B *852:A 2.53134e-05
6 *854:A *850:B 0
7 *854:B *850:B 6.8646e-06
8 *1310:B *852:A 2.72319e-05
9 *1311:A *852:A 9.90431e-05
10 *1311:A *604:6 2.30708e-05
11 *13:58 *850:B 4.46186e-06
12 *91:10 *850:B 5.31185e-05
13 *148:10 *850:B 2.34204e-05
14 *148:16 *852:A 0.000207026
15 *148:16 *604:6 3.33174e-05
*RES
1 *1311:Y *604:6 9.63036 
2 *604:6 *850:B 20.55 
3 *604:6 *852:A 11.8 
*END

*D_NET *605 0.000368184
*CONN
*I *1314:A I *D sky130_fd_sc_hd__inv_1
*I *1313:Y O *D sky130_fd_sc_hd__nand2_1
*CAP
1 *1314:A 0.000150134
2 *1313:Y 0.000150134
3 *1314:A *796:A 3.06491e-06
4 *1314:A *606:6 1.66856e-05
5 *794:A *1314:A 0
6 *1315:A *1314:A 0
7 *14:69 *1314:A 9.25014e-06
8 *15:75 *1314:A 3.89153e-05
*RES
1 *1313:Y *1314:A 30.0821 
*END

*D_NET *606 0.000426563
*CONN
*I *796:A I *D sky130_fd_sc_hd__nand2_1
*I *794:B I *D sky130_fd_sc_hd__nand2_1
*I *1314:Y O *D sky130_fd_sc_hd__inv_1
*CAP
1 *796:A 8.47218e-05
2 *794:B 0
3 *1314:Y 2.67312e-05
4 *606:6 0.000111453
5 *794:A *796:A 3.12879e-05
6 *797:B *796:A 0
7 *1314:A *796:A 3.06491e-06
8 *1314:A *606:6 1.66856e-05
9 *15:75 *796:A 9.60875e-05
10 *15:75 *606:6 3.66478e-05
11 *93:8 *796:A 1.98839e-05
*RES
1 *1314:Y *606:6 10.0411 
2 *606:6 *794:B 9.3 
3 *606:6 *796:A 11.5143 
*END

*D_NET *607 0.000811077
*CONN
*I *1316:A I *D sky130_fd_sc_hd__inv_1
*I *1315:Y O *D sky130_fd_sc_hd__nand2_1
*CAP
1 *1316:A 0.000281044
2 *1315:Y 0.000281044
3 *1316:A *810:A 2.8266e-06
4 *1331:A *1316:A 0
5 *8:45 *1316:A 1.37644e-05
6 *9:77 *1316:A 0
7 *15:75 *1316:A 0.000232399
*RES
1 *1315:Y *1316:A 32.0062 
*END

*D_NET *608 0.000423639
*CONN
*I *809:A I *D sky130_fd_sc_hd__nand2_1
*I *810:A I *D sky130_fd_sc_hd__nand2_1
*I *1316:Y O *D sky130_fd_sc_hd__inv_1
*CAP
1 *809:A 0
2 *810:A 0.000117298
3 *1316:Y 3.21326e-05
4 *608:6 0.00014943
5 *809:B *810:A 1.69115e-05
6 *1316:A *810:A 2.8266e-06
7 *8:45 *608:6 4.40835e-05
8 *9:77 *810:A 0
9 *108:12 *810:A 6.09572e-05
*RES
1 *1316:Y *608:6 10.0411 
2 *608:6 *810:A 20.55 
3 *608:6 *809:A 9.3 
*END

*D_NET *609 0.000280919
*CONN
*I *1318:A I *D sky130_fd_sc_hd__inv_1
*I *1317:Y O *D sky130_fd_sc_hd__nand2_1
*CAP
1 *1318:A 4.21738e-05
2 *1317:Y 4.21738e-05
3 *820:A *1318:A 7.78251e-05
4 *1317:B *1318:A 1.17091e-05
5 *118:8 *1318:A 0.000107037
*RES
1 *1317:Y *1318:A 20.2563 
*END

*D_NET *610 0.00121514
*CONN
*I *819:B I *D sky130_fd_sc_hd__nand2_1
*I *821:A I *D sky130_fd_sc_hd__nand2_1
*I *1318:Y O *D sky130_fd_sc_hd__inv_1
*CAP
1 *819:B 0.000116296
2 *821:A 0.00016585
3 *1318:Y 0
4 *610:4 0.000282146
5 *820:A *819:B 0.000101456
6 *820:A *821:A 0.000250241
7 *821:B *821:A 9.06726e-05
8 *822:A *821:A 0.000202679
9 *7:65 *821:A 5.79582e-06
*RES
1 *1318:Y *610:4 9.3 
2 *610:4 *821:A 22.9339 
3 *610:4 *819:B 11.7196 
*END

*D_NET *611 0.000445045
*CONN
*I *1320:A I *D sky130_fd_sc_hd__inv_1
*I *1319:Y O *D sky130_fd_sc_hd__nand2_1
*CAP
1 *1320:A 0.000142019
2 *1319:Y 0.000142019
3 *1320:A *928:A 0
4 *1305:A *1320:A 7.66466e-05
5 *598:10 *1320:A 8.4361e-05
*RES
1 *1319:Y *1320:A 21.4884 
*END

*D_NET *612 0.000751957
*CONN
*I *926:B I *D sky130_fd_sc_hd__nand2_1
*I *928:A I *D sky130_fd_sc_hd__nand2_1
*I *1320:Y O *D sky130_fd_sc_hd__inv_1
*CAP
1 *926:B 0
2 *928:A 0.000135783
3 *1320:Y 5.03608e-05
4 *612:6 0.000186143
5 *927:A *928:A 5.65955e-05
6 *927:B *928:A 1.02132e-05
7 *1320:A *928:A 0
8 *223:8 *928:A 4.01264e-05
9 *223:12 *928:A 3.66325e-05
10 *598:10 *928:A 7.03338e-05
11 *598:10 *612:6 0.000165769
*RES
1 *1320:Y *612:6 10.8625 
2 *612:6 *928:A 12.7464 
3 *612:6 *926:B 9.3 
*END

*D_NET *613 0.000328398
*CONN
*I *1322:A I *D sky130_fd_sc_hd__inv_1
*I *1321:Y O *D sky130_fd_sc_hd__nand2_1
*CAP
1 *1322:A 5.66017e-05
2 *1321:Y 5.66017e-05
3 *1337:B *1322:A 2.50412e-05
4 *10:23 *1322:A 0.000125679
5 *17:67 *1322:A 6.4474e-05
*RES
1 *1321:Y *1322:A 29.4795 
*END

*D_NET *614 0.00101377
*CONN
*I *945:A I *D sky130_fd_sc_hd__nand2_1
*I *947:A I *D sky130_fd_sc_hd__nand2_1
*I *1322:Y O *D sky130_fd_sc_hd__inv_1
*CAP
1 *945:A 0
2 *947:A 1.73215e-05
3 *1322:Y 0.000364494
4 *614:8 0.000381816
5 *945:B *614:8 2.59355e-05
6 *947:B *947:A 5.65955e-05
7 *947:B *614:8 1.95287e-05
8 *1337:B *614:8 2.25111e-05
9 *1338:A *614:8 0.000108988
10 *44:6 *614:8 1.65787e-05
*RES
1 *1322:Y *614:8 14.0589 
2 *614:8 *947:A 9.83571 
3 *614:8 *945:A 9.3 
*END

*D_NET *615 0.000529776
*CONN
*I *1325:A I *D sky130_fd_sc_hd__inv_1
*I *1324:Y O *D sky130_fd_sc_hd__nand2_1
*CAP
1 *1325:A 7.03062e-05
2 *1324:Y 7.03062e-05
3 *1325:A *616:8 6.48573e-05
4 *8:21 *1325:A 5.66304e-05
5 *8:31 *1325:A 3.18676e-05
6 *136:12 *1325:A 0.000235808
*RES
1 *1324:Y *1325:A 21.4884 
*END

*D_NET *616 0.00108117
*CONN
*I *972:A I *D sky130_fd_sc_hd__nand2_1
*I *973:A I *D sky130_fd_sc_hd__nand2_1
*I *1325:Y O *D sky130_fd_sc_hd__inv_1
*CAP
1 *972:A 0
2 *973:A 0.000180711
3 *1325:Y 3.02559e-05
4 *616:8 0.000210967
5 *973:B *973:A 7.34868e-05
6 *974:A *973:A 3.14347e-05
7 *974:B *973:A 3.34366e-05
8 *975:A *973:A 2.97021e-05
9 *975:B *973:A 2.21417e-05
10 *981:A *973:A 9.69119e-06
11 *1324:A *616:8 9.7049e-06
12 *1325:A *616:8 6.48573e-05
13 *7:26 *973:A 0
14 *8:21 *616:8 0.000128633
15 *128:10 *973:A 5.80706e-06
16 *136:12 *616:8 1.95199e-05
17 *268:8 *973:A 7.83587e-05
18 *268:12 *973:A 0.000140933
19 *272:12 *973:A 1.15281e-05
*RES
1 *1325:Y *616:8 10.8804 
2 *616:8 *973:A 22.6393 
3 *616:8 *972:A 9.3 
*END

*D_NET *617 0.000288918
*CONN
*I *1327:A I *D sky130_fd_sc_hd__inv_1
*I *1326:Y O *D sky130_fd_sc_hd__nand2_1
*CAP
1 *1327:A 6.1772e-05
2 *1326:Y 6.1772e-05
3 *11:99 *1327:A 2.80853e-05
4 *181:12 *1327:A 6.97972e-05
5 *287:20 *1327:A 6.74911e-05
*RES
1 *1326:Y *1327:A 29.5241 
*END

*D_NET *618 0.00109231
*CONN
*I *856:A I *D sky130_fd_sc_hd__nand2_1
*I *855:A I *D sky130_fd_sc_hd__nand2_1
*I *1327:Y O *D sky130_fd_sc_hd__inv_1
*CAP
1 *856:A 5.30312e-05
2 *855:A 0.000102169
3 *1327:Y 0.000104777
4 *618:12 0.000259977
5 *856:B *856:A 5.52238e-05
6 *859:A *618:12 0.000126439
7 *860:A *856:A 3.18676e-05
8 *860:B *855:A 6.05161e-06
9 *860:B *856:A 0.000127354
10 *11:99 *618:12 4.33915e-05
11 *154:6 *855:A 7.07554e-05
12 *154:23 *855:A 2.388e-05
13 *154:23 *856:A 2.54718e-05
14 *287:20 *618:12 6.19181e-05
*RES
1 *1327:Y *618:12 20.6839 
2 *618:12 *855:A 11.7464 
3 *618:12 *856:A 11.4964 
*END
