*SPEF "ieee 1481-1999"
*DESIGN "all_nand_inv"
*DATE "14:50:16 Sunday September 06, 2026"
*VENDOR "The OpenROAD Project"
*PROGRAM "OpenROAD"
*VERSION "dcf36133a369abc8f3c5e5738cd4d82e4903c0e0"
*DESIGN_FLOW "NAME_SCOPE LOCAL" "PIN_CAP NONE"
*DIVIDER /
*DELIMITER :
*BUS_DELIMITER []
*T_UNIT 1 NS
*C_UNIT 1 PF
*R_UNIT 1 OHM
*L_UNIT 1 HENRY

*NAME_MAP
*3 a[0]
*4 a[1]
*5 a[2]
*6 a[3]
*7 b[0]
*8 b[1]
*9 b[2]
*10 b[3]
*11 p[0]
*12 p[1]
*13 p[2]
*14 p[3]
*15 p[4]
*16 p[5]
*17 p[6]
*18 p[7]
*19 n10
*20 n100
*21 n101
*22 n102
*23 n104
*24 n105
*25 n106
*26 n107
*27 n108
*28 n109
*29 n11
*30 n110
*31 n111
*32 n113
*33 n114
*34 n115
*35 n116
*36 n117
*37 n118
*38 n119
*39 n12
*40 n120
*41 n122
*42 n123
*43 n124
*44 n125
*45 n126
*46 n127
*47 n128
*48 n129
*49 n13
*50 n14
*51 n15
*52 n16
*53 n17
*54 n18
*55 n19
*56 n20
*57 n21
*58 n22
*59 n23
*60 n24
*61 n25
*62 n26
*63 n27
*64 n28
*65 n29
*66 n30
*67 n31
*68 n32
*69 n33
*70 n34
*71 n35
*72 n36
*73 n37
*74 n38
*75 n39
*76 n40
*77 n41
*78 n42
*79 n44
*80 n45
*81 n46
*82 n47
*83 n48
*84 n49
*85 n50
*86 n51
*87 n52
*88 n53
*89 n54
*90 n55
*91 n56
*92 n57
*93 n58
*94 n59
*95 n60
*96 n61
*97 n62
*98 n63
*99 n64
*100 n65
*101 n66
*102 n67
*103 n68
*104 n69
*105 n70
*106 n72
*107 n73
*108 n74
*109 n75
*110 n76
*111 n77
*112 n78
*113 n79
*114 n8
*115 n80
*116 n81
*117 n82
*118 n83
*119 n84
*120 n85
*121 n86
*122 n87
*123 n88
*124 n89
*125 n90
*126 n91
*127 n92
*128 n93
*129 n94
*130 n95
*131 n96
*132 n97
*133 n98
*134 n99
*135 PHY_EDGE_ROW_0_Left_12
*136 PHY_EDGE_ROW_0_Right_0
*137 PHY_EDGE_ROW_10_Left_22
*138 PHY_EDGE_ROW_10_Right_10
*139 PHY_EDGE_ROW_11_Left_23
*140 PHY_EDGE_ROW_11_Right_11
*141 PHY_EDGE_ROW_1_Left_13
*142 PHY_EDGE_ROW_1_Right_1
*143 PHY_EDGE_ROW_2_Left_14
*144 PHY_EDGE_ROW_2_Right_2
*145 PHY_EDGE_ROW_3_Left_15
*146 PHY_EDGE_ROW_3_Right_3
*147 PHY_EDGE_ROW_4_Left_16
*148 PHY_EDGE_ROW_4_Right_4
*149 PHY_EDGE_ROW_5_Left_17
*150 PHY_EDGE_ROW_5_Right_5
*151 PHY_EDGE_ROW_6_Left_18
*152 PHY_EDGE_ROW_6_Right_6
*153 PHY_EDGE_ROW_7_Left_19
*154 PHY_EDGE_ROW_7_Right_7
*155 PHY_EDGE_ROW_8_Left_20
*156 PHY_EDGE_ROW_8_Right_8
*157 PHY_EDGE_ROW_9_Left_21
*158 PHY_EDGE_ROW_9_Right_9
*159 TAP_TAPCELL_ROW_0_24
*160 TAP_TAPCELL_ROW_0_25
*161 TAP_TAPCELL_ROW_10_35
*162 TAP_TAPCELL_ROW_11_36
*163 TAP_TAPCELL_ROW_11_37
*164 TAP_TAPCELL_ROW_1_26
*165 TAP_TAPCELL_ROW_2_27
*166 TAP_TAPCELL_ROW_3_28
*167 TAP_TAPCELL_ROW_4_29
*168 TAP_TAPCELL_ROW_5_30
*169 TAP_TAPCELL_ROW_6_31
*170 TAP_TAPCELL_ROW_7_32
*171 TAP_TAPCELL_ROW_8_33
*172 TAP_TAPCELL_ROW_9_34
*173 g10
*174 g100
*175 g101
*176 g102
*177 g103
*178 g104
*179 g105
*180 g106
*181 g107
*182 g108
*183 g109
*184 g11
*185 g110
*186 g111
*187 g112
*188 g113
*189 g114
*190 g115
*191 g116
*192 g117
*193 g118
*194 g119
*195 g12
*196 g120
*197 g121
*198 g122
*199 g123
*200 g124
*201 g125
*202 g126
*203 g127
*204 g128
*205 g129
*206 g13
*207 g130
*208 g131
*209 g14
*210 g15
*211 g16
*212 g17
*213 g18
*214 g19
*215 g20
*216 g21
*217 g22
*218 g23
*219 g24
*220 g25
*221 g26
*222 g27
*223 g28
*224 g29
*225 g30
*226 g31
*227 g32
*228 g33
*229 g34
*230 g35
*231 g36
*232 g37
*233 g38
*234 g39
*235 g40
*236 g41
*237 g42
*238 g43
*239 g44
*240 g45
*241 g46
*242 g47
*243 g48
*244 g49
*245 g50
*246 g51
*247 g52
*248 g53
*249 g54
*250 g55
*251 g56
*252 g57
*253 g58
*254 g59
*255 g60
*256 g61
*257 g62
*258 g63
*259 g64
*260 g65
*261 g66
*262 g67
*263 g68
*264 g69
*265 g70
*266 g71
*267 g72
*268 g73
*269 g74
*270 g75
*271 g76
*272 g77
*273 g78
*274 g79
*275 g8
*276 g80
*277 g81
*278 g82
*279 g83
*280 g84
*281 g85
*282 g86
*283 g87
*284 g88
*285 g89
*286 g9
*287 g90
*288 g91
*289 g92
*290 g93
*291 g94
*292 g95
*293 g96
*294 g97
*295 g98
*296 g99

*PORTS
a[0] I
a[1] I
a[2] I
a[3] I
b[0] I
b[1] I
b[2] I
b[3] I
p[0] O
p[1] O
p[2] O
p[3] O
p[4] O
p[5] O
p[6] O
p[7] O

*D_NET *3 0.00470193
*CONN
*P a[0] I
*I *209:A I *D sky130_fd_sc_hd__nand2_1
*I *195:A I *D sky130_fd_sc_hd__nand2_1
*I *275:A I *D sky130_fd_sc_hd__nand2_1
*I *173:A I *D sky130_fd_sc_hd__nand2_1
*CAP
1 a[0] 0.000795222
2 *209:A 0.000140805
3 *195:A 1.12252e-05
4 *275:A 6.81059e-06
5 *173:A 0.000146909
6 *3:47 0.0001808
7 *3:29 0.000726677
8 *3:19 0.00139695
9 *173:A *173:B 3.70794e-05
10 *173:A *275:B 9.11545e-05
11 *173:A *286:A 3.18676e-05
12 *195:A *206:A 1.02132e-05
13 *209:A *195:B 9.99853e-05
14 *209:A *206:A 3.08664e-05
15 *209:A *209:B 1.97695e-05
16 *209:A *216:A 5.62995e-05
17 *275:A *275:B 4.86524e-06
18 *275:A *286:A 1.04232e-05
19 *3:19 p[0] 1.11993e-05
20 *3:19 *240:B 0.00012573
21 *3:29 p[0] 0.000280063
22 *3:29 *173:B 1.08059e-05
23 *3:29 *206:A 5.74499e-06
24 *3:29 *214:A 7.8866e-05
25 *3:29 *240:B 3.36817e-05
26 *3:29 *242:A 0.000162021
27 *3:29 *242:B 5.33005e-05
28 *3:29 *286:A 6.67678e-05
29 *3:29 *55:6 4.08109e-05
30 *3:47 *240:B 3.50166e-05
*RES
1 a[0] *3:19 21.0179 
2 *3:19 *3:29 10.4643 
3 *3:29 *173:A 12.3179 
4 *3:29 *275:A 9.72857 
5 *3:19 *3:47 0.732143 
6 *3:47 *195:A 9.72857 
7 *3:47 *209:A 12.7286 
*END

*D_NET *4 0.00603188
*CONN
*P a[1] I
*I *217:A I *D sky130_fd_sc_hd__nand2_1
*I *215:A I *D sky130_fd_sc_hd__nand2_1
*I *213:A I *D sky130_fd_sc_hd__nand2_1
*I *211:A I *D sky130_fd_sc_hd__nand2_1
*CAP
1 a[1] 0.000518039
2 *217:A 0.00048873
3 *215:A 8.54156e-05
4 *213:A 6.54845e-05
5 *211:A 0.000450622
6 *4:39 0.0012005
7 *4:9 0.000663595
8 *4:7 0.00129189
9 *211:A *173:B 0
10 *211:A *7:19 4.85079e-05
11 *211:A *8:13 0
12 *213:A *173:B 5.80706e-06
13 *213:A *8:13 6.74815e-05
14 *215:A *251:A 0
15 *215:A *9:45 6.02811e-05
16 *215:A *51:10 0
17 *217:A *218:A 4.45889e-05
18 *217:A *250:B 2.89114e-05
19 *217:A *252:A 6.25878e-05
20 *217:A *252:B 9.80173e-05
21 *217:A *59:10 4.18134e-06
22 *217:A *92:12 3.81416e-06
23 *4:7 p[0] 0.000571026
24 *4:7 *173:B 0
25 *4:7 *243:B 7.83587e-05
26 *4:7 *248:A 0
27 *4:7 *80:10 0.000147332
28 *4:9 *83:12 1.05901e-05
29 *4:39 *83:12 7.83769e-06
30 *4:39 *92:12 2.82765e-05
*RES
1 a[1] *4:7 19.4643 
2 *4:7 *4:9 1.76786 
3 *4:9 *211:A 24.0143 
4 *4:9 *213:A 19.9429 
5 *4:7 *4:39 7.10714 
6 *4:39 *215:A 19.9429 
7 *4:39 *217:A 15.9071 
*END

*D_NET *5 0.00599786
*CONN
*P a[2] I
*I *223:A I *D sky130_fd_sc_hd__nand2_1
*I *221:A I *D sky130_fd_sc_hd__nand2_1
*I *219:A I *D sky130_fd_sc_hd__nand2_1
*I *225:A I *D sky130_fd_sc_hd__nand2_1
*CAP
1 a[2] 0.000448945
2 *223:A 3.12061e-05
3 *221:A 8.12437e-05
4 *219:A 0.000437857
5 *225:A 7.38803e-05
6 *5:24 0.000949147
7 *5:22 0.00135475
8 *5:7 0.00141632
9 *219:A *219:B 1.84539e-05
10 *219:A *222:A 6.98553e-06
11 *219:A *268:B 1.51881e-05
12 *219:A *270:B 3.69047e-06
13 *219:A *63:8 7.80411e-05
14 *221:A *8:9 0.000148078
15 *223:A *224:A 5.6505e-05
16 *223:A *231:B 3.58259e-05
17 *223:A *9:15 4.2921e-05
18 *225:A *226:A 3.00538e-05
19 *225:A *233:B 4.96134e-05
20 *5:7 *10:7 0
21 *5:22 *223:B 6.06312e-06
22 *5:22 *224:A 6.58045e-05
23 *5:22 *226:A 7.69776e-06
24 *5:22 *233:B 3.07351e-06
25 *5:22 *278:B 0.000271155
26 *5:22 *288:A 4.82354e-05
27 *5:22 *288:B 1.84776e-05
28 *5:22 *65:6 2.17339e-05
29 *5:24 *224:A 5.49995e-05
30 *5:24 *269:A 2.12647e-05
31 *5:24 *270:B 1.35553e-05
32 *5:24 *107:8 0.0001871
*RES
1 a[2] *5:7 4.80277 
2 *5:7 *225:A 15.5946 
3 *5:7 *5:22 15.9911 
4 *5:22 *5:24 5.46429 
5 *5:24 *219:A 14.9786 
6 *5:24 *221:A 20.2464 
7 *5:22 *223:A 19.3357 
*END

*D_NET *6 0.00477067
*CONN
*P a[3] I
*I *233:A I *D sky130_fd_sc_hd__nand2_1
*I *231:A I *D sky130_fd_sc_hd__nand2_1
*I *227:A I *D sky130_fd_sc_hd__nand2_1
*I *229:A I *D sky130_fd_sc_hd__nand2_1
*CAP
1 a[3] 0.00047132
2 *233:A 0.000108785
3 *231:A 2.13113e-05
4 *227:A 0.000286949
5 *229:A 0
6 *6:27 0.000896454
7 *6:17 0.0012104
8 *6:5 0.00115969
9 *233:A *233:B 3.67279e-06
10 *233:A *234:A 6.47254e-05
11 *6:5 p[7] 0
12 *6:17 *199:A 2.38501e-05
13 *6:17 *201:A 1.32293e-05
14 *6:17 *232:A 0.000102659
15 *6:17 *295:A 5.49995e-05
16 *6:17 *75:8 3.48083e-05
17 *6:17 *133:10 1.99271e-05
18 *6:17 *134:14 2.06178e-05
19 *6:27 *229:B 3.67279e-06
20 *6:27 *230:A 5.32071e-05
21 *6:27 *231:B 0.000185124
22 *6:27 *232:A 3.09893e-05
23 *6:27 *284:A 4.27842e-06
*RES
1 a[3] *6:5 1.39277 
2 *6:5 *6:17 15.9857 
3 *6:17 *6:27 19 
4 *6:27 *229:A 9.3 
5 *6:27 *227:A 13.9786 
6 *6:17 *231:A 9.72857 
7 *6:5 *233:A 19.2368 
*END

*D_NET *7 0.0047414
*CONN
*P b[0] I
*I *227:B I *D sky130_fd_sc_hd__nand2_1
*I *219:B I *D sky130_fd_sc_hd__nand2_1
*I *211:B I *D sky130_fd_sc_hd__nand2_1
*I *275:B I *D sky130_fd_sc_hd__nand2_1
*CAP
1 b[0] 0.000641122
2 *227:B 0
3 *219:B 0.00011052
4 *211:B 0
5 *275:B 3.48517e-05
6 *7:19 0.00065647
7 *7:11 0.00101368
8 *7:9 0.000922666
9 *275:B *173:B 0.000149086
10 *275:B *286:A 9.7049e-06
11 *7:9 p[3] 0
12 *7:9 *8:7 0.00067324
13 *7:11 *229:B 0
14 *7:11 *276:A 0.000147394
15 *7:11 *8:9 0
16 *7:19 *220:A 0.000114703
17 *7:19 *236:A 0
18 *7:19 *265:A 0
19 *7:19 *8:9 0
20 *7:19 *8:13 0
21 *7:19 *53:10 0
22 *7:19 *79:12 0.000104974
23 *7:19 *87:14 0
24 *173:A *275:B 9.11545e-05
25 *211:A *7:19 4.85079e-05
26 *219:A *219:B 1.84539e-05
27 *275:A *275:B 4.86524e-06
*RES
1 b[0] *7:9 5.71719 
2 *7:9 *7:11 4.67857 
3 *7:11 *7:19 15.3036 
4 *7:19 *275:B 11.5143 
5 *7:19 *211:B 9.3 
6 *7:11 *219:B 15.5857 
7 *7:9 *227:B 13.8 
*END

*D_NET *8 0.00585795
*CONN
*P b[1] I
*I *229:B I *D sky130_fd_sc_hd__nand2_1
*I *221:B I *D sky130_fd_sc_hd__nand2_1
*I *213:B I *D sky130_fd_sc_hd__nand2_1
*I *173:B I *D sky130_fd_sc_hd__nand2_1
*CAP
1 b[1] 0.000810619
2 *229:B 6.40504e-05
3 *221:B 3.34312e-05
4 *213:B 0
5 *173:B 0.000438622
6 *8:13 0.000896042
7 *8:9 0.000857659
8 *8:7 0.00124148
9 *173:B p[0] 7.71303e-05
10 *173:B *212:A 0
11 *173:B *286:A 6.29324e-05
12 *221:B *222:A 1.58163e-05
13 *229:B *116:10 0
14 *8:7 p[2] 0
15 *8:9 *222:A 4.49141e-05
16 *8:9 *271:A 6.93626e-06
17 *8:9 *271:B 0.000125679
18 *8:9 *277:A 8.7392e-05
19 *8:9 *87:14 0
20 *8:9 *116:10 0
21 *8:13 *243:B 0
22 *8:13 *248:A 0
23 *8:13 *79:12 0
24 *8:13 *83:12 0
25 *8:13 *87:14 0
26 *173:A *173:B 3.70794e-05
27 *211:A *173:B 0
28 *211:A *8:13 0
29 *213:A *173:B 5.80706e-06
30 *213:A *8:13 6.74815e-05
31 *221:A *8:9 0.000148078
32 *275:B *173:B 0.000149086
33 *3:29 *173:B 1.08059e-05
34 *4:7 *173:B 0
35 *6:27 *229:B 3.67279e-06
36 *7:9 *8:7 0.00067324
37 *7:11 *229:B 0
38 *7:11 *8:9 0
39 *7:19 *8:9 0
40 *7:19 *8:13 0
*RES
1 b[1] *8:7 6.089 
2 *8:7 *8:9 6.65179 
3 *8:9 *8:13 7.64286 
4 *8:13 *173:B 21.3 
5 *8:13 *213:B 13.8 
6 *8:9 *221:B 14.3357 
7 *8:7 *229:B 14.9875 
*END

*D_NET *9 0.0061399
*CONN
*P b[2] I
*I *215:B I *D sky130_fd_sc_hd__nand2_1
*I *195:B I *D sky130_fd_sc_hd__nand2_1
*I *223:B I *D sky130_fd_sc_hd__nand2_1
*I *231:B I *D sky130_fd_sc_hd__nand2_1
*CAP
1 b[2] 0.000967547
2 *215:B 0
3 *195:B 3.89851e-05
4 *223:B 5.18146e-05
5 *231:B 0.000381727
6 *9:45 0.00026617
7 *9:15 0.000979395
8 *9:5 0.00174059
9 *223:B *278:B 4.41666e-05
10 *231:B *224:A 2.33412e-05
11 *231:B *279:B 0
12 *231:B *281:A 0.000110206
13 *231:B *282:A 0.000147862
14 *231:B *283:A 7.48644e-05
15 *231:B *287:B 2.26791e-05
16 *231:B *124:16 6.13903e-05
17 *9:5 *281:A 0
18 *9:5 *10:7 0.000574903
19 *9:15 *256:A 0.000128154
20 *9:15 *278:B 5.01649e-06
21 *9:15 *92:12 9.08946e-05
22 *9:45 *240:A 0
23 *9:45 *257:A 0
24 *209:A *195:B 9.99853e-05
25 *215:A *9:45 6.02811e-05
26 *223:A *231:B 3.58259e-05
27 *223:A *9:15 4.2921e-05
28 *5:22 *223:B 6.06312e-06
29 *6:27 *231:B 0.000185124
*RES
1 b[2] *9:5 2.90617 
2 *9:5 *9:15 9.99527 
3 *9:15 *231:B 23.1304 
4 *9:15 *223:B 15.0723 
5 *9:5 *9:45 11.8296 
6 *9:45 *195:B 10.2464 
7 *9:45 *215:B 9.3 
*END

*D_NET *10 0.00464324
*CONN
*P b[3] I
*I *233:B I *D sky130_fd_sc_hd__nand2_1
*I *225:B I *D sky130_fd_sc_hd__nand2_1
*I *217:B I *D sky130_fd_sc_hd__nand2_1
*I *209:B I *D sky130_fd_sc_hd__nand2_1
*CAP
1 b[3] 0.000380172
2 *233:B 0.000337274
3 *225:B 0.000160954
4 *217:B 0
5 *209:B 0.000442934
6 *10:31 0.000602846
7 *10:9 0.000625186
8 *10:7 0.000667043
9 *209:B *216:A 0.000118677
10 *209:B *249:A 0.000144773
11 *209:B *250:A 0
12 *209:B *57:6 6.57193e-05
13 *225:B *226:A 1.72894e-05
14 *233:B *259:A 0
15 *233:B *289:A 5.57285e-05
16 *233:B *290:A 1.5864e-05
17 *233:B *296:A 0.00018729
18 *233:B *102:10 4.49141e-05
19 *233:B *126:8 0.000125542
20 *10:9 *257:A 0
21 *10:9 *259:A 0
22 *10:9 *59:10 0
23 *10:31 *259:A 0
24 *209:A *209:B 1.97695e-05
25 *225:A *233:B 4.96134e-05
26 *233:A *233:B 3.67279e-06
27 *5:7 *10:7 0
28 *5:22 *233:B 3.07351e-06
29 *9:5 *10:7 0.000574903
*RES
1 b[3] *10:7 5.01897 
2 *10:7 *10:9 3.00893 
3 *10:9 *209:B 22.2464 
4 *10:9 *217:B 13.8 
5 *10:7 *10:31 1.79464 
6 *10:31 *225:B 16.4071 
7 *10:31 *233:B 21.8179 
*END

*D_NET *11 0.0024622
*CONN
*P p[0] O
*I *286:Y O *D sky130_fd_sc_hd__inv_1
*CAP
1 p[0] 0.000729601
2 *286:Y 0.000729601
3 p[0] *240:A 0
4 p[0] *80:10 6.35819e-05
5 *173:B p[0] 7.71303e-05
6 *3:19 p[0] 1.11993e-05
7 *3:29 p[0] 0.000280063
8 *4:7 p[0] 0.000571026
*RES
1 *286:Y p[0] 36.6421 
*END

*D_NET *12 0.000869298
*CONN
*P p[1] O
*I *238:Y O *D sky130_fd_sc_hd__nand2_1
*CAP
1 p[1] 0.000423278
2 *238:Y 0.000423278
3 p[1] p[2] 0
4 p[1] *238:A 2.27416e-05
*RES
1 *238:Y p[1] 21.8973 
*END

*D_NET *13 0.00115653
*CONN
*P p[2] O
*I *266:Y O *D sky130_fd_sc_hd__nand2_1
*CAP
1 p[2] 0.000578266
2 *266:Y 0.000578266
3 p[2] *266:A 0
4 p[2] *266:B 0
5 p[1] p[2] 0
6 *8:7 p[2] 0
*RES
1 *266:Y p[2] 23.1836 
*END

*D_NET *14 0.00147458
*CONN
*P p[3] O
*I *177:Y O *D sky130_fd_sc_hd__nand2_1
*CAP
1 p[3] 0.00073729
2 *177:Y 0.00073729
3 p[3] *178:A 0
4 *7:9 p[3] 0
*RES
1 *177:Y p[3] 24.1333 
*END

*D_NET *15 0.0018743
*CONN
*P p[4] O
*I *187:Y O *D sky130_fd_sc_hd__nand2_1
*CAP
1 p[4] 0.000841477
2 *187:Y 0.000841477
3 p[4] *183:A 1.74352e-05
4 p[4] *186:A 5.03694e-05
5 p[4] *186:B 7.6021e-05
6 p[4] *187:A 3.47797e-05
7 p[4] *187:B 5.30637e-06
8 p[4] *27:8 7.43578e-06
*RES
1 *187:Y p[4] 29.8268 
*END

*D_NET *16 0.00146074
*CONN
*P p[5] O
*I *197:Y O *D sky130_fd_sc_hd__nand2_1
*CAP
1 p[5] 0.000716165
2 *197:Y 0.000716165
3 p[5] *197:B 2.84109e-05
*RES
1 *197:Y p[5] 27.2375 
*END

*D_NET *17 0.00116598
*CONN
*P p[6] O
*I *207:Y O *D sky130_fd_sc_hd__nand2_1
*CAP
1 p[6] 0.000427172
2 *207:Y 0.000427172
3 p[6] p[7] 0.000219525
4 p[6] *207:A 4.50149e-05
5 p[6] *207:B 4.70981e-05
*RES
1 *207:Y p[6] 19.3273 
*END

*D_NET *18 0.000891013
*CONN
*P p[7] O
*I *208:Y O *D sky130_fd_sc_hd__nand2_1
*CAP
1 p[7] 0.000324641
2 *208:Y 0.000324641
3 p[7] *208:A 2.22043e-05
4 p[6] p[7] 0.000219525
5 *6:5 p[7] 0
*RES
1 *208:Y p[7] 18.7354 
*END

*D_NET *19 0.000290506
*CONN
*I *184:A I *D sky130_fd_sc_hd__inv_1
*I *173:Y O *D sky130_fd_sc_hd__nand2_1
*CAP
1 *184:A 9.58082e-05
2 *173:Y 9.58082e-05
3 *184:A *212:A 5.26184e-05
4 *184:A *29:10 0
5 *184:A *53:10 4.62709e-05
*RES
1 *173:Y *184:A 29.783 
*END

*D_NET *20 0.00102498
*CONN
*I *178:A I *D sky130_fd_sc_hd__inv_1
*I *175:B I *D sky130_fd_sc_hd__nand2_1
*I *176:B I *D sky130_fd_sc_hd__nand2_1
*I *174:Y O *D sky130_fd_sc_hd__nand2_1
*CAP
1 *178:A 0.000259212
2 *175:B 1.23998e-05
3 *176:B 8.51471e-05
4 *174:Y 0.000332583
5 *20:6 0.000170918
6 *175:B *176:A 1.02301e-05
7 *176:B *176:A 3.65727e-05
8 *20:6 *175:A 5.49995e-05
9 *20:6 *176:A 6.29219e-05
10 p[3] *178:A 0
*RES
1 *174:Y *20:6 11.0679 
2 *20:6 *176:B 11.0857 
3 *20:6 *175:B 9.72857 
4 *174:Y *178:A 31.8813 
*END

*D_NET *21 0.000271679
*CONN
*I *177:A I *D sky130_fd_sc_hd__nand2_1
*I *175:Y O *D sky130_fd_sc_hd__nand2_1
*CAP
1 *177:A 6.28063e-05
2 *175:Y 6.28063e-05
3 *177:A *177:B 5.75818e-05
4 *177:A *276:B 9.54798e-06
5 *177:A *115:12 7.89362e-05
*RES
1 *175:Y *177:A 29.2429 
*END

*D_NET *22 0.000365046
*CONN
*I *177:B I *D sky130_fd_sc_hd__nand2_1
*I *176:Y O *D sky130_fd_sc_hd__nand2_1
*CAP
1 *177:B 0.000126232
2 *176:Y 0.000126232
3 *177:B *176:A 5.49995e-05
4 *177:A *177:B 5.75818e-05
*RES
1 *176:Y *177:B 29.7786 
*END

*D_NET *23 0.00095679
*CONN
*I *186:A I *D sky130_fd_sc_hd__nand2_1
*I *183:B I *D sky130_fd_sc_hd__nand2_1
*I *178:Y O *D sky130_fd_sc_hd__inv_1
*CAP
1 *186:A 0.000180354
2 *183:B 0
3 *178:Y 0.000172201
4 *23:10 0.000352556
5 *186:A *186:B 0
6 *186:A *187:B 0.000191059
7 *23:10 *182:B 0
8 *23:10 *186:B 0
9 *23:10 *187:B 1.02504e-05
10 p[4] *186:A 5.03694e-05
*RES
1 *178:Y *23:10 16.1839 
2 *23:10 *183:B 13.8 
3 *23:10 *186:A 18.0143 
*END

*D_NET *24 0.00101101
*CONN
*I *180:B I *D sky130_fd_sc_hd__nand2_1
*I *188:A I *D sky130_fd_sc_hd__nand2_1
*I *181:B I *D sky130_fd_sc_hd__nand2_1
*I *179:Y O *D sky130_fd_sc_hd__nand2_1
*CAP
1 *180:B 0
2 *188:A 0.000150965
3 *181:B 0.000121354
4 *179:Y 0
5 *24:19 0.000240283
6 *24:4 0.000210672
7 *181:B *179:B 5.52302e-05
8 *188:A *182:A 0
9 *188:A *196:A 0
10 *24:19 *179:A 5.71472e-05
11 *24:19 *182:A 0.00010096
12 *24:19 *124:16 7.43993e-05
*RES
1 *179:Y *24:4 9.3 
2 *24:4 *181:B 11.4964 
3 *24:4 *24:19 2.92857 
4 *24:19 *188:A 20.55 
5 *24:19 *180:B 9.3 
*END

*D_NET *25 0.000449617
*CONN
*I *182:A I *D sky130_fd_sc_hd__nand2_1
*I *180:Y O *D sky130_fd_sc_hd__nand2_1
*CAP
1 *182:A 0.000141059
2 *180:Y 0.000141059
3 *182:A *182:B 6.65398e-05
4 *188:A *182:A 0
5 *24:19 *182:A 0.00010096
*RES
1 *180:Y *182:A 30.1893 
*END

*D_NET *26 0.000264271
*CONN
*I *182:B I *D sky130_fd_sc_hd__nand2_1
*I *181:Y O *D sky130_fd_sc_hd__nand2_1
*CAP
1 *182:B 9.37406e-05
2 *181:Y 9.37406e-05
3 *182:B *186:B 1.02504e-05
4 *182:A *182:B 6.65398e-05
5 *23:10 *182:B 0
*RES
1 *181:Y *182:B 29.2429 
*END

*D_NET *27 0.000389571
*CONN
*I *185:A I *D sky130_fd_sc_hd__nand2_1
*I *183:A I *D sky130_fd_sc_hd__nand2_1
*I *182:Y O *D sky130_fd_sc_hd__nand2_1
*CAP
1 *185:A 0
2 *183:A 8.10925e-06
3 *182:Y 9.86232e-05
4 *27:8 0.000106732
5 *183:A *187:A 5.71472e-05
6 *27:8 *187:A 2.44318e-05
7 *27:8 *188:B 5.17614e-05
8 *27:8 *28:8 1.21289e-05
9 *27:8 *28:10 5.7661e-06
10 p[4] *183:A 1.74352e-05
11 p[4] *27:8 7.43578e-06
*RES
1 *182:Y *27:8 11.4964 
2 *27:8 *183:A 9.83571 
3 *27:8 *185:A 9.3 
*END

*D_NET *28 0.00110922
*CONN
*I *188:B I *D sky130_fd_sc_hd__nand2_1
*I *185:B I *D sky130_fd_sc_hd__nand2_1
*I *186:B I *D sky130_fd_sc_hd__nand2_1
*I *183:Y O *D sky130_fd_sc_hd__nand2_1
*CAP
1 *188:B 0.000147667
2 *185:B 0
3 *186:B 0.000149441
4 *183:Y 0.000111981
5 *28:10 0.000166521
6 *28:8 0.000276727
7 *28:8 *187:A 0.00010096
8 *28:10 *187:A 0
9 p[4] *186:B 7.6021e-05
10 *182:B *186:B 1.02504e-05
11 *186:A *186:B 0
12 *23:10 *186:B 0
13 *27:8 *188:B 5.17614e-05
14 *27:8 *28:8 1.21289e-05
15 *27:8 *28:10 5.7661e-06
*RES
1 *183:Y *28:8 11.0857 
2 *28:8 *28:10 0.428571 
3 *28:10 *186:B 21.1571 
4 *28:10 *185:B 9.3 
5 *28:8 *188:B 11.9071 
*END

*D_NET *29 0.000999454
*CONN
*I *237:A I *D sky130_fd_sc_hd__nand2_1
*I *235:B I *D sky130_fd_sc_hd__nand2_1
*I *184:Y O *D sky130_fd_sc_hd__inv_1
*CAP
1 *237:A 0.000163815
2 *235:B 0
3 *184:Y 0.000177695
4 *29:10 0.00034151
5 *237:A *236:A 2.23987e-05
6 *237:A *53:10 5.80706e-06
7 *237:A *76:10 0.000125724
8 *29:10 *53:10 0.000162505
9 *184:A *29:10 0
*RES
1 *184:Y *29:10 17.6125 
2 *29:10 *235:B 13.8 
3 *29:10 *237:A 16.9964 
*END

*D_NET *30 0.000436349
*CONN
*I *187:A I *D sky130_fd_sc_hd__nand2_1
*I *185:Y O *D sky130_fd_sc_hd__nand2_1
*CAP
1 *187:A 0.000109515
2 *185:Y 0.000109515
3 p[4] *187:A 3.47797e-05
4 *183:A *187:A 5.71472e-05
5 *27:8 *187:A 2.44318e-05
6 *28:8 *187:A 0.00010096
7 *28:10 *187:A 0
*RES
1 *185:Y *187:A 21.2071 
*END

*D_NET *31 0.000881383
*CONN
*I *187:B I *D sky130_fd_sc_hd__nand2_1
*I *186:Y O *D sky130_fd_sc_hd__nand2_1
*CAP
1 *187:B 0.000337384
2 *186:Y 0.000337384
3 p[4] *187:B 5.30637e-06
4 *186:A *187:B 0.000191059
5 *23:10 *187:B 1.02504e-05
*RES
1 *186:Y *187:B 32.7964 
*END

*D_NET *32 0.000950565
*CONN
*I *193:B I *D sky130_fd_sc_hd__nand2_1
*I *196:A I *D sky130_fd_sc_hd__nand2_1
*I *188:Y O *D sky130_fd_sc_hd__nand2_1
*CAP
1 *193:B 0
2 *196:A 0.000171303
3 *188:Y 0.000203409
4 *32:8 0.000374711
5 *196:A *193:A 6.52971e-06
6 *196:A *194:A 0.000127955
7 *196:A *124:16 5.49489e-05
8 *32:8 *191:B 1.17091e-05
9 *188:A *196:A 0
*RES
1 *188:Y *32:8 12.7286 
2 *32:8 *196:A 21.9071 
3 *32:8 *193:B 9.3 
*END

*D_NET *33 0.00153556
*CONN
*I *191:B I *D sky130_fd_sc_hd__nand2_1
*I *190:B I *D sky130_fd_sc_hd__nand2_1
*I *198:A I *D sky130_fd_sc_hd__nand2_1
*I *189:Y O *D sky130_fd_sc_hd__nand2_1
*CAP
1 *191:B 0.000358929
2 *190:B 2.33558e-05
3 *198:A 0
4 *189:Y 5.75636e-05
5 *33:10 2.33558e-05
6 *33:8 0.000416493
7 *190:B *190:A 1.33343e-05
8 *190:B *192:A 5.52302e-05
9 *191:B *191:A 0.000203584
10 *191:B *192:A 1.5424e-05
11 *191:B *192:B 3.34987e-05
12 *191:B *197:A 5.79582e-06
13 *191:B *37:6 3.32732e-06
14 *191:B *41:8 5.52238e-05
15 *33:8 *189:B 3.34295e-05
16 *33:8 *190:A 0.000102545
17 *33:8 *191:A 0.000122758
18 *32:8 *191:B 1.17091e-05
*RES
1 *189:Y *33:8 15.7464 
2 *33:8 *33:10 4.5 
3 *33:10 *198:A 9.3 
4 *33:10 *190:B 9.83571 
5 *33:8 *191:B 19.2821 
*END

*D_NET *34 0.000513753
*CONN
*I *192:A I *D sky130_fd_sc_hd__nand2_1
*I *190:Y O *D sky130_fd_sc_hd__nand2_1
*CAP
1 *192:A 8.98784e-05
2 *190:Y 8.98784e-05
3 *192:A *190:A 2.44318e-05
4 *192:A *191:A 5.33005e-05
5 *192:A *192:B 1.789e-05
6 *192:A *198:B 1.00733e-05
7 *192:A *37:6 1.58163e-05
8 *192:A *41:8 0.00014183
9 *190:B *192:A 5.52302e-05
10 *191:B *192:A 1.5424e-05
*RES
1 *190:Y *192:A 21.2071 
*END

*D_NET *35 0.00021612
*CONN
*I *192:B I *D sky130_fd_sc_hd__nand2_1
*I *191:Y O *D sky130_fd_sc_hd__nand2_1
*CAP
1 *192:B 3.78394e-05
2 *191:Y 3.78394e-05
3 *192:B *191:A 5.49544e-05
4 *192:B *37:6 3.40979e-05
5 *191:B *192:B 3.34987e-05
6 *192:A *192:B 1.789e-05
*RES
1 *191:Y *192:B 19.975 
*END

*D_NET *36 0.00122951
*CONN
*I *193:A I *D sky130_fd_sc_hd__nand2_1
*I *194:A I *D sky130_fd_sc_hd__nand2_1
*I *192:Y O *D sky130_fd_sc_hd__nand2_1
*CAP
1 *193:A 5.12215e-06
2 *194:A 0.000173404
3 *192:Y 0.000268146
4 *36:14 0.000446671
5 *193:A *197:B 2.11419e-05
6 *194:A *196:B 4.64641e-05
7 *194:A *197:B 0.000112935
8 *194:A *37:14 0
9 *36:14 *197:A 2.11419e-05
10 *196:A *193:A 6.52971e-06
11 *196:A *194:A 0.000127955
*RES
1 *192:Y *36:14 21.3041 
2 *36:14 *194:A 17.7911 
3 *36:14 *193:A 14.0768 
*END

*D_NET *37 0.00141438
*CONN
*I *198:B I *D sky130_fd_sc_hd__nand2_1
*I *194:B I *D sky130_fd_sc_hd__nand2_1
*I *196:B I *D sky130_fd_sc_hd__nand2_1
*I *193:Y O *D sky130_fd_sc_hd__nand2_1
*CAP
1 *198:B 3.63528e-05
2 *194:B 0
3 *196:B 9.0797e-05
4 *193:Y 0.00030345
5 *37:14 0.00018503
6 *37:6 0.000434036
7 *196:B *197:A 1.59373e-05
8 *198:B *190:A 1.28326e-05
9 *37:6 *191:A 1.70399e-05
10 *37:14 *189:B 5.83304e-05
11 *37:14 *191:A 6.81083e-05
12 *37:14 *197:A 8.2689e-05
13 *191:B *37:6 3.32732e-06
14 *192:A *198:B 1.00733e-05
15 *192:A *37:6 1.58163e-05
16 *192:B *37:6 3.40979e-05
17 *194:A *196:B 4.64641e-05
18 *194:A *37:14 0
*RES
1 *193:Y *37:6 12.7107 
2 *37:6 *37:14 11.1786 
3 *37:14 *196:B 11.5143 
4 *37:14 *194:B 9.3 
5 *37:6 *198:B 10.0321 
*END

*D_NET *38 0.000901797
*CONN
*I *197:A I *D sky130_fd_sc_hd__nand2_1
*I *194:Y O *D sky130_fd_sc_hd__nand2_1
*CAP
1 *197:A 0.000341965
2 *194:Y 0.000341965
3 *197:A *191:A 9.2302e-05
4 *197:A *197:B 0
5 *191:B *197:A 5.79582e-06
6 *196:B *197:A 1.59373e-05
7 *36:14 *197:A 2.11419e-05
8 *37:14 *197:A 8.2689e-05
*RES
1 *194:Y *197:A 33.4571 
*END

*D_NET *39 0.000236756
*CONN
*I *206:A I *D sky130_fd_sc_hd__inv_1
*I *195:Y O *D sky130_fd_sc_hd__nand2_1
*CAP
1 *206:A 8.01026e-05
2 *195:Y 8.01026e-05
3 *206:A *240:B 2.97264e-05
4 *206:A *241:A 0
5 *195:A *206:A 1.02132e-05
6 *209:A *206:A 3.08664e-05
7 *3:29 *206:A 5.74499e-06
*RES
1 *195:Y *206:A 20.2563 
*END

*D_NET *40 0.000777541
*CONN
*I *197:B I *D sky130_fd_sc_hd__nand2_1
*I *196:Y O *D sky130_fd_sc_hd__nand2_1
*CAP
1 *197:B 0.000292438
2 *196:Y 0.000292438
3 *197:B *191:A 3.01764e-05
4 p[5] *197:B 2.84109e-05
5 *193:A *197:B 2.11419e-05
6 *194:A *197:B 0.000112935
7 *197:A *197:B 0
*RES
1 *196:Y *197:B 32.5107 
*END

*D_NET *41 0.000979686
*CONN
*I *203:B I *D sky130_fd_sc_hd__nand2_1
*I *205:A I *D sky130_fd_sc_hd__nand2_1
*I *198:Y O *D sky130_fd_sc_hd__nand2_1
*CAP
1 *203:B 7.96942e-05
2 *205:A 5.77757e-05
3 *198:Y 0.000195833
4 *41:8 0.000333303
5 *203:B *205:B 4.22908e-05
6 *203:B *207:B 5.62995e-05
7 *203:B *46:17 0
8 *205:A *190:A 0
9 *205:A *205:B 0
10 *41:8 *190:A 1.74352e-05
11 *191:B *41:8 5.52238e-05
12 *192:A *41:8 0.00014183
*RES
1 *198:Y *41:8 13.1393 
2 *41:8 *205:A 10.675 
3 *41:8 *203:B 11.9071 
*END

*D_NET *42 0.00178229
*CONN
*I *208:A I *D sky130_fd_sc_hd__nand2_1
*I *200:B I *D sky130_fd_sc_hd__nand2_1
*I *201:B I *D sky130_fd_sc_hd__nand2_1
*I *199:Y O *D sky130_fd_sc_hd__nand2_1
*CAP
1 *208:A 0.000165263
2 *200:B 0
3 *201:B 0.000261259
4 *199:Y 0.000260929
5 *42:12 0.000261259
6 *42:10 0.000426192
7 *201:B *201:A 1.97387e-05
8 *201:B *202:A 0.000111718
9 *201:B *202:B 0.000110665
10 *208:A *45:10 0
11 *42:10 *199:A 4.87953e-05
12 *42:10 *200:A 7.50697e-05
13 *42:10 *234:A 1.91989e-05
14 p[7] *208:A 2.22043e-05
*RES
1 *199:Y *42:10 17.5143 
2 *42:10 *42:12 4.5 
3 *42:12 *201:B 14.175 
4 *42:12 *200:B 9.3 
5 *42:10 *208:A 16.5857 
*END

*D_NET *43 0.000235112
*CONN
*I *202:A I *D sky130_fd_sc_hd__nand2_1
*I *200:Y O *D sky130_fd_sc_hd__nand2_1
*CAP
1 *202:A 4.94834e-05
2 *200:Y 4.94834e-05
3 *202:A *201:A 1.04232e-05
4 *202:A *202:B 1.40034e-05
5 *201:B *202:A 0.000111718
*RES
1 *200:Y *202:A 19.975 
*END

*D_NET *44 0.00023718
*CONN
*I *202:B I *D sky130_fd_sc_hd__nand2_1
*I *201:Y O *D sky130_fd_sc_hd__nand2_1
*CAP
1 *202:B 2.98988e-05
2 *201:Y 2.98988e-05
3 *202:B *201:A 5.2714e-05
4 *201:B *202:B 0.000110665
5 *202:A *202:B 1.40034e-05
*RES
1 *201:Y *202:B 19.975 
*END

*D_NET *45 0.000314161
*CONN
*I *204:A I *D sky130_fd_sc_hd__nand2_1
*I *203:A I *D sky130_fd_sc_hd__nand2_1
*I *202:Y O *D sky130_fd_sc_hd__nand2_1
*CAP
1 *204:A 0
2 *203:A 1.55834e-05
3 *202:Y 0.000104245
4 *45:10 0.000119829
5 *203:A *207:B 1.92789e-05
6 *203:A *46:17 5.52238e-05
7 *208:A *45:10 0
*RES
1 *202:Y *45:10 19.9429 
2 *45:10 *203:A 9.83571 
3 *45:10 *204:A 9.3 
*END

*D_NET *46 0.000537361
*CONN
*I *208:B I *D sky130_fd_sc_hd__nand2_1
*I *204:B I *D sky130_fd_sc_hd__nand2_1
*I *205:B I *D sky130_fd_sc_hd__nand2_1
*I *203:Y O *D sky130_fd_sc_hd__nand2_1
*CAP
1 *208:B 2.57267e-05
2 *204:B 0
3 *205:B 6.55183e-05
4 *203:Y 0
5 *46:17 0.000131869
6 *46:4 0.00017166
7 *205:B *207:B 1.32552e-05
8 *208:B *207:A 5.30637e-06
9 *46:17 *207:A 1.32552e-05
10 *46:17 *207:B 1.32552e-05
11 *203:A *46:17 5.52238e-05
12 *203:B *205:B 4.22908e-05
13 *203:B *46:17 0
14 *205:A *205:B 0
*RES
1 *203:Y *46:4 9.3 
2 *46:4 *205:B 10.675 
3 *46:4 *46:17 2.19643 
4 *46:17 *204:B 9.3 
5 *46:17 *208:B 9.83571 
*END

*D_NET *47 0.000374049
*CONN
*I *207:A I *D sky130_fd_sc_hd__nand2_1
*I *204:Y O *D sky130_fd_sc_hd__nand2_1
*CAP
1 *207:A 0.000127589
2 *204:Y 0.000127589
3 *207:A *207:B 5.52956e-05
4 p[6] *207:A 4.50149e-05
5 *208:B *207:A 5.30637e-06
6 *46:17 *207:A 1.32552e-05
*RES
1 *204:Y *207:A 30.0821 
*END

*D_NET *48 0.000684488
*CONN
*I *207:B I *D sky130_fd_sc_hd__nand2_1
*I *205:Y O *D sky130_fd_sc_hd__nand2_1
*CAP
1 *207:B 0.000240003
2 *205:Y 0.000240003
3 p[6] *207:B 4.70981e-05
4 *203:A *207:B 1.92789e-05
5 *203:B *207:B 5.62995e-05
6 *205:B *207:B 1.32552e-05
7 *207:A *207:B 5.52956e-05
8 *46:17 *207:B 1.32552e-05
*RES
1 *205:Y *207:B 31.725 
*END

*D_NET *49 0.00138269
*CONN
*I *240:B I *D sky130_fd_sc_hd__nand2_1
*I *242:A I *D sky130_fd_sc_hd__nand2_1
*I *206:Y O *D sky130_fd_sc_hd__inv_1
*CAP
1 *240:B 0.000223629
2 *242:A 9.44245e-05
3 *206:Y 0
4 *49:4 0.000318054
5 *240:B *240:A 0.000178599
6 *242:A *214:A 0
7 *242:A *240:A 8.49911e-05
8 *242:A *241:A 9.35228e-06
9 *242:A *241:B 5.65955e-05
10 *242:A *55:6 3.08664e-05
11 *206:A *240:B 2.97264e-05
12 *3:19 *240:B 0.00012573
13 *3:29 *240:B 3.36817e-05
14 *3:29 *242:A 0.000162021
15 *3:47 *240:B 3.50166e-05
*RES
1 *206:Y *49:4 9.3 
2 *49:4 *242:A 12.5232 
3 *49:4 *240:B 23.6125 
*END

*D_NET *50 0.00042217
*CONN
*I *210:A I *D sky130_fd_sc_hd__inv_1
*I *209:Y O *D sky130_fd_sc_hd__nand2_1
*CAP
1 *210:A 0.000183277
2 *209:Y 0.000183277
3 *210:A *51:10 5.56154e-05
*RES
1 *209:Y *210:A 31.0152 
*END

*D_NET *51 0.000638474
*CONN
*I *251:A I *D sky130_fd_sc_hd__nand2_1
*I *249:B I *D sky130_fd_sc_hd__nand2_1
*I *210:Y O *D sky130_fd_sc_hd__inv_1
*CAP
1 *251:A 0.000125927
2 *249:B 0
3 *210:Y 0.000133871
4 *51:10 0.000259798
5 *251:A *250:A 0
6 *251:A *89:8 6.32633e-05
7 *51:10 *250:A 0
8 *210:A *51:10 5.56154e-05
9 *215:A *251:A 0
10 *215:A *51:10 0
*RES
1 *210:Y *51:10 16.0768 
2 *51:10 *249:B 13.8 
3 *51:10 *251:A 16.05 
*END

*D_NET *52 0.000277689
*CONN
*I *212:A I *D sky130_fd_sc_hd__inv_1
*I *211:Y O *D sky130_fd_sc_hd__nand2_1
*CAP
1 *212:A 0.000112535
2 *211:Y 0.000112535
3 *173:B *212:A 0
4 *184:A *212:A 5.26184e-05
*RES
1 *211:Y *212:A 29.783 
*END

*D_NET *53 0.00108201
*CONN
*I *236:A I *D sky130_fd_sc_hd__nand2_1
*I *235:A I *D sky130_fd_sc_hd__nand2_1
*I *212:Y O *D sky130_fd_sc_hd__inv_1
*CAP
1 *236:A 0.000126311
2 *235:A 0
3 *212:Y 0.000233339
4 *53:10 0.00035965
5 *236:A *76:10 0.000125724
6 *184:A *53:10 4.62709e-05
7 *237:A *236:A 2.23987e-05
8 *237:A *53:10 5.80706e-06
9 *7:19 *236:A 0
10 *7:19 *53:10 0
11 *29:10 *53:10 0.000162505
*RES
1 *212:Y *53:10 17.7196 
2 *53:10 *235:A 13.8 
3 *53:10 *236:A 16.5857 
*END

*D_NET *54 0.000231264
*CONN
*I *214:A I *D sky130_fd_sc_hd__inv_1
*I *213:Y O *D sky130_fd_sc_hd__nand2_1
*CAP
1 *214:A 7.6199e-05
2 *213:Y 7.6199e-05
3 *214:A *241:A 0
4 *242:A *214:A 0
5 *3:29 *214:A 7.8866e-05
*RES
1 *213:Y *214:A 20.2563 
*END

*D_NET *55 0.00153379
*CONN
*I *240:A I *D sky130_fd_sc_hd__nand2_1
*I *241:A I *D sky130_fd_sc_hd__nand2_1
*I *214:Y O *D sky130_fd_sc_hd__inv_1
*CAP
1 *240:A 0.000393169
2 *241:A 2.35209e-05
3 *214:Y 0.000108336
4 *55:6 0.000525026
5 *240:A *241:B 5.49544e-05
6 *240:A *80:10 3.08664e-05
7 *55:6 *242:B 5.33005e-05
8 p[0] *240:A 0
9 *206:A *241:A 0
10 *214:A *241:A 0
11 *240:B *240:A 0.000178599
12 *242:A *240:A 8.49911e-05
13 *242:A *241:A 9.35228e-06
14 *242:A *55:6 3.08664e-05
15 *3:29 *55:6 4.08109e-05
16 *9:45 *240:A 0
*RES
1 *214:Y *55:6 11.2732 
2 *55:6 *241:A 9.72857 
3 *55:6 *240:A 25.5321 
*END

*D_NET *56 0.00101988
*CONN
*I *216:A I *D sky130_fd_sc_hd__inv_1
*I *215:Y O *D sky130_fd_sc_hd__nand2_1
*CAP
1 *216:A 0.00031246
2 *215:Y 0.00031246
3 *216:A *249:A 0.00014285
4 *216:A *57:6 7.71367e-05
5 *209:A *216:A 5.62995e-05
6 *209:B *216:A 0.000118677
*RES
1 *215:Y *216:A 24.7741 
*END

*D_NET *57 0.000804721
*CONN
*I *250:A I *D sky130_fd_sc_hd__nand2_1
*I *249:A I *D sky130_fd_sc_hd__nand2_1
*I *216:Y O *D sky130_fd_sc_hd__inv_1
*CAP
1 *250:A 0.000135182
2 *249:A 1.86116e-05
3 *216:Y 1.06292e-05
4 *57:6 0.000164422
5 *250:A *257:A 2.8266e-06
6 *250:A *89:8 4.25716e-05
7 *209:B *249:A 0.000144773
8 *209:B *250:A 0
9 *209:B *57:6 6.57193e-05
10 *216:A *249:A 0.00014285
11 *216:A *57:6 7.71367e-05
12 *251:A *250:A 0
13 *51:10 *250:A 0
*RES
1 *216:Y *57:6 10.0411 
2 *57:6 *249:A 10.6571 
3 *57:6 *250:A 20.55 
*END

*D_NET *58 0.00019063
*CONN
*I *218:A I *D sky130_fd_sc_hd__inv_1
*I *217:Y O *D sky130_fd_sc_hd__nand2_1
*CAP
1 *218:A 7.30205e-05
2 *217:Y 7.30205e-05
3 *217:A *218:A 4.45889e-05
*RES
1 *217:Y *218:A 20.2563 
*END

*D_NET *59 0.00062737
*CONN
*I *259:A I *D sky130_fd_sc_hd__nand2_1
*I *258:A I *D sky130_fd_sc_hd__nand2_1
*I *218:Y O *D sky130_fd_sc_hd__inv_1
*CAP
1 *259:A 0.000111669
2 *258:A 0
3 *218:Y 0.000148295
4 *59:10 0.000259964
5 *259:A *260:A 0
6 *259:A *98:10 0.00010326
7 *59:10 *257:A 0
8 *217:A *59:10 4.18134e-06
9 *233:B *259:A 0
10 *10:9 *259:A 0
11 *10:9 *59:10 0
12 *10:31 *259:A 0
*RES
1 *218:Y *59:10 16.0768 
2 *59:10 *258:A 13.8 
3 *59:10 *259:A 16.05 
*END

*D_NET *60 0.000491662
*CONN
*I *220:A I *D sky130_fd_sc_hd__inv_1
*I *219:Y O *D sky130_fd_sc_hd__nand2_1
*CAP
1 *220:A 0.000130627
2 *219:Y 0.000130627
3 *220:A *266:B 0
4 *220:A *87:14 0.000115705
5 *7:19 *220:A 0.000114703
*RES
1 *219:Y *220:A 30.6491 
*END

*D_NET *61 0.000569789
*CONN
*I *263:B I *D sky130_fd_sc_hd__nand2_1
*I *265:A I *D sky130_fd_sc_hd__nand2_1
*I *220:Y O *D sky130_fd_sc_hd__inv_1
*CAP
1 *263:B 0
2 *265:A 0.000118234
3 *220:Y 2.37715e-05
4 *61:6 0.000142006
5 *265:A *265:B 2.82057e-05
6 *265:A *266:B 0.000123288
7 *265:A *87:14 5.52302e-05
8 *61:6 *87:14 7.90536e-05
9 *7:19 *265:A 0
*RES
1 *220:Y *61:6 10.0411 
2 *61:6 *265:A 21.0857 
3 *61:6 *263:B 9.3 
*END

*D_NET *62 0.000535781
*CONN
*I *222:A I *D sky130_fd_sc_hd__inv_1
*I *221:Y O *D sky130_fd_sc_hd__nand2_1
*CAP
1 *222:A 0.000234033
2 *221:Y 0.000234033
3 *219:A *222:A 6.98553e-06
4 *221:B *222:A 1.58163e-05
5 *8:9 *222:A 4.49141e-05
*RES
1 *221:Y *222:A 31.1402 
*END

*D_NET *63 0.000689646
*CONN
*I *268:B I *D sky130_fd_sc_hd__nand2_1
*I *270:A I *D sky130_fd_sc_hd__nand2_1
*I *222:Y O *D sky130_fd_sc_hd__inv_1
*CAP
1 *268:B 0.000171649
2 *270:A 0
3 *222:Y 4.99404e-05
4 *63:8 0.000221589
5 *268:B *269:A 4.68028e-05
6 *268:B *270:B 5.49995e-05
7 *268:B *107:8 3.09683e-05
8 *63:8 *107:8 2.04681e-05
9 *219:A *268:B 1.51881e-05
10 *219:A *63:8 7.80411e-05
*RES
1 *222:Y *63:8 10.7732 
2 *63:8 *270:A 9.3 
3 *63:8 *268:B 12.7464 
*END

*D_NET *64 0.00181726
*CONN
*I *224:A I *D sky130_fd_sc_hd__inv_1
*I *223:Y O *D sky130_fd_sc_hd__nand2_1
*CAP
1 *224:A 0.000634786
2 *223:Y 0.000634786
3 *224:A *278:B 1.50178e-05
4 *224:A *279:A 1.51613e-05
5 *224:A *279:B 6.03823e-06
6 *224:A *280:A 7.58841e-05
7 *224:A *280:B 2.85321e-05
8 *224:A *281:A 8.95363e-05
9 *224:A *281:B 5.73153e-05
10 *224:A *283:A 6.61827e-06
11 *224:A *65:6 1.6607e-05
12 *224:A *117:23 3.63281e-05
13 *223:A *224:A 5.6505e-05
14 *231:B *224:A 2.33412e-05
15 *5:22 *224:A 6.58045e-05
16 *5:24 *224:A 5.49995e-05
*RES
1 *223:Y *224:A 46.8187 
*END

*D_NET *65 0.00115695
*CONN
*I *280:A I *D sky130_fd_sc_hd__nand2_1
*I *278:B I *D sky130_fd_sc_hd__nand2_1
*I *224:Y O *D sky130_fd_sc_hd__inv_1
*CAP
1 *280:A 0.000176007
2 *278:B 0.000110617
3 *224:Y 7.78863e-06
4 *65:6 0.000294413
5 *278:B *278:A 1.71115e-05
6 *278:B *279:A 5.50052e-05
7 *280:A *278:A 0
8 *280:A *279:B 7.35458e-06
9 *280:A *281:A 1.01912e-05
10 *280:A *101:10 1.46689e-05
11 *280:A *117:23 1.42165e-05
12 *223:B *278:B 4.41666e-05
13 *224:A *278:B 1.50178e-05
14 *224:A *280:A 7.58841e-05
15 *224:A *65:6 1.6607e-05
16 *5:22 *278:B 0.000271155
17 *5:22 *65:6 2.17339e-05
18 *9:15 *278:B 5.01649e-06
*RES
1 *224:Y *65:6 9.63036 
2 *65:6 *278:B 21.6214 
3 *65:6 *280:A 21.1571 
*END

*D_NET *66 0.000409367
*CONN
*I *226:A I *D sky130_fd_sc_hd__inv_1
*I *225:Y O *D sky130_fd_sc_hd__nand2_1
*CAP
1 *226:A 0.000175024
2 *225:Y 0.000175024
3 *226:A *290:A 4.27842e-06
4 *225:A *226:A 3.00538e-05
5 *225:B *226:A 1.72894e-05
6 *5:22 *226:A 7.69776e-06
*RES
1 *225:Y *226:A 30.3634 
*END

*D_NET *67 0.000403941
*CONN
*I *290:A I *D sky130_fd_sc_hd__nand2_1
*I *288:B I *D sky130_fd_sc_hd__nand2_1
*I *226:Y O *D sky130_fd_sc_hd__inv_1
*CAP
1 *290:A 9.88305e-05
2 *288:B 2.91903e-05
3 *226:Y 2.01021e-05
4 *67:6 0.000148123
5 *290:A *296:A 5.54817e-06
6 *290:A *126:8 6.35274e-05
7 *226:A *290:A 4.27842e-06
8 *233:B *290:A 1.5864e-05
9 *5:22 *288:B 1.84776e-05
*RES
1 *226:Y *67:6 9.63036 
2 *67:6 *288:B 9.83571 
3 *67:6 *290:A 20.55 
*END

*D_NET *68 0.000342446
*CONN
*I *228:A I *D sky130_fd_sc_hd__inv_1
*I *227:Y O *D sky130_fd_sc_hd__nand2_1
*CAP
1 *228:A 0.000171223
2 *227:Y 0.000171223
*RES
1 *227:Y *228:A 30.3455 
*END

*D_NET *69 0.000616004
*CONN
*I *174:B I *D sky130_fd_sc_hd__nand2_1
*I *176:A I *D sky130_fd_sc_hd__nand2_1
*I *228:Y O *D sky130_fd_sc_hd__inv_1
*CAP
1 *174:B 1.75374e-05
2 *176:A 0.000138444
3 *228:Y 4.21591e-05
4 *69:6 0.00019814
5 *176:A *175:A 5.49995e-05
6 *175:B *176:A 1.02301e-05
7 *176:B *176:A 3.65727e-05
8 *177:B *176:A 5.49995e-05
9 *20:6 *176:A 6.29219e-05
*RES
1 *228:Y *69:6 10.0411 
2 *69:6 *176:A 12.3179 
3 *69:6 *174:B 9.72857 
*END

*D_NET *70 0.000246357
*CONN
*I *230:A I *D sky130_fd_sc_hd__inv_1
*I *229:Y O *D sky130_fd_sc_hd__nand2_1
*CAP
1 *230:A 9.65747e-05
2 *229:Y 9.65747e-05
3 *6:27 *230:A 5.32071e-05
*RES
1 *229:Y *230:A 29.4795 
*END

*D_NET *71 0.000435372
*CONN
*I *179:B I *D sky130_fd_sc_hd__nand2_1
*I *181:A I *D sky130_fd_sc_hd__nand2_1
*I *230:Y O *D sky130_fd_sc_hd__inv_1
*CAP
1 *179:B 2.52056e-05
2 *181:A 0
3 *230:Y 0.000164865
4 *71:12 0.000190071
5 *181:B *179:B 5.52302e-05
*RES
1 *230:Y *71:12 20.5768 
2 *71:12 *181:A 9.3 
3 *71:12 *179:B 9.83571 
*END

*D_NET *72 0.000810104
*CONN
*I *232:A I *D sky130_fd_sc_hd__inv_1
*I *231:Y O *D sky130_fd_sc_hd__nand2_1
*CAP
1 *232:A 0.00023378
2 *231:Y 0.00023378
3 *232:A *190:A 1.02504e-05
4 *232:A *73:8 1.66955e-05
5 *232:A *133:10 0.000181949
6 *6:17 *232:A 0.000102659
7 *6:27 *232:A 3.09893e-05
*RES
1 *231:Y *232:A 32.9795 
*END

*D_NET *73 0.00146426
*CONN
*I *191:A I *D sky130_fd_sc_hd__nand2_1
*I *189:B I *D sky130_fd_sc_hd__nand2_1
*I *232:Y O *D sky130_fd_sc_hd__inv_1
*CAP
1 *191:A 0.000191261
2 *189:B 1.37854e-05
3 *232:Y 0.000144691
4 *73:8 0.000349737
5 *189:B *190:A 8.2958e-06
6 *189:B *133:10 5.80706e-06
7 *191:B *191:A 0.000203584
8 *192:A *191:A 5.33005e-05
9 *192:B *191:A 5.49544e-05
10 *197:A *191:A 9.2302e-05
11 *197:B *191:A 3.01764e-05
12 *232:A *73:8 1.66955e-05
13 *33:8 *189:B 3.34295e-05
14 *33:8 *191:A 0.000122758
15 *37:6 *191:A 1.70399e-05
16 *37:14 *189:B 5.83304e-05
17 *37:14 *191:A 6.81083e-05
*RES
1 *232:Y *73:8 15.3625 
2 *73:8 *189:B 14.5321 
3 *73:8 *191:A 28.2107 
*END

*D_NET *74 0.000425886
*CONN
*I *234:A I *D sky130_fd_sc_hd__inv_1
*I *233:Y O *D sky130_fd_sc_hd__nand2_1
*CAP
1 *234:A 9.67789e-05
2 *233:Y 9.67789e-05
3 *234:A *199:A 1.24368e-05
4 *234:A *75:8 1.59935e-05
5 *234:A *134:14 0.000119973
6 *233:A *234:A 6.47254e-05
7 *42:10 *234:A 1.91989e-05
*RES
1 *233:Y *234:A 29.8902 
*END

*D_NET *75 0.00103914
*CONN
*I *199:B I *D sky130_fd_sc_hd__nand2_1
*I *201:A I *D sky130_fd_sc_hd__nand2_1
*I *234:Y O *D sky130_fd_sc_hd__inv_1
*CAP
1 *199:B 0
2 *201:A 0.000251512
3 *234:Y 9.29898e-05
4 *75:8 0.000344502
5 *201:A *199:A 5.33005e-05
6 *201:A *200:A 8.56716e-05
7 *201:A *134:14 5.03564e-05
8 *75:8 *199:A 1.38992e-05
9 *201:B *201:A 1.97387e-05
10 *202:A *201:A 1.04232e-05
11 *202:B *201:A 5.2714e-05
12 *234:A *75:8 1.59935e-05
13 *6:17 *201:A 1.32293e-05
14 *6:17 *75:8 3.48083e-05
*RES
1 *234:Y *75:8 10.7732 
2 *75:8 *201:A 23.4964 
3 *75:8 *199:B 9.3 
*END

*D_NET *76 0.000810807
*CONN
*I *239:A I *D sky130_fd_sc_hd__inv_1
*I *236:B I *D sky130_fd_sc_hd__nand2_1
*I *237:B I *D sky130_fd_sc_hd__nand2_1
*I *235:Y O *D sky130_fd_sc_hd__nand2_1
*CAP
1 *239:A 0.000172583
2 *236:B 0
3 *237:B 2.53826e-05
4 *235:Y 4.51217e-05
5 *76:10 0.000243087
6 *237:B *238:A 5.33005e-05
7 *239:A *238:A 1.98839e-05
8 *239:A *238:B 0
9 *236:A *76:10 0.000125724
10 *237:A *76:10 0.000125724
*RES
1 *235:Y *76:10 19.9429 
2 *76:10 *237:B 9.83571 
3 *76:10 *236:B 9.3 
4 *76:10 *239:A 12.617 
*END

*D_NET *77 0.000542029
*CONN
*I *238:A I *D sky130_fd_sc_hd__nand2_1
*I *236:Y O *D sky130_fd_sc_hd__nand2_1
*CAP
1 *238:A 0.000192019
2 *236:Y 0.000192019
3 *238:A *238:B 6.20656e-05
4 p[1] *238:A 2.27416e-05
5 *237:B *238:A 5.33005e-05
6 *239:A *238:A 1.98839e-05
*RES
1 *236:Y *238:A 22.0286 
*END

*D_NET *78 0.000178397
*CONN
*I *238:B I *D sky130_fd_sc_hd__nand2_1
*I *237:Y O *D sky130_fd_sc_hd__nand2_1
*CAP
1 *238:B 5.81656e-05
2 *237:Y 5.81656e-05
3 *238:A *238:B 6.20656e-05
4 *239:A *238:B 0
*RES
1 *237:Y *238:B 19.975 
*END

*D_NET *79 0.00118847
*CONN
*I *244:B I *D sky130_fd_sc_hd__nand2_1
*I *246:A I *D sky130_fd_sc_hd__nand2_1
*I *239:Y O *D sky130_fd_sc_hd__inv_1
*CAP
1 *244:B 0.000249384
2 *246:A 3.18915e-05
3 *239:Y 9.0507e-05
4 *79:12 0.000371782
5 *244:B *245:A 4.3588e-05
6 *244:B *246:B 2.95641e-05
7 *244:B *247:A 0.00014285
8 *244:B *247:B 0.00010096
9 *244:B *248:B 0
10 *244:B *84:24 7.49387e-06
11 *246:A *246:B 5.7661e-06
12 *246:A *247:B 9.7049e-06
13 *7:19 *79:12 0.000104974
14 *8:13 *79:12 0
*RES
1 *239:Y *79:12 19.9696 
2 *79:12 *246:A 10.0321 
3 *79:12 *244:B 14.2643 
*END

*D_NET *80 0.00209363
*CONN
*I *248:A I *D sky130_fd_sc_hd__nand2_1
*I *241:B I *D sky130_fd_sc_hd__nand2_1
*I *242:B I *D sky130_fd_sc_hd__nand2_1
*I *240:Y O *D sky130_fd_sc_hd__nand2_1
*CAP
1 *248:A 0.000353475
2 *241:B 9.788e-06
3 *242:B 1.69531e-05
4 *240:Y 0.000266137
5 *80:21 0.000471254
6 *80:10 0.000391081
7 *248:A *243:A 0.000125005
8 *248:A *83:12 0
9 p[0] *80:10 6.35819e-05
10 *240:A *241:B 5.49544e-05
11 *240:A *80:10 3.08664e-05
12 *242:A *241:B 5.65955e-05
13 *3:29 *242:B 5.33005e-05
14 *4:7 *248:A 0
15 *4:7 *80:10 0.000147332
16 *8:13 *248:A 0
17 *55:6 *242:B 5.33005e-05
*RES
1 *240:Y *80:10 17.5143 
2 *80:10 *242:B 14.3357 
3 *80:10 *80:21 1.35714 
4 *80:21 *241:B 14.3357 
5 *80:21 *248:A 20.5143 
*END

*D_NET *81 0.000285785
*CONN
*I *243:A I *D sky130_fd_sc_hd__nand2_1
*I *241:Y O *D sky130_fd_sc_hd__nand2_1
*CAP
1 *243:A 4.71247e-05
2 *241:Y 4.71247e-05
3 *243:A *243:B 6.65302e-05
4 *248:A *243:A 0.000125005
*RES
1 *241:Y *243:A 29.2429 
*END

*D_NET *82 0.0002568
*CONN
*I *243:B I *D sky130_fd_sc_hd__nand2_1
*I *242:Y O *D sky130_fd_sc_hd__nand2_1
*CAP
1 *243:B 5.59554e-05
2 *242:Y 5.59554e-05
3 *243:A *243:B 6.65302e-05
4 *4:7 *243:B 7.83587e-05
5 *8:13 *243:B 0
*RES
1 *242:Y *243:B 29.2429 
*END

*D_NET *83 0.000973272
*CONN
*I *244:A I *D sky130_fd_sc_hd__nand2_1
*I *245:A I *D sky130_fd_sc_hd__nand2_1
*I *243:Y O *D sky130_fd_sc_hd__nand2_1
*CAP
1 *244:A 0
2 *245:A 5.95518e-05
3 *243:Y 0.000300116
4 *83:12 0.000359668
5 *245:A *248:B 5.52238e-05
6 *245:A *84:24 0.000136697
7 *244:B *245:A 4.3588e-05
8 *248:A *83:12 0
9 *4:9 *83:12 1.05901e-05
10 *4:39 *83:12 7.83769e-06
11 *8:13 *83:12 0
*RES
1 *243:Y *83:12 22.0143 
2 *83:12 *245:A 11.6393 
3 *83:12 *244:A 9.3 
*END

*D_NET *84 0.00118066
*CONN
*I *245:B I *D sky130_fd_sc_hd__nand2_1
*I *246:B I *D sky130_fd_sc_hd__nand2_1
*I *248:B I *D sky130_fd_sc_hd__nand2_1
*I *244:Y O *D sky130_fd_sc_hd__nand2_1
*CAP
1 *245:B 0
2 *246:B 0.000125924
3 *248:B 0.000117713
4 *244:Y 0.000252092
5 *84:24 0.000260303
6 *246:B *247:A 9.20022e-05
7 *246:B *247:B 4.22908e-05
8 *248:B *255:A 1.3701e-05
9 *84:24 *247:A 4.18895e-05
10 *244:B *246:B 2.95641e-05
11 *244:B *248:B 0
12 *244:B *84:24 7.49387e-06
13 *245:A *248:B 5.52238e-05
14 *245:A *84:24 0.000136697
15 *246:A *246:B 5.7661e-06
*RES
1 *244:Y *248:B 20.7964 
2 *244:Y *84:24 11.925 
3 *84:24 *246:B 12.4607 
4 *84:24 *245:B 9.3 
*END

*D_NET *85 0.000367147
*CONN
*I *247:A I *D sky130_fd_sc_hd__nand2_1
*I *245:Y O *D sky130_fd_sc_hd__nand2_1
*CAP
1 *247:A 3.5318e-05
2 *245:Y 3.5318e-05
3 *247:A *247:B 1.97695e-05
4 *244:B *247:A 0.00014285
5 *246:B *247:A 9.20022e-05
6 *84:24 *247:A 4.18895e-05
*RES
1 *245:Y *247:A 20.3857 
*END

*D_NET *86 0.000233239
*CONN
*I *247:B I *D sky130_fd_sc_hd__nand2_1
*I *246:Y O *D sky130_fd_sc_hd__nand2_1
*CAP
1 *247:B 3.02571e-05
2 *246:Y 3.02571e-05
3 *244:B *247:B 0.00010096
4 *246:A *247:B 9.7049e-06
5 *246:B *247:B 4.22908e-05
6 *247:A *247:B 1.97695e-05
*RES
1 *246:Y *247:B 19.975 
*END

*D_NET *87 0.00135616
*CONN
*I *263:A I *D sky130_fd_sc_hd__nand2_1
*I *264:A I *D sky130_fd_sc_hd__nand2_1
*I *247:Y O *D sky130_fd_sc_hd__nand2_1
*CAP
1 *263:A 0
2 *264:A 1.98341e-05
3 *247:Y 0.000503641
4 *87:14 0.000523475
5 *264:A *264:B 5.52238e-05
6 *87:14 *264:B 3.99614e-06
7 *220:A *87:14 0.000115705
8 *265:A *87:14 5.52302e-05
9 *7:19 *87:14 0
10 *8:9 *87:14 0
11 *8:13 *87:14 0
12 *61:6 *87:14 7.90536e-05
*RES
1 *247:Y *87:14 27.05 
2 *87:14 *264:A 9.83571 
3 *87:14 *263:A 9.3 
*END

*D_NET *88 0.000425813
*CONN
*I *253:B I *D sky130_fd_sc_hd__nand2_1
*I *255:A I *D sky130_fd_sc_hd__nand2_1
*I *248:Y O *D sky130_fd_sc_hd__nand2_1
*CAP
1 *253:B 7.89513e-05
2 *255:A 8.72318e-06
3 *248:Y 6.96725e-05
4 *88:6 0.000157347
5 *253:B *255:B 7.60962e-05
6 *253:B *256:B 1.59373e-05
7 *255:A *255:B 5.38444e-06
8 *248:B *255:A 1.3701e-05
*RES
1 *248:Y *88:6 10.2464 
2 *88:6 *255:A 9.72857 
3 *88:6 *253:B 11.0857 
*END

*D_NET *89 0.000860602
*CONN
*I *257:A I *D sky130_fd_sc_hd__nand2_1
*I *250:B I *D sky130_fd_sc_hd__nand2_1
*I *251:B I *D sky130_fd_sc_hd__nand2_1
*I *249:Y O *D sky130_fd_sc_hd__nand2_1
*CAP
1 *257:A 0.000207754
2 *250:B 1.40355e-05
3 *251:B 0
4 *249:Y 6.2592e-05
5 *89:10 1.40355e-05
6 *89:8 0.000270346
7 *250:B *252:A 5.52302e-05
8 *257:A *258:B 9.90367e-05
9 *217:A *250:B 2.89114e-05
10 *250:A *257:A 2.8266e-06
11 *250:A *89:8 4.25716e-05
12 *251:A *89:8 6.32633e-05
13 *9:45 *257:A 0
14 *10:9 *257:A 0
15 *59:10 *257:A 0
*RES
1 *249:Y *89:8 15.4429 
2 *89:8 *89:10 4.5 
3 *89:10 *251:B 9.3 
4 *89:10 *250:B 9.83571 
5 *89:8 *257:A 17.6036 
*END

*D_NET *90 0.000494782
*CONN
*I *252:A I *D sky130_fd_sc_hd__nand2_1
*I *250:Y O *D sky130_fd_sc_hd__nand2_1
*CAP
1 *252:A 0.000143785
2 *250:Y 0.000143785
3 *252:A *252:B 5.75275e-05
4 *252:A *92:12 3.18676e-05
5 *217:A *252:A 6.25878e-05
6 *250:B *252:A 5.52302e-05
*RES
1 *250:Y *252:A 22.0286 
*END

*D_NET *91 0.000242878
*CONN
*I *252:B I *D sky130_fd_sc_hd__nand2_1
*I *251:Y O *D sky130_fd_sc_hd__nand2_1
*CAP
1 *252:B 4.36665e-05
2 *251:Y 4.36665e-05
3 *217:A *252:B 9.80173e-05
4 *252:A *252:B 5.75275e-05
*RES
1 *251:Y *252:B 19.975 
*END

*D_NET *92 0.00113049
*CONN
*I *254:A I *D sky130_fd_sc_hd__nand2_1
*I *253:A I *D sky130_fd_sc_hd__nand2_1
*I *252:Y O *D sky130_fd_sc_hd__nand2_1
*CAP
1 *254:A 0
2 *253:A 1.40568e-05
3 *252:Y 0.000431698
4 *92:12 0.000445755
5 *253:A *256:A 2.89016e-05
6 *253:A *93:19 5.52238e-05
7 *217:A *92:12 3.81416e-06
8 *252:A *92:12 3.18676e-05
9 *4:39 *92:12 2.82765e-05
10 *9:15 *92:12 9.08946e-05
*RES
1 *252:Y *92:12 24.0679 
2 *92:12 *253:A 9.83571 
3 *92:12 *254:A 9.3 
*END

*D_NET *93 0.000917555
*CONN
*I *257:B I *D sky130_fd_sc_hd__nand2_1
*I *254:B I *D sky130_fd_sc_hd__nand2_1
*I *255:B I *D sky130_fd_sc_hd__nand2_1
*I *253:Y O *D sky130_fd_sc_hd__nand2_1
*CAP
1 *257:B 0.000180077
2 *254:B 0
3 *255:B 7.04985e-05
4 *253:Y 0
5 *93:19 0.000291629
6 *93:4 0.000182051
7 *255:B *256:B 5.65955e-05
8 *253:A *93:19 5.52238e-05
9 *253:B *255:B 7.60962e-05
10 *255:A *255:B 5.38444e-06
*RES
1 *253:Y *93:4 9.3 
2 *93:4 *255:B 11.4071 
3 *93:4 *93:19 2.19643 
4 *93:19 *254:B 9.3 
5 *93:19 *257:B 12.3 
*END

*D_NET *94 0.000399195
*CONN
*I *256:A I *D sky130_fd_sc_hd__nand2_1
*I *254:Y O *D sky130_fd_sc_hd__nand2_1
*CAP
1 *256:A 8.98422e-05
2 *254:Y 8.98422e-05
3 *256:A *256:B 6.24558e-05
4 *253:A *256:A 2.89016e-05
5 *9:15 *256:A 0.000128154
*RES
1 *254:Y *256:A 29.7786 
*END

*D_NET *95 0.000425445
*CONN
*I *256:B I *D sky130_fd_sc_hd__nand2_1
*I *255:Y O *D sky130_fd_sc_hd__nand2_1
*CAP
1 *256:B 0.000145228
2 *255:Y 0.000145228
3 *253:B *256:B 1.59373e-05
4 *255:B *256:B 5.65955e-05
5 *256:A *256:B 6.24558e-05
*RES
1 *255:Y *256:B 30.1893 
*END

*D_NET *96 0.00104309
*CONN
*I *268:A I *D sky130_fd_sc_hd__nand2_1
*I *269:A I *D sky130_fd_sc_hd__nand2_1
*I *256:Y O *D sky130_fd_sc_hd__nand2_1
*CAP
1 *268:A 0
2 *269:A 6.49743e-05
3 *256:Y 0.000363086
4 *96:12 0.00042806
5 *269:A *107:8 0.000118898
6 *268:B *269:A 4.68028e-05
7 *5:24 *269:A 2.12647e-05
*RES
1 *256:Y *96:12 22.8357 
2 *96:12 *269:A 11.5143 
3 *96:12 *268:A 9.3 
*END

*D_NET *97 0.00069373
*CONN
*I *260:A I *D sky130_fd_sc_hd__nand2_1
*I *258:B I *D sky130_fd_sc_hd__nand2_1
*I *257:Y O *D sky130_fd_sc_hd__nand2_1
*CAP
1 *260:A 0.000103387
2 *258:B 0.000193959
3 *257:Y 0
4 *97:4 0.000297347
5 *260:A *98:10 0
6 *257:A *258:B 9.90367e-05
7 *259:A *260:A 0
*RES
1 *257:Y *97:4 9.3 
2 *97:4 *258:B 12.7464 
3 *97:4 *260:A 19.9429 
*END

*D_NET *98 0.000864413
*CONN
*I *262:A I *D sky130_fd_sc_hd__inv_1
*I *259:B I *D sky130_fd_sc_hd__nand2_1
*I *260:B I *D sky130_fd_sc_hd__nand2_1
*I *258:Y O *D sky130_fd_sc_hd__nand2_1
*CAP
1 *262:A 0.000100616
2 *259:B 5.97445e-06
3 *260:B 0.000109012
4 *258:Y 5.77258e-05
5 *98:12 0.000141153
6 *98:10 0.000184508
7 *259:B *261:A 1.04232e-05
8 *260:B *261:A 3.18676e-05
9 *260:B *261:B 4.22908e-05
10 *260:B *101:10 1.32552e-05
11 *262:A *261:A 6.05161e-06
12 *262:A *102:10 2.93746e-05
13 *98:12 *261:A 2.89016e-05
14 *259:A *98:10 0.00010326
15 *260:A *98:10 0
*RES
1 *258:Y *98:10 19.6393 
2 *98:10 *98:12 0.535714 
3 *98:12 *260:B 11.4964 
4 *98:12 *259:B 9.72857 
5 *98:10 *262:A 11.367 
*END

*D_NET *99 0.000213768
*CONN
*I *261:A I *D sky130_fd_sc_hd__nand2_1
*I *259:Y O *D sky130_fd_sc_hd__nand2_1
*CAP
1 *261:A 5.83771e-05
2 *259:Y 5.83771e-05
3 *261:A *261:B 1.97695e-05
4 *259:B *261:A 1.04232e-05
5 *260:B *261:A 3.18676e-05
6 *262:A *261:A 6.05161e-06
7 *98:12 *261:A 2.89016e-05
*RES
1 *259:Y *261:A 19.975 
*END

*D_NET *100 0.000192354
*CONN
*I *261:B I *D sky130_fd_sc_hd__nand2_1
*I *260:Y O *D sky130_fd_sc_hd__nand2_1
*CAP
1 *261:B 3.69972e-05
2 *260:Y 3.69972e-05
3 *261:B *101:10 5.62995e-05
4 *260:B *261:B 4.22908e-05
5 *261:A *261:B 1.97695e-05
*RES
1 *260:Y *261:B 19.975 
*END

*D_NET *101 0.00128072
*CONN
*I *279:A I *D sky130_fd_sc_hd__nand2_1
*I *278:A I *D sky130_fd_sc_hd__nand2_1
*I *261:Y O *D sky130_fd_sc_hd__nand2_1
*CAP
1 *279:A 3.92191e-05
2 *278:A 7.78511e-05
3 *261:Y 0.000413017
4 *101:10 0.000530087
5 *278:A *279:B 2.31438e-05
6 *278:A *117:8 2.08518e-05
7 *279:A *279:B 5.04841e-06
8 *224:A *279:A 1.51613e-05
9 *260:B *101:10 1.32552e-05
10 *261:B *101:10 5.62995e-05
11 *278:B *278:A 1.71115e-05
12 *278:B *279:A 5.50052e-05
13 *280:A *278:A 0
14 *280:A *101:10 1.46689e-05
*RES
1 *261:Y *101:10 19.2643 
2 *101:10 *278:A 15.3893 
3 *101:10 *279:A 14.7643 
*END

*D_NET *102 0.000929433
*CONN
*I *289:A I *D sky130_fd_sc_hd__nand2_1
*I *288:A I *D sky130_fd_sc_hd__nand2_1
*I *262:Y O *D sky130_fd_sc_hd__inv_1
*CAP
1 *289:A 0.000113207
2 *288:A 7.03126e-05
3 *262:Y 0.00019207
4 *102:10 0.00037559
5 *233:B *289:A 5.57285e-05
6 *233:B *102:10 4.49141e-05
7 *262:A *102:10 2.93746e-05
8 *5:22 *288:A 4.82354e-05
*RES
1 *262:Y *102:10 16.8982 
2 *102:10 *288:A 15.1571 
3 *102:10 *289:A 16.05 
*END

*D_NET *103 0.00102557
*CONN
*I *267:A I *D sky130_fd_sc_hd__inv_1
*I *264:B I *D sky130_fd_sc_hd__nand2_1
*I *265:B I *D sky130_fd_sc_hd__nand2_1
*I *263:Y O *D sky130_fd_sc_hd__nand2_1
*CAP
1 *267:A 0.000143468
2 *264:B 0.000102424
3 *265:B 0.000107781
4 *263:Y 0.000143468
5 *103:4 0.000210205
6 *265:B *266:B 7.83587e-05
7 *267:A *266:B 0.00015244
8 *264:A *264:B 5.52238e-05
9 *265:A *265:B 2.82057e-05
10 *87:14 *264:B 3.99614e-06
*RES
1 *263:Y *103:4 9.3 
2 *103:4 *265:B 20.4786 
3 *103:4 *264:B 11.5143 
4 *263:Y *267:A 30.6491 
*END

*D_NET *104 0.000237032
*CONN
*I *266:A I *D sky130_fd_sc_hd__nand2_1
*I *264:Y O *D sky130_fd_sc_hd__nand2_1
*CAP
1 *266:A 7.99801e-05
2 *264:Y 7.99801e-05
3 *266:A *266:B 7.70717e-05
4 p[2] *266:A 0
*RES
1 *264:Y *266:A 29.5464 
*END

*D_NET *105 0.000814438
*CONN
*I *266:B I *D sky130_fd_sc_hd__nand2_1
*I *265:Y O *D sky130_fd_sc_hd__nand2_1
*CAP
1 *266:B 0.00019164
2 *265:Y 0.00019164
3 p[2] *266:B 0
4 *220:A *266:B 0
5 *265:A *266:B 0.000123288
6 *265:B *266:B 7.83587e-05
7 *266:A *266:B 7.70717e-05
8 *267:A *266:B 0.00015244
*RES
1 *265:Y *266:B 31.975 
*END

*D_NET *106 0.000365344
*CONN
*I *272:B I *D sky130_fd_sc_hd__nand2_1
*I *274:A I *D sky130_fd_sc_hd__nand2_1
*I *267:Y O *D sky130_fd_sc_hd__inv_1
*CAP
1 *272:B 2.50801e-05
2 *274:A 0
3 *267:Y 0.000130089
4 *106:12 0.000155169
5 *272:B *274:B 5.50052e-05
*RES
1 *267:Y *106:12 20.2732 
2 *106:12 *274:A 9.3 
3 *106:12 *272:B 9.83571 
*END

*D_NET *107 0.000929702
*CONN
*I *269:B I *D sky130_fd_sc_hd__nand2_1
*I *270:B I *D sky130_fd_sc_hd__nand2_1
*I *277:A I *D sky130_fd_sc_hd__nand2_1
*I *268:Y O *D sky130_fd_sc_hd__nand2_1
*CAP
1 *269:B 0
2 *270:B 1.82933e-05
3 *277:A 7.59786e-05
4 *268:Y 4.80742e-05
5 *107:8 0.000142346
6 *277:A *271:A 0.000127939
7 *219:A *270:B 3.69047e-06
8 *268:B *270:B 5.49995e-05
9 *268:B *107:8 3.09683e-05
10 *269:A *107:8 0.000118898
11 *5:24 *270:B 1.35553e-05
12 *5:24 *107:8 0.0001871
13 *8:9 *277:A 8.7392e-05
14 *63:8 *107:8 2.04681e-05
*RES
1 *268:Y *107:8 11.8 
2 *107:8 *277:A 20.55 
3 *107:8 *270:B 9.83571 
4 *107:8 *269:B 9.3 
*END

*D_NET *108 0.000711521
*CONN
*I *271:A I *D sky130_fd_sc_hd__nand2_1
*I *269:Y O *D sky130_fd_sc_hd__nand2_1
*CAP
1 *271:A 0.000231998
2 *269:Y 0.000231998
3 *271:A *277:B 2.91668e-05
4 *271:A *110:8 3.11088e-05
5 *271:A *116:10 5.23735e-05
6 *277:A *271:A 0.000127939
7 *8:9 *271:A 6.93626e-06
*RES
1 *269:Y *271:A 32.5643 
*END

*D_NET *109 0.000272717
*CONN
*I *271:B I *D sky130_fd_sc_hd__nand2_1
*I *270:Y O *D sky130_fd_sc_hd__nand2_1
*CAP
1 *271:B 7.35189e-05
2 *270:Y 7.35189e-05
3 *8:9 *271:B 0.000125679
*RES
1 *270:Y *271:B 29.2429 
*END

*D_NET *110 0.000756477
*CONN
*I *273:A I *D sky130_fd_sc_hd__nand2_1
*I *272:A I *D sky130_fd_sc_hd__nand2_1
*I *271:Y O *D sky130_fd_sc_hd__nand2_1
*CAP
1 *273:A 0
2 *272:A 7.33263e-06
3 *271:Y 0.000111286
4 *110:8 0.000118619
5 *272:A *273:B 5.66971e-05
6 *272:A *277:B 2.38501e-05
7 *110:8 *273:B 4.9209e-05
8 *110:8 *277:B 0.000358374
9 *271:A *110:8 3.11088e-05
*RES
1 *271:Y *110:8 13.1393 
2 *110:8 *272:A 9.83571 
3 *110:8 *273:A 9.3 
*END

*D_NET *111 0.00174452
*CONN
*I *277:B I *D sky130_fd_sc_hd__nand2_1
*I *273:B I *D sky130_fd_sc_hd__nand2_1
*I *274:B I *D sky130_fd_sc_hd__nand2_1
*I *272:Y O *D sky130_fd_sc_hd__nand2_1
*CAP
1 *277:B 0.000364133
2 *273:B 9.10945e-05
3 *274:B 0.00011662
4 *272:Y 0.000364133
5 *111:4 0.000207715
6 *273:B *276:A 2.85234e-05
7 *271:A *277:B 2.91668e-05
8 *272:A *273:B 5.66971e-05
9 *272:A *277:B 2.38501e-05
10 *272:B *274:B 5.50052e-05
11 *110:8 *273:B 4.9209e-05
12 *110:8 *277:B 0.000358374
*RES
1 *272:Y *111:4 9.3 
2 *111:4 *274:B 11.4964 
3 *111:4 *273:B 11.4964 
4 *272:Y *277:B 23.975 
*END

*D_NET *112 0.00043581
*CONN
*I *276:A I *D sky130_fd_sc_hd__nand2_1
*I *273:Y O *D sky130_fd_sc_hd__nand2_1
*CAP
1 *276:A 0.000129947
2 *273:Y 0.000129947
3 *276:A *276:B 0
4 *273:B *276:A 2.85234e-05
5 *7:11 *276:A 0.000147394
*RES
1 *273:Y *276:A 30.0821 
*END

*D_NET *113 0.000432687
*CONN
*I *276:B I *D sky130_fd_sc_hd__nand2_1
*I *274:Y O *D sky130_fd_sc_hd__nand2_1
*CAP
1 *276:B 0.000173453
2 *274:Y 0.000173453
3 *276:B *115:12 7.62323e-05
4 *177:A *276:B 9.54798e-06
5 *276:A *276:B 0
*RES
1 *274:Y *276:B 30.9036 
*END

*D_NET *114 0.000236898
*CONN
*I *286:A I *D sky130_fd_sc_hd__inv_1
*I *275:Y O *D sky130_fd_sc_hd__nand2_1
*CAP
1 *286:A 2.76009e-05
2 *275:Y 2.76009e-05
3 *173:A *286:A 3.18676e-05
4 *173:B *286:A 6.29324e-05
5 *275:A *286:A 1.04232e-05
6 *275:B *286:A 9.7049e-06
7 *3:29 *286:A 6.67678e-05
*RES
1 *275:Y *286:A 20.2563 
*END

*D_NET *115 0.000714296
*CONN
*I *174:A I *D sky130_fd_sc_hd__nand2_1
*I *175:A I *D sky130_fd_sc_hd__nand2_1
*I *276:Y O *D sky130_fd_sc_hd__nand2_1
*CAP
1 *174:A 0
2 *175:A 1.17665e-05
3 *276:Y 0.000212798
4 *115:12 0.000224564
5 *176:A *175:A 5.49995e-05
6 *177:A *115:12 7.89362e-05
7 *276:B *115:12 7.62323e-05
8 *20:6 *175:A 5.49995e-05
*RES
1 *276:Y *115:12 21.7107 
2 *115:12 *175:A 9.83571 
3 *115:12 *174:A 9.3 
*END

*D_NET *116 0.00135885
*CONN
*I *284:A I *D sky130_fd_sc_hd__nand2_1
*I *282:B I *D sky130_fd_sc_hd__nand2_1
*I *277:Y O *D sky130_fd_sc_hd__nand2_1
*CAP
1 *284:A 3.3938e-05
2 *282:B 0.000252725
3 *277:Y 0.000230653
4 *116:10 0.000517317
5 *282:B *283:B 2.2739e-06
6 *282:B *284:B 2.70242e-05
7 *282:B *285:A 0.000100716
8 *282:B *285:B 0.000100037
9 *282:B *121:24 3.75095e-05
10 *229:B *116:10 0
11 *271:A *116:10 5.23735e-05
12 *6:27 *284:A 4.27842e-06
13 *8:9 *116:10 0
*RES
1 *277:Y *116:10 16.9071 
2 *116:10 *282:B 18.4339 
3 *116:10 *284:A 14.5321 
*END

*D_NET *117 0.00062973
*CONN
*I *280:B I *D sky130_fd_sc_hd__nand2_1
*I *287:A I *D sky130_fd_sc_hd__nand2_1
*I *279:B I *D sky130_fd_sc_hd__nand2_1
*I *278:Y O *D sky130_fd_sc_hd__nand2_1
*CAP
1 *280:B 1.42311e-05
2 *287:A 0
3 *279:B 3.48223e-05
4 *278:Y 7.32521e-05
5 *117:23 9.52719e-05
6 *117:8 0.000189115
7 *279:B *281:A 2.11419e-05
8 *280:B *281:B 5.50052e-05
9 *117:23 *287:B 5.37741e-06
10 *224:A *279:B 6.03823e-06
11 *224:A *280:B 2.85321e-05
12 *224:A *117:23 3.63281e-05
13 *231:B *279:B 0
14 *278:A *279:B 2.31438e-05
15 *278:A *117:8 2.08518e-05
16 *279:A *279:B 5.04841e-06
17 *280:A *279:B 7.35458e-06
18 *280:A *117:23 1.42165e-05
*RES
1 *278:Y *117:8 14.7464 
2 *117:8 *279:B 14.6571 
3 *117:8 *117:23 6.14286 
4 *117:23 *287:A 9.3 
5 *117:23 *280:B 9.83571 
*END

*D_NET *118 0.00141333
*CONN
*I *281:A I *D sky130_fd_sc_hd__nand2_1
*I *279:Y O *D sky130_fd_sc_hd__nand2_1
*CAP
1 *281:A 0.000583218
2 *279:Y 0.000583218
3 *281:A *283:A 1.58163e-05
4 *224:A *281:A 8.95363e-05
5 *231:B *281:A 0.000110206
6 *279:B *281:A 2.11419e-05
7 *280:A *281:A 1.01912e-05
8 *9:5 *281:A 0
*RES
1 *279:Y *281:A 37.5476 
*END

*D_NET *119 0.000388227
*CONN
*I *281:B I *D sky130_fd_sc_hd__nand2_1
*I *280:Y O *D sky130_fd_sc_hd__nand2_1
*CAP
1 *281:B 9.87012e-05
2 *280:Y 9.87012e-05
3 *281:B *125:12 7.85037e-05
4 *224:A *281:B 5.73153e-05
5 *280:B *281:B 5.50052e-05
*RES
1 *280:Y *281:B 21.2071 
*END

*D_NET *120 0.00090937
*CONN
*I *282:A I *D sky130_fd_sc_hd__nand2_1
*I *283:A I *D sky130_fd_sc_hd__nand2_1
*I *281:Y O *D sky130_fd_sc_hd__nand2_1
*CAP
1 *282:A 7.42291e-05
2 *283:A 0.000240761
3 *281:Y 0
4 *120:4 0.00031499
5 *282:A *287:B 3.42301e-05
6 *224:A *283:A 6.61827e-06
7 *231:B *282:A 0.000147862
8 *231:B *283:A 7.48644e-05
9 *281:A *283:A 1.58163e-05
*RES
1 *281:Y *120:4 9.3 
2 *120:4 *283:A 21.6036 
3 *120:4 *282:A 20.2464 
*END

*D_NET *121 0.00122381
*CONN
*I *283:B I *D sky130_fd_sc_hd__nand2_1
*I *284:B I *D sky130_fd_sc_hd__nand2_1
*I *287:B I *D sky130_fd_sc_hd__nand2_1
*I *282:Y O *D sky130_fd_sc_hd__nand2_1
*CAP
1 *283:B 1.51375e-05
2 *284:B 8.62181e-05
3 *287:B 0.000245305
4 *282:Y 0.000314772
5 *121:24 0.000170823
6 *283:B *285:A 1.02132e-05
7 *284:B *285:A 3.08664e-05
8 *284:B *285:B 4.10796e-05
9 *284:B *124:16 5.65955e-05
10 *121:24 *285:A 2.36643e-05
11 *121:24 *124:16 0.000100037
12 *231:B *287:B 2.26791e-05
13 *282:A *287:B 3.42301e-05
14 *282:B *283:B 2.2739e-06
15 *282:B *284:B 2.70242e-05
16 *282:B *121:24 3.75095e-05
17 *117:23 *287:B 5.37741e-06
*RES
1 *282:Y *287:B 30.9036 
2 *282:Y *121:24 11.0679 
3 *121:24 *284:B 11.4964 
4 *121:24 *283:B 9.72857 
*END

*D_NET *122 0.000242904
*CONN
*I *285:A I *D sky130_fd_sc_hd__nand2_1
*I *283:Y O *D sky130_fd_sc_hd__nand2_1
*CAP
1 *285:A 2.94914e-05
2 *283:Y 2.94914e-05
3 *285:A *285:B 1.8461e-05
4 *282:B *285:A 0.000100716
5 *283:B *285:A 1.02132e-05
6 *284:B *285:A 3.08664e-05
7 *121:24 *285:A 2.36643e-05
*RES
1 *283:Y *285:A 19.975 
*END

*D_NET *123 0.000233157
*CONN
*I *285:B I *D sky130_fd_sc_hd__nand2_1
*I *284:Y O *D sky130_fd_sc_hd__nand2_1
*CAP
1 *285:B 3.67897e-05
2 *284:Y 3.67897e-05
3 *282:B *285:B 0.000100037
4 *284:B *285:B 4.10796e-05
5 *285:A *285:B 1.8461e-05
*RES
1 *284:Y *285:B 19.975 
*END

*D_NET *124 0.00148355
*CONN
*I *180:A I *D sky130_fd_sc_hd__nand2_1
*I *179:A I *D sky130_fd_sc_hd__nand2_1
*I *285:Y O *D sky130_fd_sc_hd__nand2_1
*CAP
1 *180:A 0
2 *179:A 1.46425e-05
3 *285:Y 0.000524875
4 *124:16 0.000539517
5 *196:A *124:16 5.49489e-05
6 *231:B *124:16 6.13903e-05
7 *284:B *124:16 5.65955e-05
8 *24:19 *179:A 5.71472e-05
9 *24:19 *124:16 7.43993e-05
10 *121:24 *124:16 0.000100037
*RES
1 *285:Y *124:16 27.9786 
2 *124:16 *179:A 9.83571 
3 *124:16 *180:A 9.3 
*END

*D_NET *125 0.00130752
*CONN
*I *294:A I *D sky130_fd_sc_hd__nand2_1
*I *292:B I *D sky130_fd_sc_hd__nand2_1
*I *287:Y O *D sky130_fd_sc_hd__nand2_1
*CAP
1 *294:A 0
2 *292:B 0.000171696
3 *287:Y 0.000341511
4 *125:12 0.000513207
5 *292:B *293:A 9.42718e-05
6 *292:B *294:B 5.66971e-05
7 *292:B *130:24 5.16351e-05
8 *281:B *125:12 7.85037e-05
*RES
1 *287:Y *125:12 22.8357 
2 *125:12 *292:B 13.2821 
3 *125:12 *294:A 9.3 
*END

*D_NET *126 0.00136432
*CONN
*I *296:A I *D sky130_fd_sc_hd__nand2_1
*I *290:B I *D sky130_fd_sc_hd__nand2_1
*I *289:B I *D sky130_fd_sc_hd__nand2_1
*I *288:Y O *D sky130_fd_sc_hd__nand2_1
*CAP
1 *296:A 0.000169825
2 *290:B 0
3 *289:B 0.000189657
4 *288:Y 5.58954e-05
5 *126:10 0.000189657
6 *126:8 0.000225721
7 *289:B *291:A 5.44984e-05
8 *289:B *291:B 3.61656e-05
9 *289:B *129:12 1.16543e-05
10 *296:A *296:B 1.87331e-05
11 *296:A *134:14 3.06035e-05
12 *233:B *296:A 0.00018729
13 *233:B *126:8 0.000125542
14 *290:A *296:A 5.54817e-06
15 *290:A *126:8 6.35274e-05
*RES
1 *288:Y *126:8 15.4429 
2 *126:8 *126:10 4.5 
3 *126:10 *289:B 12.7464 
4 *126:10 *290:B 9.3 
5 *126:8 *296:A 17.7286 
*END

*D_NET *127 0.000200223
*CONN
*I *291:A I *D sky130_fd_sc_hd__nand2_1
*I *289:Y O *D sky130_fd_sc_hd__nand2_1
*CAP
1 *291:A 3.60164e-05
2 *289:Y 3.60164e-05
3 *291:A *291:B 1.87331e-05
4 *291:A *129:12 5.4959e-05
5 *289:B *291:A 5.44984e-05
*RES
1 *289:Y *291:A 19.975 
*END

*D_NET *128 0.000202298
*CONN
*I *291:B I *D sky130_fd_sc_hd__nand2_1
*I *290:Y O *D sky130_fd_sc_hd__nand2_1
*CAP
1 *291:B 7.36995e-05
2 *290:Y 7.36995e-05
3 *289:B *291:B 3.61656e-05
4 *291:A *291:B 1.87331e-05
*RES
1 *290:Y *291:B 19.975 
*END

*D_NET *129 0.000949805
*CONN
*I *293:A I *D sky130_fd_sc_hd__nand2_1
*I *292:A I *D sky130_fd_sc_hd__nand2_1
*I *291:Y O *D sky130_fd_sc_hd__nand2_1
*CAP
1 *293:A 6.80886e-05
2 *292:A 0
3 *291:Y 0.000217641
4 *129:12 0.00028573
5 *293:A *296:B 3.87535e-05
6 *293:A *130:24 0.000178707
7 *289:B *129:12 1.16543e-05
8 *291:A *129:12 5.4959e-05
9 *292:B *293:A 9.42718e-05
*RES
1 *291:Y *129:12 21.6036 
2 *129:12 *292:A 9.3 
3 *129:12 *293:A 11.925 
*END

*D_NET *130 0.000860117
*CONN
*I *293:B I *D sky130_fd_sc_hd__nand2_1
*I *294:B I *D sky130_fd_sc_hd__nand2_1
*I *296:B I *D sky130_fd_sc_hd__nand2_1
*I *292:Y O *D sky130_fd_sc_hd__nand2_1
*CAP
1 *293:B 0
2 *294:B 1.97813e-05
3 *296:B 6.73796e-05
4 *292:Y 0.000238014
5 *130:24 0.000190416
6 *292:B *294:B 5.66971e-05
7 *292:B *130:24 5.16351e-05
8 *293:A *296:B 3.87535e-05
9 *293:A *130:24 0.000178707
10 *296:A *296:B 1.87331e-05
*RES
1 *292:Y *296:B 19.975 
2 *292:Y *130:24 12.3357 
3 *130:24 *294:B 9.83571 
4 *130:24 *293:B 9.3 
*END

*D_NET *131 0.000532955
*CONN
*I *295:A I *D sky130_fd_sc_hd__nand2_1
*I *293:Y O *D sky130_fd_sc_hd__nand2_1
*CAP
1 *295:A 0.000219046
2 *293:Y 0.000219046
3 *295:A *295:B 3.98645e-05
4 *6:17 *295:A 5.49995e-05
*RES
1 *293:Y *295:A 30.9929 
*END

*D_NET *132 0.000200805
*CONN
*I *295:B I *D sky130_fd_sc_hd__nand2_1
*I *294:Y O *D sky130_fd_sc_hd__nand2_1
*CAP
1 *295:B 8.04703e-05
2 *294:Y 8.04703e-05
3 *295:A *295:B 3.98645e-05
*RES
1 *294:Y *295:B 29.2429 
*END

*D_NET *133 0.00106475
*CONN
*I *190:A I *D sky130_fd_sc_hd__nand2_1
*I *189:A I *D sky130_fd_sc_hd__nand2_1
*I *295:Y O *D sky130_fd_sc_hd__nand2_1
*CAP
1 *190:A 0.000149732
2 *189:A 0
3 *295:Y 0.000184237
4 *133:10 0.000333969
5 *189:B *190:A 8.2958e-06
6 *189:B *133:10 5.80706e-06
7 *190:B *190:A 1.33343e-05
8 *192:A *190:A 2.44318e-05
9 *198:B *190:A 1.28326e-05
10 *205:A *190:A 0
11 *232:A *190:A 1.02504e-05
12 *232:A *133:10 0.000181949
13 *6:17 *133:10 1.99271e-05
14 *33:8 *190:A 0.000102545
15 *41:8 *190:A 1.74352e-05
*RES
1 *295:Y *133:10 17.1036 
2 *133:10 *189:A 13.8 
3 *133:10 *190:A 17.2464 
*END

*D_NET *134 0.00141798
*CONN
*I *200:A I *D sky130_fd_sc_hd__nand2_1
*I *199:A I *D sky130_fd_sc_hd__nand2_1
*I *296:Y O *D sky130_fd_sc_hd__nand2_1
*CAP
1 *200:A 8.46571e-05
2 *199:A 9.57599e-05
3 *296:Y 0.000261284
4 *134:14 0.000441701
5 *201:A *199:A 5.33005e-05
6 *201:A *200:A 8.56716e-05
7 *201:A *134:14 5.03564e-05
8 *234:A *199:A 1.24368e-05
9 *234:A *134:14 0.000119973
10 *296:A *134:14 3.06035e-05
11 *6:17 *199:A 2.38501e-05
12 *6:17 *134:14 2.06178e-05
13 *42:10 *199:A 4.87953e-05
14 *42:10 *200:A 7.50697e-05
15 *75:8 *199:A 1.38992e-05
*RES
1 *296:Y *134:14 17.6571 
2 *134:14 *199:A 16.0143 
3 *134:14 *200:A 16.05 
*END
