*SPEF "ieee 1481-1999"
*DESIGN "m8_dadda_xa_ks"
*DATE "16:22:23 Sunday September 06, 2026"
*VENDOR "The OpenROAD Project"
*PROGRAM "OpenROAD"
*VERSION "dcf36133a369abc8f3c5e5738cd4d82e4903c0e0"
*DESIGN_FLOW "NAME_SCOPE LOCAL" "PIN_CAP NONE"
*DIVIDER /
*DELIMITER :
*BUS_DELIMITER []
*T_UNIT 1 NS
*C_UNIT 1 PF
*R_UNIT 1 OHM
*L_UNIT 1 HENRY

*NAME_MAP
*3 a[0]
*4 a[1]
*5 a[2]
*6 a[3]
*7 a[4]
*8 a[5]
*9 a[6]
*10 a[7]
*11 b[0]
*12 b[1]
*13 b[2]
*14 b[3]
*15 b[4]
*16 b[5]
*17 b[6]
*18 b[7]
*19 p[0]
*20 p[10]
*21 p[11]
*22 p[12]
*23 p[13]
*24 p[14]
*25 p[15]
*26 p[1]
*27 p[2]
*28 p[3]
*29 p[4]
*30 p[5]
*31 p[6]
*32 p[7]
*33 p[8]
*34 p[9]
*35 n100
*36 n101
*37 n102
*38 n103
*39 n104
*40 n105
*41 n106
*42 n107
*43 n108
*44 n109
*45 n110
*46 n111
*47 n112
*48 n113
*49 n114
*50 n115
*51 n116
*52 n117
*53 n118
*54 n119
*55 n120
*56 n121
*57 n122
*58 n123
*59 n124
*60 n125
*61 n126
*62 n127
*63 n128
*64 n129
*65 n130
*66 n131
*67 n132
*68 n133
*69 n134
*70 n135
*71 n136
*72 n137
*73 n138
*74 n139
*75 n140
*76 n141
*77 n142
*78 n143
*79 n144
*80 n145
*81 n146
*82 n147
*83 n148
*84 n149
*85 n150
*86 n151
*87 n152
*88 n153
*89 n154
*90 n155
*91 n156
*92 n157
*93 n158
*94 n159
*95 n160
*96 n161
*97 n162
*98 n163
*99 n164
*100 n165
*101 n166
*102 n167
*103 n168
*104 n169
*105 n17
*106 n170
*107 n171
*108 n172
*109 n173
*110 n174
*111 n175
*112 n176
*113 n177
*114 n178
*115 n179
*116 n18
*117 n180
*118 n181
*119 n182
*120 n183
*121 n184
*122 n185
*123 n186
*124 n187
*125 n188
*126 n189
*127 n19
*128 n190
*129 n191
*130 n192
*131 n193
*132 n194
*133 n195
*134 n196
*135 n197
*136 n198
*137 n199
*138 n20
*139 n200
*140 n201
*141 n202
*142 n203
*143 n204
*144 n205
*145 n206
*146 n207
*147 n208
*148 n209
*149 n21
*150 n210
*151 n211
*152 n212
*153 n213
*154 n214
*155 n215
*156 n216
*157 n217
*158 n218
*159 n219
*160 n22
*161 n220
*162 n221
*163 n222
*164 n223
*165 n224
*166 n225
*167 n226
*168 n227
*169 n228
*170 n229
*171 n23
*172 n230
*173 n231
*174 n232
*175 n233
*176 n234
*177 n236
*178 n237
*179 n238
*180 n239
*181 n24
*182 n240
*183 n241
*184 n242
*185 n243
*186 n244
*187 n245
*188 n246
*189 n247
*190 n248
*191 n249
*192 n25
*193 n250
*194 n251
*195 n252
*196 n253
*197 n254
*198 n255
*199 n256
*200 n257
*201 n258
*202 n259
*203 n26
*204 n260
*205 n261
*206 n262
*207 n263
*208 n264
*209 n265
*210 n266
*211 n267
*212 n268
*213 n269
*214 n27
*215 n270
*216 n271
*217 n272
*218 n273
*219 n274
*220 n275
*221 n276
*222 n277
*223 n278
*224 n279
*225 n28
*226 n280
*227 n281
*228 n282
*229 n283
*230 n284
*231 n285
*232 n286
*233 n287
*234 n288
*235 n289
*236 n29
*237 n290
*238 n291
*239 n292
*240 n293
*241 n294
*242 n295
*243 n296
*244 n297
*245 n298
*246 n299
*247 n30
*248 n300
*249 n301
*250 n302
*251 n303
*252 n304
*253 n305
*254 n306
*255 n307
*256 n308
*257 n309
*258 n31
*259 n310
*260 n311
*261 n312
*262 n313
*263 n314
*264 n315
*265 n316
*266 n317
*267 n318
*268 n319
*269 n32
*270 n320
*271 n321
*272 n322
*273 n323
*274 n324
*275 n325
*276 n326
*277 n327
*278 n328
*279 n329
*280 n33
*281 n330
*282 n331
*283 n332
*284 n333
*285 n334
*286 n335
*287 n336
*288 n337
*289 n338
*290 n339
*291 n34
*292 n340
*293 n341
*294 n342
*295 n343
*296 n344
*297 n345
*298 n346
*299 n347
*300 n348
*301 n349
*302 n35
*303 n350
*304 n351
*305 n352
*306 n353
*307 n354
*308 n355
*309 n356
*310 n357
*311 n358
*312 n359
*313 n36
*314 n360
*315 n361
*316 n362
*317 n363
*318 n364
*319 n365
*320 n366
*321 n367
*322 n368
*323 n369
*324 n37
*325 n370
*326 n371
*327 n372
*328 n373
*329 n374
*330 n375
*331 n376
*332 n377
*333 n378
*334 n379
*335 n38
*336 n380
*337 n381
*338 n382
*339 n383
*340 n384
*341 n385
*342 n386
*343 n388
*344 n39
*345 n40
*346 n41
*347 n42
*348 n43
*349 n44
*350 n45
*351 n46
*352 n47
*353 n48
*354 n49
*355 n50
*356 n51
*357 n52
*358 n53
*359 n54
*360 n55
*361 n56
*362 n57
*363 n58
*364 n59
*365 n60
*366 n61
*367 n62
*368 n63
*369 n64
*370 n65
*371 n66
*372 n67
*373 n68
*374 n69
*375 n70
*376 n71
*377 n72
*378 n73
*379 n74
*380 n75
*381 n76
*382 n77
*383 n78
*384 n79
*385 n80
*386 n81
*387 n82
*388 n83
*389 n84
*390 n85
*391 n86
*392 n87
*393 n88
*394 n89
*395 n90
*396 n91
*397 n92
*398 n93
*399 n94
*400 n95
*401 n96
*402 n97
*403 n98
*404 n99
*405 PHY_EDGE_ROW_0_Left_30
*406 PHY_EDGE_ROW_0_Right_0
*407 PHY_EDGE_ROW_10_Left_40
*408 PHY_EDGE_ROW_10_Right_10
*409 PHY_EDGE_ROW_11_Left_41
*410 PHY_EDGE_ROW_11_Right_11
*411 PHY_EDGE_ROW_12_Left_42
*412 PHY_EDGE_ROW_12_Right_12
*413 PHY_EDGE_ROW_13_Left_43
*414 PHY_EDGE_ROW_13_Right_13
*415 PHY_EDGE_ROW_14_Left_44
*416 PHY_EDGE_ROW_14_Right_14
*417 PHY_EDGE_ROW_15_Left_45
*418 PHY_EDGE_ROW_15_Right_15
*419 PHY_EDGE_ROW_16_Left_46
*420 PHY_EDGE_ROW_16_Right_16
*421 PHY_EDGE_ROW_17_Left_47
*422 PHY_EDGE_ROW_17_Right_17
*423 PHY_EDGE_ROW_18_Left_48
*424 PHY_EDGE_ROW_18_Right_18
*425 PHY_EDGE_ROW_19_Left_49
*426 PHY_EDGE_ROW_19_Right_19
*427 PHY_EDGE_ROW_1_Left_31
*428 PHY_EDGE_ROW_1_Right_1
*429 PHY_EDGE_ROW_20_Left_50
*430 PHY_EDGE_ROW_20_Right_20
*431 PHY_EDGE_ROW_21_Left_51
*432 PHY_EDGE_ROW_21_Right_21
*433 PHY_EDGE_ROW_22_Left_52
*434 PHY_EDGE_ROW_22_Right_22
*435 PHY_EDGE_ROW_23_Left_53
*436 PHY_EDGE_ROW_23_Right_23
*437 PHY_EDGE_ROW_24_Left_54
*438 PHY_EDGE_ROW_24_Right_24
*439 PHY_EDGE_ROW_25_Left_55
*440 PHY_EDGE_ROW_25_Right_25
*441 PHY_EDGE_ROW_26_Left_56
*442 PHY_EDGE_ROW_26_Right_26
*443 PHY_EDGE_ROW_27_Left_57
*444 PHY_EDGE_ROW_27_Right_27
*445 PHY_EDGE_ROW_28_Left_58
*446 PHY_EDGE_ROW_28_Right_28
*447 PHY_EDGE_ROW_29_Left_59
*448 PHY_EDGE_ROW_29_Right_29
*449 PHY_EDGE_ROW_2_Left_32
*450 PHY_EDGE_ROW_2_Right_2
*451 PHY_EDGE_ROW_3_Left_33
*452 PHY_EDGE_ROW_3_Right_3
*453 PHY_EDGE_ROW_4_Left_34
*454 PHY_EDGE_ROW_4_Right_4
*455 PHY_EDGE_ROW_5_Left_35
*456 PHY_EDGE_ROW_5_Right_5
*457 PHY_EDGE_ROW_6_Left_36
*458 PHY_EDGE_ROW_6_Right_6
*459 PHY_EDGE_ROW_7_Left_37
*460 PHY_EDGE_ROW_7_Right_7
*461 PHY_EDGE_ROW_8_Left_38
*462 PHY_EDGE_ROW_8_Right_8
*463 PHY_EDGE_ROW_9_Left_39
*464 PHY_EDGE_ROW_9_Right_9
*465 TAP_TAPCELL_ROW_0_60
*466 TAP_TAPCELL_ROW_0_61
*467 TAP_TAPCELL_ROW_0_62
*468 TAP_TAPCELL_ROW_0_63
*469 TAP_TAPCELL_ROW_0_64
*470 TAP_TAPCELL_ROW_0_65
*471 TAP_TAPCELL_ROW_10_93
*472 TAP_TAPCELL_ROW_10_94
*473 TAP_TAPCELL_ROW_10_95
*474 TAP_TAPCELL_ROW_11_96
*475 TAP_TAPCELL_ROW_11_97
*476 TAP_TAPCELL_ROW_11_98
*477 TAP_TAPCELL_ROW_12_100
*478 TAP_TAPCELL_ROW_12_101
*479 TAP_TAPCELL_ROW_12_99
*480 TAP_TAPCELL_ROW_13_102
*481 TAP_TAPCELL_ROW_13_103
*482 TAP_TAPCELL_ROW_13_104
*483 TAP_TAPCELL_ROW_14_105
*484 TAP_TAPCELL_ROW_14_106
*485 TAP_TAPCELL_ROW_14_107
*486 TAP_TAPCELL_ROW_15_108
*487 TAP_TAPCELL_ROW_15_109
*488 TAP_TAPCELL_ROW_15_110
*489 TAP_TAPCELL_ROW_16_111
*490 TAP_TAPCELL_ROW_16_112
*491 TAP_TAPCELL_ROW_16_113
*492 TAP_TAPCELL_ROW_17_114
*493 TAP_TAPCELL_ROW_17_115
*494 TAP_TAPCELL_ROW_17_116
*495 TAP_TAPCELL_ROW_18_117
*496 TAP_TAPCELL_ROW_18_118
*497 TAP_TAPCELL_ROW_18_119
*498 TAP_TAPCELL_ROW_19_120
*499 TAP_TAPCELL_ROW_19_121
*500 TAP_TAPCELL_ROW_19_122
*501 TAP_TAPCELL_ROW_1_66
*502 TAP_TAPCELL_ROW_1_67
*503 TAP_TAPCELL_ROW_1_68
*504 TAP_TAPCELL_ROW_20_123
*505 TAP_TAPCELL_ROW_20_124
*506 TAP_TAPCELL_ROW_20_125
*507 TAP_TAPCELL_ROW_21_126
*508 TAP_TAPCELL_ROW_21_127
*509 TAP_TAPCELL_ROW_21_128
*510 TAP_TAPCELL_ROW_22_129
*511 TAP_TAPCELL_ROW_22_130
*512 TAP_TAPCELL_ROW_22_131
*513 TAP_TAPCELL_ROW_23_132
*514 TAP_TAPCELL_ROW_23_133
*515 TAP_TAPCELL_ROW_23_134
*516 TAP_TAPCELL_ROW_24_135
*517 TAP_TAPCELL_ROW_24_136
*518 TAP_TAPCELL_ROW_24_137
*519 TAP_TAPCELL_ROW_25_138
*520 TAP_TAPCELL_ROW_25_139
*521 TAP_TAPCELL_ROW_25_140
*522 TAP_TAPCELL_ROW_26_141
*523 TAP_TAPCELL_ROW_26_142
*524 TAP_TAPCELL_ROW_26_143
*525 TAP_TAPCELL_ROW_27_144
*526 TAP_TAPCELL_ROW_27_145
*527 TAP_TAPCELL_ROW_27_146
*528 TAP_TAPCELL_ROW_28_147
*529 TAP_TAPCELL_ROW_28_148
*530 TAP_TAPCELL_ROW_28_149
*531 TAP_TAPCELL_ROW_29_150
*532 TAP_TAPCELL_ROW_29_151
*533 TAP_TAPCELL_ROW_29_152
*534 TAP_TAPCELL_ROW_29_153
*535 TAP_TAPCELL_ROW_29_154
*536 TAP_TAPCELL_ROW_29_155
*537 TAP_TAPCELL_ROW_2_69
*538 TAP_TAPCELL_ROW_2_70
*539 TAP_TAPCELL_ROW_2_71
*540 TAP_TAPCELL_ROW_3_72
*541 TAP_TAPCELL_ROW_3_73
*542 TAP_TAPCELL_ROW_3_74
*543 TAP_TAPCELL_ROW_4_75
*544 TAP_TAPCELL_ROW_4_76
*545 TAP_TAPCELL_ROW_4_77
*546 TAP_TAPCELL_ROW_5_78
*547 TAP_TAPCELL_ROW_5_79
*548 TAP_TAPCELL_ROW_5_80
*549 TAP_TAPCELL_ROW_6_81
*550 TAP_TAPCELL_ROW_6_82
*551 TAP_TAPCELL_ROW_6_83
*552 TAP_TAPCELL_ROW_7_84
*553 TAP_TAPCELL_ROW_7_85
*554 TAP_TAPCELL_ROW_7_86
*555 TAP_TAPCELL_ROW_8_87
*556 TAP_TAPCELL_ROW_8_88
*557 TAP_TAPCELL_ROW_8_89
*558 TAP_TAPCELL_ROW_9_90
*559 TAP_TAPCELL_ROW_9_91
*560 TAP_TAPCELL_ROW_9_92
*561 g0
*562 g1
*563 g10
*564 g100
*565 g101
*566 g102
*567 g103
*568 g104
*569 g105
*570 g106
*571 g107
*572 g108
*573 g109
*574 g11
*575 g110
*576 g111
*577 g112
*578 g113
*579 g114
*580 g115
*581 g116
*582 g117
*583 g118
*584 g119
*585 g12
*586 g120
*587 g121
*588 g122
*589 g123
*590 g124
*591 g125
*592 g126
*593 g127
*594 g128
*595 g129
*596 g13
*597 g130
*598 g131
*599 g132
*600 g133
*601 g134
*602 g135
*603 g136
*604 g137
*605 g138
*606 g139
*607 g14
*608 g140
*609 g141
*610 g142
*611 g143
*612 g144
*613 g145
*614 g146
*615 g147
*616 g148
*617 g149
*618 g15
*619 g150
*620 g151
*621 g152
*622 g153
*623 g154
*624 g155
*625 g156
*626 g157
*627 g158
*628 g159
*629 g16
*630 g160
*631 g161
*632 g162
*633 g163
*634 g164
*635 g165
*636 g166
*637 g167
*638 g168
*639 g169
*640 g17
*641 g170
*642 g171
*643 g172
*644 g173
*645 g174
*646 g175
*647 g176
*648 g177
*649 g178
*650 g179
*651 g18
*652 g180
*653 g181
*654 g182
*655 g183
*656 g184
*657 g185
*658 g186
*659 g187
*660 g188
*661 g189
*662 g19
*663 g190
*664 g191
*665 g192
*666 g193
*667 g194
*668 g195
*669 g196
*670 g197
*671 g198
*672 g199
*673 g2
*674 g20
*675 g200
*676 g201
*677 g202
*678 g203
*679 g204
*680 g205
*681 g206
*682 g207
*683 g208
*684 g209
*685 g21
*686 g210
*687 g211
*688 g212
*689 g213
*690 g214
*691 g215
*692 g216
*693 g217
*694 g218
*695 g219
*696 g22
*697 g220
*698 g221
*699 g222
*700 g223
*701 g224
*702 g225
*703 g226
*704 g227
*705 g228
*706 g229
*707 g23
*708 g230
*709 g231
*710 g232
*711 g233
*712 g234
*713 g235
*714 g236
*715 g237
*716 g238
*717 g239
*718 g24
*719 g240
*720 g241
*721 g242
*722 g243
*723 g244
*724 g245
*725 g246
*726 g247
*727 g248
*728 g249
*729 g25
*730 g250
*731 g251
*732 g252
*733 g253
*734 g254
*735 g255
*736 g256
*737 g257
*738 g258
*739 g259
*740 g26
*741 g260
*742 g261
*743 g262
*744 g263
*745 g264
*746 g265
*747 g266
*748 g267
*749 g268
*750 g269
*751 g27
*752 g270
*753 g271
*754 g272
*755 g273
*756 g274
*757 g275
*758 g276
*759 g277
*760 g278
*761 g279
*762 g28
*763 g280
*764 g281
*765 g282
*766 g283
*767 g284
*768 g285
*769 g286
*770 g287
*771 g288
*772 g289
*773 g29
*774 g290
*775 g291
*776 g292
*777 g293
*778 g294
*779 g295
*780 g296
*781 g297
*782 g298
*783 g299
*784 g3
*785 g30
*786 g300
*787 g301
*788 g302
*789 g303
*790 g304
*791 g305
*792 g306
*793 g307
*794 g308
*795 g309
*796 g31
*797 g310
*798 g311
*799 g312
*800 g313
*801 g314
*802 g315
*803 g316
*804 g317
*805 g318
*806 g319
*807 g32
*808 g320
*809 g321
*810 g322
*811 g323
*812 g324
*813 g325
*814 g326
*815 g327
*816 g328
*817 g329
*818 g33
*819 g330
*820 g331
*821 g332
*822 g333
*823 g334
*824 g335
*825 g336
*826 g337
*827 g338
*828 g339
*829 g34
*830 g340
*831 g341
*832 g342
*833 g343
*834 g344
*835 g345
*836 g346
*837 g347
*838 g348
*839 g349
*840 g35
*841 g350
*842 g351
*843 g352
*844 g353
*845 g354
*846 g355
*847 g356
*848 g357
*849 g358
*850 g359
*851 g36
*852 g360
*853 g361
*854 g362
*855 g363
*856 g364
*857 g365
*858 g366
*859 g367
*860 g368
*861 g369
*862 g37
*863 g370
*864 g371
*865 g372
*866 g373
*867 g374
*868 g375
*869 g376
*870 g377
*871 g378
*872 g379
*873 g38
*874 g380
*875 g381
*876 g382
*877 g383
*878 g384
*879 g385
*880 g39
*881 g4
*882 g40
*883 g41
*884 g42
*885 g43
*886 g44
*887 g45
*888 g46
*889 g47
*890 g48
*891 g49
*892 g5
*893 g50
*894 g51
*895 g52
*896 g53
*897 g54
*898 g55
*899 g56
*900 g57
*901 g58
*902 g59
*903 g6
*904 g60
*905 g61
*906 g62
*907 g63
*908 g64
*909 g65
*910 g66
*911 g67
*912 g68
*913 g69
*914 g7
*915 g70
*916 g71
*917 g72
*918 g73
*919 g74
*920 g75
*921 g76
*922 g77
*923 g78
*924 g79
*925 g8
*926 g80
*927 g81
*928 g82
*929 g83
*930 g84
*931 g85
*932 g86
*933 g87
*934 g88
*935 g89
*936 g9
*937 g90
*938 g91
*939 g92
*940 g93
*941 g94
*942 g95
*943 g96
*944 g97
*945 g98
*946 g99

*PORTS
a[0] I
a[1] I
a[2] I
a[3] I
a[4] I
a[5] I
a[6] I
a[7] I
b[0] I
b[1] I
b[2] I
b[3] I
b[4] I
b[5] I
b[6] I
b[7] I
p[0] O
p[10] O
p[11] O
p[12] O
p[13] O
p[14] O
p[15] O
p[1] O
p[2] O
p[3] O
p[4] O
p[5] O
p[6] O
p[7] O
p[8] O
p[9] O

*D_NET *3 0.016656
*CONN
*P a[0] I
*I *892:A I *D sky130_fd_sc_hd__and2_1
*I *914:A I *D sky130_fd_sc_hd__and2_1
*I *673:A I *D sky130_fd_sc_hd__and2_1
*I *561:A I *D sky130_fd_sc_hd__and2_1
*I *562:A I *D sky130_fd_sc_hd__and2_1
*I *784:A I *D sky130_fd_sc_hd__and2_1
*I *881:A I *D sky130_fd_sc_hd__and2_1
*I *903:A I *D sky130_fd_sc_hd__and2_1
*CAP
1 a[0] 0.000788968
2 *892:A 4.68433e-05
3 *914:A 0.000317495
4 *673:A 4.67998e-05
5 *561:A 0.000103858
6 *562:A 0
7 *784:A 0.000100159
8 *881:A 2.13113e-05
9 *903:A 0.000153263
10 *3:82 0.000489311
11 *3:74 0.000943777
12 *3:53 0.00146794
13 *3:42 0.00233878
14 *3:34 0.00207753
15 *3:21 0.000752147
16 *3:17 0.00113588
17 *561:A *562:B 2.28598e-05
18 *561:A *936:A 5.52238e-05
19 *561:A *105:8 3.18676e-05
20 *673:A *640:B 0
21 *673:A *673:B 5.33005e-05
22 *673:A *5:57 0
23 *673:A *12:76 5.33005e-05
24 *673:A *134:8 5.41794e-05
25 *784:A *653:B1 5.74242e-05
26 *784:A *784:B 2.85234e-05
27 *784:A *4:78 5.33005e-05
28 *784:A *5:57 0.00021796
29 *784:A *11:28 5.0427e-05
30 *892:A *892:B 9.94037e-05
31 *892:A *5:13 0.000208576
32 *903:A *903:B 4.10796e-05
33 *903:A *160:10 5.33005e-05
34 *914:A *910:B 3.31535e-05
35 *914:A *911:A 5.65955e-05
36 *914:A *914:B 5.07619e-05
37 *914:A *15:37 0.000354056
38 *914:A *247:10 0.000126416
39 *914:A *371:12 3.6337e-05
40 *3:17 *892:B 5.03772e-05
41 *3:17 *5:13 9.87672e-05
42 *3:17 *13:13 0
43 *3:17 *14:5 0
44 *3:17 *14:78 0
45 *3:21 *892:B 0.000104002
46 *3:21 *909:A 0.000196269
47 *3:21 *909:B 9.54364e-05
48 *3:21 *16:82 1.08359e-05
49 *3:21 *160:10 0.000126439
50 *3:34 *16:82 0.000124324
51 *3:34 *371:12 2.62951e-05
52 *3:42 *621:A 9.41642e-05
53 *3:42 *623:A 2.83283e-05
54 *3:42 *623:B 4.84159e-05
55 *3:42 *103:8 1.84776e-05
56 *3:42 *106:14 0.000100165
57 *3:42 *395:6 0.000947627
58 *3:53 *928:A 0.000317503
59 *3:53 *928:B 1.62025e-05
60 *3:53 *138:6 5.66971e-05
61 *3:53 *403:10 0.000334355
62 *3:53 *404:12 5.66971e-05
63 *3:74 *652:B 7.51573e-05
64 *3:74 *653:B1 0.000101861
65 *3:74 *4:97 2.51343e-06
66 *3:74 *5:57 0.000195856
67 *3:74 *134:8 0.000291033
68 *3:74 *135:10 1.41665e-05
69 *3:74 *139:10 3.24964e-05
70 *3:82 *562:B 3.19257e-05
71 *3:82 *936:A 5.71472e-05
72 *3:82 *12:76 0.00048041
*RES
1 a[0] *3:17 20.7857 
2 *3:17 *3:21 11.9107 
3 *3:21 *903:A 16.4071 
4 *3:21 *3:34 6.19643 
5 *3:34 *3:42 25.3036 
6 *3:42 *881:A 9.72857 
7 *3:42 *3:53 20.2321 
8 *3:53 *784:A 17.1929 
9 *3:53 *3:74 19.9643 
10 *3:74 *3:82 10.8214 
11 *3:82 *562:A 9.3 
12 *3:82 *561:A 11.4786 
13 *3:74 *673:A 15.0679 
14 *3:34 *914:A 21.5857 
15 *3:17 *892:A 11.4964 
*END

*D_NET *4 0.0186734
*CONN
*P a[1] I
*I *596:A I *D sky130_fd_sc_hd__and2_1
*I *585:A I *D sky130_fd_sc_hd__and2_1
*I *936:A I *D sky130_fd_sc_hd__and2_1
*I *925:A I *D sky130_fd_sc_hd__and2_1
*I *563:A I *D sky130_fd_sc_hd__and2_1
*I *574:A I *D sky130_fd_sc_hd__and2_1
*I *607:A I *D sky130_fd_sc_hd__and2_1
*I *618:A I *D sky130_fd_sc_hd__and2_1
*CAP
1 a[1] 0.00110549
2 *596:A 0
3 *585:A 0
4 *936:A 0.000189488
5 *925:A 4.38633e-05
6 *563:A 0
7 *574:A 1.9105e-05
8 *607:A 0.000180788
9 *618:A 0
10 *4:97 0.00114014
11 *4:78 0.00170667
12 *4:65 0.00164572
13 *4:53 0.00300261
14 *4:37 0.00248591
15 *4:23 0.000588644
16 *4:17 0.00182338
17 *574:A *574:B 1.02301e-05
18 *607:A *607:B 0.000440964
19 *925:A *11:32 5.23822e-05
20 *936:A *562:B 9.90367e-05
21 *936:A *11:45 0
22 *936:A *85:10 0
23 *4:17 *5:5 0
24 *4:17 *5:88 0
25 *4:17 *14:5 0
26 *4:17 *14:78 0
27 *4:23 *607:B 6.90533e-05
28 *4:23 *903:B 6.63e-05
29 *4:23 *14:78 0
30 *4:23 *17:27 1.78393e-05
31 *4:23 *335:10 9.96487e-05
32 *4:23 *396:10 0.00031071
33 *4:53 *596:B 2.91699e-05
34 *4:53 *751:A 0
35 *4:53 *909:B 4.35597e-05
36 *4:53 *6:61 0
37 *4:53 *11:86 0
38 *4:53 *13:46 0
39 *4:53 *41:10 5.40401e-05
40 *4:53 *225:10 0
41 *4:53 *236:6 4.58194e-05
42 *4:53 *355:10 0.000121418
43 *4:53 *385:6 0.00137486
44 *4:65 *585:B 0.000103501
45 *4:65 *614:B 8.41822e-05
46 *4:65 *615:A1 0.000148189
47 *4:65 *881:B 0.000152572
48 *4:65 *932:A 0
49 *4:65 *932:B 0
50 *4:65 *14:41 6.70939e-05
51 *4:65 *14:50 2.11336e-05
52 *4:65 *38:14 7.64022e-05
53 *4:78 *563:B 0.000110253
54 *4:78 *654:A 5.33005e-05
55 *4:78 *654:B 0.000181521
56 *4:78 *784:B 0.000226575
57 *4:78 *14:50 9.45588e-05
58 *4:78 *127:10 0.000230568
59 *4:97 *563:B 1.62025e-05
60 *4:97 *601:A 3.06035e-05
61 *4:97 *652:A 3.17866e-05
62 *4:97 *85:10 5.4959e-05
63 *4:97 *127:10 5.49995e-05
64 *561:A *936:A 5.52238e-05
65 *784:A *4:78 5.33005e-05
66 *3:74 *4:97 2.51343e-06
67 *3:82 *936:A 5.71472e-05
*RES
1 a[1] *4:17 25.9464 
2 *4:17 *4:23 18.8393 
3 *4:23 *618:A 9.3 
4 *4:23 *607:A 13.5321 
5 *4:17 *4:37 5.05357 
6 *4:37 *4:53 40.5536 
7 *4:53 *4:65 24.8214 
8 *4:65 *574:A 9.72857 
9 *4:65 *4:78 16.2857 
10 *4:78 *563:A 9.3 
11 *4:78 *4:97 27.1429 
12 *4:97 *925:A 14.7464 
13 *4:97 *936:A 17.6036 
14 *4:53 *585:A 9.3 
15 *4:37 *596:A 9.3 
*END

*D_NET *5 0.0226543
*CONN
*P a[2] I
*I *696:A I *D sky130_fd_sc_hd__and2_1
*I *685:A I *D sky130_fd_sc_hd__and2_1
*I *707:A I *D sky130_fd_sc_hd__and2_1
*I *674:A I *D sky130_fd_sc_hd__and2_1
*I *640:A I *D sky130_fd_sc_hd__and2_1
*I *629:A I *D sky130_fd_sc_hd__and2_1
*I *651:A I *D sky130_fd_sc_hd__and2_1
*I *662:A I *D sky130_fd_sc_hd__and2_1
*CAP
1 a[2] 0.000643665
2 *696:A 0
3 *685:A 0.000436911
4 *707:A 0.00019112
5 *674:A 0
6 *640:A 5.17749e-05
7 *629:A 0.000646681
8 *651:A 0
9 *662:A 0
10 *5:94 0.00115362
11 *5:88 0.00121174
12 *5:57 0.00175524
13 *5:40 0.00141753
14 *5:27 0.00246254
15 *5:13 0.0034851
16 *5:5 0.00271312
17 *629:A *643:A 2.44318e-05
18 *629:A *643:B 0.000185643
19 *629:A *645:A 2.28598e-05
20 *629:A *116:14 4.70078e-05
21 *629:A *125:12 5.71472e-05
22 *629:A *126:12 5.71472e-05
23 *629:A *128:12 0.000138881
24 *629:A *345:6 0.000178847
25 *640:A *640:B 0.000177948
26 *640:A *139:10 6.39262e-05
27 *685:A *584:B 0.000266479
28 *685:A *921:B 2.08721e-05
29 *685:A *16:47 0.000205506
30 *707:A *583:A 0
31 *707:A *584:A 3.30237e-05
32 *707:A *584:B 1.24368e-05
33 *707:A *921:A 0
34 *707:A *16:47 5.80217e-05
35 *707:A *18:42 0.000254337
36 *707:A *398:10 0
37 *5:13 *674:B 0.000446597
38 *5:13 *892:B 6.79591e-05
39 *5:13 *13:13 0.000490416
40 *5:13 *149:8 2.44318e-05
41 *5:27 *662:B 4.65158e-06
42 *5:27 *807:A 0
43 *5:27 *12:20 1.31235e-05
44 *5:27 *13:13 4.11173e-05
45 *5:27 *15:65 0
46 *5:40 *729:A 0.000274294
47 *5:40 *729:B 6.62761e-05
48 *5:40 *346:10 6.65398e-05
49 *5:57 *605:A 0.000225702
50 *5:57 *605:B 1.41029e-05
51 *5:57 *606:A1 0.000304394
52 *5:57 *640:B 0.000270958
53 *5:57 *650:B 2.69483e-05
54 *5:57 *652:B 0.000162196
55 *5:57 *729:A 0
56 *5:57 *807:A 0
57 *5:57 *11:28 0
58 *5:57 *89:10 0.00030772
59 *5:57 *139:10 0.000202951
60 *5:57 *346:10 7.50601e-05
61 *5:57 *353:10 2.16719e-05
62 *5:88 *903:B 0
63 *5:88 *6:19 0.000314114
64 *5:94 *607:B 0.000121329
65 *5:94 *903:B 1.46689e-05
66 *5:94 *921:A 4.57352e-05
67 *5:94 *15:37 0.000173812
68 *5:94 *17:27 5.80494e-05
69 *5:94 *18:42 0
70 *5:94 *258:12 0.000124749
71 *5:94 *396:10 0
72 *673:A *5:57 0
73 *784:A *5:57 0.00021796
74 *892:A *5:13 0.000208576
75 *3:17 *5:13 9.87672e-05
76 *3:74 *5:57 0.000195856
77 *4:17 *5:5 0
78 *4:17 *5:88 0
*RES
1 a[2] *5:5 12.5357 
2 *5:5 *5:13 25.6071 
3 *5:13 *5:27 20.2554 
4 *5:27 *662:A 9.3 
5 *5:27 *5:40 11.5179 
6 *5:40 *651:A 13.8 
7 *5:40 *5:57 33.1071 
8 *5:57 *629:A 25.8536 
9 *5:57 *640:A 16.05 
10 *5:13 *674:A 9.3 
11 *5:5 *5:88 17.9464 
12 *5:88 *5:94 20.6607 
13 *5:94 *707:A 22.8179 
14 *5:94 *685:A 16.8536 
15 *5:88 *696:A 9.3 
*END

*D_NET *6 0.018699
*CONN
*P a[3] I
*I *796:A I *D sky130_fd_sc_hd__and2_1
*I *785:A I *D sky130_fd_sc_hd__and2_1
*I *762:A I *D sky130_fd_sc_hd__and2_1
*I *718:A I *D sky130_fd_sc_hd__and2_1
*I *740:A I *D sky130_fd_sc_hd__and2_1
*I *729:A I *D sky130_fd_sc_hd__and2_1
*I *751:A I *D sky130_fd_sc_hd__and2_1
*I *773:A I *D sky130_fd_sc_hd__and2_1
*CAP
1 a[3] 0.000377663
2 *796:A 0.000324367
3 *785:A 0
4 *762:A 0
5 *718:A 0.000183927
6 *740:A 0
7 *729:A 0.000223373
8 *751:A 0.00029819
9 *773:A 0
10 *6:76 0.00105485
11 *6:61 0.00201728
12 *6:42 0.00203328
13 *6:30 0.00141942
14 *6:19 0.00184569
15 *6:9 0.00155416
16 *6:5 0.0010178
17 *718:A *718:B 1.33343e-05
18 *718:A *740:B 0.00044468
19 *729:A *662:B 0
20 *729:A *729:B 0.000109918
21 *729:A *807:A 1.76039e-05
22 *751:A *11:5 0.000153081
23 *751:A *11:86 1.52978e-05
24 *751:A *41:10 5.40401e-05
25 *796:A *15:21 0.00018539
26 *796:A *402:16 0.000187629
27 *6:9 *17:13 0.000588557
28 *6:9 *17:25 1.02504e-05
29 *6:19 *773:B 5.65955e-05
30 *6:19 *920:A2 5.66971e-05
31 *6:19 *16:82 4.33899e-05
32 *6:19 *17:25 0.000826395
33 *6:19 *396:10 2.11336e-05
34 *6:30 *15:37 0.000236486
35 *6:30 *15:39 5.88062e-05
36 *6:30 *16:82 0.000185118
37 *6:42 *566:A 9.22103e-06
38 *6:42 *567:B 3.18676e-05
39 *6:42 *674:B 3.17163e-05
40 *6:42 *916:A 2.27416e-05
41 *6:42 *916:B 3.18676e-05
42 *6:42 *940:B1 0.000178847
43 *6:42 *11:11 9.71197e-05
44 *6:42 *15:39 1.41029e-05
45 *6:42 *386:6 0.000102043
46 *6:61 *614:B 9.71197e-05
47 *6:61 *939:A 2.95841e-05
48 *6:61 *940:A2 9.60875e-05
49 *6:61 *940:B1 2.89114e-05
50 *6:61 *11:11 5.64697e-05
51 *6:61 *11:86 4.79292e-05
52 *6:61 *13:46 0.000333424
53 *6:61 *41:10 2.8266e-06
54 *6:61 *43:6 0.000481556
55 *6:76 *604:B 0
56 *6:76 *606:B1 0
57 *6:76 *654:A 0.000110234
58 *6:76 *654:B 0
59 *6:76 *657:B1 0.000123084
60 *6:76 *662:B 0
61 *6:76 *807:A 7.10245e-05
62 *6:76 *37:8 0
63 *6:76 *39:10 0.000128161
64 *6:76 *90:8 6.65398e-05
65 *6:76 *91:12 4.96258e-05
66 *6:76 *97:12 0
67 *6:76 *140:10 0.000254053
68 *4:53 *751:A 0
69 *4:53 *6:61 0
70 *5:40 *729:A 0.000274294
71 *5:57 *729:A 0
72 *5:88 *6:19 0.000314114
*RES
1 a[3] *6:5 1.23767 
2 *6:5 *6:9 10.9725 
3 *6:9 *6:19 31.7857 
4 *6:19 *773:A 9.3 
5 *6:19 *6:30 16.6607 
6 *6:30 *6:42 21.3929 
7 *6:42 *751:A 19.1214 
8 *6:42 *6:61 26.5893 
9 *6:61 *729:A 19.2464 
10 *6:61 *6:76 23.4464 
11 *6:76 *740:A 9.3 
12 *6:76 *718:A 13.9429 
13 *6:30 *762:A 13.8 
14 *6:9 *785:A 13.8 
15 *6:5 *796:A 20.2353 
*END

*D_NET *7 0.0201171
*CONN
*P a[4] I
*I *880:A I *D sky130_fd_sc_hd__and2_1
*I *873:A I *D sky130_fd_sc_hd__and2_1
*I *862:A I *D sky130_fd_sc_hd__and2_1
*I *851:A I *D sky130_fd_sc_hd__and2_1
*I *818:A I *D sky130_fd_sc_hd__and2_1
*I *829:A I *D sky130_fd_sc_hd__and2_1
*I *807:A I *D sky130_fd_sc_hd__and2_1
*I *840:A I *D sky130_fd_sc_hd__and2_1
*CAP
1 a[4] 0.000396286
2 *880:A 1.44384e-05
3 *873:A 0
4 *862:A 0.000143892
5 *851:A 0
6 *818:A 0.00152869
7 *829:A 0
8 *807:A 0.00119128
9 *840:A 0
10 *7:58 0.00189652
11 *7:41 0.00111998
12 *7:33 0.0028788
13 *7:25 0.00151101
14 *7:17 0.000912178
15 *7:9 0.000480612
16 *7:7 0.000698685
17 *807:A *11:86 0
18 *807:A *15:65 0.000700343
19 *807:A *346:10 0
20 *818:A *899:A 0.000423694
21 *818:A *899:B 4.93118e-06
22 *818:A *941:A 3.9846e-05
23 *818:A *941:B 0.000271345
24 *818:A *946:B 6.05161e-06
25 *818:A *8:67 8.07397e-06
26 *818:A *9:80 7.52622e-05
27 *818:A *12:46 5.20829e-05
28 *818:A *12:57 0.000176553
29 *818:A *12:61 1.97695e-05
30 *818:A *107:14 3.92854e-05
31 *818:A *362:6 3.18676e-05
32 *818:A *370:6 9.16074e-05
33 *818:A *377:12 7.6644e-05
34 *880:A *8:17 6.08849e-05
35 *880:A *17:11 6.99087e-05
36 *7:7 *15:7 0
37 *7:9 *8:17 0.000305232
38 *7:9 *17:11 0.000679996
39 *7:9 *17:13 1.02504e-05
40 *7:17 *17:13 0.000154762
41 *7:25 *927:B1 0.000154762
42 *7:25 *15:21 9.80173e-05
43 *7:25 *17:13 0.000583807
44 *7:25 *17:25 0.000422028
45 *7:25 *18:27 0
46 *7:25 *18:42 0
47 *7:25 *351:10 7.83366e-05
48 *7:33 *885:A 5.76121e-05
49 *7:33 *885:B 2.89016e-05
50 *7:33 *922:B 7.61932e-05
51 *7:33 *8:48 0.000224538
52 *7:33 *9:65 0.000117196
53 *7:33 *15:21 4.58976e-05
54 *7:33 *60:10 4.35141e-05
55 *7:33 *357:6 5.62995e-05
56 *7:33 *387:12 0.000143375
57 *7:41 *573:B1 4.07423e-05
58 *7:41 *893:A 0.000150773
59 *7:41 *9:65 7.84591e-05
60 *7:41 *15:37 0.000573311
61 *7:41 *60:10 8.57761e-05
62 *7:41 *378:10 0.000121897
63 *7:41 *392:8 0
64 *7:58 *568:A 3.30237e-05
65 *7:58 *568:B 4.87953e-05
66 *7:58 *569:B1 0.00018708
67 *7:58 *840:B 0.00027793
68 *7:58 *11:86 0
69 *7:58 *56:10 0.000229456
70 *729:A *807:A 1.76039e-05
71 *5:27 *807:A 0
72 *5:57 *807:A 0
73 *6:76 *807:A 7.10245e-05
*RES
1 a[4] *7:7 4.64767 
2 *7:7 *7:9 8.77679 
3 *7:9 *7:17 8.125 
4 *7:17 *7:25 24.5714 
5 *7:25 *7:33 21.4821 
6 *7:33 *7:41 15.6071 
7 *7:41 *840:A 9.3 
8 *7:41 *7:58 19.1429 
9 *7:58 *807:A 26.1562 
10 *7:58 *829:A 13.8 
11 *7:33 *818:A 45.9071 
12 *7:25 *851:A 9.3 
13 *7:17 *862:A 11.4786 
14 *7:9 *873:A 13.8 
15 *7:7 *880:A 14.6839 
*END

*D_NET *8 0.0139462
*CONN
*P a[5] I
*I *889:A I *D sky130_fd_sc_hd__and2_1
*I *888:A I *D sky130_fd_sc_hd__and2_1
*I *887:A I *D sky130_fd_sc_hd__and2_1
*I *886:A I *D sky130_fd_sc_hd__and2_1
*I *883:A I *D sky130_fd_sc_hd__and2_1
*I *882:A I *D sky130_fd_sc_hd__and2_1
*I *884:A I *D sky130_fd_sc_hd__and2_1
*I *885:A I *D sky130_fd_sc_hd__and2_1
*CAP
1 a[5] 0.000158447
2 *889:A 3.72704e-05
3 *888:A 0
4 *887:A 0
5 *886:A 0.000178583
6 *883:A 0
7 *882:A 0.000300834
8 *884:A 0.000124361
9 *885:A 9.04179e-05
10 *8:67 0.000818708
11 *8:48 0.00150681
12 *8:31 0.00151984
13 *8:25 0.00162175
14 *8:17 0.00126394
15 *8:11 0.000705022
16 *8:9 0.000515126
17 *882:A *666:B1 0
18 *882:A *882:B 0.000358374
19 *882:A *890:A 5.71472e-05
20 *882:A *942:B 0
21 *882:A *9:80 0
22 *882:A *11:92 2.43098e-05
23 *882:A *106:14 0.000177227
24 *882:A *369:10 3.18676e-05
25 *884:A *884:B 2.53112e-06
26 *884:A *900:A 0
27 *884:A *10:42 0
28 *884:A *107:14 0.000170378
29 *884:A *363:10 0
30 *886:A *886:B 0.000142952
31 *886:A *365:12 0.000140882
32 *8:9 *10:7 0.000436382
33 *8:9 *16:7 0.000424575
34 *8:9 *17:93 2.11372e-05
35 *8:11 *17:9 0.000224889
36 *8:11 *17:11 5.80706e-06
37 *8:11 *17:93 7.5189e-05
38 *8:17 *17:11 0.000106299
39 *8:25 *796:B 2.59355e-05
40 *8:25 *873:B 6.05161e-06
41 *8:25 *886:B 6.05161e-06
42 *8:25 *902:B 7.32272e-05
43 *8:25 *17:11 0.000389507
44 *8:25 *17:13 5.83233e-05
45 *8:25 *18:21 0
46 *8:25 *18:27 0
47 *8:25 *359:10 7.83366e-05
48 *8:31 *9:54 0.00034799
49 *8:31 *10:29 0.000255896
50 *8:31 *14:89 0
51 *8:31 *16:69 0.000104246
52 *8:48 *945:A 1.39841e-05
53 *8:48 *946:B 9.4397e-05
54 *8:48 *387:12 7.57312e-05
55 *8:67 *565:B1 1.02504e-05
56 *8:67 *666:B1 0
57 *8:67 *942:B 0
58 *8:67 *945:A 9.60939e-05
59 *8:67 *946:B 1.74352e-05
60 *8:67 *10:42 0
61 *8:67 *12:46 0.000183713
62 *8:67 *106:14 4.56437e-05
63 *8:67 *107:14 0.000101545
64 *8:67 *363:10 0
65 *8:67 *370:6 6.44515e-05
66 *818:A *8:67 8.07397e-06
67 *880:A *8:17 6.08849e-05
68 *7:9 *8:17 0.000305232
69 *7:33 *885:A 5.76121e-05
70 *7:33 *8:48 0.000224538
*RES
1 a[5] *8:9 5.15596 
2 *8:9 *8:11 7.41071 
3 *8:11 *8:17 12.9643 
4 *8:17 *8:25 24.5714 
5 *8:25 *8:31 22.7857 
6 *8:31 *885:A 11.0857 
7 *8:31 *8:48 18.9286 
8 *8:48 *884:A 16.05 
9 *8:48 *8:67 16.5357 
10 *8:67 *882:A 21.2464 
11 *8:67 *883:A 13.8 
12 *8:25 *886:A 13.1393 
13 *8:17 *887:A 9.3 
14 *8:11 *888:A 13.8 
15 *8:9 *889:A 14.3357 
*END

*D_NET *9 0.0159343
*CONN
*P a[6] I
*I *898:A I *D sky130_fd_sc_hd__and2_1
*I *896:A I *D sky130_fd_sc_hd__and2_1
*I *895:A I *D sky130_fd_sc_hd__and2_1
*I *890:A I *D sky130_fd_sc_hd__and2_1
*I *891:A I *D sky130_fd_sc_hd__and2_1
*I *893:A I *D sky130_fd_sc_hd__and2_1
*I *894:A I *D sky130_fd_sc_hd__and2_1
*I *897:A I *D sky130_fd_sc_hd__and2_1
*CAP
1 a[6] 0.000331035
2 *898:A 0.000451523
3 *896:A 0
4 *895:A 0
5 *890:A 7.32875e-05
6 *891:A 6.59466e-05
7 *893:A 3.94658e-05
8 *894:A 0
9 *897:A 3.58421e-05
10 *9:80 0.00069721
11 *9:65 0.00125892
12 *9:54 0.00108371
13 *9:38 0.00111255
14 *9:26 0.000956699
15 *9:24 0.00126543
16 *9:11 0.000914403
17 *890:A *11:92 6.07474e-05
18 *891:A *12:37 0.00020212
19 *891:A *106:14 0.000106542
20 *893:A *15:37 0.00015244
21 *897:A *639:B 0
22 *897:A *906:B 1.04232e-05
23 *898:A *907:B 4.85984e-05
24 *898:A *18:95 0.000884782
25 *9:11 *10:7 0.000426122
26 *9:11 *17:93 7.10235e-05
27 *9:24 *639:B 8.36572e-05
28 *9:24 *642:A2 0.000177681
29 *9:24 *642:B1 3.30352e-05
30 *9:24 *687:A 0
31 *9:24 *687:B 0
32 *9:24 *905:B 2.49484e-05
33 *9:24 *906:B 4.11436e-05
34 *9:24 *10:9 0
35 *9:24 *17:93 2.89016e-05
36 *9:24 *84:10 0
37 *9:24 *375:6 5.52238e-05
38 *9:24 *382:10 7.50697e-05
39 *9:26 *600:B1 0.000214342
40 *9:26 *637:A2 0
41 *9:26 *637:B1 0
42 *9:26 *905:B 2.28544e-05
43 *9:26 *16:9 0.00015695
44 *9:26 *81:12 0.000153047
45 *9:26 *84:10 0
46 *9:26 *120:10 0
47 *9:38 *594:B 2.48034e-05
48 *9:38 *600:B1 0.000128154
49 *9:38 *634:A 0
50 *9:38 *634:B 0
51 *9:38 *637:B1 0
52 *9:38 *904:B 0.000156276
53 *9:38 *10:23 0
54 *9:38 *15:11 0.000211987
55 *9:38 *15:94 0.000578035
56 *9:38 *16:11 0.000128361
57 *9:38 *76:10 0
58 *9:38 *373:10 3.18676e-05
59 *9:38 *402:16 4.99809e-05
60 *9:54 *886:B 3.6337e-05
61 *9:54 *894:B 5.20751e-05
62 *9:54 *10:23 0
63 *9:54 *10:29 0
64 *9:54 *71:12 9.99853e-05
65 *9:54 *380:8 0.000124869
66 *9:65 *576:B 3.57844e-05
67 *9:65 *582:A2 5.52238e-05
68 *9:65 *582:B1 0.000274244
69 *9:65 *894:B 5.45307e-05
70 *9:65 *901:B 0.000186922
71 *9:65 *15:37 4.75659e-05
72 *9:65 *60:10 0
73 *9:65 *71:12 0.000604978
74 *9:65 *379:10 0.00031588
75 *9:80 *884:B 5.50052e-05
76 *9:80 *899:A 0.00020811
77 *9:80 *899:B 0.00022887
78 *9:80 *11:92 9.58689e-05
79 *9:80 *15:37 6.05161e-06
80 *818:A *9:80 7.52622e-05
81 *882:A *890:A 5.71472e-05
82 *882:A *9:80 0
83 *7:33 *9:65 0.000117196
84 *7:41 *893:A 0.000150773
85 *7:41 *9:65 7.84591e-05
86 *8:31 *9:54 0.00034799
*RES
1 a[6] *9:11 10.8702 
2 *9:11 *897:A 10.0321 
3 *9:11 *9:24 14.9464 
4 *9:24 *9:26 7.10714 
5 *9:26 *9:38 21.4107 
6 *9:38 *9:54 18.6786 
7 *9:54 *894:A 9.3 
8 *9:54 *9:65 22.9464 
9 *9:65 *893:A 15.7464 
10 *9:65 *9:80 15.2143 
11 *9:80 *891:A 20.8536 
12 *9:80 *890:A 11.0679 
13 *9:38 *895:A 9.3 
14 *9:26 *896:A 13.8 
15 *9:24 *898:A 23.3893 
*END

*D_NET *10 0.0135174
*CONN
*P a[7] I
*I *907:A I *D sky130_fd_sc_hd__and2_1
*I *906:A I *D sky130_fd_sc_hd__and2_1
*I *905:A I *D sky130_fd_sc_hd__and2_1
*I *904:A I *D sky130_fd_sc_hd__and2_1
*I *902:A I *D sky130_fd_sc_hd__and2_1
*I *899:A I *D sky130_fd_sc_hd__and2_1
*I *900:A I *D sky130_fd_sc_hd__and2_1
*I *901:A I *D sky130_fd_sc_hd__and2_1
*CAP
1 a[7] 0.000331234
2 *907:A 0.00023338
3 *906:A 0.000162615
4 *905:A 0
5 *904:A 0
6 *902:A 0
7 *899:A 8.48451e-05
8 *900:A 9.88945e-05
9 *901:A 2.00462e-05
10 *10:85 0.000850793
11 *10:42 0.000757797
12 *10:29 0.00118522
13 *10:23 0.00127186
14 *10:15 0.00118799
15 *10:9 0.000596696
16 *10:7 0.000875477
17 *899:A *884:B 5.50052e-05
18 *900:A *12:20 1.6806e-05
19 *900:A *60:10 0.000196927
20 *901:A *901:B 1.02132e-05
21 *906:A *687:A 0
22 *906:A *687:B 0
23 *906:A *689:B1 8.68665e-05
24 *906:A *693:A2 0
25 *906:A *376:10 0
26 *907:A *688:A 5.52302e-05
27 *907:A *169:10 0.000100163
28 *10:7 *16:7 9.56794e-05
29 *10:9 *905:B 1.76039e-05
30 *10:9 *17:93 0
31 *10:9 *18:82 0
32 *10:9 *368:8 0
33 *10:9 *382:10 3.15196e-05
34 *10:15 *598:B 0.000202835
35 *10:15 *905:B 3.29427e-05
36 *10:15 *16:9 0.000266516
37 *10:15 *16:11 0.000230211
38 *10:15 *17:11 0
39 *10:15 *18:11 0
40 *10:15 *18:21 9.80029e-05
41 *10:15 *18:82 0
42 *10:23 *593:A 7.57869e-05
43 *10:23 *634:A 1.32552e-05
44 *10:23 *635:A 3.18676e-05
45 *10:23 *637:B1 1.72894e-05
46 *10:23 *886:B 6.04162e-05
47 *10:23 *902:B 2.31791e-05
48 *10:23 *904:B 5.33005e-05
49 *10:23 *76:10 0
50 *10:23 *373:10 8.06427e-05
51 *10:23 *380:8 0
52 *10:29 *902:B 0.000344932
53 *10:29 *14:89 0.000389847
54 *10:42 *565:B1 0
55 *10:42 *576:B 2.14658e-05
56 *10:42 *901:B 1.46148e-05
57 *10:42 *52:10 0
58 *10:42 *60:10 0.000596389
59 *10:42 *61:12 9.76491e-05
60 *10:42 *107:14 0
61 *10:42 *363:10 0
62 *10:42 *379:10 0.000225386
63 *10:42 *397:14 0.000183477
64 *10:85 *641:A 0.000139913
65 *10:85 *688:A 0.000137983
66 *10:85 *688:B 2.95726e-05
67 *10:85 *123:6 5.62995e-05
68 *10:85 *368:8 0
69 *10:85 *382:10 2.05484e-05
70 *818:A *899:A 0.000423694
71 *884:A *900:A 0
72 *884:A *10:42 0
73 *8:9 *10:7 0.000436382
74 *8:31 *10:29 0.000255896
75 *8:67 *10:42 0
76 *9:11 *10:7 0.000426122
77 *9:24 *10:9 0
78 *9:38 *10:23 0
79 *9:54 *10:23 0
80 *9:54 *10:29 0
81 *9:80 *899:A 0.00020811
*RES
1 a[7] *10:7 5.2242 
2 *10:7 *10:9 1.79464 
3 *10:9 *10:15 18.125 
4 *10:15 *10:23 17.0893 
5 *10:23 *10:29 18.7857 
6 *10:29 *901:A 9.72857 
7 *10:29 *10:42 18.0893 
8 *10:42 *900:A 16.3536 
9 *10:42 *899:A 18.0321 
10 *10:23 *902:A 13.8 
11 *10:15 *904:A 9.3 
12 *10:9 *905:A 13.8 
13 *10:7 *10:85 12.1875 
14 *10:85 *906:A 21.1571 
15 *10:85 *907:A 13.55 
*END

*D_NET *11 0.0174662
*CONN
*P b[0] I
*I *899:B I *D sky130_fd_sc_hd__and2_1
*I *882:B I *D sky130_fd_sc_hd__and2_1
*I *890:B I *D sky130_fd_sc_hd__and2_1
*I *718:B I *D sky130_fd_sc_hd__and2_1
*I *629:B I *D sky130_fd_sc_hd__and2_1
*I *561:B I *D sky130_fd_sc_hd__and2_1
*I *925:B I *D sky130_fd_sc_hd__and2_1
*I *807:B I *D sky130_fd_sc_hd__and2_1
*CAP
1 b[0] 0.00067318
2 *899:B 9.71338e-05
3 *882:B 0.000178299
4 *890:B 0
5 *718:B 0.000199289
6 *629:B 0.000168849
7 *561:B 2.3671e-05
8 *925:B 3.7707e-05
9 *807:B 1.99857e-05
10 *11:92 0.000468736
11 *11:86 0.00110314
12 *11:45 0.0003653
13 *11:32 0.00113061
14 *11:28 0.00179813
15 *11:11 0.00206016
16 *11:5 0.00275021
17 *561:B *105:8 5.52302e-05
18 *629:B *695:A 0
19 *629:B *85:10 0
20 *629:B *125:12 3.69047e-06
21 *718:B *740:B 0.000103267
22 *718:B *13:72 0.000190162
23 *718:B *135:10 0.000292722
24 *807:B *651:B 0
25 *807:B *13:46 1.04232e-05
26 *899:B *12:37 5.36422e-05
27 *899:B *377:12 2.11336e-05
28 *11:5 *14:24 0.000334351
29 *11:11 *939:A 0.000183726
30 *11:11 *940:B1 2.28598e-05
31 *11:11 *13:46 0.00123374
32 *11:28 *604:A 0.000175519
33 *11:28 *605:B 9.12446e-05
34 *11:28 *653:B1 2.3942e-05
35 *11:28 *13:46 0.000122091
36 *11:28 *13:59 0.000118454
37 *11:28 *13:72 0.000562625
38 *11:28 *135:10 0.00036725
39 *11:28 *291:8 0.000148189
40 *11:28 *346:10 1.69115e-05
41 *11:28 *353:10 0.000132377
42 *11:45 *181:10 0
43 *11:86 *623:B 0.000197516
44 *11:86 *12:37 0.000100248
45 *11:86 *14:24 9.32003e-05
46 *11:86 *14:41 2.16716e-05
47 *11:86 *44:12 0.000308001
48 *11:86 *56:10 0.00014852
49 *718:A *718:B 1.33343e-05
50 *751:A *11:5 0.000153081
51 *751:A *11:86 1.52978e-05
52 *784:A *11:28 5.0427e-05
53 *807:A *11:86 0
54 *818:A *899:B 4.93118e-06
55 *882:A *882:B 0.000358374
56 *882:A *11:92 2.43098e-05
57 *890:A *11:92 6.07474e-05
58 *925:A *11:32 5.23822e-05
59 *936:A *11:45 0
60 *4:53 *11:86 0
61 *5:57 *11:28 0
62 *6:42 *11:11 9.71197e-05
63 *6:61 *11:11 5.64697e-05
64 *6:61 *11:86 4.79292e-05
65 *7:58 *11:86 0
66 *9:80 *899:B 0.00022887
67 *9:80 *11:92 9.58689e-05
*RES
1 b[0] *11:5 14.9643 
2 *11:5 *11:11 23.9464 
3 *11:11 *807:B 9.72857 
4 *11:11 *11:28 24.1786 
5 *11:28 *11:32 18.1786 
6 *11:32 *925:B 10.0321 
7 *11:32 *11:45 7.28571 
8 *11:45 *561:B 14.3357 
9 *11:45 *629:B 16.5857 
10 *11:28 *718:B 19.3714 
11 *11:5 *11:86 15.3571 
12 *11:86 *11:92 8.64286 
13 *11:92 *890:B 9.3 
14 *11:92 *882:B 13.5321 
15 *11:86 *899:B 16.7107 
*END

*D_NET *12 0.0180312
*CONN
*P b[1] I
*I *818:B I *D sky130_fd_sc_hd__and2_1
*I *562:B I *D sky130_fd_sc_hd__and2_1
*I *936:B I *D sky130_fd_sc_hd__and2_1
*I *640:B I *D sky130_fd_sc_hd__and2_1
*I *883:B I *D sky130_fd_sc_hd__and2_1
*I *891:B I *D sky130_fd_sc_hd__and2_1
*I *900:B I *D sky130_fd_sc_hd__and2_1
*I *729:B I *D sky130_fd_sc_hd__and2_1
*CAP
1 b[1] 0.000647806
2 *818:B 0
3 *562:B 0.000140286
4 *936:B 0
5 *640:B 0.000160341
6 *883:B 1.11927e-05
7 *891:B 0
8 *900:B 0.000122596
9 *729:B 0.00195349
10 *12:76 0.00047619
11 *12:61 0.00117275
12 *12:57 0.0011865
13 *12:46 0.000628646
14 *12:37 0.000732556
15 *12:20 0.00146102
16 *12:5 0.00331461
17 *640:B *646:A 9.47456e-05
18 *640:B *648:B1 0
19 *640:B *134:8 0
20 *640:B *280:8 7.15687e-05
21 *729:B *662:B 2.27416e-05
22 *729:B *674:B 1.74352e-05
23 *729:B *930:A 0.000311196
24 *729:B *932:A 3.61629e-06
25 *729:B *933:A1 0.000129595
26 *729:B *933:A2 2.27416e-05
27 *729:B *933:B1 4.89867e-05
28 *729:B *937:A 3.9846e-05
29 *729:B *937:B 0.000266479
30 *729:B *13:13 0.000186669
31 *729:B *149:8 0.000197302
32 *729:B *313:6 3.18676e-05
33 *900:B *13:112 9.61187e-05
34 *12:5 *13:13 0
35 *12:5 *348:8 0
36 *12:20 *566:A 9.11365e-06
37 *12:20 *567:B 9.52387e-05
38 *12:20 *572:B 0.000199045
39 *12:20 *674:B 0
40 *12:20 *916:B 0
41 *12:20 *13:13 0
42 *12:20 *13:106 0
43 *12:20 *60:10 5.37326e-05
44 *12:20 *392:8 0.000525763
45 *12:37 *622:B 5.33005e-05
46 *12:37 *624:B1 1.29901e-05
47 *12:37 *13:112 9.14454e-05
48 *12:37 *49:10 2.10446e-05
49 *12:37 *106:14 4.96595e-05
50 *12:37 *107:14 0
51 *12:37 *377:12 0
52 *12:46 *945:A 0
53 *12:57 *935:B 0
54 *12:57 *941:A 0.000169373
55 *12:57 *941:B 1.74352e-05
56 *12:57 *40:12 0.000188586
57 *12:57 *362:6 3.18676e-05
58 *12:61 *673:B 9.92016e-05
59 *12:61 *935:A 0.000368053
60 *12:61 *935:B 1.02936e-05
61 *12:61 *40:12 2.24763e-05
62 *12:61 *354:6 9.60875e-05
63 *12:76 *646:B 3.18676e-05
64 *12:76 *673:B 0.000205024
65 *561:A *562:B 2.28598e-05
66 *640:A *640:B 0.000177948
67 *673:A *640:B 0
68 *673:A *12:76 5.33005e-05
69 *729:A *729:B 0.000109918
70 *818:A *12:46 5.20829e-05
71 *818:A *12:57 0.000176553
72 *818:A *12:61 1.97695e-05
73 *891:A *12:37 0.00020212
74 *899:B *12:37 5.36422e-05
75 *900:A *12:20 1.6806e-05
76 *936:A *562:B 9.90367e-05
77 *3:82 *562:B 3.19257e-05
78 *3:82 *12:76 0.00048041
79 *5:27 *12:20 1.31235e-05
80 *5:40 *729:B 6.62761e-05
81 *5:57 *640:B 0.000270958
82 *8:67 *12:46 0.000183713
83 *11:86 *12:37 0.000100248
*RES
1 b[1] *12:5 12.5357 
2 *12:5 *729:B 41.2464 
3 *12:5 *12:20 20.4107 
4 *12:20 *900:B 11.4964 
5 *12:20 *12:37 20.375 
6 *12:37 *891:B 9.3 
7 *12:37 *12:46 2.60714 
8 *12:46 *883:B 9.72857 
9 *12:46 *12:57 10.8214 
10 *12:57 *12:61 11.9464 
11 *12:61 *640:B 23.8893 
12 *12:61 *12:76 8.66071 
13 *12:76 *936:B 9.3 
14 *12:76 *562:B 12.3357 
15 *12:57 *818:B 9.3 
*END

*D_NET *13 0.0200316
*CONN
*P b[2] I
*I *884:B I *D sky130_fd_sc_hd__and2_1
*I *893:B I *D sky130_fd_sc_hd__and2_1
*I *901:B I *D sky130_fd_sc_hd__and2_1
*I *740:B I *D sky130_fd_sc_hd__and2_1
*I *673:B I *D sky130_fd_sc_hd__and2_1
*I *563:B I *D sky130_fd_sc_hd__and2_1
*I *651:B I *D sky130_fd_sc_hd__and2_1
*I *829:B I *D sky130_fd_sc_hd__and2_1
*CAP
1 b[2] 0.00112911
2 *884:B 0.000155858
3 *893:B 0
4 *901:B 0.000584948
5 *740:B 0.000358237
6 *673:B 0.000434479
7 *563:B 0.000558577
8 *651:B 1.44573e-05
9 *829:B 1.15413e-05
10 *13:112 0.000909998
11 *13:106 0.000966372
12 *13:72 0.00118488
13 *13:59 0.00116901
14 *13:46 0.000975052
15 *13:21 0.00107946
16 *13:13 0.00194017
17 *563:B *784:B 0.000351482
18 *563:B *127:10 1.16543e-05
19 *673:B *646:B 5.52302e-05
20 *673:B *648:B1 8.07313e-05
21 *740:B *135:10 1.17968e-05
22 *740:B *140:10 0
23 *884:B *622:A 4.27842e-06
24 *884:B *622:B 8.08608e-06
25 *901:B *576:B 4.17433e-05
26 *901:B *910:B 0
27 *901:B *15:37 0.000105342
28 *901:B *387:12 0.000170301
29 *901:B *390:12 0.000128396
30 *901:B *397:14 1.98839e-05
31 *13:13 *566:A 0.000170062
32 *13:13 *567:B 2.49484e-05
33 *13:13 *569:B1 0.000145161
34 *13:13 *674:B 2.14658e-05
35 *13:13 *938:B 0
36 *13:13 *940:B1 0
37 *13:13 *14:24 0
38 *13:21 *53:12 0.000271339
39 *13:21 *385:6 0.000272389
40 *13:46 *585:B 0
41 *13:46 *614:B 4.72917e-05
42 *13:46 *43:6 0.000264144
43 *13:46 *98:12 0
44 *13:46 *353:10 0.000139907
45 *13:46 *355:10 0
46 *13:46 *385:6 0.000260954
47 *13:59 *604:A 0.000164554
48 *13:59 *604:B 0.000197984
49 *13:59 *654:A 0
50 *13:59 *291:8 0.000148189
51 *13:59 *346:10 0.000170661
52 *13:59 *353:10 5.33005e-05
53 *13:72 *93:12 0
54 *13:72 *136:10 0.000130921
55 *13:72 *140:10 0
56 *13:106 *569:B1 0.000175526
57 *13:106 *622:A 7.27183e-05
58 *13:106 *622:B 6.14702e-06
59 *13:106 *14:41 0
60 *673:A *673:B 5.33005e-05
61 *718:A *740:B 0.00044468
62 *718:B *740:B 0.000103267
63 *718:B *13:72 0.000190162
64 *729:B *13:13 0.000186669
65 *807:B *651:B 0
66 *807:B *13:46 1.04232e-05
67 *884:A *884:B 2.53112e-06
68 *899:A *884:B 5.50052e-05
69 *900:B *13:112 9.61187e-05
70 *901:A *901:B 1.02132e-05
71 *3:17 *13:13 0
72 *4:53 *13:46 0
73 *4:78 *563:B 0.000110253
74 *4:97 *563:B 1.62025e-05
75 *5:13 *13:13 0.000490416
76 *5:27 *13:13 4.11173e-05
77 *6:61 *13:46 0.000333424
78 *9:65 *901:B 0.000186922
79 *9:80 *884:B 5.50052e-05
80 *10:42 *901:B 1.46148e-05
81 *11:11 *13:46 0.00123374
82 *11:28 *13:46 0.000122091
83 *11:28 *13:59 0.000118454
84 *11:28 *13:72 0.000562625
85 *12:5 *13:13 0
86 *12:20 *13:13 0
87 *12:20 *13:106 0
88 *12:37 *13:112 9.14454e-05
89 *12:61 *673:B 9.92016e-05
90 *12:76 *673:B 0.000205024
*RES
1 b[2] *13:13 32.4821 
2 *13:13 *13:21 11.75 
3 *13:21 *829:B 9.72857 
4 *13:21 *13:46 31.6964 
5 *13:46 *651:B 9.72857 
6 *13:46 *13:59 11.5357 
7 *13:59 *563:B 21.9429 
8 *13:59 *13:72 11.0536 
9 *13:72 *673:B 22.675 
10 *13:72 *740:B 20.925 
11 *13:13 *13:106 9.53571 
12 *13:106 *13:112 10.3929 
13 *13:112 *901:B 30.9786 
14 *13:112 *893:B 9.3 
15 *13:106 *884:B 16.8893 
*END

*D_NET *14 0.0185507
*CONN
*P b[3] I
*I *902:B I *D sky130_fd_sc_hd__and2_1
*I *894:B I *D sky130_fd_sc_hd__and2_1
*I *885:B I *D sky130_fd_sc_hd__and2_1
*I *784:B I *D sky130_fd_sc_hd__and2_1
*I *662:B I *D sky130_fd_sc_hd__and2_1
*I *574:B I *D sky130_fd_sc_hd__and2_1
*I *840:B I *D sky130_fd_sc_hd__and2_1
*I *751:B I *D sky130_fd_sc_hd__and2_1
*CAP
1 b[3] 0.000539382
2 *902:B 0.000248431
3 *894:B 0.000283033
4 *885:B 2.76557e-05
5 *784:B 0.00049618
6 *662:B 0.000435173
7 *574:B 3.42005e-05
8 *840:B 0.000410039
9 *751:B 0
10 *14:89 0.000966923
11 *14:78 0.00171398
12 *14:50 0.00107997
13 *14:41 0.00102425
14 *14:24 0.0016999
15 *14:9 0.00148356
16 *14:5 0.00282537
17 *662:B *614:B 0
18 *662:B *932:B 0.000147474
19 *662:B *37:8 5.93671e-05
20 *662:B *97:12 0.000367857
21 *784:B *654:B 0.000394949
22 *840:B *569:B1 0.000274294
23 *894:B *586:A 5.33005e-05
24 *894:B *71:12 1.59373e-05
25 *902:B *16:47 0
26 *14:24 *569:B1 0
27 *14:24 *938:B 1.65758e-05
28 *14:24 *940:B1 0.000125724
29 *14:24 *44:12 6.35224e-05
30 *14:24 *53:12 0.000150625
31 *14:24 *348:8 3.25247e-05
32 *14:41 *663:A 0.000304274
33 *14:41 *664:B 1.12713e-05
34 *14:41 *44:12 1.76135e-05
35 *14:41 *55:12 9.84729e-05
36 *14:41 *56:10 4.88537e-05
37 *14:41 *98:12 9.84673e-05
38 *14:78 *892:B 0
39 *14:78 *919:B 8.08608e-06
40 *14:78 *920:A1 0.000126272
41 *14:78 *920:B1 0.000126409
42 *14:78 *16:69 0
43 *14:78 *396:10 0
44 *14:89 *586:A 0
45 *14:89 *587:B1 0.000170532
46 *14:89 *921:B 4.94362e-05
47 *14:89 *16:69 0
48 *14:89 *396:10 0
49 *563:B *784:B 0.000351482
50 *574:A *574:B 1.02301e-05
51 *729:A *662:B 0
52 *729:B *662:B 2.27416e-05
53 *784:A *784:B 2.85234e-05
54 *3:17 *14:5 0
55 *3:17 *14:78 0
56 *4:17 *14:5 0
57 *4:17 *14:78 0
58 *4:23 *14:78 0
59 *4:65 *14:41 6.70939e-05
60 *4:65 *14:50 2.11336e-05
61 *4:78 *784:B 0.000226575
62 *4:78 *14:50 9.45588e-05
63 *5:27 *662:B 4.65158e-06
64 *6:76 *662:B 0
65 *7:33 *885:B 2.89016e-05
66 *7:58 *840:B 0.00027793
67 *8:25 *902:B 7.32272e-05
68 *8:31 *14:89 0
69 *9:54 *894:B 5.20751e-05
70 *9:65 *894:B 5.45307e-05
71 *10:23 *902:B 2.31791e-05
72 *10:29 *902:B 0.000344932
73 *10:29 *14:89 0.000389847
74 *11:5 *14:24 0.000334351
75 *11:86 *14:24 9.32003e-05
76 *11:86 *14:41 2.16716e-05
77 *13:13 *14:24 0
78 *13:106 *14:41 0
*RES
1 b[3] *14:5 10.7143 
2 *14:5 *14:9 21.0536 
3 *14:9 *751:B 9.3 
4 *14:9 *14:24 15.2321 
5 *14:24 *840:B 21.7464 
6 *14:24 *14:41 19.5 
7 *14:41 *574:B 10.0321 
8 *14:41 *14:50 3 
9 *14:50 *662:B 28.0679 
10 *14:50 *784:B 20.425 
11 *14:5 *14:78 22.9464 
12 *14:78 *885:B 14.3357 
13 *14:78 *14:89 10.1429 
14 *14:89 *894:B 18.4607 
15 *14:89 *902:B 19.8357 
*END

*D_NET *15 0.0210545
*CONN
*P b[4] I
*I *904:B I *D sky130_fd_sc_hd__and2_1
*I *895:B I *D sky130_fd_sc_hd__and2_1
*I *886:B I *D sky130_fd_sc_hd__and2_1
*I *851:B I *D sky130_fd_sc_hd__and2_1
*I *881:B I *D sky130_fd_sc_hd__and2_1
*I *585:B I *D sky130_fd_sc_hd__and2_1
*I *762:B I *D sky130_fd_sc_hd__and2_1
*I *674:B I *D sky130_fd_sc_hd__and2_1
*CAP
1 b[4] 0.000811097
2 *904:B 0.000109322
3 *895:B 0
4 *886:B 0.000194937
5 *851:B 0
6 *881:B 0.00032519
7 *585:B 0.000294971
8 *762:B 0
9 *674:B 0.000247149
10 *15:94 0.000288676
11 *15:65 0.00215598
12 *15:39 0.000319732
13 *15:37 0.00293206
14 *15:21 0.0020496
15 *15:11 0.000890189
16 *15:7 0.000990928
17 *585:B *615:B1 0.000135127
18 *585:B *38:14 5.74562e-05
19 *585:B *98:12 6.52967e-05
20 *585:B *225:10 7.33708e-05
21 *674:B *916:B 0
22 *674:B *149:8 0.000530254
23 *881:B *615:B1 1.90936e-05
24 *881:B *38:14 3.08225e-05
25 *881:B *98:12 0.000239767
26 *881:B *145:10 0.000201442
27 *886:B *380:8 0.000125724
28 *904:B *16:11 5.53052e-05
29 *904:B *16:30 4.37312e-05
30 *15:11 *16:30 0.000235173
31 *15:21 *591:B1 3.67257e-05
32 *15:21 *16:30 0
33 *15:21 *16:47 0
34 *15:21 *18:21 0.000175526
35 *15:21 *18:27 0.000768615
36 *15:21 *18:42 0.000395427
37 *15:21 *399:12 0
38 *15:21 *402:16 0.00033445
39 *15:37 *910:A 0.000100262
40 *15:37 *913:B1 5.65955e-05
41 *15:37 *914:B 0.000246963
42 *15:37 *915:A 4.51009e-05
43 *15:37 *18:42 6.26466e-05
44 *15:37 *356:8 0
45 *15:37 *392:8 0
46 *15:39 *915:A 3.09814e-05
47 *15:39 *916:B 0
48 *15:94 *402:16 0.000608514
49 *729:B *674:B 1.74352e-05
50 *796:A *15:21 0.00018539
51 *807:A *15:65 0.000700343
52 *886:A *886:B 0.000142952
53 *893:A *15:37 0.00015244
54 *901:B *15:37 0.000105342
55 *914:A *15:37 0.000354056
56 *4:65 *585:B 0.000103501
57 *4:65 *881:B 0.000152572
58 *5:13 *674:B 0.000446597
59 *5:27 *15:65 0
60 *5:94 *15:37 0.000173812
61 *6:30 *15:37 0.000236486
62 *6:30 *15:39 5.88062e-05
63 *6:42 *674:B 3.17163e-05
64 *6:42 *15:39 1.41029e-05
65 *7:7 *15:7 0
66 *7:25 *15:21 9.80173e-05
67 *7:33 *15:21 4.58976e-05
68 *7:41 *15:37 0.000573311
69 *8:25 *886:B 6.05161e-06
70 *9:38 *904:B 0.000156276
71 *9:38 *15:11 0.000211987
72 *9:38 *15:94 0.000578035
73 *9:54 *886:B 3.6337e-05
74 *9:65 *15:37 4.75659e-05
75 *9:80 *15:37 6.05161e-06
76 *10:23 *886:B 6.04162e-05
77 *10:23 *904:B 5.33005e-05
78 *12:20 *674:B 0
79 *13:13 *674:B 2.14658e-05
80 *13:46 *585:B 0
*RES
1 b[4] *15:7 5.51247 
2 *15:7 *15:11 7.50893 
3 *15:11 *15:21 29.7679 
4 *15:21 *15:37 43.7232 
5 *15:37 *15:39 1.79464 
6 *15:39 *674:B 21.6393 
7 *15:39 *762:B 13.8 
8 *15:37 *15:65 9.8938 
9 *15:65 *585:B 20.4518 
10 *15:65 *881:B 22.6304 
11 *15:21 *851:B 9.3 
12 *15:11 *15:94 5.875 
13 *15:94 *886:B 23.1393 
14 *15:94 *895:B 9.3 
15 *15:7 *904:B 16.4339 
*END

*D_NET *16 0.0136086
*CONN
*P b[5] I
*I *905:B I *D sky130_fd_sc_hd__and2_1
*I *896:B I *D sky130_fd_sc_hd__and2_1
*I *685:B I *D sky130_fd_sc_hd__and2_1
*I *596:B I *D sky130_fd_sc_hd__and2_1
*I *892:B I *D sky130_fd_sc_hd__and2_1
*I *773:B I *D sky130_fd_sc_hd__and2_1
*I *862:B I *D sky130_fd_sc_hd__and2_1
*I *887:B I *D sky130_fd_sc_hd__and2_1
*CAP
1 b[5] 0.000375853
2 *905:B 4.80739e-05
3 *896:B 0.000123108
4 *685:B 7.65896e-05
5 *596:B 7.00097e-05
6 *892:B 0.000391173
7 *773:B 2.31491e-05
8 *862:B 5.72977e-05
9 *887:B 0.000281675
10 *16:82 0.000754265
11 *16:69 0.00109417
12 *16:47 0.0015217
13 *16:30 0.00106419
14 *16:11 0.000804035
15 *16:9 0.000465748
16 *16:7 0.000583916
17 *596:B *236:6 1.24368e-05
18 *685:B *397:14 7.08917e-05
19 *862:B *358:12 2.89114e-05
20 *887:B *590:B 1.39841e-05
21 *887:B *591:A1 0.00010096
22 *887:B *591:A2 3.08382e-06
23 *887:B *18:21 6.2589e-06
24 *887:B *366:6 1.92789e-05
25 *892:B *909:A 0.000197977
26 *892:B *160:10 2.41865e-05
27 *896:B *81:12 6.86792e-05
28 *16:7 *17:7 0.000486097
29 *16:7 *18:7 9.77021e-06
30 *16:9 *600:B1 0.000200413
31 *16:11 *600:B1 0.000151333
32 *16:11 *18:21 0
33 *16:30 *18:21 0
34 *16:30 *73:10 0.00017267
35 *16:30 *402:16 0.000196442
36 *16:47 *583:A 0
37 *16:47 *584:A 0.000186662
38 *16:47 *584:B 8.43535e-06
39 *16:47 *586:A 0
40 *16:47 *587:A2 0
41 *16:47 *587:B1 0.00026737
42 *16:47 *921:A 2.14658e-05
43 *16:47 *921:B 5.33005e-05
44 *16:47 *18:42 0
45 *16:47 *69:10 0
46 *16:47 *358:12 4.66203e-05
47 *16:47 *397:14 0.000311793
48 *16:47 *399:12 0.000173797
49 *16:47 *402:16 1.50087e-05
50 *16:69 *919:B 4.87841e-05
51 *16:82 *160:10 0.000103253
52 *685:A *16:47 0.000205506
53 *707:A *16:47 5.80217e-05
54 *892:A *892:B 9.94037e-05
55 *902:B *16:47 0
56 *904:B *16:11 5.53052e-05
57 *904:B *16:30 4.37312e-05
58 *3:17 *892:B 5.03772e-05
59 *3:21 *892:B 0.000104002
60 *3:21 *16:82 1.08359e-05
61 *3:34 *16:82 0.000124324
62 *4:53 *596:B 2.91699e-05
63 *5:13 *892:B 6.79591e-05
64 *6:19 *773:B 5.65955e-05
65 *6:19 *16:82 4.33899e-05
66 *6:30 *16:82 0.000185118
67 *8:9 *16:7 0.000424575
68 *8:31 *16:69 0.000104246
69 *9:24 *905:B 2.49484e-05
70 *9:26 *905:B 2.28544e-05
71 *9:26 *16:9 0.00015695
72 *9:38 *16:11 0.000128361
73 *10:7 *16:7 9.56794e-05
74 *10:9 *905:B 1.76039e-05
75 *10:15 *905:B 3.29427e-05
76 *10:15 *16:9 0.000266516
77 *10:15 *16:11 0.000230211
78 *14:78 *892:B 0
79 *14:78 *16:69 0
80 *14:89 *16:69 0
81 *15:11 *16:30 0.000235173
82 *15:21 *16:30 0
83 *15:21 *16:47 0
*RES
1 b[5] *16:7 5.36833 
2 *16:7 *16:9 6.34821 
3 *16:9 *16:11 6.65179 
4 *16:11 *887:B 17.9339 
5 *16:11 *16:30 9.00893 
6 *16:30 *862:B 14.7464 
7 *16:30 *16:47 20.9643 
8 *16:47 *16:69 24.2143 
9 *16:69 *773:B 9.83571 
10 *16:69 *16:82 11.3571 
11 *16:82 *892:B 22.4964 
12 *16:82 *596:B 15.175 
13 *16:47 *685:B 11.1036 
14 *16:9 *896:B 15.9964 
15 *16:7 *905:B 14.9875 
*END

*D_NET *17 0.0157023
*CONN
*P b[6] I
*I *906:B I *D sky130_fd_sc_hd__and2_1
*I *897:B I *D sky130_fd_sc_hd__and2_1
*I *888:B I *D sky130_fd_sc_hd__and2_1
*I *873:B I *D sky130_fd_sc_hd__and2_1
*I *785:B I *D sky130_fd_sc_hd__and2_1
*I *607:B I *D sky130_fd_sc_hd__and2_1
*I *696:B I *D sky130_fd_sc_hd__and2_1
*I *903:B I *D sky130_fd_sc_hd__and2_1
*CAP
1 b[6] 0.000155918
2 *906:B 0.000763271
3 *897:B 0
4 *888:B 0
5 *873:B 3.90984e-05
6 *785:B 4.26984e-05
7 *607:B 0.000444593
8 *696:B 0
9 *903:B 0.000580009
10 *17:93 0.00104904
11 *17:27 0.000632948
12 *17:25 0.00133428
13 *17:13 0.00113926
14 *17:11 0.000657273
15 *17:9 0.000478366
16 *17:7 0.000561682
17 *607:B *618:B 5.50052e-05
18 *607:B *335:10 1.46689e-05
19 *906:B *639:B 3.14163e-05
20 *906:B *642:B1 0.000199009
21 *906:B *687:A 2.28499e-05
22 *906:B *687:B 5.52302e-05
23 *906:B *124:10 0.000185773
24 *906:B *375:6 1.92789e-05
25 *17:7 *18:7 0.000471435
26 *17:9 *18:11 0.000334678
27 *17:9 *18:82 9.61685e-05
28 *17:11 *18:11 0.000179656
29 *17:11 *18:21 0
30 *17:13 *18:27 0
31 *17:25 *917:A 2.83425e-05
32 *17:25 *918:B 5.49995e-05
33 *17:25 *18:42 0
34 *17:27 *335:10 3.75868e-05
35 *17:93 *638:B 9.47456e-05
36 *17:93 *639:A 1.37022e-05
37 *17:93 *18:82 0.000186765
38 *17:93 *368:8 4.25599e-05
39 *607:A *607:B 0.000440964
40 *880:A *17:11 6.99087e-05
41 *897:A *906:B 1.04232e-05
42 *903:A *903:B 4.10796e-05
43 *4:23 *607:B 6.90533e-05
44 *4:23 *903:B 6.63e-05
45 *4:23 *17:27 1.78393e-05
46 *5:88 *903:B 0
47 *5:94 *607:B 0.000121329
48 *5:94 *903:B 1.46689e-05
49 *5:94 *17:27 5.80494e-05
50 *6:9 *17:13 0.000588557
51 *6:9 *17:25 1.02504e-05
52 *6:19 *17:25 0.000826395
53 *7:9 *17:11 0.000679996
54 *7:9 *17:13 1.02504e-05
55 *7:17 *17:13 0.000154762
56 *7:25 *17:13 0.000583807
57 *7:25 *17:25 0.000422028
58 *8:9 *17:93 2.11372e-05
59 *8:11 *17:9 0.000224889
60 *8:11 *17:11 5.80706e-06
61 *8:11 *17:93 7.5189e-05
62 *8:17 *17:11 0.000106299
63 *8:25 *873:B 6.05161e-06
64 *8:25 *17:11 0.000389507
65 *8:25 *17:13 5.83233e-05
66 *9:11 *17:93 7.10235e-05
67 *9:24 *906:B 4.11436e-05
68 *9:24 *17:93 2.89016e-05
69 *10:9 *17:93 0
70 *10:15 *17:11 0
71 *16:7 *17:7 0.000486097
*RES
1 b[6] *17:7 4.71973 
2 *17:7 *17:9 5.4375 
3 *17:9 *17:11 11.9643 
4 *17:11 *17:13 9.83929 
5 *17:13 *17:25 27.8929 
6 *17:25 *17:27 1.64286 
7 *17:27 *903:B 23.8893 
8 *17:27 *696:B 13.8 
9 *17:25 *607:B 23.8 
10 *17:13 *785:B 14.3357 
11 *17:11 *873:B 14.3357 
12 *17:9 *888:B 13.8 
13 *17:7 *17:93 12.2946 
14 *17:93 *897:B 9.3 
15 *17:93 *906:B 22.2286 
*END

*D_NET *18 0.0125652
*CONN
*P b[7] I
*I *907:B I *D sky130_fd_sc_hd__and2_1
*I *898:B I *D sky130_fd_sc_hd__and2_1
*I *889:B I *D sky130_fd_sc_hd__and2_1
*I *880:B I *D sky130_fd_sc_hd__and2_1
*I *796:B I *D sky130_fd_sc_hd__and2_1
*I *914:B I *D sky130_fd_sc_hd__and2_1
*I *618:B I *D sky130_fd_sc_hd__and2_1
*I *707:B I *D sky130_fd_sc_hd__and2_1
*CAP
1 b[7] 0.00032639
2 *907:B 0.000171993
3 *898:B 0
4 *889:B 0
5 *880:B 0
6 *796:B 3.39029e-05
7 *914:B 0.000537779
8 *618:B 0.000304302
9 *707:B 0
10 *18:95 0.000713125
11 *18:82 0.000683266
12 *18:42 0.0011875
13 *18:27 0.000731449
14 *18:21 0.000975829
15 *18:11 0.000797667
16 *18:7 0.000710296
17 *618:B *258:12 3.06123e-05
18 *907:B *169:10 5.49544e-05
19 *907:B *170:10 0.000142575
20 *907:B *376:10 0.000125731
21 *18:11 *597:A 0
22 *18:11 *598:B 0
23 *18:21 *591:B1 5.03894e-05
24 *18:21 *352:10 0.00010326
25 *18:21 *359:10 2.49484e-05
26 *18:21 *360:6 0.00010096
27 *18:27 *927:B1 5.5782e-05
28 *18:27 *344:10 0.00010326
29 *18:27 *351:10 2.49484e-05
30 *18:95 *689:A1 2.27416e-05
31 *18:95 *170:10 0.000166918
32 *18:95 *382:10 3.32631e-05
33 *607:B *618:B 5.50052e-05
34 *707:A *18:42 0.000254337
35 *887:B *18:21 6.2589e-06
36 *898:A *907:B 4.85984e-05
37 *898:A *18:95 0.000884782
38 *914:A *914:B 5.07619e-05
39 *5:94 *18:42 0
40 *7:25 *18:27 0
41 *7:25 *18:42 0
42 *8:25 *796:B 2.59355e-05
43 *8:25 *18:21 0
44 *8:25 *18:27 0
45 *10:9 *18:82 0
46 *10:15 *18:11 0
47 *10:15 *18:21 9.80029e-05
48 *10:15 *18:82 0
49 *15:21 *18:21 0.000175526
50 *15:21 *18:27 0.000768615
51 *15:21 *18:42 0.000395427
52 *15:37 *914:B 0.000246963
53 *15:37 *18:42 6.26466e-05
54 *16:7 *18:7 9.77021e-06
55 *16:11 *18:21 0
56 *16:30 *18:21 0
57 *16:47 *18:42 0
58 *17:7 *18:7 0.000471435
59 *17:9 *18:11 0.000334678
60 *17:9 *18:82 9.61685e-05
61 *17:11 *18:11 0.000179656
62 *17:11 *18:21 0
63 *17:13 *18:27 0
64 *17:25 *18:42 0
65 *17:93 *18:82 0.000186765
*RES
1 b[7] *18:7 4.7918 
2 *18:7 *18:11 10.8482 
3 *18:11 *18:21 16.3571 
4 *18:21 *18:27 14.875 
5 *18:27 *707:B 9.3 
6 *18:27 *18:42 13.7143 
7 *18:42 *618:B 19.1571 
8 *18:42 *914:B 23.3893 
9 *18:21 *796:B 14.3357 
10 *18:11 *880:B 9.3 
11 *18:7 *18:82 8.11607 
12 *18:82 *889:B 9.3 
13 *18:82 *18:95 13.4286 
14 *18:95 *898:B 9.3 
15 *18:95 *907:B 22.4429 
*END

*D_NET *19 0.00830884
*CONN
*P p[0] O
*I *769:B I *D sky130_fd_sc_hd__and2_1
*I *811:B I *D sky130_fd_sc_hd__and2_1
*I *845:B I *D sky130_fd_sc_hd__and2_1
*I *725:B I *D sky130_fd_sc_hd__and2_1
*I *561:X O *D sky130_fd_sc_hd__and2_1
*CAP
1 p[0] 0.000258164
2 *769:B 2.23854e-05
3 *811:B 0.000240274
4 *845:B 6.17285e-05
5 *725:B 0
6 *561:X 0.000561574
7 *19:42 0.000762414
8 *19:27 0.00114366
9 *19:18 0.00164285
10 *19:14 0.00188041
11 p[0] p[1] 0.000461248
12 *811:B *769:A 0
13 *811:B *782:B 0
14 *811:B *856:B 0
15 *811:B *858:A 0.000151071
16 *811:B *256:12 0
17 *19:14 *105:8 5.76121e-05
18 *19:14 *176:10 1.72894e-05
19 *19:18 p[2] 4.75911e-05
20 *19:18 p[3] 2.22043e-05
21 *19:18 *732:A 3.99771e-05
22 *19:18 *26:8 0
23 *19:18 *26:20 0
24 *19:18 *176:10 0
25 *19:18 *208:10 0
26 *19:18 *208:33 0.000130928
27 *19:27 p[6] 0.000190388
28 *19:27 *814:B 0.000118339
29 *19:27 *206:8 8.15939e-05
30 *19:27 *206:19 9.34004e-05
31 *19:27 *208:33 0.000226082
32 *19:42 *769:A 0
33 *19:42 *845:A 0
34 *19:42 *858:A 9.7659e-05
*RES
1 *561:X *19:14 23.6482 
2 *19:14 *19:18 19.6339 
3 *19:18 *725:B 13.8 
4 *19:18 *19:27 14.6964 
5 *19:27 *845:B 14.7464 
6 *19:27 *19:42 13 
7 *19:42 *811:B 22.8357 
8 *19:42 *769:B 9.72857 
9 *19:14 p[0] 4.6414 
*END

*D_NET *20 0.00360629
*CONN
*P p[10] O
*I *875:X O *D sky130_fd_sc_hd__xor2_1
*CAP
1 p[10] 0.00128731
2 *875:X 0.00128731
3 p[10] p[15] 0
4 p[10] p[9] 0
5 p[10] *803:B 6.97972e-05
6 p[10] *843:A2 0
7 p[10] *874:A 0.00038501
8 p[10] *194:32 0.000202835
9 p[10] *228:10 0.000103041
10 p[10] *235:22 6.5185e-05
11 p[10] *235:33 4.58192e-05
12 p[10] *275:8 0
13 p[10] *289:14 6.09476e-05
14 p[10] *327:14 9.90367e-05
*RES
1 *875:X p[10] 41.7821 
*END

*D_NET *21 0.00174912
*CONN
*P p[11] O
*I *876:X O *D sky130_fd_sc_hd__xor2_1
*CAP
1 p[11] 0.000802174
2 *876:X 0.000802174
3 p[11] p[12] 0
4 p[11] p[15] 0
5 p[11] *876:B 0.000144773
*RES
1 *876:X p[11] 29.1393 
*END

*D_NET *22 0.00341063
*CONN
*P p[12] O
*I *877:X O *D sky130_fd_sc_hd__xor2_1
*CAP
1 p[12] 0.00114218
2 *877:X 0.00114218
3 p[12] p[13] 0
4 p[12] *761:A 0
5 p[12] *810:B 0.000261715
6 p[12] *876:A 0.000550278
7 p[12] *198:25 7.92879e-05
8 p[12] *234:21 1.50181e-05
9 p[12] *242:8 8.00806e-05
10 p[12] *333:14 0.0001399
11 p[11] p[12] 0
*RES
1 *877:X p[12] 38.8536 
*END

*D_NET *23 0.00206234
*CONN
*P p[13] O
*I *878:X O *D sky130_fd_sc_hd__xor2_1
*CAP
1 p[13] 0.00090299
2 *878:X 0.00090299
3 p[13] p[14] 0
4 p[13] *809:A1 3.2534e-05
5 p[13] *809:A2 0
6 p[13] *810:A 5.33433e-05
7 p[13] *876:A 6.95205e-05
8 p[13] *878:B 0.00010096
9 p[13] *879:B 0
10 p[13] *241:21 0
11 p[12] p[13] 0
*RES
1 *878:X p[13] 32.0679 
*END

*D_NET *24 0.00152944
*CONN
*P p[14] O
*I *879:X O *D sky130_fd_sc_hd__xor2_1
*CAP
1 p[14] 0.00075335
2 *879:X 0.00075335
3 p[14] *809:A2 2.27416e-05
4 p[13] p[14] 0
*RES
1 *879:X p[14] 28.3179 
*END

*D_NET *25 0.00185776
*CONN
*P p[15] O
*I *864:X O *D sky130_fd_sc_hd__a21o_1
*CAP
1 p[15] 0.000835549
2 *864:X 0.000835549
3 p[15] *876:B 0.000186662
4 p[10] p[15] 0
5 p[11] p[15] 0
*RES
1 *864:X p[15] 29.55 
*END

*D_NET *26 0.00524578
*CONN
*P p[1] O
*I *725:A I *D sky130_fd_sc_hd__and2_1
*I *728:B I *D sky130_fd_sc_hd__and2_1
*I *695:X O *D sky130_fd_sc_hd__xor2_1
*CAP
1 p[1] 0.000316977
2 *725:A 0.000313304
3 *728:B 3.27198e-05
4 *695:X 4.56497e-05
5 *26:20 0.00105205
6 *26:8 0.00106865
7 p[1] p[2] 0.000451233
8 *725:A *770:B 5.52302e-05
9 *725:A *176:53 0
10 *725:A *208:33 4.75521e-05
11 *725:A *209:8 0.000104974
12 *728:B *728:A 5.52238e-05
13 *728:B *732:B 0.000107978
14 *728:B *771:A1 2.44318e-05
15 *728:B *212:8 9.86835e-05
16 *26:8 *176:10 3.454e-05
17 *26:20 p[8] 1.90936e-05
18 *26:20 *732:A 0.000165642
19 *26:20 *176:10 1.88482e-05
20 *26:20 *176:27 0.000118349
21 *26:20 *178:19 6.8646e-06
22 *26:20 *178:30 0.00013438
23 *26:20 *178:43 2.5315e-05
24 *26:20 *180:27 9.34004e-05
25 *26:20 *208:10 0.000128154
26 *26:20 *208:33 0.000265285
27 p[0] p[1] 0.000461248
28 *19:18 *26:8 0
29 *19:18 *26:20 0
*RES
1 *695:X *26:8 14.6839 
2 *26:8 p[1] 5.0738 
3 *26:8 *26:20 16.2946 
4 *26:20 *728:B 15.55 
5 *26:20 *725:A 19.175 
*END

*D_NET *27 0.0010526
*CONN
*P p[2] O
*I *866:X O *D sky130_fd_sc_hd__xor2_1
*CAP
1 p[2] 0.000276888
2 *866:X 0.000276888
3 p[1] p[2] 0.000451233
4 *19:18 p[2] 4.75911e-05
*RES
1 *866:X p[2] 19.0218 
*END

*D_NET *28 0.000814745
*CONN
*P p[3] O
*I *867:X O *D sky130_fd_sc_hd__xor2_1
*CAP
1 p[3] 0.00039627
2 *867:X 0.00039627
3 p[3] p[4] 0
4 *19:18 p[3] 2.22043e-05
*RES
1 *867:X p[3] 18.7182 
*END

*D_NET *29 0.00182627
*CONN
*P p[4] O
*I *868:X O *D sky130_fd_sc_hd__xor2_1
*CAP
1 p[4] 0.000649799
2 *868:X 0.000649799
3 p[4] p[8] 0.000511244
4 p[4] *868:B 9.15186e-06
5 p[4] *176:42 6.27272e-06
6 p[3] p[4] 0
*RES
1 *868:X p[4] 19.7271 
*END

*D_NET *30 0.00264171
*CONN
*P p[5] O
*I *869:X O *D sky130_fd_sc_hd__xor2_1
*CAP
1 p[5] 0.00127575
2 *869:X 0.00127575
3 p[5] p[6] 0
4 p[5] *782:B 7.11085e-05
5 p[5] *208:50 0
6 p[5] *215:10 0
7 p[5] *216:14 1.90936e-05
*RES
1 *869:X p[5] 21.2144 
*END

*D_NET *31 0.00317747
*CONN
*P p[6] O
*I *870:X O *D sky130_fd_sc_hd__xor2_1
*CAP
1 p[6] 0.00133344
2 *870:X 0.00133344
3 p[6] *846:A 0.000274294
4 p[6] *846:B 4.58976e-05
5 p[5] p[6] 0
6 *19:27 p[6] 0.000190388
*RES
1 *870:X p[6] 35.7539 
*END

*D_NET *32 0.00174912
*CONN
*P p[7] O
*I *871:X O *D sky130_fd_sc_hd__xor2_1
*CAP
1 p[7] 0.000802174
2 *871:X 0.000802174
3 p[7] p[9] 0
4 p[7] *865:A 0
5 p[7] *323:20 0.000144773
*RES
1 *871:X p[7] 29.1393 
*END

*D_NET *33 0.00499404
*CONN
*P p[8] O
*I *872:X O *D sky130_fd_sc_hd__xor2_1
*CAP
1 p[8] 0.00105295
2 *872:X 0.00105295
3 p[8] *728:A 0.000139907
4 p[8] *732:A 5.52302e-05
5 p[8] *732:B 8.46829e-05
6 p[8] *738:A 0.000186669
7 p[8] *771:A1 1.32552e-05
8 p[8] *771:A2 7.32955e-05
9 p[8] *771:B1 2.28598e-05
10 p[8] *778:A2 7.61932e-05
11 p[8] *778:B1 0.000307199
12 p[8] *783:A 6.4443e-05
13 p[8] *787:B 1.55885e-05
14 p[8] *820:A1 9.22103e-06
15 p[8] *820:B1 4.88637e-05
16 p[8] *868:B 0.000139907
17 p[8] *872:B 5.71472e-05
18 p[8] *178:43 9.87983e-06
19 p[8] *211:12 4.58976e-05
20 p[8] *219:23 3.48705e-05
21 p[8] *219:34 1.21289e-05
22 p[8] *252:10 0.000960573
23 p[4] p[8] 0.000511244
24 *26:20 p[8] 1.90936e-05
*RES
1 *872:X p[8] 36.3875 
*END

*D_NET *34 0.0023735
*CONN
*P p[9] O
*I *874:X O *D sky130_fd_sc_hd__xor2_1
*CAP
1 p[9] 0.00109947
2 *874:X 0.00109947
3 p[9] *844:B 0
4 p[9] *876:B 2.97756e-05
5 p[9] *276:8 0
6 p[9] *283:6 0.000144773
7 p[10] p[9] 0
8 p[7] p[9] 0
*RES
1 *874:X p[9] 33.9964 
*END

*D_NET *35 0.000733445
*CONN
*I *932:A I *D sky130_fd_sc_hd__xor2_1
*I *933:A1 I *D sky130_fd_sc_hd__a21o_1
*I *930:X O *D sky130_fd_sc_hd__xor2_1
*CAP
1 *932:A 0.000119883
2 *933:A1 0.000191862
3 *930:X 7.1979e-05
4 *932:A *932:B 0.000123295
5 *932:A *933:A2 7.43578e-06
6 *933:A1 *933:B1 8.57797e-05
7 *729:B *932:A 3.61629e-06
8 *729:B *933:A1 0.000129595
9 *4:65 *932:A 0
*RES
1 *930:X *933:A1 21.2071 
2 *933:A1 *932:A 29.7786 
*END

*D_NET *36 0.000828443
*CONN
*I *933:B1 I *D sky130_fd_sc_hd__a21o_1
*I *931:X O *D sky130_fd_sc_hd__and2_1
*CAP
1 *933:B1 0.000153844
2 *931:X 0.000153844
3 *933:B1 *930:A 1.56e-05
4 *933:B1 *930:B 9.71197e-05
5 *933:B1 *38:14 0.000273269
6 *729:B *933:B1 4.89867e-05
7 *933:A1 *933:B1 8.57797e-05
*RES
1 *931:X *933:B1 23.2607 
*END

*D_NET *37 0.002327
*CONN
*I *654:B I *D sky130_fd_sc_hd__xor2_1
*I *655:B I *D sky130_fd_sc_hd__and2_1
*I *932:X O *D sky130_fd_sc_hd__xor2_1
*CAP
1 *654:B 0.000198029
2 *655:B 0.000263173
3 *932:X 0.000159898
4 *37:8 0.0006211
5 *654:B *654:A 5.33005e-05
6 *654:B *97:12 0.000214751
7 *655:B *657:B1 4.0342e-06
8 *37:8 *97:12 0.000176877
9 *662:B *37:8 5.93671e-05
10 *784:B *654:B 0.000394949
11 *4:78 *654:B 0.000181521
12 *6:76 *654:B 0
13 *6:76 *37:8 0
*RES
1 *932:X *37:8 17.5679 
2 *37:8 *655:B 17.6393 
3 *37:8 *654:B 20.4786 
*END

*D_NET *38 0.00202616
*CONN
*I *613:B I *D sky130_fd_sc_hd__and2_1
*I *612:B I *D sky130_fd_sc_hd__xor2_1
*I *933:X O *D sky130_fd_sc_hd__a21o_1
*CAP
1 *613:B 0.000156437
2 *612:B 0
3 *933:X 0.000349106
4 *38:14 0.000505544
5 *613:B *612:A 0.000255085
6 *613:B *614:A 1.21436e-05
7 *613:B *615:B1 5.74499e-06
8 *38:14 *615:A1 0.000149911
9 *38:14 *615:B1 0.000154241
10 *585:B *38:14 5.74562e-05
11 *881:B *38:14 3.08225e-05
12 *933:B1 *38:14 0.000273269
13 *4:65 *38:14 7.64022e-05
*RES
1 *933:X *38:14 25.4964 
2 *38:14 *612:B 9.3 
3 *38:14 *613:B 13.175 
*END

*D_NET *39 0.000480793
*CONN
*I *610:B I *D sky130_fd_sc_hd__xor2_1
*I *611:A2 I *D sky130_fd_sc_hd__a21o_1
*I *934:X O *D sky130_fd_sc_hd__xor2_1
*CAP
1 *610:B 2.95759e-05
2 *611:A2 3.48395e-05
3 *934:X 7.0188e-05
4 *39:10 0.000134603
5 *610:B *610:A 2.12647e-05
6 *611:A2 *610:A 6.21609e-05
7 *39:10 *97:12 0
8 *6:76 *39:10 0.000128161
*RES
1 *934:X *39:10 19.9429 
2 *39:10 *611:A2 10.2643 
3 *39:10 *610:B 9.83571 
*END

*D_NET *40 0.00206138
*CONN
*I *943:B I *D sky130_fd_sc_hd__xor2_1
*I *944:A2 I *D sky130_fd_sc_hd__a21o_1
*I *935:X O *D sky130_fd_sc_hd__and2_1
*CAP
1 *943:B 0
2 *944:A2 0.000122883
3 *935:X 0.00057973
4 *40:12 0.000702613
5 *944:A2 *943:A 0.000105163
6 *40:12 *935:B 0.000312215
7 *40:12 *45:12 0
8 *40:12 *94:10 0
9 *40:12 *145:10 0
10 *40:12 *354:6 2.77143e-05
11 *12:57 *40:12 0.000188586
12 *12:61 *40:12 2.24763e-05
*RES
1 *935:X *40:12 26.5321 
2 *40:12 *944:A2 11.9071 
3 *40:12 *943:B 9.3 
*END

*D_NET *41 0.00071451
*CONN
*I *939:A I *D sky130_fd_sc_hd__xor2_1
*I *940:A1 I *D sky130_fd_sc_hd__a21o_1
*I *937:X O *D sky130_fd_sc_hd__xor2_1
*CAP
1 *939:A 6.43975e-05
2 *940:A1 0
3 *937:X 0.000102084
4 *41:10 0.000166482
5 *939:A *940:A2 5.73295e-05
6 *751:A *41:10 5.40401e-05
7 *4:53 *41:10 5.40401e-05
8 *6:61 *939:A 2.95841e-05
9 *6:61 *41:10 2.8266e-06
10 *11:11 *939:A 0.000183726
*RES
1 *937:X *41:10 20.55 
2 *41:10 *940:A1 9.3 
3 *41:10 *939:A 11.4964 
*END

*D_NET *42 0.000695091
*CONN
*I *940:B1 I *D sky130_fd_sc_hd__a21o_1
*I *938:X O *D sky130_fd_sc_hd__and2_1
*CAP
1 *940:B1 0.000159729
2 *938:X 0.000159729
3 *940:B1 *44:12 1.92905e-05
4 *6:42 *940:B1 0.000178847
5 *6:61 *940:B1 2.89114e-05
6 *11:11 *940:B1 2.28598e-05
7 *13:13 *940:B1 0
8 *14:24 *940:B1 0.000125724
*RES
1 *938:X *940:B1 31.4214 
*END

*D_NET *43 0.00148563
*CONN
*I *614:B I *D sky130_fd_sc_hd__xor2_1
*I *615:A2 I *D sky130_fd_sc_hd__a21o_1
*I *939:X O *D sky130_fd_sc_hd__xor2_1
*CAP
1 *614:B 0.000132684
2 *615:A2 2.23854e-05
3 *939:X 0.000100598
4 *43:6 0.000255667
5 *662:B *614:B 0
6 *4:65 *614:B 8.41822e-05
7 *6:61 *614:B 9.71197e-05
8 *6:61 *43:6 0.000481556
9 *13:46 *614:B 4.72917e-05
10 *13:46 *43:6 0.000264144
*RES
1 *939:X *43:6 13.9429 
2 *43:6 *615:A2 9.72857 
3 *43:6 *614:B 21.4964 
*END

*D_NET *44 0.00118302
*CONN
*I *568:B I *D sky130_fd_sc_hd__xor2_1
*I *569:A2 I *D sky130_fd_sc_hd__a21o_1
*I *940:X O *D sky130_fd_sc_hd__a21o_1
*CAP
1 *568:B 4.96939e-05
2 *569:A2 0
3 *940:X 0.000184634
4 *44:12 0.000234327
5 *568:B *568:A 0.000106517
6 *44:12 *53:12 0.000150625
7 *940:B1 *44:12 1.92905e-05
8 *7:58 *568:B 4.87953e-05
9 *11:86 *44:12 0.000308001
10 *14:24 *44:12 6.35224e-05
11 *14:41 *44:12 1.76135e-05
*RES
1 *940:X *44:12 22.9071 
2 *44:12 *569:A2 9.3 
3 *44:12 *568:B 10.675 
*END

*D_NET *45 0.000795069
*CONN
*I *943:A I *D sky130_fd_sc_hd__xor2_1
*I *944:A1 I *D sky130_fd_sc_hd__a21o_1
*I *941:X O *D sky130_fd_sc_hd__xor2_1
*CAP
1 *943:A 0.000126661
2 *944:A1 0
3 *941:X 0.000129675
4 *45:12 0.000256336
5 *45:12 *145:10 0.000177234
6 *944:A2 *943:A 0.000105163
7 *40:12 *45:12 0
*RES
1 *941:X *45:12 21.0857 
2 *45:12 *944:A1 9.3 
3 *45:12 *943:A 11.9071 
*END

*D_NET *46 0.000589395
*CONN
*I *944:B1 I *D sky130_fd_sc_hd__a21o_1
*I *942:X O *D sky130_fd_sc_hd__and2_1
*CAP
1 *944:B1 0.000229763
2 *942:X 0.000229763
3 *944:B1 *666:B1 0.000129868
4 *944:B1 *145:10 0
*RES
1 *942:X *944:B1 31.8321 
*END

*D_NET *47 0.000687347
*CONN
*I *658:A I *D sky130_fd_sc_hd__xor2_1
*I *659:A I *D sky130_fd_sc_hd__and2_1
*I *943:X O *D sky130_fd_sc_hd__xor2_1
*CAP
1 *658:A 6.95004e-05
2 *659:A 9.2949e-05
3 *943:X 9.78013e-05
4 *47:10 0.000260251
5 *658:A *659:B 0.000113512
6 *659:A *659:B 5.33334e-05
7 *47:10 *94:10 0
*RES
1 *943:X *47:10 19.9429 
2 *47:10 *659:A 11.0679 
3 *47:10 *658:A 11.0857 
*END

*D_NET *48 0.000930643
*CONN
*I *619:B I *D sky130_fd_sc_hd__xor2_1
*I *620:A2 I *D sky130_fd_sc_hd__a21o_1
*I *944:X O *D sky130_fd_sc_hd__a21o_1
*CAP
1 *619:B 0
2 *620:A2 0.00012911
3 *944:X 0.000191162
4 *48:10 0.000320272
5 *620:A2 *619:A 0.000102207
6 *48:10 *666:B1 0
7 *48:10 *145:10 0.000187893
*RES
1 *944:X *48:10 22.675 
2 *48:10 *620:A2 11.9071 
3 *48:10 *619:B 9.3 
*END

*D_NET *49 0.000728956
*CONN
*I *564:A I *D sky130_fd_sc_hd__xor2_1
*I *565:A1 I *D sky130_fd_sc_hd__a21o_1
*I *945:X O *D sky130_fd_sc_hd__xor2_1
*CAP
1 *564:A 5.14024e-05
2 *565:A1 7.48667e-05
3 *945:X 0.000108265
4 *49:10 0.000234534
5 *564:A *564:B 2.286e-05
6 *565:A1 *564:B 9.71197e-05
7 *565:A1 *389:12 1.55885e-05
8 *49:10 *106:14 0
9 *49:10 *377:12 0.000103275
10 *12:37 *49:10 2.10446e-05
*RES
1 *945:X *49:10 20.8536 
2 *49:10 *565:A1 10.6571 
3 *49:10 *564:A 10.2643 
*END

*D_NET *50 0.000364535
*CONN
*I *565:B1 I *D sky130_fd_sc_hd__a21o_1
*I *946:X O *D sky130_fd_sc_hd__and2_1
*CAP
1 *565:B1 0.000121112
2 *946:X 0.000121112
3 *565:B1 *107:14 6.1684e-05
4 *565:B1 *389:12 5.03772e-05
5 *8:67 *565:B1 1.02504e-05
6 *10:42 *565:B1 0
*RES
1 *946:X *565:B1 30.1893 
*END

*D_NET *51 0.000903358
*CONN
*I *616:B I *D sky130_fd_sc_hd__xor2_1
*I *617:B I *D sky130_fd_sc_hd__and2_1
*I *564:X O *D sky130_fd_sc_hd__xor2_1
*CAP
1 *616:B 8.56326e-05
2 *617:B 0.000110782
3 *564:X 8.8596e-05
4 *51:10 0.000285011
5 *616:B *616:A 5.56205e-05
6 *617:B *616:A 0.000102197
7 *51:10 *106:14 0.000175519
8 *51:10 *107:14 0
9 *51:10 *389:12 0
*RES
1 *564:X *51:10 20.55 
2 *51:10 *617:B 11.4964 
3 *51:10 *616:B 10.9786 
*END

*D_NET *52 0.000845336
*CONN
*I *577:B I *D sky130_fd_sc_hd__xor2_1
*I *578:A2 I *D sky130_fd_sc_hd__a21o_1
*I *565:X O *D sky130_fd_sc_hd__a21o_1
*CAP
1 *577:B 0
2 *578:A2 5.53715e-05
3 *565:X 0.00019018
4 *52:10 0.000245552
5 *578:A2 *577:A 0.00010946
6 *578:A2 *64:10 5.30637e-06
7 *52:10 *60:10 0
8 *52:10 *61:12 5.57914e-05
9 *52:10 *107:14 0.000183674
10 *10:42 *52:10 0
*RES
1 *565:X *52:10 22.675 
2 *52:10 *578:A2 10.675 
3 *52:10 *577:B 9.3 
*END

*D_NET *53 0.00144288
*CONN
*I *568:A I *D sky130_fd_sc_hd__xor2_1
*I *569:A1 I *D sky130_fd_sc_hd__a21o_1
*I *566:X O *D sky130_fd_sc_hd__xor2_1
*CAP
1 *568:A 0.000138738
2 *569:A1 0
3 *566:X 9.00029e-05
4 *53:12 0.000228741
5 *53:12 *385:6 0.000273269
6 *568:B *568:A 0.000106517
7 *7:58 *568:A 3.30237e-05
8 *13:21 *53:12 0.000271339
9 *14:24 *53:12 0.000150625
10 *44:12 *53:12 0.000150625
*RES
1 *566:X *53:12 22.8357 
2 *53:12 *569:A1 9.3 
3 *53:12 *568:A 11.925 
*END

*D_NET *54 0.00123498
*CONN
*I *569:B1 I *D sky130_fd_sc_hd__a21o_1
*I *567:X O *D sky130_fd_sc_hd__and2_1
*CAP
1 *569:B1 0.000226459
2 *567:X 0.000226459
3 *840:B *569:B1 0.000274294
4 *7:58 *569:B1 0.00018708
5 *13:13 *569:B1 0.000145161
6 *13:106 *569:B1 0.000175526
7 *14:24 *569:B1 0
*RES
1 *567:X *569:B1 34.2607 
*END

*D_NET *55 0.000984996
*CONN
*I *663:A I *D sky130_fd_sc_hd__xor2_1
*I *664:A I *D sky130_fd_sc_hd__and2_1
*I *568:X O *D sky130_fd_sc_hd__xor2_1
*CAP
1 *663:A 7.30391e-05
2 *664:A 0
3 *568:X 0.000137293
4 *55:12 0.000210332
5 *663:A *664:B 0.000161584
6 *14:41 *663:A 0.000304274
7 *14:41 *55:12 9.84729e-05
*RES
1 *568:X *55:12 20.8893 
2 *55:12 *664:A 9.3 
3 *55:12 *663:A 12.7286 
*END

*D_NET *56 0.00151699
*CONN
*I *623:B I *D sky130_fd_sc_hd__xor2_1
*I *624:A2 I *D sky130_fd_sc_hd__a21o_1
*I *569:X O *D sky130_fd_sc_hd__a21o_1
*CAP
1 *623:B 8.53162e-05
2 *624:A2 0
3 *569:X 0.000212349
4 *56:10 0.000297665
5 *623:B *623:A 9.58689e-05
6 *623:B *624:A1 0.000126272
7 *623:B *624:B1 2.30861e-05
8 *56:10 *624:B1 3.67279e-06
9 *3:42 *623:B 4.84159e-05
10 *7:58 *56:10 0.000229456
11 *11:86 *623:B 0.000197516
12 *11:86 *56:10 0.00014852
13 *14:41 *56:10 4.88537e-05
*RES
1 *569:X *56:10 17.925 
2 *56:10 *624:A2 13.8 
3 *56:10 *623:B 17.3 
*END

*D_NET *57 0.000623853
*CONN
*I *572:A I *D sky130_fd_sc_hd__xor2_1
*I *573:A1 I *D sky130_fd_sc_hd__a21o_1
*I *570:X O *D sky130_fd_sc_hd__xor2_1
*CAP
1 *572:A 5.47766e-05
2 *573:A1 3.96568e-05
3 *570:X 5.01146e-05
4 *57:8 0.000144548
5 *572:A *395:6 4.58194e-05
6 *573:A1 *572:B 0.000126272
7 *573:A1 *60:10 0.000124749
8 *57:8 *571:B 1.19813e-05
9 *57:8 *395:6 2.59355e-05
*RES
1 *570:X *57:8 10.2643 
2 *57:8 *573:A1 19.9429 
3 *57:8 *572:A 10.2464 
*END

*D_NET *58 0.000834693
*CONN
*I *573:B1 I *D sky130_fd_sc_hd__a21o_1
*I *571:X O *D sky130_fd_sc_hd__and2_1
*CAP
1 *573:B1 0.000249036
2 *571:X 0.000249036
3 *573:B1 *571:B 0.000181899
4 *573:B1 *572:B 1.33248e-05
5 *573:B1 *60:10 7.58841e-05
6 *573:B1 *392:8 3.67279e-06
7 *573:B1 *395:6 2.10974e-05
8 *7:41 *573:B1 4.07423e-05
*RES
1 *571:X *573:B1 31.8321 
*END

*D_NET *59 0.000853379
*CONN
*I *621:B I *D sky130_fd_sc_hd__xor2_1
*I *622:B I *D sky130_fd_sc_hd__and2_1
*I *572:X O *D sky130_fd_sc_hd__xor2_1
*CAP
1 *621:B 0
2 *622:B 9.82446e-05
3 *572:X 5.33609e-05
4 *59:6 0.000151606
5 *622:B *622:A 0.000148658
6 *622:B *107:14 0.000193734
7 *59:6 *621:A 4.17702e-05
8 *59:6 *395:6 9.84729e-05
9 *884:B *622:B 8.08608e-06
10 *12:37 *622:B 5.33005e-05
11 *13:106 *622:B 6.14702e-06
*RES
1 *572:X *59:6 10.6571 
2 *59:6 *622:B 21.3893 
3 *59:6 *621:B 9.3 
*END

*D_NET *60 0.00389915
*CONN
*I *625:B I *D sky130_fd_sc_hd__xor2_1
*I *626:B I *D sky130_fd_sc_hd__and2_1
*I *573:X O *D sky130_fd_sc_hd__a21o_1
*CAP
1 *625:B 0.000152857
2 *626:B 0
3 *573:X 0.000911912
4 *60:10 0.00106477
5 *625:B *625:A 8.45319e-05
6 *625:B *626:A 0.000144512
7 *625:B *628:A1 0
8 *625:B *72:14 0.000153047
9 *60:10 *572:B 1.25366e-05
10 *60:10 *626:A 1.02504e-05
11 *60:10 *61:12 0
12 *60:10 *72:14 0.000150625
13 *60:10 *378:10 3.71362e-05
14 *573:A1 *60:10 0.000124749
15 *573:B1 *60:10 7.58841e-05
16 *900:A *60:10 0.000196927
17 *7:33 *60:10 4.35141e-05
18 *7:41 *60:10 8.57761e-05
19 *9:65 *60:10 0
20 *10:42 *60:10 0.000596389
21 *12:20 *60:10 5.37326e-05
22 *52:10 *60:10 0
*RES
1 *573:X *60:10 34.1036 
2 *60:10 *626:B 13.8 
3 *60:10 *625:B 17.8357 
*END

*D_NET *61 0.00116813
*CONN
*I *577:A I *D sky130_fd_sc_hd__xor2_1
*I *578:A1 I *D sky130_fd_sc_hd__a21o_1
*I *575:X O *D sky130_fd_sc_hd__xor2_1
*CAP
1 *577:A 0.000137932
2 *578:A1 0
3 *575:X 0.000308055
4 *61:12 0.000445988
5 *577:A *64:10 1.32552e-05
6 *578:A2 *577:A 0.00010946
7 *10:42 *61:12 9.76491e-05
8 *52:10 *61:12 5.57914e-05
9 *60:10 *61:12 0
*RES
1 *575:X *61:12 24.0679 
2 *61:12 *578:A1 9.3 
3 *61:12 *577:A 11.925 
*END

*D_NET *62 0.000453513
*CONN
*I *578:B1 I *D sky130_fd_sc_hd__a21o_1
*I *576:X O *D sky130_fd_sc_hd__and2_1
*CAP
1 *578:B1 0.000164801
2 *576:X 0.000164801
3 *578:B1 *64:10 4.01768e-05
4 *578:B1 *72:14 8.37335e-05
*RES
1 *576:X *578:B1 22.0107 
*END

*D_NET *63 0.000886481
*CONN
*I *667:A I *D sky130_fd_sc_hd__xor2_1
*I *668:A I *D sky130_fd_sc_hd__and2_1
*I *577:X O *D sky130_fd_sc_hd__xor2_1
*CAP
1 *667:A 0.000121128
2 *668:A 0
3 *577:X 0.000137642
4 *63:12 0.00025877
5 *667:A *668:B 0.000160794
6 *667:A *670:B1 0.00014183
7 *63:12 *71:12 3.34366e-05
8 *63:12 *106:14 0
9 *63:12 *107:14 3.28804e-05
*RES
1 *577:X *63:12 20.8893 
2 *63:12 *668:A 9.3 
3 *63:12 *667:A 12.7286 
*END

*D_NET *64 0.00124938
*CONN
*I *627:B I *D sky130_fd_sc_hd__xor2_1
*I *628:A2 I *D sky130_fd_sc_hd__a21o_1
*I *578:X O *D sky130_fd_sc_hd__a21o_1
*CAP
1 *627:B 0.000112253
2 *628:A2 0
3 *578:X 0.000386104
4 *64:10 0.000498357
5 *627:B *627:A 0.000129868
6 *627:B *628:B1 4.1331e-06
7 *627:B *72:14 0
8 *627:B *107:14 0
9 *627:B *110:12 4.1331e-06
10 *64:10 *628:B1 5.57914e-05
11 *64:10 *72:14 0
12 *64:10 *107:14 0
13 *577:A *64:10 1.32552e-05
14 *578:A2 *64:10 5.30637e-06
15 *578:B1 *64:10 4.01768e-05
*RES
1 *578:X *64:10 20.05 
2 *64:10 *628:A2 13.8 
3 *64:10 *627:B 16.3536 
*END

*D_NET *65 0.000475097
*CONN
*I *581:A I *D sky130_fd_sc_hd__xor2_1
*I *582:A1 I *D sky130_fd_sc_hd__a21o_1
*I *579:X O *D sky130_fd_sc_hd__xor2_1
*CAP
1 *581:A 5.91354e-05
2 *582:A1 7.77777e-05
3 *579:X 5.31093e-05
4 *65:8 0.000190022
5 *581:A *581:B 1.24368e-05
6 *582:A1 *581:B 6.74911e-05
7 *65:8 *579:B 1.17091e-05
8 *65:8 *581:B 3.41517e-06
*RES
1 *579:X *65:8 10.2643 
2 *65:8 *582:A1 19.9429 
3 *65:8 *581:A 10.2464 
*END

*D_NET *66 0.00080598
*CONN
*I *582:B1 I *D sky130_fd_sc_hd__a21o_1
*I *580:X O *D sky130_fd_sc_hd__and2_1
*CAP
1 *582:B1 0.000168784
2 *580:X 0.000168784
3 *582:B1 *581:B 0
4 *582:B1 *68:10 0.000114088
5 *582:B1 *372:10 8.00806e-05
6 *9:65 *582:B1 0.000274244
*RES
1 *580:X *582:B1 31.8321 
*END

*D_NET *67 0.000671901
*CONN
*I *625:A I *D sky130_fd_sc_hd__xor2_1
*I *626:A I *D sky130_fd_sc_hd__and2_1
*I *581:X O *D sky130_fd_sc_hd__xor2_1
*CAP
1 *625:A 9.66387e-05
2 *626:A 0.000106715
3 *581:X 0
4 *67:4 0.000203354
5 *625:A *581:B 0
6 *626:A *581:B 0
7 *626:A *72:14 2.58997e-05
8 *625:B *625:A 8.45319e-05
9 *625:B *626:A 0.000144512
10 *60:10 *626:A 1.02504e-05
*RES
1 *581:X *67:4 9.3 
2 *67:4 *626:A 20.8536 
3 *67:4 *625:A 11.0857 
*END

*D_NET *68 0.00215746
*CONN
*I *630:A I *D sky130_fd_sc_hd__xor2_1
*I *631:A I *D sky130_fd_sc_hd__and2_1
*I *582:X O *D sky130_fd_sc_hd__a21o_1
*CAP
1 *630:A 0.000180182
2 *631:A 4.57842e-05
3 *582:X 0.000421909
4 *68:10 0.000647876
5 *630:A *594:B 0.000104197
6 *630:A *595:A1 0.000191403
7 *630:A *595:B1 6.37408e-06
8 *630:A *631:B 2.84026e-05
9 *630:A *75:6 2.23592e-05
10 *630:A *80:18 0.000169903
11 *631:A *594:B 5.20751e-05
12 *68:10 *595:B1 4.46186e-06
13 *68:10 *365:12 6.5185e-05
14 *68:10 *372:10 0.00010326
15 *582:B1 *68:10 0.000114088
*RES
1 *582:X *68:10 21.55 
2 *68:10 *631:A 14.7464 
3 *68:10 *630:A 18.425 
*END

*D_NET *69 0.00151197
*CONN
*I *586:A I *D sky130_fd_sc_hd__xor2_1
*I *587:A1 I *D sky130_fd_sc_hd__a21o_1
*I *583:X O *D sky130_fd_sc_hd__xor2_1
*CAP
1 *586:A 0.000217156
2 *587:A1 0
3 *583:X 0.000239096
4 *69:10 0.000456252
5 *586:A *586:B 0.000184745
6 *586:A *587:A2 0.000144512
7 *586:A *587:B1 5.80706e-06
8 *69:10 *583:A 6.43749e-05
9 *69:10 *583:B 3.34366e-05
10 *69:10 *587:A2 1.02504e-05
11 *69:10 *587:B1 0.000103041
12 *894:B *586:A 5.33005e-05
13 *14:89 *586:A 0
14 *16:47 *586:A 0
15 *16:47 *69:10 0
*RES
1 *583:X *69:10 18.425 
2 *69:10 *587:A1 13.8 
3 *69:10 *586:A 18.8357 
*END

*D_NET *70 0.00126559
*CONN
*I *587:B1 I *D sky130_fd_sc_hd__a21o_1
*I *584:X O *D sky130_fd_sc_hd__and2_1
*CAP
1 *587:B1 0.000299461
2 *584:X 0.000299461
3 *587:B1 *583:B 0.000119917
4 *586:A *587:B1 5.80706e-06
5 *14:89 *587:B1 0.000170532
6 *16:47 *587:B1 0.00026737
7 *69:10 *587:B1 0.000103041
*RES
1 *584:X *587:B1 34.2607 
*END

*D_NET *71 0.00385486
*CONN
*I *672:A I *D sky130_fd_sc_hd__and2_1
*I *671:A I *D sky130_fd_sc_hd__xor2_1
*I *586:X O *D sky130_fd_sc_hd__xor2_1
*CAP
1 *672:A 0.000186607
2 *671:A 0
3 *586:X 0.000996446
4 *71:12 0.00118305
5 *672:A *672:B 0.000282169
6 *71:12 *628:B1 0.00013949
7 *71:12 *106:14 0
8 *71:12 *107:14 0.000160414
9 *71:12 *111:8 0.00015234
10 *71:12 *154:10 0
11 *894:B *71:12 1.59373e-05
12 *9:54 *71:12 9.99853e-05
13 *9:65 *71:12 0.000604978
14 *63:12 *71:12 3.34366e-05
*RES
1 *586:X *71:12 37.9786 
2 *71:12 *671:A 9.3 
3 *71:12 *672:A 13.675 
*END

*D_NET *72 0.00473233
*CONN
*I *677:A I *D sky130_fd_sc_hd__xor2_1
*I *678:A I *D sky130_fd_sc_hd__and2_1
*I *587:X O *D sky130_fd_sc_hd__a21o_1
*CAP
1 *677:A 0
2 *678:A 0.000201904
3 *587:X 0.00175627
4 *72:14 0.00195818
5 *678:A *632:A 0
6 *678:A *678:B 0.000286635
7 *678:A *114:6 1.69961e-05
8 *72:14 *581:B 0
9 *72:14 *627:A 0
10 *72:14 *633:B1 0
11 *72:14 *110:12 0
12 *72:14 *112:10 0
13 *72:14 *114:6 9.90431e-05
14 *578:B1 *72:14 8.37335e-05
15 *625:B *72:14 0.000153047
16 *626:A *72:14 2.58997e-05
17 *627:B *72:14 0
18 *60:10 *72:14 0.000150625
19 *64:10 *72:14 0
*RES
1 *587:X *72:14 44.2464 
2 *72:14 *678:A 13.5679 
3 *72:14 *677:A 9.3 
*END

*D_NET *73 0.0011065
*CONN
*I *590:A I *D sky130_fd_sc_hd__xor2_1
*I *591:A1 I *D sky130_fd_sc_hd__a21o_1
*I *588:X O *D sky130_fd_sc_hd__xor2_1
*CAP
1 *590:A 0.000100392
2 *591:A1 4.43695e-05
3 *588:X 6.20512e-05
4 *73:10 0.000206813
5 *590:A *590:B 5.96516e-05
6 *590:A *76:10 0.000136958
7 *591:A1 *590:B 7.32173e-05
8 *73:10 *591:B1 0.000149421
9 *887:B *591:A1 0.00010096
10 *16:30 *73:10 0.00017267
*RES
1 *588:X *73:10 20.55 
2 *73:10 *591:A1 10.6571 
3 *73:10 *590:A 11.4964 
*END

*D_NET *74 0.000849386
*CONN
*I *591:B1 I *D sky130_fd_sc_hd__a21o_1
*I *589:X O *D sky130_fd_sc_hd__and2_1
*CAP
1 *591:B1 0.000273389
2 *589:X 0.000273389
3 *591:B1 *588:A 8.25843e-06
4 *591:B1 *588:B 2.89114e-05
5 *591:B1 *589:B 2.89016e-05
6 *15:21 *591:B1 3.67257e-05
7 *18:21 *591:B1 5.03894e-05
8 *73:10 *591:B1 0.000149421
*RES
1 *589:X *591:B1 32.1357 
*END

*D_NET *75 0.00193731
*CONN
*I *631:B I *D sky130_fd_sc_hd__and2_1
*I *630:B I *D sky130_fd_sc_hd__xor2_1
*I *590:X O *D sky130_fd_sc_hd__xor2_1
*CAP
1 *631:B 0.00012095
2 *630:B 2.22847e-05
3 *590:X 0.000506666
4 *75:6 0.000649901
5 *631:B *594:B 5.72546e-05
6 *631:B *633:B1 3.21968e-05
7 *631:B *79:12 7.29792e-05
8 *75:6 *592:B 5.52238e-05
9 *75:6 *594:B 0.000175892
10 *75:6 *595:A1 1.51489e-05
11 *75:6 *76:10 4.0342e-06
12 *75:6 *77:8 7.8195e-05
13 *75:6 *79:12 9.58181e-05
14 *630:A *631:B 2.84026e-05
15 *630:A *75:6 2.23592e-05
*RES
1 *590:X *75:6 17.6393 
2 *75:6 *630:B 9.72857 
3 *75:6 *631:B 21.0857 
*END

*D_NET *76 0.00125753
*CONN
*I *634:B I *D sky130_fd_sc_hd__xor2_1
*I *635:B I *D sky130_fd_sc_hd__and2_1
*I *591:X O *D sky130_fd_sc_hd__a21o_1
*CAP
1 *634:B 7.65649e-05
2 *635:B 0
3 *591:X 0.000352693
4 *76:10 0.000429258
5 *634:B *593:A 0
6 *634:B *634:A 0.000128154
7 *634:B *637:B1 0.000129868
8 *76:10 *593:A 0
9 *590:A *76:10 0.000136958
10 *9:38 *634:B 0
11 *9:38 *76:10 0
12 *10:23 *76:10 0
13 *75:6 *76:10 4.0342e-06
*RES
1 *591:X *76:10 18.4429 
2 *76:10 *635:B 13.8 
3 *76:10 *634:B 16.3536 
*END

*D_NET *77 0.00136708
*CONN
*I *595:A1 I *D sky130_fd_sc_hd__a21o_1
*I *594:A I *D sky130_fd_sc_hd__xor2_1
*I *592:X O *D sky130_fd_sc_hd__xor2_1
*CAP
1 *595:A1 0.00019448
2 *594:A 0
3 *592:X 7.87041e-05
4 *77:8 0.000273184
5 *595:A1 *594:B 0.000270909
6 *595:A1 *595:B1 0.000248789
7 *595:A1 *80:18 6.05161e-06
8 *595:A1 *402:16 1.02132e-05
9 *630:A *595:A1 0.000191403
10 *75:6 *595:A1 1.51489e-05
11 *75:6 *77:8 7.8195e-05
*RES
1 *592:X *77:8 11.0857 
2 *77:8 *594:A 9.3 
3 *77:8 *595:A1 23.9964 
*END

*D_NET *78 0.00104506
*CONN
*I *595:B1 I *D sky130_fd_sc_hd__a21o_1
*I *593:X O *D sky130_fd_sc_hd__and2_1
*CAP
1 *595:B1 0.000346027
2 *593:X 0.000346027
3 *595:B1 *80:18 9.33768e-05
4 *595:A1 *595:B1 0.000248789
5 *630:A *595:B1 6.37408e-06
6 *68:10 *595:B1 4.46186e-06
*RES
1 *593:X *595:B1 33.8679 
*END

*D_NET *79 0.00154352
*CONN
*I *632:B I *D sky130_fd_sc_hd__xor2_1
*I *633:A2 I *D sky130_fd_sc_hd__a21o_1
*I *594:X O *D sky130_fd_sc_hd__xor2_1
*CAP
1 *632:B 6.72129e-05
2 *633:A2 0.000106999
3 *594:X 0.000291722
4 *79:12 0.000465933
5 *632:B *632:A 6.05161e-06
6 *632:B *633:A1 4.43256e-05
7 *632:B *633:B1 4.08637e-05
8 *633:A2 *633:A1 4.73286e-05
9 *633:A2 *633:B1 5.49489e-05
10 *79:12 *594:B 5.79582e-06
11 *79:12 *633:B1 0.000243537
12 *79:12 *80:18 0
13 *631:B *79:12 7.29792e-05
14 *75:6 *79:12 9.58181e-05
*RES
1 *594:X *79:12 23.5321 
2 *79:12 *633:A2 11.4964 
3 *79:12 *632:B 10.6571 
*END

*D_NET *80 0.00227737
*CONN
*I *681:A I *D sky130_fd_sc_hd__xor2_1
*I *682:A I *D sky130_fd_sc_hd__and2_1
*I *595:X O *D sky130_fd_sc_hd__a21o_1
*CAP
1 *681:A 0.000163249
2 *682:A 0
3 *595:X 0.000595582
4 *80:18 0.000758831
5 *681:A *682:B 0.000202835
6 *681:A *119:6 5.33005e-05
7 *80:18 *594:B 0.000223991
8 *80:18 *682:B 1.02504e-05
9 *80:18 *115:8 0
10 *595:A1 *80:18 6.05161e-06
11 *595:B1 *80:18 9.33768e-05
12 *630:A *80:18 0.000169903
13 *79:12 *80:18 0
*RES
1 *595:X *80:18 33.7464 
2 *80:18 *682:A 13.8 
3 *80:18 *681:A 17.6036 
*END

*D_NET *81 0.0010754
*CONN
*I *599:A I *D sky130_fd_sc_hd__xor2_1
*I *600:A1 I *D sky130_fd_sc_hd__a21o_1
*I *597:X O *D sky130_fd_sc_hd__xor2_1
*CAP
1 *599:A 7.5198e-05
2 *600:A1 0
3 *597:X 0.000176784
4 *81:12 0.000251982
5 *599:A *600:A2 0.000115379
6 *599:A *84:10 0.000188586
7 *81:12 *120:10 0
8 *81:12 *374:10 4.57445e-05
9 *896:B *81:12 6.86792e-05
10 *9:26 *81:12 0.000153047
*RES
1 *597:X *81:12 21.6036 
2 *81:12 *600:A1 9.3 
3 *81:12 *599:A 11.925 
*END

*D_NET *82 0.00106527
*CONN
*I *600:B1 I *D sky130_fd_sc_hd__a21o_1
*I *598:X O *D sky130_fd_sc_hd__and2_1
*CAP
1 *600:B1 0.000185513
2 *598:X 0.000185513
3 *9:26 *600:B1 0.000214342
4 *9:38 *600:B1 0.000128154
5 *16:9 *600:B1 0.000200413
6 *16:11 *600:B1 0.000151333
*RES
1 *598:X *600:B1 32.9214 
*END

*D_NET *83 0.000597683
*CONN
*I *636:B I *D sky130_fd_sc_hd__xor2_1
*I *637:A2 I *D sky130_fd_sc_hd__a21o_1
*I *599:X O *D sky130_fd_sc_hd__xor2_1
*CAP
1 *636:B 0.000105472
2 *637:A2 0.000120269
3 *599:X 3.72884e-05
4 *83:6 0.000263029
5 *637:A2 *636:A 0
6 *637:A2 *637:B1 4.1331e-06
7 *637:A2 *120:10 6.74911e-05
8 *9:26 *637:A2 0
*RES
1 *599:X *83:6 9.83571 
2 *83:6 *637:A2 20.8536 
3 *83:6 *636:B 11.0679 
*END

*D_NET *84 0.0022577
*CONN
*I *687:A I *D sky130_fd_sc_hd__and2_1
*I *686:A I *D sky130_fd_sc_hd__xor2_1
*I *600:X O *D sky130_fd_sc_hd__a21o_1
*CAP
1 *687:A 0.000134296
2 *686:A 0
3 *600:X 0.000604145
4 *84:10 0.000738441
5 *687:A *687:B 0.000205856
6 *687:A *688:B 3.40128e-05
7 *687:A *689:B1 0
8 *687:A *124:10 5.92086e-05
9 *84:10 *688:B 8.89385e-05
10 *84:10 *120:10 0.000181368
11 *599:A *84:10 0.000188586
12 *906:A *687:A 0
13 *906:B *687:A 2.28499e-05
14 *9:24 *687:A 0
15 *9:24 *84:10 0
16 *9:26 *84:10 0
*RES
1 *600:X *84:10 24.1214 
2 *84:10 *686:A 13.8 
3 *84:10 *687:A 17.425 
*END

*D_NET *85 0.00233737
*CONN
*I *700:A I *D sky130_fd_sc_hd__xor2_1
*I *699:A I *D sky130_fd_sc_hd__and2_1
*I *601:X O *D sky130_fd_sc_hd__xor2_1
*CAP
1 *700:A 0.000205449
2 *699:A 0
3 *601:X 0.000774809
4 *85:10 0.000980258
5 *700:A *700:B 0.000106299
6 *700:A *130:10 5.80706e-06
7 *700:A *134:8 0
8 *700:A *179:10 0
9 *700:A *183:10 3.34366e-05
10 *85:10 *125:12 0
11 *85:10 *126:12 0
12 *85:10 *128:12 0
13 *85:10 *130:10 0.000109809
14 *85:10 *134:8 0
15 *85:10 *192:10 6.65398e-05
16 *629:B *85:10 0
17 *936:A *85:10 0
18 *4:97 *85:10 5.4959e-05
*RES
1 *601:X *85:10 27.0143 
2 *85:10 *699:A 13.8 
3 *85:10 *700:A 18.0143 
*END

*D_NET *86 0.000862563
*CONN
*I *649:A I *D sky130_fd_sc_hd__xor2_1
*I *650:A I *D sky130_fd_sc_hd__and2_1
*I *602:X O *D sky130_fd_sc_hd__and2_1
*CAP
1 *649:A 0
2 *650:A 0.000107448
3 *602:X 0.000201499
4 *86:6 0.000308948
5 *650:A *650:B 8.51847e-05
6 *650:A *652:A 4.68089e-05
7 *650:A *652:B 8.91963e-06
8 *650:A *89:10 3.67279e-06
9 *86:6 *653:A1 7.62323e-05
10 *86:6 *132:6 2.38501e-05
*RES
1 *602:X *86:6 13.1214 
2 *86:6 *650:A 20.8536 
3 *86:6 *649:A 9.3 
*END

*D_NET *87 0.00137346
*CONN
*I *605:A I *D sky130_fd_sc_hd__xor2_1
*I *606:A1 I *D sky130_fd_sc_hd__a21o_1
*I *603:X O *D sky130_fd_sc_hd__xor2_1
*CAP
1 *605:A 7.74105e-05
2 *606:A1 0.000168606
3 *603:X 0
4 *87:4 0.000246016
5 *605:A *605:B 0.000153054
6 *605:A *606:A2 6.05161e-06
7 *605:A *353:10 5.66157e-05
8 *606:A1 *603:A 2.59355e-05
9 *606:A1 *606:A2 0.000109671
10 *5:57 *605:A 0.000225702
11 *5:57 *606:A1 0.000304394
*RES
1 *603:X *87:4 9.3 
2 *87:4 *606:A1 14.1214 
3 *87:4 *605:A 21.3893 
*END

*D_NET *88 0.000495668
*CONN
*I *606:B1 I *D sky130_fd_sc_hd__a21o_1
*I *604:X O *D sky130_fd_sc_hd__and2_1
*CAP
1 *606:B1 0.000214119
2 *604:X 0.000214119
3 *606:B1 *604:B 0
4 *606:B1 *657:B1 1.40415e-05
5 *606:B1 *90:8 5.33882e-05
6 *6:76 *606:B1 0
*RES
1 *604:X *606:B1 31.3143 
*END

*D_NET *89 0.00172463
*CONN
*I *652:B I *D sky130_fd_sc_hd__xor2_1
*I *653:A2 I *D sky130_fd_sc_hd__a21o_1
*I *605:X O *D sky130_fd_sc_hd__xor2_1
*CAP
1 *652:B 0.000206789
2 *653:A2 0
3 *605:X 0.000302504
4 *89:10 0.000509294
5 *652:B *650:B 0.000148376
6 *650:A *652:B 8.91963e-06
7 *650:A *89:10 3.67279e-06
8 *3:74 *652:B 7.51573e-05
9 *5:57 *652:B 0.000162196
10 *5:57 *89:10 0.00030772
*RES
1 *605:X *89:10 18.8179 
2 *89:10 *653:A2 13.8 
3 *89:10 *652:B 18.6571 
*END

*D_NET *90 0.000828677
*CONN
*I *654:A I *D sky130_fd_sc_hd__xor2_1
*I *655:A I *D sky130_fd_sc_hd__and2_1
*I *606:X O *D sky130_fd_sc_hd__a21o_1
*CAP
1 *654:A 0.000106129
2 *655:A 0
3 *606:X 6.6701e-05
4 *90:8 0.00017283
5 *654:A *604:B 0
6 *654:A *657:B1 0.000146254
7 *90:8 *604:B 0
8 *606:B1 *90:8 5.33882e-05
9 *654:B *654:A 5.33005e-05
10 *4:78 *654:A 5.33005e-05
11 *6:76 *654:A 0.000110234
12 *6:76 *90:8 6.65398e-05
13 *13:59 *654:A 0
*RES
1 *606:X *90:8 15.4429 
2 *90:8 *655:A 13.8 
3 *90:8 *654:A 17.1929 
*END

*D_NET *91 0.000785662
*CONN
*I *610:A I *D sky130_fd_sc_hd__xor2_1
*I *611:A1 I *D sky130_fd_sc_hd__a21o_1
*I *608:X O *D sky130_fd_sc_hd__xor2_1
*CAP
1 *610:A 0.0001438
2 *611:A1 0
3 *608:X 0.000157692
4 *91:12 0.000301493
5 *91:12 *97:12 4.96258e-05
6 *610:B *610:A 2.12647e-05
7 *611:A2 *610:A 6.21609e-05
8 *6:76 *91:12 4.96258e-05
*RES
1 *608:X *91:12 21.6036 
2 *91:12 *611:A1 9.3 
3 *91:12 *610:A 11.925 
*END

*D_NET *92 0.000616063
*CONN
*I *611:B1 I *D sky130_fd_sc_hd__a21o_1
*I *609:X O *D sky130_fd_sc_hd__and2_1
*CAP
1 *611:B1 0.000308032
2 *609:X 0.000308032
*RES
1 *609:X *611:B1 32.6536 
*END

*D_NET *93 0.000613616
*CONN
*I *657:A2 I *D sky130_fd_sc_hd__a21o_1
*I *656:B I *D sky130_fd_sc_hd__xor2_1
*I *610:X O *D sky130_fd_sc_hd__xor2_1
*CAP
1 *657:A2 0
2 *656:B 6.38574e-05
3 *610:X 0.000192216
4 *93:12 0.000256073
5 *656:B *656:A 5.50052e-05
6 *656:B *657:A1 3.27019e-05
7 *93:12 *657:B1 3.67279e-06
8 *93:12 *136:10 1.00887e-05
9 *93:12 *140:10 0
10 *13:72 *93:12 0
*RES
1 *610:X *93:12 21.3893 
2 *93:12 *656:B 10.675 
3 *93:12 *657:A2 9.3 
*END

*D_NET *94 0.00170064
*CONN
*I *659:B I *D sky130_fd_sc_hd__and2_1
*I *658:B I *D sky130_fd_sc_hd__xor2_1
*I *611:X O *D sky130_fd_sc_hd__a21o_1
*CAP
1 *659:B 0.000184255
2 *658:B 0
3 *611:X 0.000302154
4 *94:10 0.000486409
5 *94:10 *97:12 0.000560974
6 *658:A *659:B 0.000113512
7 *659:A *659:B 5.33334e-05
8 *40:12 *94:10 0
9 *47:10 *94:10 0
*RES
1 *611:X *94:10 25.4071 
2 *94:10 *658:B 9.3 
3 *94:10 *659:B 13.05 
*END

*D_NET *95 0.000725124
*CONN
*I *614:A I *D sky130_fd_sc_hd__xor2_1
*I *615:A1 I *D sky130_fd_sc_hd__a21o_1
*I *612:X O *D sky130_fd_sc_hd__xor2_1
*CAP
1 *614:A 0.000105065
2 *615:A1 0.000102375
3 *612:X 0.00020744
4 *613:B *614:A 1.21436e-05
5 *4:65 *615:A1 0.000148189
6 *38:14 *615:A1 0.000149911
*RES
1 *612:X *615:A1 30.0821 
2 *612:X *614:A 20.3857 
*END

*D_NET *96 0.000790756
*CONN
*I *615:B1 I *D sky130_fd_sc_hd__a21o_1
*I *613:X O *D sky130_fd_sc_hd__and2_1
*CAP
1 *615:B1 0.000201666
2 *613:X 0.000201666
3 *615:B1 *612:A 7.32173e-05
4 *585:B *615:B1 0.000135127
5 *613:B *615:B1 5.74499e-06
6 *881:B *615:B1 1.90936e-05
7 *38:14 *615:B1 0.000154241
*RES
1 *613:X *615:B1 31.3143 
*END

*D_NET *97 0.00394888
*CONN
*I *660:B I *D sky130_fd_sc_hd__xor2_1
*I *661:A2 I *D sky130_fd_sc_hd__a21o_1
*I *614:X O *D sky130_fd_sc_hd__xor2_1
*CAP
1 *660:B 6.22073e-05
2 *661:A2 0
3 *614:X 0.00105685
4 *97:12 0.00111906
5 *660:B *660:A 2.286e-05
6 *660:B *661:A1 9.71197e-05
7 *97:12 *661:B1 0
8 *97:12 *140:10 0
9 *97:12 *141:10 9.56968e-05
10 *97:12 *347:12 0.00012501
11 *654:B *97:12 0.000214751
12 *662:B *97:12 0.000367857
13 *6:76 *97:12 0
14 *37:8 *97:12 0.000176877
15 *39:10 *97:12 0
16 *91:12 *97:12 4.96258e-05
17 *94:10 *97:12 0.000560974
*RES
1 *614:X *97:12 42.4607 
2 *97:12 *661:A2 9.3 
3 *97:12 *660:B 10.675 
*END

*D_NET *98 0.00164002
*CONN
*I *664:B I *D sky130_fd_sc_hd__and2_1
*I *663:B I *D sky130_fd_sc_hd__xor2_1
*I *615:X O *D sky130_fd_sc_hd__a21o_1
*CAP
1 *664:B 0.00016397
2 *663:B 0
3 *615:X 0.000363269
4 *98:12 0.000527239
5 *98:12 *145:10 9.15842e-06
6 *585:B *98:12 6.52967e-05
7 *663:A *664:B 0.000161584
8 *881:B *98:12 0.000239767
9 *13:46 *98:12 0
10 *14:41 *664:B 1.12713e-05
11 *14:41 *98:12 9.84673e-05
*RES
1 *615:X *98:12 25.7464 
2 *98:12 *663:B 9.3 
3 *98:12 *664:B 13.05 
*END

*D_NET *99 0.000910106
*CONN
*I *619:A I *D sky130_fd_sc_hd__xor2_1
*I *620:A1 I *D sky130_fd_sc_hd__a21o_1
*I *616:X O *D sky130_fd_sc_hd__xor2_1
*CAP
1 *619:A 0.000161578
2 *620:A1 0
3 *616:X 0.000165844
4 *99:12 0.000327422
5 *99:12 *666:B1 0.000153054
6 *99:12 *106:14 0
7 *620:A2 *619:A 0.000102207
*RES
1 *616:X *99:12 21.6036 
2 *99:12 *620:A1 9.3 
3 *99:12 *619:A 12.3357 
*END

*D_NET *100 0.000632826
*CONN
*I *620:B1 I *D sky130_fd_sc_hd__a21o_1
*I *617:X O *D sky130_fd_sc_hd__and2_1
*CAP
1 *620:B1 0.00028217
2 *617:X 0.00028217
3 *620:B1 *102:12 2.27416e-05
4 *620:B1 *106:14 4.57445e-05
5 *620:B1 *107:14 0
*RES
1 *617:X *620:B1 32.6536 
*END

*D_NET *101 0.000549035
*CONN
*I *665:B I *D sky130_fd_sc_hd__xor2_1
*I *666:A2 I *D sky130_fd_sc_hd__a21o_1
*I *619:X O *D sky130_fd_sc_hd__xor2_1
*CAP
1 *665:B 5.57906e-05
2 *666:A2 0
3 *619:X 8.46147e-05
4 *101:10 0.000140405
5 *665:B *665:A 0.000113462
6 *101:10 *145:10 0.000154762
7 *101:10 *147:12 0
*RES
1 *619:X *101:10 20.2464 
2 *101:10 *666:A2 9.3 
3 *101:10 *665:B 10.675 
*END

*D_NET *102 0.000882555
*CONN
*I *668:B I *D sky130_fd_sc_hd__and2_1
*I *667:B I *D sky130_fd_sc_hd__xor2_1
*I *620:X O *D sky130_fd_sc_hd__a21o_1
*CAP
1 *668:B 0.000179348
2 *667:B 0
3 *620:X 0.000120035
4 *102:12 0.000299383
5 *668:B *670:B1 1.39726e-05
6 *102:12 *666:B1 0
7 *102:12 *670:B1 1.18064e-05
8 *102:12 *106:14 6.42242e-05
9 *102:12 *150:10 1.02504e-05
10 *620:B1 *102:12 2.27416e-05
11 *667:A *668:B 0.000160794
*RES
1 *620:X *102:12 20.4786 
2 *102:12 *667:B 9.3 
3 *102:12 *668:B 13.05 
*END

*D_NET *103 0.000700761
*CONN
*I *623:A I *D sky130_fd_sc_hd__xor2_1
*I *624:A1 I *D sky130_fd_sc_hd__a21o_1
*I *621:X O *D sky130_fd_sc_hd__xor2_1
*CAP
1 *623:A 8.80369e-05
2 *624:A1 4.40279e-05
3 *621:X 5.05016e-05
4 *103:8 0.000182566
5 *624:A1 *624:B1 6.66813e-05
6 *623:B *623:A 9.58689e-05
7 *623:B *624:A1 0.000126272
8 *3:42 *623:A 2.83283e-05
9 *3:42 *103:8 1.84776e-05
*RES
1 *621:X *103:8 10.2643 
2 *103:8 *624:A1 19.9429 
3 *103:8 *623:A 11.0679 
*END

*D_NET *104 0.000618238
*CONN
*I *624:B1 I *D sky130_fd_sc_hd__a21o_1
*I *622:X O *D sky130_fd_sc_hd__and2_1
*CAP
1 *624:B1 0.000214337
2 *622:X 0.000214337
3 *624:B1 *107:14 8.31335e-05
4 *623:B *624:B1 2.30861e-05
5 *624:A1 *624:B1 6.66813e-05
6 *12:37 *624:B1 1.29901e-05
7 *56:10 *624:B1 3.67279e-06
*RES
1 *622:X *624:B1 32.2071 
*END

*D_NET *105 0.00111514
*CONN
*I *694:A I *D sky130_fd_sc_hd__and2_1
*I *695:A I *D sky130_fd_sc_hd__xor2_1
*I *562:X O *D sky130_fd_sc_hd__and2_1
*CAP
1 *694:A 0
2 *695:A 0.000187084
3 *562:X 0.000210371
4 *105:8 0.000397456
5 *695:A *695:B 0.000165269
6 *695:A *181:10 1.02504e-05
7 *561:A *105:8 3.18676e-05
8 *561:B *105:8 5.52302e-05
9 *629:B *695:A 0
10 *19:14 *105:8 5.76121e-05
*RES
1 *562:X *105:8 13.1393 
2 *105:8 *695:A 21.4964 
3 *105:8 *694:A 9.3 
*END

*D_NET *106 0.00353793
*CONN
*I *669:B I *D sky130_fd_sc_hd__xor2_1
*I *670:A2 I *D sky130_fd_sc_hd__a21o_1
*I *623:X O *D sky130_fd_sc_hd__xor2_1
*CAP
1 *669:B 8.40739e-05
2 *670:A2 9.40131e-05
3 *623:X 0.00104302
4 *106:14 0.00122111
5 *669:B *669:A 5.33005e-05
6 *670:A2 *670:A1 0.000202842
7 *670:A2 *154:10 0
8 *106:14 *666:B1 0
9 *106:14 *670:A1 4.97121e-06
10 *106:14 *150:10 6.98762e-05
11 *106:14 *389:12 0
12 *620:B1 *106:14 4.57445e-05
13 *882:A *106:14 0.000177227
14 *891:A *106:14 0.000106542
15 *3:42 *106:14 0.000100165
16 *8:67 *106:14 4.56437e-05
17 *12:37 *106:14 4.96595e-05
18 *49:10 *106:14 0
19 *51:10 *106:14 0.000175519
20 *63:12 *106:14 0
21 *71:12 *106:14 0
22 *99:12 *106:14 0
23 *102:12 *106:14 6.42242e-05
*RES
1 *623:X *106:14 39.1393 
2 *106:14 *670:A2 20.8536 
3 *106:14 *669:B 10.6571 
*END

*D_NET *107 0.00438256
*CONN
*I *672:B I *D sky130_fd_sc_hd__and2_1
*I *671:B I *D sky130_fd_sc_hd__xor2_1
*I *624:X O *D sky130_fd_sc_hd__a21o_1
*CAP
1 *672:B 0.000190056
2 *671:B 0
3 *624:X 0.00108899
4 *107:14 0.00127904
5 *672:B *676:B1 0.00014183
6 *107:14 *628:B1 0.000153054
7 *107:14 *110:12 1.02504e-05
8 *107:14 *111:8 0.000128154
9 *107:14 *377:12 8.22896e-05
10 *107:14 *389:12 0
11 *565:B1 *107:14 6.1684e-05
12 *620:B1 *107:14 0
13 *622:B *107:14 0.000193734
14 *624:B1 *107:14 8.31335e-05
15 *627:B *107:14 0
16 *672:A *672:B 0.000282169
17 *818:A *107:14 3.92854e-05
18 *884:A *107:14 0.000170378
19 *8:67 *107:14 0.000101545
20 *10:42 *107:14 0
21 *12:37 *107:14 0
22 *51:10 *107:14 0
23 *52:10 *107:14 0.000183674
24 *63:12 *107:14 3.28804e-05
25 *64:10 *107:14 0
26 *71:12 *107:14 0.000160414
*RES
1 *624:X *107:14 42.8714 
2 *107:14 *671:B 9.3 
3 *107:14 *672:B 13.8714 
*END

*D_NET *108 0.000458754
*CONN
*I *627:A I *D sky130_fd_sc_hd__xor2_1
*I *628:A1 I *D sky130_fd_sc_hd__a21o_1
*I *625:X O *D sky130_fd_sc_hd__xor2_1
*CAP
1 *627:A 7.74615e-05
2 *628:A1 8.69812e-05
3 *625:X 0.000164443
4 *627:A *110:12 0
5 *625:B *628:A1 0
6 *627:B *627:A 0.000129868
7 *72:14 *627:A 0
*RES
1 *625:X *628:A1 19.975 
2 *625:X *627:A 29.5464 
*END

*D_NET *109 0.000812682
*CONN
*I *628:B1 I *D sky130_fd_sc_hd__a21o_1
*I *626:X O *D sky130_fd_sc_hd__and2_1
*CAP
1 *628:B1 0.000230107
2 *626:X 0.000230107
3 *627:B *628:B1 4.1331e-06
4 *64:10 *628:B1 5.57914e-05
5 *71:12 *628:B1 0.00013949
6 *107:14 *628:B1 0.000153054
*RES
1 *626:X *628:B1 32.9571 
*END

*D_NET *110 0.000925492
*CONN
*I *675:B I *D sky130_fd_sc_hd__xor2_1
*I *676:A2 I *D sky130_fd_sc_hd__a21o_1
*I *627:X O *D sky130_fd_sc_hd__xor2_1
*CAP
1 *675:B 0.000166015
2 *676:A2 0
3 *627:X 0.000162042
4 *110:12 0.000328057
5 *675:B *675:A 5.33433e-05
6 *675:B *676:A1 9.7659e-05
7 *110:12 *111:8 0.000103993
8 *627:A *110:12 0
9 *627:B *110:12 4.1331e-06
10 *72:14 *110:12 0
11 *107:14 *110:12 1.02504e-05
*RES
1 *627:X *110:12 21.8 
2 *110:12 *676:A2 9.3 
3 *110:12 *675:B 12.7286 
*END

*D_NET *111 0.00202023
*CONN
*I *680:A2 I *D sky130_fd_sc_hd__a21o_1
*I *679:B I *D sky130_fd_sc_hd__xor2_1
*I *628:X O *D sky130_fd_sc_hd__a21o_1
*CAP
1 *680:A2 0.000182318
2 *679:B 0
3 *628:X 0.000552994
4 *111:8 0.000735312
5 *680:A2 *680:A1 4.57538e-05
6 *680:A2 *680:B1 0
7 *680:A2 *715:A 0
8 *680:A2 *158:10 7.79781e-06
9 *111:8 *676:B1 4.57445e-05
10 *111:8 *715:A 0
11 *111:8 *154:10 0
12 *111:8 *157:8 0
13 *111:8 *158:10 6.58289e-05
14 *71:12 *111:8 0.00015234
15 *107:14 *111:8 0.000128154
16 *110:12 *111:8 0.000103993
*RES
1 *628:X *111:8 25.1571 
2 *111:8 *679:B 13.8 
3 *111:8 *680:A2 17.3 
*END

*D_NET *112 0.000879235
*CONN
*I *632:A I *D sky130_fd_sc_hd__xor2_1
*I *633:A1 I *D sky130_fd_sc_hd__a21o_1
*I *630:X O *D sky130_fd_sc_hd__xor2_1
*CAP
1 *632:A 5.46163e-05
2 *633:A1 0.000142755
3 *630:X 9.76381e-05
4 *112:10 0.00029501
5 *633:A1 *633:B1 9.58126e-05
6 *112:10 *633:B1 9.56968e-05
7 *632:B *632:A 6.05161e-06
8 *632:B *633:A1 4.43256e-05
9 *633:A2 *633:A1 4.73286e-05
10 *678:A *632:A 0
11 *72:14 *112:10 0
*RES
1 *630:X *112:10 20.55 
2 *112:10 *633:A1 11.8893 
3 *112:10 *632:A 10.2643 
*END

*D_NET *113 0.000892978
*CONN
*I *633:B1 I *D sky130_fd_sc_hd__a21o_1
*I *631:X O *D sky130_fd_sc_hd__and2_1
*CAP
1 *633:B1 0.000164961
2 *631:X 0.000164961
3 *631:B *633:B1 3.21968e-05
4 *632:B *633:B1 4.08637e-05
5 *633:A1 *633:B1 9.58126e-05
6 *633:A2 *633:B1 5.49489e-05
7 *72:14 *633:B1 0
8 *79:12 *633:B1 0.000243537
9 *112:10 *633:B1 9.56968e-05
*RES
1 *631:X *633:B1 32.6179 
*END

*D_NET *114 0.000830348
*CONN
*I *677:B I *D sky130_fd_sc_hd__xor2_1
*I *678:B I *D sky130_fd_sc_hd__and2_1
*I *632:X O *D sky130_fd_sc_hd__xor2_1
*CAP
1 *677:B 0
2 *678:B 8.39751e-05
3 *632:X 7.93818e-05
4 *114:6 0.000163357
5 *678:B *158:10 0.00010096
6 *678:A *678:B 0.000286635
7 *678:A *114:6 1.69961e-05
8 *72:14 *114:6 9.90431e-05
*RES
1 *632:X *114:6 11.0679 
2 *114:6 *678:B 12.3179 
3 *114:6 *677:B 9.3 
*END

*D_NET *115 0.00128115
*CONN
*I *683:B I *D sky130_fd_sc_hd__xor2_1
*I *684:A2 I *D sky130_fd_sc_hd__a21o_1
*I *633:X O *D sky130_fd_sc_hd__a21o_1
*CAP
1 *683:B 0.000160801
2 *684:A2 6.97991e-05
3 *633:X 0.000240177
4 *115:8 0.000470777
5 *683:B *683:A 7.48091e-05
6 *683:B *684:A1 0.000140855
7 *683:B *166:8 3.5707e-05
8 *684:A2 *684:B1 5.54821e-05
9 *115:8 *684:A1 3.27461e-05
10 *80:18 *115:8 0
*RES
1 *633:X *115:8 18.175 
2 *115:8 *684:A2 15.175 
3 *115:8 *683:B 17.5321 
*END

*D_NET *116 0.000792899
*CONN
*I *643:A I *D sky130_fd_sc_hd__xor2_1
*I *644:A I *D sky130_fd_sc_hd__and2_1
*I *673:X O *D sky130_fd_sc_hd__and2_1
*CAP
1 *643:A 7.11633e-05
2 *644:A 0
3 *673:X 0.000184848
4 *116:14 0.000256012
5 *643:A *643:B 0.00014183
6 *116:14 *643:B 3.18988e-05
7 *116:14 *134:8 0
8 *116:14 *192:10 3.5707e-05
9 *629:A *643:A 2.44318e-05
10 *629:A *116:14 4.70078e-05
*RES
1 *673:X *116:14 21.8357 
2 *116:14 *644:A 9.3 
3 *116:14 *643:A 11.0679 
*END

*D_NET *117 0.000973521
*CONN
*I *636:A I *D sky130_fd_sc_hd__xor2_1
*I *637:A1 I *D sky130_fd_sc_hd__a21o_1
*I *634:X O *D sky130_fd_sc_hd__xor2_1
*CAP
1 *636:A 0.000349584
2 *637:A1 0
3 *634:X 8.81751e-05
4 *117:10 0.000437759
5 *636:A *637:B1 0
6 *636:A *120:10 0
7 *117:10 *637:B1 9.80029e-05
8 *637:A2 *636:A 0
*RES
1 *634:X *117:10 20.55 
2 *117:10 *637:A1 9.3 
3 *117:10 *636:A 24.05 
*END

*D_NET *118 0.000658977
*CONN
*I *637:B1 I *D sky130_fd_sc_hd__a21o_1
*I *635:X O *D sky130_fd_sc_hd__and2_1
*CAP
1 *637:B1 0.00019779
2 *635:X 0.00019779
3 *637:B1 *634:A 1.41029e-05
4 *634:B *637:B1 0.000129868
5 *636:A *637:B1 0
6 *637:A2 *637:B1 4.1331e-06
7 *9:26 *637:B1 0
8 *9:38 *637:B1 0
9 *10:23 *637:B1 1.72894e-05
10 *117:10 *637:B1 9.80029e-05
*RES
1 *635:X *637:B1 32.2071 
*END

*D_NET *119 0.000771109
*CONN
*I *681:B I *D sky130_fd_sc_hd__xor2_1
*I *682:B I *D sky130_fd_sc_hd__and2_1
*I *636:X O *D sky130_fd_sc_hd__xor2_1
*CAP
1 *681:B 0
2 *682:B 0.000139331
3 *636:X 0.000113031
4 *119:6 0.000252362
5 *681:A *682:B 0.000202835
6 *681:A *119:6 5.33005e-05
7 *80:18 *682:B 1.02504e-05
*RES
1 *636:X *119:6 11.0679 
2 *119:6 *682:B 21.3893 
3 *119:6 *681:B 9.3 
*END

*D_NET *120 0.00188379
*CONN
*I *688:B I *D sky130_fd_sc_hd__xor2_1
*I *689:A2 I *D sky130_fd_sc_hd__a21o_1
*I *637:X O *D sky130_fd_sc_hd__a21o_1
*CAP
1 *688:B 0.00022724
2 *689:A2 0
3 *637:X 0.000420511
4 *120:10 0.00064775
5 *688:B *688:A 7.42572e-05
6 *688:B *689:A1 8.06427e-05
7 *688:B *689:B1 2.78729e-05
8 *120:10 *689:B1 4.1331e-06
9 *120:10 *374:10 0
10 *636:A *120:10 0
11 *637:A2 *120:10 6.74911e-05
12 *687:A *688:B 3.40128e-05
13 *9:26 *120:10 0
14 *10:85 *688:B 2.95726e-05
15 *81:12 *120:10 0
16 *84:10 *688:B 8.89385e-05
17 *84:10 *120:10 0.000181368
*RES
1 *637:X *120:10 21.9607 
2 *120:10 *689:A2 13.8 
3 *120:10 *688:B 19.2643 
*END

*D_NET *121 0.000670355
*CONN
*I *642:A1 I *D sky130_fd_sc_hd__a21o_1
*I *641:A I *D sky130_fd_sc_hd__xor2_1
*I *638:X O *D sky130_fd_sc_hd__xor2_1
*CAP
1 *642:A1 0.000133208
2 *641:A 7.0008e-05
3 *638:X 0.000203216
4 *642:A1 *639:A 0
5 *642:A1 *642:A2 0.00012401
6 *642:A1 *687:B 0
7 *10:85 *641:A 0.000139913
*RES
1 *638:X *641:A 20.3857 
2 *638:X *642:A1 30.0821 
*END

*D_NET *122 0.000398282
*CONN
*I *642:B1 I *D sky130_fd_sc_hd__a21o_1
*I *639:X O *D sky130_fd_sc_hd__and2_1
*CAP
1 *642:B1 5.6728e-05
2 *639:X 5.6728e-05
3 *642:B1 *642:A2 5.27816e-05
4 *906:B *642:B1 0.000199009
5 *9:24 *642:B1 3.30352e-05
*RES
1 *639:X *642:B1 20.7964 
*END

*D_NET *123 0.000658711
*CONN
*I *686:B I *D sky130_fd_sc_hd__xor2_1
*I *687:B I *D sky130_fd_sc_hd__and2_1
*I *641:X O *D sky130_fd_sc_hd__xor2_1
*CAP
1 *686:B 0
2 *687:B 0.000130315
3 *641:X 4.03476e-05
4 *123:6 0.000170663
5 *642:A1 *687:B 0
6 *687:A *687:B 0.000205856
7 *906:A *687:B 0
8 *906:B *687:B 5.52302e-05
9 *9:24 *687:B 0
10 *10:85 *123:6 5.62995e-05
*RES
1 *641:X *123:6 10.2464 
2 *123:6 *687:B 21.3893 
3 *123:6 *686:B 9.3 
*END

*D_NET *124 0.00272064
*CONN
*I *692:B I *D sky130_fd_sc_hd__xor2_1
*I *693:A2 I *D sky130_fd_sc_hd__a21o_1
*I *642:X O *D sky130_fd_sc_hd__a21o_1
*CAP
1 *692:B 0.000188474
2 *693:A2 0.000282228
3 *642:X 0.000440242
4 *124:10 0.000910944
5 *692:B *690:A 2.14658e-05
6 *692:B *172:8 5.99152e-05
7 *692:B *383:6 9.8621e-05
8 *693:A2 *691:A 7.02693e-05
9 *693:A2 *691:B 0.000101566
10 *693:A2 *693:B1 5.49544e-05
11 *693:A2 *376:10 5.79582e-06
12 *124:10 *689:B1 0.00014285
13 *124:10 *383:6 9.83388e-05
14 *687:A *124:10 5.92086e-05
15 *906:A *693:A2 0
16 *906:B *124:10 0.000185773
*RES
1 *642:X *124:10 17.3714 
2 *124:10 *693:A2 24.3179 
3 *124:10 *692:B 12.7286 
*END

*D_NET *125 0.000835412
*CONN
*I *698:B I *D sky130_fd_sc_hd__xor2_1
*I *697:B I *D sky130_fd_sc_hd__and2_1
*I *643:X O *D sky130_fd_sc_hd__xor2_1
*CAP
1 *698:B 9.38703e-05
2 *697:B 0
3 *643:X 0.000169571
4 *125:12 0.000263441
5 *698:B *697:A 0.000140933
6 *698:B *698:A 5.32166e-05
7 *698:B *866:B 0
8 *125:12 *130:10 0
9 *125:12 *269:10 5.35423e-05
10 *629:A *125:12 5.71472e-05
11 *629:B *125:12 3.69047e-06
12 *85:10 *125:12 0
*RES
1 *643:X *125:12 21.1929 
2 *125:12 *697:B 9.3 
3 *125:12 *698:B 11.4964 
*END

*D_NET *126 0.00055771
*CONN
*I *648:A2 I *D sky130_fd_sc_hd__a21o_1
*I *647:B I *D sky130_fd_sc_hd__xor2_1
*I *644:X O *D sky130_fd_sc_hd__and2_1
*CAP
1 *648:A2 5.31446e-05
2 *647:B 0
3 *644:X 0.000116575
4 *126:12 0.00016972
5 *648:A2 *647:A 0.000115379
6 *126:12 *128:12 4.57445e-05
7 *629:A *126:12 5.71472e-05
8 *85:10 *126:12 0
*RES
1 *644:X *126:12 20.4786 
2 *126:12 *647:B 9.3 
3 *126:12 *648:A2 10.675 
*END

*D_NET *127 0.00173979
*CONN
*I *601:A I *D sky130_fd_sc_hd__xor2_1
*I *602:A I *D sky130_fd_sc_hd__and2_1
*I *784:X O *D sky130_fd_sc_hd__and2_1
*CAP
1 *601:A 0.000164734
2 *602:A 0
3 *784:X 0.000328367
4 *127:10 0.0004931
5 *601:A *601:B 0.000189094
6 *127:10 *601:B 1.00887e-05
7 *127:10 *203:10 0.000226581
8 *563:B *127:10 1.16543e-05
9 *4:78 *127:10 0.000230568
10 *4:97 *601:A 3.06035e-05
11 *4:97 *127:10 5.49995e-05
*RES
1 *784:X *127:10 20.8 
2 *127:10 *602:A 13.8 
3 *127:10 *601:A 17.6036 
*END

*D_NET *128 0.00105815
*CONN
*I *647:A I *D sky130_fd_sc_hd__xor2_1
*I *648:A1 I *D sky130_fd_sc_hd__a21o_1
*I *645:X O *D sky130_fd_sc_hd__xor2_1
*CAP
1 *647:A 0.000132321
2 *648:A1 0
3 *645:X 0.00017023
4 *128:12 0.000302551
5 *128:12 *134:8 0.000153047
6 *629:A *128:12 0.000138881
7 *648:A2 *647:A 0.000115379
8 *85:10 *128:12 0
9 *126:12 *128:12 4.57445e-05
*RES
1 *645:X *128:12 21.6036 
2 *128:12 *648:A1 9.3 
3 *128:12 *647:A 11.925 
*END

*D_NET *129 0.000962961
*CONN
*I *648:B1 I *D sky130_fd_sc_hd__a21o_1
*I *646:X O *D sky130_fd_sc_hd__and2_1
*CAP
1 *648:B1 0.000269871
2 *646:X 0.000269871
3 *648:B1 *646:B 0
4 *648:B1 *134:8 0.000342488
5 *648:B1 *280:8 0
6 *640:B *648:B1 0
7 *673:B *648:B1 8.07313e-05
*RES
1 *646:X *648:B1 33.3321 
*END

*D_NET *130 0.000773174
*CONN
*I *700:B I *D sky130_fd_sc_hd__xor2_1
*I *699:B I *D sky130_fd_sc_hd__and2_1
*I *647:X O *D sky130_fd_sc_hd__xor2_1
*CAP
1 *700:B 7.19771e-05
2 *699:B 0
3 *647:X 0.000168754
4 *130:10 0.000240731
5 *700:B *179:10 6.97972e-05
6 *130:10 *269:10 0
7 *700:A *700:B 0.000106299
8 *700:A *130:10 5.80706e-06
9 *85:10 *130:10 0.000109809
10 *125:12 *130:10 0
*RES
1 *647:X *130:10 17.3 
2 *130:10 *699:B 13.8 
3 *130:10 *700:B 16.3536 
*END

*D_NET *131 0.00136521
*CONN
*I *702:A I *D sky130_fd_sc_hd__xor2_1
*I *701:A I *D sky130_fd_sc_hd__and2_1
*I *648:X O *D sky130_fd_sc_hd__a21o_1
*CAP
1 *702:A 0.000131341
2 *701:A 0
3 *648:X 0.000351265
4 *131:12 0.000482606
5 *702:A *701:B 0.00018372
6 *702:A *702:B 6.56534e-05
7 *702:A *185:10 0.000140933
8 *131:12 *134:8 0
9 *131:12 *139:10 0
10 *131:12 *185:10 9.69119e-06
*RES
1 *648:X *131:12 23.7286 
2 *131:12 *701:A 9.3 
3 *131:12 *702:A 12.7286 
*END

*D_NET *132 0.000958623
*CONN
*I *652:A I *D sky130_fd_sc_hd__xor2_1
*I *653:A1 I *D sky130_fd_sc_hd__a21o_1
*I *649:X O *D sky130_fd_sc_hd__xor2_1
*CAP
1 *652:A 0.000108909
2 *653:A1 0.000208449
3 *649:X 2.62808e-05
4 *132:6 0.000343639
5 *653:A1 *650:B 5.50052e-05
6 *653:A1 *403:10 3.76625e-05
7 *650:A *652:A 4.68089e-05
8 *4:97 *652:A 3.17866e-05
9 *86:6 *653:A1 7.62323e-05
10 *86:6 *132:6 2.38501e-05
*RES
1 *649:X *132:6 9.83571 
2 *132:6 *653:A1 13.0321 
3 *132:6 *652:A 20.55 
*END

*D_NET *133 0.000520625
*CONN
*I *653:B1 I *D sky130_fd_sc_hd__a21o_1
*I *650:X O *D sky130_fd_sc_hd__and2_1
*CAP
1 *653:B1 0.000148832
2 *650:X 0.000148832
3 *653:B1 *135:10 3.9733e-05
4 *784:A *653:B1 5.74242e-05
5 *3:74 *653:B1 0.000101861
6 *11:28 *653:B1 2.3942e-05
*RES
1 *650:X *653:B1 30.4929 
*END

*D_NET *134 0.00282283
*CONN
*I *701:B I *D sky130_fd_sc_hd__and2_1
*I *702:B I *D sky130_fd_sc_hd__xor2_1
*I *652:X O *D sky130_fd_sc_hd__xor2_1
*CAP
1 *701:B 0.000135045
2 *702:B 7.50883e-05
3 *652:X 0.000647942
4 *134:8 0.000858075
5 *701:B *185:10 1.37292e-05
6 *134:8 *646:B 0
7 *134:8 *185:10 2.8266e-06
8 *134:8 *192:10 0
9 *640:B *134:8 0
10 *648:B1 *134:8 0.000342488
11 *673:A *134:8 5.41794e-05
12 *700:A *134:8 0
13 *702:A *701:B 0.00018372
14 *702:A *702:B 6.56534e-05
15 *3:74 *134:8 0.000291033
16 *85:10 *134:8 0
17 *116:14 *134:8 0
18 *128:12 *134:8 0.000153047
19 *131:12 *134:8 0
*RES
1 *652:X *134:8 28.1929 
2 *134:8 *702:B 15.175 
3 *134:8 *701:B 16.3 
*END

*D_NET *135 0.00356709
*CONN
*I *704:A I *D sky130_fd_sc_hd__xor2_1
*I *703:A I *D sky130_fd_sc_hd__and2_1
*I *653:X O *D sky130_fd_sc_hd__a21o_1
*CAP
1 *704:A 0.000137843
2 *703:A 6.3313e-05
3 *653:X 0.00050206
4 *135:10 0.000703216
5 *703:A *703:B 5.52238e-05
6 *703:A *187:10 5.52238e-05
7 *704:A *703:B 3.79565e-05
8 *704:A *704:B 9.90431e-05
9 *704:A *184:10 1.32552e-05
10 *135:10 *706:A 0
11 *135:10 *139:10 0.00115899
12 *135:10 *140:10 0
13 *135:10 *186:10 0
14 *135:10 *187:10 1.52978e-05
15 *653:B1 *135:10 3.9733e-05
16 *718:B *135:10 0.000292722
17 *740:B *135:10 1.17968e-05
18 *3:74 *135:10 1.41665e-05
19 *11:28 *135:10 0.00036725
*RES
1 *653:X *135:10 34.5143 
2 *135:10 *703:A 10.6571 
3 *135:10 *704:A 12.2286 
*END

*D_NET *136 0.000995306
*CONN
*I *656:A I *D sky130_fd_sc_hd__xor2_1
*I *657:A1 I *D sky130_fd_sc_hd__a21o_1
*I *654:X O *D sky130_fd_sc_hd__xor2_1
*CAP
1 *656:A 4.47077e-05
2 *657:A1 7.55155e-05
3 *654:X 0.000263071
4 *136:10 0.000383295
5 *656:B *656:A 5.50052e-05
6 *656:B *657:A1 3.27019e-05
7 *13:72 *136:10 0.000130921
8 *93:12 *136:10 1.00887e-05
*RES
1 *654:X *136:10 23.5857 
2 *136:10 *657:A1 10.675 
3 *136:10 *656:A 10.2464 
*END

*D_NET *137 0.00107728
*CONN
*I *657:B1 I *D sky130_fd_sc_hd__a21o_1
*I *655:X O *D sky130_fd_sc_hd__and2_1
*CAP
1 *657:B1 0.000393098
2 *655:X 0.000393098
3 *606:B1 *657:B1 1.40415e-05
4 *654:A *657:B1 0.000146254
5 *655:B *657:B1 4.0342e-06
6 *6:76 *657:B1 0.000123084
7 *93:12 *657:B1 3.67279e-06
*RES
1 *655:X *657:B1 35.35 
*END

*D_NET *138 0.000720143
*CONN
*I *928:A I *D sky130_fd_sc_hd__xor2_1
*I *929:A I *D sky130_fd_sc_hd__and2_1
*I *881:X O *D sky130_fd_sc_hd__and2_1
*CAP
1 *928:A 7.56803e-05
2 *929:A 0
3 *881:X 1.77873e-05
4 *138:6 9.34676e-05
5 *928:A *928:B 0.000159007
6 *3:53 *928:A 0.000317503
7 *3:53 *138:6 5.66971e-05
*RES
1 *881:X *138:6 9.83571 
2 *138:6 *929:A 9.3 
3 *138:6 *928:A 12.7286 
*END

*D_NET *139 0.00273525
*CONN
*I *704:B I *D sky130_fd_sc_hd__xor2_1
*I *703:B I *D sky130_fd_sc_hd__and2_1
*I *656:X O *D sky130_fd_sc_hd__xor2_1
*CAP
1 *704:B 1.99163e-05
2 *703:B 5.4031e-05
3 *656:X 0.000448146
4 *139:10 0.000522093
5 *703:B *184:10 7.43578e-06
6 *704:B *184:10 3.30352e-05
7 *640:A *139:10 6.39262e-05
8 *703:A *703:B 5.52238e-05
9 *704:A *703:B 3.79565e-05
10 *704:A *704:B 9.90431e-05
11 *3:74 *139:10 3.24964e-05
12 *5:57 *139:10 0.000202951
13 *131:12 *139:10 0
14 *135:10 *139:10 0.00115899
*RES
1 *656:X *139:10 32.9964 
2 *139:10 *703:B 10.675 
3 *139:10 *704:B 10.2464 
*END

*D_NET *140 0.00212543
*CONN
*I *706:A I *D sky130_fd_sc_hd__xor2_1
*I *705:A I *D sky130_fd_sc_hd__and2_1
*I *657:X O *D sky130_fd_sc_hd__a21o_1
*CAP
1 *706:A 0.000159568
2 *705:A 0
3 *657:X 0.000645266
4 *140:10 0.000804835
5 *706:A *706:B 0.000183384
6 *706:A *144:12 0
7 *706:A *186:10 7.8327e-05
8 *140:10 *141:10 0
9 *740:B *140:10 0
10 *6:76 *140:10 0.000254053
11 *13:72 *140:10 0
12 *93:12 *140:10 0
13 *97:12 *140:10 0
14 *135:10 *706:A 0
15 *135:10 *140:10 0
*RES
1 *657:X *140:10 25.6929 
2 *140:10 *705:A 13.8 
3 *140:10 *706:A 17.6036 
*END

*D_NET *141 0.000671238
*CONN
*I *660:A I *D sky130_fd_sc_hd__xor2_1
*I *661:A1 I *D sky130_fd_sc_hd__a21o_1
*I *658:X O *D sky130_fd_sc_hd__xor2_1
*CAP
1 *660:A 5.14024e-05
2 *661:A1 8.09476e-05
3 *658:X 9.5431e-05
4 *141:10 0.000227781
5 *660:A *705:B 0
6 *660:B *660:A 2.286e-05
7 *660:B *661:A1 9.71197e-05
8 *97:12 *141:10 9.56968e-05
9 *140:10 *141:10 0
*RES
1 *658:X *141:10 20.55 
2 *141:10 *661:A1 10.6571 
3 *141:10 *660:A 10.2643 
*END

*D_NET *142 0.000324993
*CONN
*I *661:B1 I *D sky130_fd_sc_hd__a21o_1
*I *659:X O *D sky130_fd_sc_hd__and2_1
*CAP
1 *661:B1 0.000144133
2 *659:X 0.000144133
3 *661:B1 *144:12 3.67257e-05
4 *97:12 *661:B1 0
*RES
1 *659:X *661:B1 30.1893 
*END

*D_NET *143 0.000657862
*CONN
*I *706:B I *D sky130_fd_sc_hd__xor2_1
*I *705:B I *D sky130_fd_sc_hd__and2_1
*I *660:X O *D sky130_fd_sc_hd__xor2_1
*CAP
1 *706:B 0.000124984
2 *705:B 0.000108537
3 *660:X 0.000233521
4 *705:B *186:10 7.43578e-06
5 *706:B *144:12 0
6 *660:A *705:B 0
7 *706:A *706:B 0.000183384
*RES
1 *660:X *705:B 20.3857 
2 *660:X *706:B 30.1893 
*END

*D_NET *144 0.0013093
*CONN
*I *709:A I *D sky130_fd_sc_hd__xor2_1
*I *708:A I *D sky130_fd_sc_hd__and2_1
*I *661:X O *D sky130_fd_sc_hd__a21o_1
*CAP
1 *709:A 0
2 *708:A 0.000173985
3 *661:X 0.000358758
4 *144:12 0.000532743
5 *708:A *709:B 0.000197092
6 *708:A *188:10 9.99644e-06
7 *144:12 *147:12 0
8 *661:B1 *144:12 3.67257e-05
9 *706:A *144:12 0
10 *706:B *144:12 0
*RES
1 *661:X *144:12 23.7286 
2 *144:12 *708:A 12.7464 
3 *144:12 *709:A 9.3 
*END

*D_NET *145 0.00305112
*CONN
*I *665:A I *D sky130_fd_sc_hd__xor2_1
*I *666:A1 I *D sky130_fd_sc_hd__a21o_1
*I *663:X O *D sky130_fd_sc_hd__xor2_1
*CAP
1 *665:A 0.000134997
2 *666:A1 0
3 *663:X 0.000968589
4 *145:10 0.00110359
5 *145:10 *666:B1 0
6 *665:B *665:A 0.000113462
7 *881:B *145:10 0.000201442
8 *944:B1 *145:10 0
9 *40:12 *145:10 0
10 *45:12 *145:10 0.000177234
11 *48:10 *145:10 0.000187893
12 *98:12 *145:10 9.15842e-06
13 *101:10 *145:10 0.000154762
*RES
1 *663:X *145:10 38.1571 
2 *145:10 *666:A1 9.3 
3 *145:10 *665:A 11.925 
*END

*D_NET *146 0.00276921
*CONN
*I *666:B1 I *D sky130_fd_sc_hd__a21o_1
*I *664:X O *D sky130_fd_sc_hd__and2_1
*CAP
1 *666:B1 0.00116564
2 *664:X 0.00116564
3 *666:B1 *670:B1 0
4 *666:B1 *942:B 5.59013e-05
5 *666:B1 *369:10 9.91086e-05
6 *882:A *666:B1 0
7 *944:B1 *666:B1 0.000129868
8 *8:67 *666:B1 0
9 *48:10 *666:B1 0
10 *99:12 *666:B1 0.000153054
11 *102:12 *666:B1 0
12 *106:14 *666:B1 0
13 *145:10 *666:B1 0
*RES
1 *664:X *666:B1 48.725 
*END

*D_NET *147 0.00078102
*CONN
*I *709:B I *D sky130_fd_sc_hd__xor2_1
*I *708:B I *D sky130_fd_sc_hd__and2_1
*I *665:X O *D sky130_fd_sc_hd__xor2_1
*CAP
1 *709:B 6.86339e-05
2 *708:B 0
3 *665:X 0.000203242
4 *147:12 0.000271876
5 *709:B *188:10 4.01768e-05
6 *708:A *709:B 0.000197092
7 *101:10 *147:12 0
8 *144:12 *147:12 0
*RES
1 *665:X *147:12 21.3893 
2 *147:12 *708:B 9.3 
3 *147:12 *709:B 11.4964 
*END

*D_NET *148 0.00113767
*CONN
*I *711:A I *D sky130_fd_sc_hd__xor2_1
*I *710:A I *D sky130_fd_sc_hd__and2_1
*I *666:X O *D sky130_fd_sc_hd__a21o_1
*CAP
1 *711:A 0.000172966
2 *710:A 0
3 *666:X 0.000220801
4 *148:10 0.000393766
5 *711:A *711:B 0.000197092
6 *148:10 *670:B1 0
7 *148:10 *152:12 0.000153047
*RES
1 *666:X *148:10 22.675 
2 *148:10 *710:A 9.3 
3 *148:10 *711:A 12.7464 
*END

*D_NET *149 0.00338882
*CONN
*I *931:A I *D sky130_fd_sc_hd__and2_1
*I *930:A I *D sky130_fd_sc_hd__xor2_1
*I *892:X O *D sky130_fd_sc_hd__and2_1
*CAP
1 *931:A 0
2 *930:A 0.000149159
3 *892:X 0.000835807
4 *149:8 0.000984966
5 *930:A *930:B 0.00012943
6 *149:8 *937:A 0.000164835
7 *149:8 *937:B 1.39726e-05
8 *149:8 *313:6 3.18676e-05
9 *674:B *149:8 0.000530254
10 *729:B *930:A 0.000311196
11 *729:B *149:8 0.000197302
12 *933:B1 *930:A 1.56e-05
13 *5:13 *149:8 2.44318e-05
*RES
1 *892:X *149:8 25.4607 
2 *149:8 *930:A 13.7643 
3 *149:8 *931:A 9.3 
*END

*D_NET *150 0.00125121
*CONN
*I *670:A1 I *D sky130_fd_sc_hd__a21o_1
*I *669:A I *D sky130_fd_sc_hd__xor2_1
*I *667:X O *D sky130_fd_sc_hd__xor2_1
*CAP
1 *670:A1 5.5181e-05
2 *669:A 3.04135e-05
3 *667:X 0.000128562
4 *150:10 0.000214156
5 *670:A1 *670:B1 0.000225307
6 *150:10 *670:B1 0.000256351
7 *669:B *669:A 5.33005e-05
8 *670:A2 *670:A1 0.000202842
9 *102:12 *150:10 1.02504e-05
10 *106:14 *670:A1 4.97121e-06
11 *106:14 *150:10 6.98762e-05
*RES
1 *667:X *150:10 17.3 
2 *150:10 *669:A 14.3357 
3 *150:10 *670:A1 16.6571 
*END

*D_NET *151 0.00145325
*CONN
*I *670:B1 I *D sky130_fd_sc_hd__a21o_1
*I *668:X O *D sky130_fd_sc_hd__and2_1
*CAP
1 *670:B1 0.00040199
2 *668:X 0.00040199
3 *666:B1 *670:B1 0
4 *667:A *670:B1 0.00014183
5 *668:B *670:B1 1.39726e-05
6 *670:A1 *670:B1 0.000225307
7 *102:12 *670:B1 1.18064e-05
8 *148:10 *670:B1 0
9 *150:10 *670:B1 0.000256351
*RES
1 *668:X *670:B1 36.3143 
*END

*D_NET *152 0.000998099
*CONN
*I *711:B I *D sky130_fd_sc_hd__xor2_1
*I *710:B I *D sky130_fd_sc_hd__and2_1
*I *669:X O *D sky130_fd_sc_hd__xor2_1
*CAP
1 *711:B 8.53811e-05
2 *710:B 0
3 *669:X 0.000238599
4 *152:12 0.00032398
5 *711:A *711:B 0.000197092
6 *148:10 *152:12 0.000153047
*RES
1 *669:X *152:12 22.0143 
2 *152:12 *710:B 9.3 
3 *152:12 *711:B 11.4964 
*END

*D_NET *153 0.00072202
*CONN
*I *713:A I *D sky130_fd_sc_hd__xor2_1
*I *712:A I *D sky130_fd_sc_hd__and2_1
*I *670:X O *D sky130_fd_sc_hd__a21o_1
*CAP
1 *713:A 0
2 *712:A 6.52404e-05
3 *670:X 0.00024529
4 *153:10 0.00031053
5 *712:A *713:B 0.00010096
6 *153:10 *156:10 0
7 *153:10 *190:8 0
*RES
1 *670:X *153:10 22.675 
2 *153:10 *712:A 10.6571 
3 *153:10 *713:A 9.3 
*END

*D_NET *154 0.000850776
*CONN
*I *675:A I *D sky130_fd_sc_hd__xor2_1
*I *676:A1 I *D sky130_fd_sc_hd__a21o_1
*I *671:X O *D sky130_fd_sc_hd__xor2_1
*CAP
1 *675:A 9.32515e-05
2 *676:A1 9.75146e-05
3 *671:X 0.00013358
4 *154:10 0.000324346
5 *154:10 *676:B1 5.10822e-05
6 *670:A2 *154:10 0
7 *675:B *675:A 5.33433e-05
8 *675:B *676:A1 9.7659e-05
9 *71:12 *154:10 0
10 *111:8 *154:10 0
*RES
1 *671:X *154:10 20.55 
2 *154:10 *676:A1 11.0679 
3 *154:10 *675:A 11.0857 
*END

*D_NET *155 0.000555251
*CONN
*I *676:B1 I *D sky130_fd_sc_hd__a21o_1
*I *672:X O *D sky130_fd_sc_hd__and2_1
*CAP
1 *676:B1 0.000158297
2 *672:X 0.000158297
3 *672:B *676:B1 0.00014183
4 *111:8 *676:B1 4.57445e-05
5 *154:10 *676:B1 5.10822e-05
*RES
1 *672:X *676:B1 30.6 
*END

*D_NET *156 0.000587984
*CONN
*I *712:B I *D sky130_fd_sc_hd__and2_1
*I *713:B I *D sky130_fd_sc_hd__xor2_1
*I *675:X O *D sky130_fd_sc_hd__xor2_1
*CAP
1 *712:B 0
2 *713:B 0.000103937
3 *675:X 0.000129929
4 *156:10 0.000233867
5 *713:B *193:10 1.92905e-05
6 *156:10 *157:8 0
7 *712:A *713:B 0.00010096
8 *153:10 *156:10 0
*RES
1 *675:X *156:10 20.2464 
2 *156:10 *713:B 11.4964 
3 *156:10 *712:B 9.3 
*END

*D_NET *157 0.00103487
*CONN
*I *715:A I *D sky130_fd_sc_hd__xor2_1
*I *714:A I *D sky130_fd_sc_hd__and2_1
*I *676:X O *D sky130_fd_sc_hd__a21o_1
*CAP
1 *715:A 0.000188149
2 *714:A 0
3 *676:X 0.000222921
4 *157:8 0.00041107
5 *715:A *714:B 0.0001098
6 *715:A *161:6 9.71197e-05
7 *157:8 *714:B 5.80706e-06
8 *157:8 *193:10 0
9 *680:A2 *715:A 0
10 *111:8 *715:A 0
11 *111:8 *157:8 0
12 *156:10 *157:8 0
*RES
1 *676:X *157:8 17.8714 
2 *157:8 *714:A 13.8 
3 *157:8 *715:A 18.0143 
*END

*D_NET *158 0.000839553
*CONN
*I *680:A1 I *D sky130_fd_sc_hd__a21o_1
*I *679:A I *D sky130_fd_sc_hd__xor2_1
*I *677:X O *D sky130_fd_sc_hd__xor2_1
*CAP
1 *680:A1 4.89645e-05
2 *679:A 6.17105e-05
3 *677:X 0.000110205
4 *158:10 0.00022088
5 *680:A1 *680:B1 6.39901e-05
6 *158:10 *680:B1 0.000113462
7 *678:B *158:10 0.00010096
8 *680:A2 *680:A1 4.57538e-05
9 *680:A2 *158:10 7.79781e-06
10 *111:8 *158:10 6.58289e-05
*RES
1 *677:X *158:10 17.3 
2 *158:10 *679:A 14.7464 
3 *158:10 *680:A1 15.4429 
*END

*D_NET *159 0.000607645
*CONN
*I *680:B1 I *D sky130_fd_sc_hd__a21o_1
*I *678:X O *D sky130_fd_sc_hd__and2_1
*CAP
1 *680:B1 0.000215097
2 *678:X 0.000215097
3 *680:A1 *680:B1 6.39901e-05
4 *680:A2 *680:B1 0
5 *158:10 *680:B1 0.000113462
*RES
1 *678:X *680:B1 32.2071 
*END

*D_NET *160 0.00128008
*CONN
*I *908:A I *D sky130_fd_sc_hd__xor2_1
*I *909:A I *D sky130_fd_sc_hd__and2_1
*I *903:X O *D sky130_fd_sc_hd__and2_1
*CAP
1 *908:A 5.08121e-05
2 *909:A 0.000101437
3 *903:X 8.29498e-05
4 *160:10 0.000235199
5 *908:A *909:B 5.49544e-05
6 *908:A *236:6 5.33005e-05
7 *892:B *909:A 0.000197977
8 *892:B *160:10 2.41865e-05
9 *903:A *160:10 5.33005e-05
10 *3:21 *909:A 0.000196269
11 *3:21 *160:10 0.000126439
12 *16:82 *160:10 0.000103253
*RES
1 *903:X *160:10 15.9786 
2 *160:10 *909:A 16.8893 
3 *160:10 *908:A 14.7464 
*END

*D_NET *161 0.000616127
*CONN
*I *715:B I *D sky130_fd_sc_hd__xor2_1
*I *714:B I *D sky130_fd_sc_hd__and2_1
*I *679:X O *D sky130_fd_sc_hd__xor2_1
*CAP
1 *715:B 0
2 *714:B 0.000104181
3 *679:X 9.75198e-05
4 *161:6 0.0002017
5 *714:B *193:10 0
6 *714:B *193:23 0
7 *715:A *714:B 0.0001098
8 *715:A *161:6 9.71197e-05
9 *157:8 *714:B 5.80706e-06
*RES
1 *679:X *161:6 11.0679 
2 *161:6 *714:B 20.8536 
3 *161:6 *715:B 9.3 
*END

*D_NET *162 0.000953815
*CONN
*I *716:A I *D sky130_fd_sc_hd__and2_1
*I *717:A I *D sky130_fd_sc_hd__xor2_1
*I *680:X O *D sky130_fd_sc_hd__a21o_1
*CAP
1 *716:A 0.00014991
2 *717:A 8.68912e-05
3 *680:X 0.000114637
4 *162:8 0.000351438
5 *716:A *716:B 6.35892e-05
6 *716:A *166:8 0
7 *716:A *199:10 3.67257e-05
8 *717:A *165:6 0.000140933
9 *162:8 *716:B 9.69119e-06
10 *162:8 *166:8 0
*RES
1 *680:X *162:8 15.7464 
2 *162:8 *717:A 15.5679 
3 *162:8 *716:A 16.9964 
*END

*D_NET *163 0.000773095
*CONN
*I *683:A I *D sky130_fd_sc_hd__xor2_1
*I *684:A1 I *D sky130_fd_sc_hd__a21o_1
*I *681:X O *D sky130_fd_sc_hd__xor2_1
*CAP
1 *683:A 0.000142677
2 *684:A1 0.000119665
3 *681:X 0
4 *163:4 0.000262343
5 *683:B *683:A 7.48091e-05
6 *683:B *684:A1 0.000140855
7 *115:8 *684:A1 3.27461e-05
*RES
1 *681:X *163:4 9.3 
2 *163:4 *684:A1 20.8536 
3 *163:4 *683:A 11.9071 
*END

*D_NET *164 0.000323236
*CONN
*I *684:B1 I *D sky130_fd_sc_hd__a21o_1
*I *682:X O *D sky130_fd_sc_hd__and2_1
*CAP
1 *684:B1 0.000133877
2 *682:X 0.000133877
3 *684:A2 *684:B1 5.54821e-05
*RES
1 *682:X *684:B1 20.7964 
*END

*D_NET *165 0.000859903
*CONN
*I *717:B I *D sky130_fd_sc_hd__xor2_1
*I *716:B I *D sky130_fd_sc_hd__and2_1
*I *683:X O *D sky130_fd_sc_hd__xor2_1
*CAP
1 *717:B 0
2 *716:B 0.000153968
3 *683:X 0.000159232
4 *165:6 0.0003132
5 *716:B *197:10 0
6 *716:B *199:10 1.92905e-05
7 *716:A *716:B 6.35892e-05
8 *717:A *165:6 0.000140933
9 *162:8 *716:B 9.69119e-06
*RES
1 *683:X *165:6 12.3 
2 *165:6 *716:B 21.3893 
3 *165:6 *717:B 9.3 
*END

*D_NET *166 0.00132324
*CONN
*I *720:A I *D sky130_fd_sc_hd__xor2_1
*I *719:A I *D sky130_fd_sc_hd__and2_1
*I *684:X O *D sky130_fd_sc_hd__a21o_1
*CAP
1 *720:A 0.000184287
2 *719:A 6.52224e-05
3 *684:X 0.00024236
4 *166:8 0.000491869
5 *719:A *719:B 0.00010096
6 *720:A *719:B 0.000179656
7 *720:A *169:10 2.31791e-05
8 *683:B *166:8 3.5707e-05
9 *716:A *166:8 0
10 *162:8 *166:8 0
*RES
1 *684:X *166:8 17.8714 
2 *166:8 *719:A 15.1571 
3 *166:8 *720:A 17.6036 
*END

*D_NET *167 0.000905429
*CONN
*I *689:A1 I *D sky130_fd_sc_hd__a21o_1
*I *688:A I *D sky130_fd_sc_hd__xor2_1
*I *686:X O *D sky130_fd_sc_hd__xor2_1
*CAP
1 *689:A1 0.000111776
2 *688:A 8.14129e-05
3 *686:X 0
4 *167:4 0.000193189
5 *689:A1 *689:B1 0.000148196
6 *688:B *688:A 7.42572e-05
7 *688:B *689:A1 8.06427e-05
8 *907:A *688:A 5.52302e-05
9 *10:85 *688:A 0.000137983
10 *18:95 *689:A1 2.27416e-05
*RES
1 *686:X *167:4 9.3 
2 *167:4 *688:A 11.4964 
3 *167:4 *689:A1 20.7821 
*END

*D_NET *168 0.000935865
*CONN
*I *689:B1 I *D sky130_fd_sc_hd__a21o_1
*I *687:X O *D sky130_fd_sc_hd__and2_1
*CAP
1 *689:B1 0.000262973
2 *687:X 0.000262973
3 *687:A *689:B1 0
4 *688:B *689:B1 2.78729e-05
5 *689:A1 *689:B1 0.000148196
6 *906:A *689:B1 8.68665e-05
7 *120:10 *689:B1 4.1331e-06
8 *124:10 *689:B1 0.00014285
*RES
1 *687:X *689:B1 33.0286 
*END

*D_NET *169 0.00192999
*CONN
*I *720:B I *D sky130_fd_sc_hd__xor2_1
*I *719:B I *D sky130_fd_sc_hd__and2_1
*I *688:X O *D sky130_fd_sc_hd__xor2_1
*CAP
1 *720:B 0
2 *719:B 0.000192547
3 *688:X 0.000472101
4 *169:10 0.000664648
5 *169:10 *723:A 7.8195e-05
6 *169:10 *170:10 6.35892e-05
7 *719:A *719:B 0.00010096
8 *720:A *719:B 0.000179656
9 *720:A *169:10 2.31791e-05
10 *907:A *169:10 0.000100163
11 *907:B *169:10 5.49544e-05
*RES
1 *688:X *169:10 22.9429 
2 *169:10 *719:B 18.2464 
3 *169:10 *720:B 13.8 
*END

*D_NET *170 0.00289283
*CONN
*I *722:A I *D sky130_fd_sc_hd__xor2_1
*I *721:A I *D sky130_fd_sc_hd__and2_1
*I *689:X O *D sky130_fd_sc_hd__a21o_1
*CAP
1 *722:A 0.000107807
2 *721:A 0.00017672
3 *689:X 0.000556452
4 *170:10 0.000840979
5 *721:A *721:B 0.000216005
6 *721:A *174:6 0.000188586
7 *721:A *202:8 0.00010096
8 *722:A *174:6 0.000144773
9 *170:10 *376:10 0.000187465
10 *907:B *170:10 0.000142575
11 *18:95 *170:10 0.000166918
12 *169:10 *170:10 6.35892e-05
*RES
1 *689:X *170:10 24.9786 
2 *170:10 *721:A 18.5857 
3 *170:10 *722:A 16.3 
*END

*D_NET *171 0.000631854
*CONN
*I *910:A I *D sky130_fd_sc_hd__xor2_1
*I *911:A I *D sky130_fd_sc_hd__and2_1
*I *914:X O *D sky130_fd_sc_hd__and2_1
*CAP
1 *910:A 0.000146926
2 *911:A 2.06557e-05
3 *914:X 0.000167581
4 *910:A *910:B 0.000125731
5 *910:A *913:B1 1.41029e-05
6 *914:A *911:A 5.65955e-05
7 *15:37 *910:A 0.000100262
*RES
1 *914:X *911:A 19.1357 
2 *914:X *910:A 30.4929 
*END

*D_NET *172 0.000819145
*CONN
*I *693:A1 I *D sky130_fd_sc_hd__a21o_1
*I *692:A I *D sky130_fd_sc_hd__xor2_1
*I *690:X O *D sky130_fd_sc_hd__xor2_1
*CAP
1 *693:A1 0.000251612
2 *692:A 0
3 *690:X 7.84513e-05
4 *172:8 0.000330063
5 *693:A1 *693:B1 9.91033e-05
6 *692:B *172:8 5.99152e-05
*RES
1 *690:X *172:8 11.0857 
2 *172:8 *692:A 9.3 
3 *172:8 *693:A1 21.9607 
*END

*D_NET *173 0.000367536
*CONN
*I *693:B1 I *D sky130_fd_sc_hd__a21o_1
*I *691:X O *D sky130_fd_sc_hd__and2_1
*CAP
1 *693:B1 0.000106739
2 *691:X 0.000106739
3 *693:A1 *693:B1 9.91033e-05
4 *693:A2 *693:B1 5.49544e-05
*RES
1 *691:X *693:B1 20.7964 
*END

*D_NET *174 0.000944541
*CONN
*I *721:B I *D sky130_fd_sc_hd__and2_1
*I *722:B I *D sky130_fd_sc_hd__xor2_1
*I *692:X O *D sky130_fd_sc_hd__xor2_1
*CAP
1 *721:B 9.34841e-05
2 *722:B 0
3 *692:X 2.70911e-05
4 *174:6 0.000120575
5 *721:B *201:28 0.000105163
6 *721:B *202:8 4.88637e-05
7 *721:A *721:B 0.000216005
8 *721:A *174:6 0.000188586
9 *722:A *174:6 0.000144773
*RES
1 *692:X *174:6 11.0679 
2 *174:6 *722:B 9.3 
3 *174:6 *721:B 12.7286 
*END

*D_NET *175 0.000621968
*CONN
*I *724:B I *D sky130_fd_sc_hd__xor2_1
*I *723:B I *D sky130_fd_sc_hd__and2_1
*I *693:X O *D sky130_fd_sc_hd__a21o_1
*CAP
1 *724:B 5.27059e-05
2 *723:B 3.83244e-05
3 *693:X 0.000116051
4 *175:10 0.000207082
5 *723:B *724:A 9.83388e-05
6 *724:B *724:A 0.000109466
7 *175:10 *201:28 0
*RES
1 *693:X *175:10 20.2464 
2 *175:10 *723:B 10.2464 
3 *175:10 *724:B 10.675 
*END

*D_NET *176 0.00770859
*CONN
*I *726:B I *D sky130_fd_sc_hd__and2_1
*I *846:B I *D sky130_fd_sc_hd__and2_1
*I *812:B I *D sky130_fd_sc_hd__and2_1
*I *813:A2 I *D sky130_fd_sc_hd__a21o_1
*I *847:A2 I *D sky130_fd_sc_hd__a21o_1
*I *770:B I *D sky130_fd_sc_hd__and2_1
*I *771:A2 I *D sky130_fd_sc_hd__a21o_1
*I *727:A2 I *D sky130_fd_sc_hd__a21o_1
*I *866:B I *D sky130_fd_sc_hd__xor2_1
*I *694:X O *D sky130_fd_sc_hd__and2_1
*CAP
1 *726:B 0.000130312
2 *846:B 0.00018405
3 *812:B 1.16062e-05
4 *813:A2 0
5 *847:A2 0.000156935
6 *770:B 0.000129592
7 *771:A2 3.48654e-05
8 *727:A2 0
9 *866:B 9.08498e-05
10 *694:X 0.000216379
11 *176:92 0.000223959
12 *176:72 0.000360404
13 *176:64 0.000505342
14 *176:53 0.000514195
15 *176:42 0.000482963
16 *176:33 0.000557907
17 *176:27 0.000439696
18 *176:10 0.000395773
19 *726:B *726:A 7.6696e-05
20 *770:B *770:A 5.33005e-05
21 *771:A2 *728:A 5.52238e-05
22 *771:A2 *771:A1 0.000102197
23 *812:B *861:B 5.52302e-05
24 *812:B *260:12 5.52302e-05
25 *846:B *846:A 5.52302e-05
26 *846:B *861:B 1.17968e-05
27 *846:B *209:8 5.03787e-05
28 *847:A2 *813:A1 5.52302e-05
29 *847:A2 *827:A 9.60939e-05
30 *847:A2 *847:B1 0
31 *847:A2 *216:14 0.000222878
32 *847:A2 *327:14 0
33 *866:B *866:A 0.000129423
34 *176:10 *695:B 5.48581e-05
35 *176:10 *178:8 1.02504e-05
36 *176:10 *269:10 0
37 *176:27 *178:8 4.80729e-05
38 *176:27 *178:19 0.000176234
39 *176:33 *726:A 5.33005e-05
40 *176:33 *177:12 0.000148897
41 *176:33 *178:19 1.76135e-05
42 *176:33 *178:30 0.000195237
43 *176:42 *735:B 0
44 *176:42 *868:B 0
45 *176:42 *178:30 5.80706e-06
46 *176:42 *178:43 0.000304224
47 *176:42 *180:19 0
48 *176:42 *211:10 0
49 *176:53 *779:A 0
50 *176:53 *212:19 6.5185e-05
51 *176:53 *219:34 0
52 *176:64 *779:A 0
53 *176:64 *861:B 9.56968e-05
54 *176:64 *209:8 0.000131563
55 *176:64 *212:19 1.76135e-05
56 *176:64 *212:32 8.98897e-05
57 *176:64 *216:14 0
58 *176:64 *260:8 0
59 *176:72 *813:A1 0.000118395
60 *176:72 *813:B1 0
61 *176:72 *827:A 4.38128e-05
62 *176:72 *827:B 1.04232e-05
63 *176:72 *260:12 0.000181803
64 *176:72 *260:30 2.24079e-05
65 *176:72 *307:8 5.33005e-05
66 *176:92 *861:B 2.39876e-05
67 *176:92 *209:8 1.65558e-05
68 p[4] *176:42 6.27272e-06
69 p[6] *846:B 4.58976e-05
70 p[8] *771:A2 7.32955e-05
71 *698:B *866:B 0
72 *725:A *770:B 5.52302e-05
73 *725:A *176:53 0
74 *19:14 *176:10 1.72894e-05
75 *19:18 *176:10 0
76 *26:8 *176:10 3.454e-05
77 *26:20 *176:10 1.88482e-05
78 *26:20 *176:27 0.000118349
*RES
1 *694:X *176:10 18.1036 
2 *176:10 *866:B 15.7107 
3 *176:10 *176:27 7.35714 
4 *176:27 *176:33 10.8393 
5 *176:33 *727:A2 13.8 
6 *176:33 *176:42 7.71429 
7 *176:42 *771:A2 15.5679 
8 *176:42 *176:53 2.25 
9 *176:53 *770:B 15.9786 
10 *176:53 *176:64 7.10714 
11 *176:64 *176:72 9.17857 
12 *176:72 *847:A2 22.1036 
13 *176:72 *813:A2 9.3 
14 *176:64 *176:92 0.732143 
15 *176:92 *812:B 14.3357 
16 *176:92 *846:B 17.5321 
17 *176:27 *726:B 12.05 
*END

*D_NET *177 0.00195529
*CONN
*I *731:A2 I *D sky130_fd_sc_hd__a21o_1
*I *730:B I *D sky130_fd_sc_hd__and2_1
*I *727:B1 I *D sky130_fd_sc_hd__a21o_1
*I *697:X O *D sky130_fd_sc_hd__and2_1
*CAP
1 *731:A2 0
2 *730:B 0.000135375
3 *727:B1 1.11927e-05
4 *697:X 0.000332263
5 *177:16 0.000315098
6 *177:12 0.000500793
7 *730:B *730:A 4.70078e-05
8 *730:B *180:23 5.30637e-06
9 *177:12 *697:A 5.52238e-05
10 *177:12 *698:A 5.52302e-05
11 *177:12 *178:19 0
12 *177:12 *179:10 0
13 *177:12 *180:10 0.000153054
14 *177:12 *180:19 6.0038e-05
15 *177:16 *727:A1 5.52238e-05
16 *177:16 *731:B1 3.99614e-06
17 *177:16 *733:A 0
18 *177:16 *180:23 7.65919e-05
19 *176:33 *177:12 0.000148897
*RES
1 *697:X *177:12 25.7464 
2 *177:12 *177:16 3.01786 
3 *177:16 *727:B1 9.72857 
4 *177:16 *730:B 11.9071 
5 *177:12 *731:A2 9.3 
*END

*D_NET *178 0.00387644
*CONN
*I *732:B I *D sky130_fd_sc_hd__and2_1
*I *728:A I *D sky130_fd_sc_hd__and2_1
*I *727:A1 I *D sky130_fd_sc_hd__a21o_1
*I *726:A I *D sky130_fd_sc_hd__and2_1
*I *866:A I *D sky130_fd_sc_hd__xor2_1
*I *698:X O *D sky130_fd_sc_hd__xor2_1
*CAP
1 *732:B 0.000102379
2 *728:A 3.1536e-05
3 *727:A1 1.40568e-05
4 *726:A 6.92875e-05
5 *866:A 0.000119493
6 *698:X 2.67446e-05
7 *178:43 0.000319839
8 *178:30 0.000341328
9 *178:19 0.000309306
10 *178:8 0.000244908
11 *727:A1 *180:23 2.89016e-05
12 *728:A *771:A1 1.02936e-05
13 *732:B *732:A 5.18097e-05
14 *732:B *212:8 2.65612e-05
15 *178:8 *269:10 0
16 *178:43 *732:A 0.00031051
17 *178:43 *180:27 0.000177948
18 p[8] *728:A 0.000139907
19 p[8] *732:B 8.46829e-05
20 p[8] *178:43 9.87983e-06
21 *726:B *726:A 7.6696e-05
22 *728:B *728:A 5.52238e-05
23 *728:B *732:B 0.000107978
24 *771:A2 *728:A 5.52238e-05
25 *866:B *866:A 0.000129423
26 *26:20 *178:19 6.8646e-06
27 *26:20 *178:30 0.00013438
28 *26:20 *178:43 2.5315e-05
29 *176:10 *178:8 1.02504e-05
30 *176:27 *178:8 4.80729e-05
31 *176:27 *178:19 0.000176234
32 *176:33 *726:A 5.33005e-05
33 *176:33 *178:19 1.76135e-05
34 *176:33 *178:30 0.000195237
35 *176:42 *178:30 5.80706e-06
36 *176:42 *178:43 0.000304224
37 *177:12 *178:19 0
38 *177:16 *727:A1 5.52238e-05
*RES
1 *698:X *178:8 14.5321 
2 *178:8 *866:A 15.9786 
3 *178:8 *178:19 2.55357 
4 *178:19 *726:A 15.1571 
5 *178:19 *178:30 4.67857 
6 *178:30 *727:A1 14.3357 
7 *178:30 *178:43 11.9107 
8 *178:43 *728:A 10.6571 
9 *178:43 *732:B 12.2821 
*END

*D_NET *179 0.00171103
*CONN
*I *731:B1 I *D sky130_fd_sc_hd__a21o_1
*I *733:B I *D sky130_fd_sc_hd__and2_1
*I *734:A2 I *D sky130_fd_sc_hd__a21o_1
*I *699:X O *D sky130_fd_sc_hd__and2_1
*CAP
1 *731:B1 0.000150782
2 *733:B 0
3 *734:A2 0.000168721
4 *699:X 0.000228183
5 *179:25 0.000169711
6 *179:10 0.000415833
7 *731:B1 *733:A 3.4855e-05
8 *734:A2 *733:A 0.000186662
9 *734:A2 *183:23 0.000229443
10 *734:A2 *183:34 1.02504e-05
11 *734:A2 *211:10 0
12 *179:10 *180:10 0
13 *179:10 *180:19 0
14 *179:10 *183:10 0
15 *179:10 *183:23 0
16 *179:25 *733:A 4.27935e-05
17 *700:A *179:10 0
18 *700:B *179:10 6.97972e-05
19 *177:12 *179:10 0
20 *177:16 *731:B1 3.99614e-06
*RES
1 *699:X *179:10 22.3714 
2 *179:10 *734:A2 22.925 
3 *179:10 *179:25 0.535714 
4 *179:25 *733:B 9.3 
5 *179:25 *731:B1 12.3357 
*END

*D_NET *180 0.00449034
*CONN
*I *735:B I *D sky130_fd_sc_hd__and2_1
*I *730:A I *D sky130_fd_sc_hd__and2_1
*I *732:A I *D sky130_fd_sc_hd__and2_1
*I *867:A I *D sky130_fd_sc_hd__xor2_1
*I *731:A1 I *D sky130_fd_sc_hd__a21o_1
*I *700:X O *D sky130_fd_sc_hd__xor2_1
*CAP
1 *735:B 0.000450248
2 *730:A 8.2177e-05
3 *732:A 0.000312049
4 *867:A 0.000127163
5 *731:A1 0
6 *700:X 0.000206533
7 *180:27 0.000493308
8 *180:23 0.000321516
9 *180:19 0.000698364
10 *180:10 0.000269405
11 *730:A *208:10 5.52302e-05
12 *732:A *208:33 7.81028e-05
13 *735:B *868:A 0.000130823
14 *735:B *211:10 0
15 p[8] *732:A 5.52302e-05
16 *727:A1 *180:23 2.89016e-05
17 *730:B *730:A 4.70078e-05
18 *730:B *180:23 5.30637e-06
19 *732:B *732:A 5.18097e-05
20 *19:18 *732:A 3.99771e-05
21 *26:20 *732:A 0.000165642
22 *26:20 *180:27 9.34004e-05
23 *176:42 *735:B 0
24 *176:42 *180:19 0
25 *177:12 *180:10 0.000153054
26 *177:12 *180:19 6.0038e-05
27 *177:16 *180:23 7.65919e-05
28 *178:43 *732:A 0.00031051
29 *178:43 *180:27 0.000177948
30 *179:10 *180:10 0
31 *179:10 *180:19 0
*RES
1 *700:X *180:10 17.925 
2 *180:10 *731:A1 13.8 
3 *180:10 *180:19 1.33929 
4 *180:19 *180:23 7.5 
5 *180:23 *180:27 6.75 
6 *180:27 *867:A 15.5679 
7 *180:27 *732:A 30.0857 
8 *180:23 *730:A 11.0857 
9 *180:19 *735:B 21.7107 
*END

*D_NET *181 0.00106562
*CONN
*I *695:B I *D sky130_fd_sc_hd__xor2_1
*I *694:B I *D sky130_fd_sc_hd__and2_1
*I *925:X O *D sky130_fd_sc_hd__and2_1
*CAP
1 *695:B 8.00152e-05
2 *694:B 0
3 *925:X 0.000337605
4 *181:10 0.00041762
5 *695:A *695:B 0.000165269
6 *695:A *181:10 1.02504e-05
7 *11:45 *181:10 0
8 *176:10 *695:B 5.48581e-05
*RES
1 *925:X *181:10 18.3357 
2 *181:10 *694:B 13.8 
3 *181:10 *695:B 16.3536 
*END

*D_NET *182 0.00161016
*CONN
*I *734:B1 I *D sky130_fd_sc_hd__a21o_1
*I *737:A2 I *D sky130_fd_sc_hd__a21o_1
*I *736:B I *D sky130_fd_sc_hd__and2_1
*I *701:X O *D sky130_fd_sc_hd__and2_1
*CAP
1 *734:B1 0.00020521
2 *737:A2 0
3 *736:B 0.000101996
4 *701:X 6.48825e-05
5 *182:21 0.000316894
6 *182:8 0.000278561
7 *734:B1 *185:38 1.24368e-05
8 *736:B *736:A 0.000274294
9 *182:8 *183:10 0
10 *182:8 *183:23 0
11 *182:8 *185:10 0.000129868
12 *182:21 *183:23 0
13 *182:21 *185:10 2.31791e-05
14 *182:21 *185:23 0.000202842
*RES
1 *701:X *182:8 15.4429 
2 *182:8 *736:B 16.3893 
3 *182:8 *182:21 7.35714 
4 *182:21 *737:A2 9.3 
5 *182:21 *734:B1 12.7107 
*END

*D_NET *183 0.00322835
*CONN
*I *868:A I *D sky130_fd_sc_hd__xor2_1
*I *735:A I *D sky130_fd_sc_hd__and2_1
*I *738:B I *D sky130_fd_sc_hd__and2_1
*I *734:A1 I *D sky130_fd_sc_hd__a21o_1
*I *733:A I *D sky130_fd_sc_hd__and2_1
*I *702:X O *D sky130_fd_sc_hd__xor2_1
*CAP
1 *868:A 0.000164441
2 *735:A 0
3 *738:B 0.000230539
4 *734:A1 0
5 *733:A 0.000174561
6 *702:X 0.000207667
7 *183:51 0.000242709
8 *183:34 0.00042716
9 *183:23 0.000245117
10 *183:10 0.00050899
11 *738:B *778:B1 5.33005e-05
12 *738:B *787:B 5.33005e-05
13 *738:B *215:10 0.000220434
14 *738:B *216:14 0
15 *868:A *216:14 3.18676e-05
16 *183:34 *211:10 0
17 *183:34 *215:10 0
18 *700:A *183:10 3.34366e-05
19 *731:B1 *733:A 3.4855e-05
20 *734:A2 *733:A 0.000186662
21 *734:A2 *183:23 0.000229443
22 *734:A2 *183:34 1.02504e-05
23 *735:B *868:A 0.000130823
24 *177:16 *733:A 0
25 *179:10 *183:10 0
26 *179:10 *183:23 0
27 *179:25 *733:A 4.27935e-05
28 *182:8 *183:10 0
29 *182:8 *183:23 0
30 *182:21 *183:23 0
*RES
1 *702:X *183:10 17.4071 
2 *183:10 *733:A 17.2286 
3 *183:10 *183:23 3.16071 
4 *183:23 *734:A1 13.8 
5 *183:23 *183:34 6.75 
6 *183:34 *738:B 23.05 
7 *183:34 *183:51 1.35714 
8 *183:51 *735:A 9.3 
9 *183:51 *868:A 13.1571 
*END

*D_NET *184 0.00121744
*CONN
*I *737:B1 I *D sky130_fd_sc_hd__a21o_1
*I *741:A2 I *D sky130_fd_sc_hd__a21o_1
*I *739:B I *D sky130_fd_sc_hd__and2_1
*I *703:X O *D sky130_fd_sc_hd__and2_1
*CAP
1 *737:B1 0.000132788
2 *741:A2 6.17285e-05
3 *739:B 0
4 *703:X 0.000194224
5 *184:21 0.000359484
6 *184:10 0.000359191
7 *737:B1 *218:10 5.62995e-05
8 *184:10 *185:10 0
9 *184:10 *187:10 0
10 *184:21 *185:10 0
11 *184:21 *185:23 0
12 *184:21 *187:10 0
13 *184:21 *187:21 0
14 *703:B *184:10 7.43578e-06
15 *704:A *184:10 1.32552e-05
16 *704:B *184:10 3.30352e-05
*RES
1 *703:X *184:10 16.8 
2 *184:10 *739:B 13.8 
3 *184:10 *184:21 7.35714 
4 *184:21 *741:A2 10.2464 
5 *184:21 *737:B1 11.8893 
*END

*D_NET *185 0.00692111
*CONN
*I *869:A I *D sky130_fd_sc_hd__xor2_1
*I *742:B I *D sky130_fd_sc_hd__and2_1
*I *738:A I *D sky130_fd_sc_hd__and2_1
*I *737:A1 I *D sky130_fd_sc_hd__a21o_1
*I *736:A I *D sky130_fd_sc_hd__and2_1
*I *704:X O *D sky130_fd_sc_hd__xor2_1
*CAP
1 *869:A 0.000451981
2 *742:B 2.34258e-05
3 *738:A 2.60844e-05
4 *737:A1 0
5 *736:A 0.000183612
6 *704:X 0.000243206
7 *185:49 0.00128764
8 *185:38 0.00108816
9 *185:23 0.000345218
10 *185:10 0.000522197
11 *738:A *778:B1 0.000186669
12 *742:B *222:10 5.33334e-05
13 *742:B *327:14 5.33334e-05
14 *869:A *775:A2 3.99614e-06
15 *869:A *780:B 2.94103e-05
16 *869:A *781:A2 5.03772e-05
17 *869:A *208:37 6.84564e-05
18 *869:A *215:10 0
19 *869:A *215:12 4.59075e-05
20 *869:A *222:10 6.42242e-05
21 *869:A *222:21 3.40128e-05
22 *869:A *255:33 0.000315152
23 *185:38 *215:10 0
24 *185:38 *218:10 0.000139773
25 *185:38 *218:23 0.000197984
26 *185:49 *742:A 0
27 *185:49 *787:B 1.08359e-05
28 *185:49 *820:A1 0.000148911
29 *185:49 *861:A 0
30 *185:49 *215:10 0
31 *185:49 *218:23 2.31791e-05
32 *185:49 *252:19 0
33 *185:49 *252:34 0
34 *185:49 *266:23 0.000176234
35 *185:49 *293:12 0.000151333
36 *185:49 *320:23 0
37 p[8] *738:A 0.000186669
38 *701:B *185:10 1.37292e-05
39 *702:A *185:10 0.000140933
40 *734:B1 *185:38 1.24368e-05
41 *736:B *736:A 0.000274294
42 *131:12 *185:10 9.69119e-06
43 *134:8 *185:10 2.8266e-06
44 *182:8 *185:10 0.000129868
45 *182:21 *185:10 2.31791e-05
46 *182:21 *185:23 0.000202842
47 *184:10 *185:10 0
48 *184:21 *185:10 0
49 *184:21 *185:23 0
*RES
1 *704:X *185:10 18.7286 
2 *185:10 *736:A 17.6214 
3 *185:10 *185:23 7.05357 
4 *185:23 *737:A1 9.3 
5 *185:23 *185:38 9.96429 
6 *185:38 *738:A 15.5679 
7 *185:38 *185:49 15 
8 *185:49 *742:B 14.7464 
9 *185:49 *869:A 23.5143 
*END

*D_NET *186 0.00198315
*CONN
*I *744:A2 I *D sky130_fd_sc_hd__a21o_1
*I *741:B1 I *D sky130_fd_sc_hd__a21o_1
*I *743:B I *D sky130_fd_sc_hd__and2_1
*I *705:X O *D sky130_fd_sc_hd__and2_1
*CAP
1 *744:A2 0.000151483
2 *741:B1 0.000168657
3 *743:B 0
4 *705:X 0.000411354
5 *186:12 0.000168657
6 *186:10 0.000562837
7 *741:B1 *741:A1 2.89114e-05
8 *741:B1 *221:10 3.18676e-05
9 *744:A2 *744:A1 5.52238e-05
10 *744:A2 *786:B1 0.000139907
11 *744:A2 *187:21 0
12 *744:A2 *189:19 7.57869e-05
13 *744:A2 *189:30 1.52978e-05
14 *744:A2 *221:10 0
15 *186:10 *187:10 0
16 *186:10 *187:21 0
17 *186:10 *189:10 8.15939e-05
18 *186:10 *189:19 5.80706e-06
19 *705:B *186:10 7.43578e-06
20 *706:A *186:10 7.8327e-05
21 *135:10 *186:10 0
*RES
1 *705:X *186:10 21.55 
2 *186:10 *186:12 4.5 
3 *186:12 *743:B 9.3 
4 *186:12 *741:B1 12.3 
5 *186:10 *744:A2 17.4071 
*END

*D_NET *187 0.00642643
*CONN
*I *870:A I *D sky130_fd_sc_hd__xor2_1
*I *742:A I *D sky130_fd_sc_hd__and2_1
*I *745:B I *D sky130_fd_sc_hd__and2_1
*I *741:A1 I *D sky130_fd_sc_hd__a21o_1
*I *739:A I *D sky130_fd_sc_hd__and2_1
*I *706:X O *D sky130_fd_sc_hd__xor2_1
*CAP
1 *870:A 9.47822e-05
2 *742:A 0.000158757
3 *745:B 3.21211e-05
4 *741:A1 0.000111742
5 *739:A 0.000216628
6 *706:X 0.000225583
7 *187:59 0.000962239
8 *187:36 0.000895304
9 *187:21 0.000445674
10 *187:10 0.000621661
11 *742:A *293:12 2.97756e-05
12 *742:A *320:23 5.59013e-05
13 *742:A *333:14 0
14 *745:B *872:A 0.0001399
15 *745:B *226:10 4.72818e-05
16 *745:B *226:32 5.33005e-05
17 *870:A *860:A1 1.3701e-05
18 *870:A *293:16 3.67257e-05
19 *187:21 *221:10 4.46186e-06
20 *187:36 *786:A1 0.000245342
21 *187:36 *221:10 0.000330504
22 *187:59 *786:A1 3.17148e-05
23 *187:59 *833:A2 0.000119618
24 *187:59 *860:A1 0.00040086
25 *187:59 *861:A 0
26 *187:59 *221:10 0.000429745
27 *187:59 *265:12 0.000346166
28 *187:59 *293:16 1.21258e-05
29 *187:59 *314:22 0
30 *187:59 *333:14 0.000265378
31 *703:A *187:10 5.52238e-05
32 *741:B1 *741:A1 2.89114e-05
33 *744:A2 *187:21 0
34 *135:10 *187:10 1.52978e-05
35 *184:10 *187:10 0
36 *184:21 *187:10 0
37 *184:21 *187:21 0
38 *185:49 *742:A 0
39 *186:10 *187:10 0
40 *186:10 *187:21 0
*RES
1 *706:X *187:10 17.9071 
2 *187:10 *739:A 17.2107 
3 *187:10 *187:21 3.16071 
4 *187:21 *741:A1 15.1571 
5 *187:21 *187:36 5.03571 
6 *187:36 *745:B 15.1571 
7 *187:36 *187:59 21.4107 
8 *187:59 *742:A 21.4607 
9 *187:59 *870:A 10.9786 
*END

*D_NET *188 0.00181278
*CONN
*I *747:A2 I *D sky130_fd_sc_hd__a21o_1
*I *746:B I *D sky130_fd_sc_hd__and2_1
*I *744:B1 I *D sky130_fd_sc_hd__a21o_1
*I *708:X O *D sky130_fd_sc_hd__and2_1
*CAP
1 *747:A2 0.000161881
2 *746:B 0
3 *744:B1 0.000171025
4 *708:X 0.000360485
5 *188:12 0.000171025
6 *188:10 0.000522367
7 *744:B1 *224:6 5.62995e-05
8 *747:A2 *752:B 4.1331e-06
9 *747:A2 *191:10 1.99099e-05
10 *747:A2 *191:21 8.98897e-05
11 *747:A2 *191:25 9.90367e-05
12 *188:10 *189:10 0
13 *188:10 *191:10 0.000106552
14 *708:A *188:10 9.99644e-06
15 *709:B *188:10 4.01768e-05
*RES
1 *708:X *188:10 19.6393 
2 *188:10 *188:12 4.5 
3 *188:12 *744:B1 12.3357 
4 *188:12 *746:B 9.3 
5 *188:10 *747:A2 17.6036 
*END

*D_NET *189 0.00600191
*CONN
*I *748:B I *D sky130_fd_sc_hd__and2_1
*I *871:A I *D sky130_fd_sc_hd__xor2_1
*I *745:A I *D sky130_fd_sc_hd__and2_1
*I *744:A1 I *D sky130_fd_sc_hd__a21o_1
*I *743:A I *D sky130_fd_sc_hd__and2_1
*I *709:X O *D sky130_fd_sc_hd__xor2_1
*CAP
1 *748:B 3.11109e-05
2 *871:A 0.000474262
3 *745:A 3.76793e-05
4 *744:A1 4.76597e-05
5 *743:A 0
6 *709:X 0.000309153
7 *189:43 0.00106447
8 *189:30 0.000733229
9 *189:19 0.000264347
10 *189:10 0.000389392
11 *744:A1 *786:B1 1.69961e-05
12 *744:A1 *224:6 7.43578e-06
13 *745:A *191:45 9.90431e-05
14 *745:A *226:10 7.43578e-06
15 *748:B *327:14 1.98839e-05
16 *871:A *823:B1 0.000141366
17 *871:A *835:B 8.47107e-05
18 *871:A *836:A1 5.58941e-05
19 *871:A *844:B 0.000241198
20 *871:A *874:B 9.7478e-05
21 *871:A *229:12 0.000121904
22 *871:A *268:21 5.8183e-05
23 *871:A *276:8 0.000265385
24 *871:A *296:12 0
25 *871:A *327:14 7.77652e-05
26 *871:A *340:12 0
27 *189:10 *191:10 0
28 *189:19 *191:10 0
29 *189:30 *748:A 9.69119e-06
30 *189:30 *191:10 0
31 *189:30 *221:10 0
32 *189:30 *224:10 0.000106552
33 *189:43 *748:A 0.000119595
34 *189:43 *792:A2 0.000117378
35 *189:43 *793:B 0.000113877
36 *189:43 *800:A 0
37 *189:43 *841:B 4.73656e-05
38 *189:43 *224:10 9.21958e-05
39 *189:43 *226:10 6.97972e-05
40 *189:43 *232:14 0
41 *189:43 *273:10 0.000296852
42 *189:43 *286:19 0
43 *189:43 *340:12 0.000148911
44 *744:A2 *744:A1 5.52238e-05
45 *744:A2 *189:19 7.57869e-05
46 *744:A2 *189:30 1.52978e-05
47 *186:10 *189:10 8.15939e-05
48 *186:10 *189:19 5.80706e-06
49 *188:10 *189:10 0
*RES
1 *709:X *189:10 18.3357 
2 *189:10 *743:A 13.8 
3 *189:10 *189:19 1.94643 
4 *189:19 *744:A1 14.7464 
5 *189:19 *189:30 3.16071 
6 *189:30 *745:A 14.7464 
7 *189:30 *189:43 19.1964 
8 *189:43 *871:A 31.6214 
9 *189:43 *748:B 9.83571 
*END

*D_NET *190 0.00166172
*CONN
*I *750:A2 I *D sky130_fd_sc_hd__a21o_1
*I *747:B1 I *D sky130_fd_sc_hd__a21o_1
*I *749:B I *D sky130_fd_sc_hd__and2_1
*I *710:X O *D sky130_fd_sc_hd__and2_1
*CAP
1 *750:A2 0.000152859
2 *747:B1 9.26675e-05
3 *749:B 0
4 *710:X 0.000247573
5 *190:12 0.000194663
6 *190:8 0.000502428
7 *747:B1 *194:6 8.57023e-05
8 *747:B1 *228:10 5.62995e-05
9 *750:A2 *750:B1 5.52302e-05
10 *750:A2 *194:10 0
11 *190:12 *194:6 0.000274294
12 *153:10 *190:8 0
*RES
1 *710:X *190:8 18.175 
2 *190:8 *190:12 7.08929 
3 *190:12 *749:B 9.3 
4 *190:12 *747:B1 11.4786 
5 *190:8 *750:A2 16.5857 
*END

*D_NET *191 0.00515003
*CONN
*I *872:A I *D sky130_fd_sc_hd__xor2_1
*I *748:A I *D sky130_fd_sc_hd__and2_1
*I *747:A1 I *D sky130_fd_sc_hd__a21o_1
*I *752:B I *D sky130_fd_sc_hd__and2_1
*I *746:A I *D sky130_fd_sc_hd__and2_1
*I *711:X O *D sky130_fd_sc_hd__xor2_1
*CAP
1 *872:A 0.000159985
2 *748:A 0.000461841
3 *747:A1 0
4 *752:B 0.00011868
5 *746:A 0
6 *711:X 0.000412722
7 *191:45 0.000866337
8 *191:25 0.000263244
9 *191:21 0.000481269
10 *191:10 0.000504917
11 *748:A *793:B 0.000225307
12 *748:A *833:A1 7.4826e-05
13 *748:A *841:B 2.84494e-05
14 *748:A *221:10 0.000314369
15 *748:A *226:10 0.000126439
16 *748:A *273:10 0.000154124
17 *748:A *279:10 6.74911e-05
18 *748:A *340:12 6.42338e-05
19 *752:B *800:A 2.8266e-06
20 *752:B *194:10 0
21 *752:B *224:10 0
22 *752:B *228:10 6.74911e-05
23 *872:A *783:A 1.98839e-05
24 *872:A *226:10 1.39841e-05
25 *872:A *226:32 1.98839e-05
26 *191:10 *224:10 0
27 *191:21 *224:10 0
28 *191:45 *226:10 1.39726e-05
29 *745:A *191:45 9.90431e-05
30 *745:B *872:A 0.0001399
31 *747:A2 *752:B 4.1331e-06
32 *747:A2 *191:10 1.99099e-05
33 *747:A2 *191:21 8.98897e-05
34 *747:A2 *191:25 9.90367e-05
35 *188:10 *191:10 0.000106552
36 *189:10 *191:10 0
37 *189:19 *191:10 0
38 *189:30 *748:A 9.69119e-06
39 *189:30 *191:10 0
40 *189:43 *748:A 0.000119595
*RES
1 *711:X *191:10 21.3 
2 *191:10 *746:A 13.8 
3 *191:10 *191:21 6.75 
4 *191:21 *191:25 2.60714 
5 *191:25 *752:B 20.6884 
6 *191:25 *747:A1 9.3 
7 *191:21 *191:45 4.23214 
8 *191:45 *748:A 32.9964 
9 *191:45 *872:A 12.3179 
*END

*D_NET *192 0.000696758
*CONN
*I *643:B I *D sky130_fd_sc_hd__xor2_1
*I *644:B I *D sky130_fd_sc_hd__and2_1
*I *936:X O *D sky130_fd_sc_hd__and2_1
*CAP
1 *643:B 5.36762e-05
2 *644:B 0
3 *936:X 6.38933e-05
4 *192:10 0.000117569
5 *629:A *643:B 0.000185643
6 *643:A *643:B 0.00014183
7 *85:10 *192:10 6.65398e-05
8 *116:14 *643:B 3.18988e-05
9 *116:14 *192:10 3.5707e-05
10 *134:8 *192:10 0
*RES
1 *936:X *192:10 19.9429 
2 *192:10 *644:B 9.3 
3 *192:10 *643:B 11.4964 
*END

*D_NET *193 0.00255585
*CONN
*I *754:A2 I *D sky130_fd_sc_hd__a21o_1
*I *753:B I *D sky130_fd_sc_hd__and2_1
*I *750:B1 I *D sky130_fd_sc_hd__a21o_1
*I *712:X O *D sky130_fd_sc_hd__and2_1
*CAP
1 *754:A2 9.3748e-05
2 *753:B 0.000140654
3 *750:B1 0.000345544
4 *712:X 0.000227624
5 *193:23 0.000362873
6 *193:10 0.000701639
7 *750:B1 *750:A1 5.62995e-05
8 *750:B1 *195:10 7.77751e-05
9 *753:B *196:8 0.000358977
10 *754:A2 *195:10 6.58289e-05
11 *193:23 *195:10 5.03694e-05
12 *713:B *193:10 1.92905e-05
13 *714:B *193:10 0
14 *714:B *193:23 0
15 *750:A2 *750:B1 5.52302e-05
16 *157:8 *193:10 0
*RES
1 *712:X *193:10 17.1036 
2 *193:10 *750:B1 20.5143 
3 *193:10 *193:23 2.55357 
4 *193:23 *753:B 17.2107 
5 *193:23 *754:A2 16.05 
*END

*D_NET *194 0.00531554
*CONN
*I *749:A I *D sky130_fd_sc_hd__and2_1
*I *874:A I *D sky130_fd_sc_hd__xor2_1
*I *755:B I *D sky130_fd_sc_hd__and2_1
*I *752:A I *D sky130_fd_sc_hd__and2_1
*I *750:A1 I *D sky130_fd_sc_hd__a21o_1
*I *713:X O *D sky130_fd_sc_hd__xor2_1
*CAP
1 *749:A 0
2 *874:A 0.000227216
3 *755:B 7.34072e-05
4 *752:A 8.81123e-05
5 *750:A1 0.00019078
6 *713:X 0.000211582
7 *194:32 0.000907355
8 *194:12 0.000278893
9 *194:10 0.000783617
10 *194:6 0.000388467
11 *755:B *794:A 9.90367e-05
12 *755:B *333:14 4.88637e-05
13 *874:A *794:A 9.41642e-05
14 *874:A *836:B1 9.90431e-05
15 *874:A *874:B 0
16 *874:A *228:10 9.25014e-06
17 *874:A *228:21 0.000209483
18 *874:A *283:6 5.33433e-05
19 *194:10 *228:10 5.26184e-05
20 *194:32 *755:A 0
21 *194:32 *806:B 0
22 *194:32 *196:43 0
23 *194:32 *228:10 0.00033855
24 *194:32 *231:8 8.15939e-05
25 *194:32 *231:21 7.6021e-05
26 *194:32 *239:12 0
27 p[10] *874:A 0.00038501
28 p[10] *194:32 0.000202835
29 *747:B1 *194:6 8.57023e-05
30 *750:A2 *194:10 0
31 *750:B1 *750:A1 5.62995e-05
32 *752:B *194:10 0
33 *190:12 *194:6 0.000274294
*RES
1 *713:X *194:6 13.9429 
2 *194:6 *194:10 7.35714 
3 *194:10 *194:12 4.5 
4 *194:12 *750:A1 12.6214 
5 *194:12 *752:A 10.6571 
6 *194:10 *194:32 18.8929 
7 *194:32 *755:B 11.0679 
8 *194:32 *874:A 25.175 
9 *194:6 *749:A 9.3 
*END

*D_NET *195 0.00218449
*CONN
*I *757:A2 I *D sky130_fd_sc_hd__a21o_1
*I *756:B I *D sky130_fd_sc_hd__and2_1
*I *754:B1 I *D sky130_fd_sc_hd__a21o_1
*I *714:X O *D sky130_fd_sc_hd__and2_1
*CAP
1 *757:A2 0.000172219
2 *756:B 0
3 *754:B1 0
4 *714:X 0.000439571
5 *195:23 0.0003265
6 *195:10 0.000593852
7 *757:A2 *757:A1 1.04232e-05
8 *757:A2 *198:6 3.18676e-05
9 *757:A2 *198:17 0.000176789
10 *757:A2 *238:12 0.00010096
11 *195:10 *196:19 0
12 *195:10 *196:30 0
13 *195:23 *757:B1 0
14 *195:23 *196:30 0
15 *195:23 *198:17 5.52238e-05
16 *195:23 *198:25 9.25014e-06
17 *195:23 *234:8 7.38652e-05
18 *750:B1 *195:10 7.77751e-05
19 *754:A2 *195:10 6.58289e-05
20 *193:23 *195:10 5.03694e-05
*RES
1 *714:X *195:10 20.8714 
2 *195:10 *754:B1 13.8 
3 *195:10 *195:23 7.89286 
4 *195:23 *756:B 9.3 
5 *195:23 *757:A2 13.5679 
*END

*D_NET *196 0.00394492
*CONN
*I *755:A I *D sky130_fd_sc_hd__and2_1
*I *875:A I *D sky130_fd_sc_hd__xor2_1
*I *758:B I *D sky130_fd_sc_hd__and2_1
*I *754:A1 I *D sky130_fd_sc_hd__a21o_1
*I *753:A I *D sky130_fd_sc_hd__and2_1
*I *715:X O *D sky130_fd_sc_hd__xor2_1
*CAP
1 *755:A 0.000122166
2 *875:A 0.000107716
3 *758:B 6.01576e-05
4 *754:A1 0.000440802
5 *753:A 0
6 *715:X 0.000236481
7 *196:43 0.000500517
8 *196:30 0.000484191
9 *196:19 0.000774649
10 *196:8 0.000416928
11 *754:A1 *799:A2 1.24368e-05
12 *755:A *234:8 0
13 *758:B *239:8 3.69047e-06
14 *196:19 *231:21 0
15 *196:19 *239:12 4.46186e-06
16 *196:30 *799:B1 0.0002253
17 *196:30 *234:8 0
18 *196:30 *239:12 2.26424e-05
19 *196:43 *799:B1 0.000173804
20 *196:43 *234:8 0
21 *753:B *196:8 0.000358977
22 *194:32 *755:A 0
23 *194:32 *196:43 0
24 *195:10 *196:19 0
25 *195:10 *196:30 0
26 *195:23 *196:30 0
*RES
1 *715:X *196:8 14.3714 
2 *196:8 *753:A 9.3 
3 *196:8 *196:19 7.5 
4 *196:19 *754:A1 18.8536 
5 *196:19 *196:30 3.46429 
6 *196:30 *758:B 14.7464 
7 *196:30 *196:43 5.51786 
8 *196:43 *875:A 15.5679 
9 *196:43 *755:A 16.05 
*END

*D_NET *197 0.002035
*CONN
*I *757:B1 I *D sky130_fd_sc_hd__a21o_1
*I *760:A2 I *D sky130_fd_sc_hd__a21o_1
*I *759:B I *D sky130_fd_sc_hd__and2_1
*I *716:X O *D sky130_fd_sc_hd__and2_1
*CAP
1 *757:B1 0.000358693
2 *760:A2 0.000120541
3 *759:B 0
4 *716:X 0.000154031
5 *197:10 0.000316764
6 *197:6 0.000708946
7 *757:B1 *198:25 0
8 *757:B1 *238:12 0
9 *760:A2 *760:A1 0.000119618
10 *760:A2 *760:B1 9.90367e-05
11 *760:A2 *805:B1 9.90367e-05
12 *760:A2 *200:34 0
13 *760:A2 *202:27 0
14 *197:10 *760:A1 5.83304e-05
15 *197:10 *199:10 0
16 *197:10 *200:34 0
17 *197:10 *245:10 0
18 *716:B *197:10 0
19 *195:23 *757:B1 0
*RES
1 *716:X *197:6 11.0679 
2 *197:6 *197:10 7.96429 
3 *197:10 *759:B 13.8 
4 *197:10 *760:A2 16.9964 
5 *197:6 *757:B1 22.9429 
*END

*D_NET *198 0.00495767
*CONN
*I *758:A I *D sky130_fd_sc_hd__and2_1
*I *756:A I *D sky130_fd_sc_hd__and2_1
*I *761:B I *D sky130_fd_sc_hd__and2_1
*I *876:A I *D sky130_fd_sc_hd__xor2_1
*I *757:A1 I *D sky130_fd_sc_hd__a21o_1
*I *717:X O *D sky130_fd_sc_hd__xor2_1
*CAP
1 *758:A 0.000136944
2 *756:A 0
3 *761:B 0
4 *876:A 0.00039241
5 *757:A1 1.99857e-05
6 *717:X 0.000168049
7 *198:25 0.000799944
8 *198:17 0.00072554
9 *198:6 0.000369097
10 *876:A *843:B1 0.000358971
11 *876:A *241:10 0
12 *876:A *241:21 0
13 *198:25 *761:A 0
14 *198:25 *805:B1 0.000198738
15 *198:25 *234:8 0.000771886
16 *198:25 *238:12 3.34672e-05
17 p[12] *876:A 0.000550278
18 p[12] *198:25 7.92879e-05
19 p[13] *876:A 6.95205e-05
20 *757:A2 *757:A1 1.04232e-05
21 *757:A2 *198:6 3.18676e-05
22 *757:A2 *198:17 0.000176789
23 *757:B1 *198:25 0
24 *195:23 *198:17 5.52238e-05
25 *195:23 *198:25 9.25014e-06
*RES
1 *717:X *198:6 12.3 
2 *198:6 *757:A1 9.72857 
3 *198:6 *198:17 4.25 
4 *198:17 *198:25 20.1964 
5 *198:25 *876:A 28.8179 
6 *198:25 *761:B 9.3 
7 *198:17 *756:A 9.3 
8 *198:17 *758:A 11.4786 
*END

*D_NET *199 0.00194031
*CONN
*I *760:B1 I *D sky130_fd_sc_hd__a21o_1
*I *764:A2 I *D sky130_fd_sc_hd__a21o_1
*I *763:B I *D sky130_fd_sc_hd__and2_1
*I *719:X O *D sky130_fd_sc_hd__and2_1
*CAP
1 *760:B1 0.000166198
2 *764:A2 8.05939e-05
3 *763:B 0
4 *719:X 0.00034592
5 *199:23 0.000325243
6 *199:10 0.000424371
7 *760:B1 *764:B1 1.33343e-05
8 *760:B1 *805:B1 4.72917e-05
9 *760:B1 *241:10 7.43578e-06
10 *764:A2 *764:A1 5.52238e-05
11 *764:A2 *764:B1 9.80173e-05
12 *199:10 *765:A 8.25098e-05
13 *199:23 *764:A1 9.25014e-06
14 *199:23 *765:A 1.02504e-05
15 *199:23 *202:27 0.000119618
16 *716:A *199:10 3.67257e-05
17 *716:B *199:10 1.92905e-05
18 *760:A2 *760:B1 9.90367e-05
19 *197:10 *199:10 0
*RES
1 *719:X *199:10 18.7464 
2 *199:10 *763:B 13.8 
3 *199:10 *199:23 6.57143 
4 *199:23 *764:A2 11.0857 
5 *199:23 *760:B1 13.175 
*END

*D_NET *200 0.00273591
*CONN
*I *765:B I *D sky130_fd_sc_hd__and2_1
*I *761:A I *D sky130_fd_sc_hd__and2_1
*I *877:A I *D sky130_fd_sc_hd__xor2_1
*I *759:A I *D sky130_fd_sc_hd__and2_1
*I *760:A1 I *D sky130_fd_sc_hd__a21o_1
*I *720:X O *D sky130_fd_sc_hd__xor2_1
*CAP
1 *765:B 0
2 *761:A 0.000179777
3 *877:A 5.14873e-05
4 *759:A 0
5 *760:A1 5.74057e-05
6 *720:X 0.000302246
7 *200:34 0.00037054
8 *200:30 0.000277302
9 *200:21 0.000205172
10 *200:6 0.000426798
11 *760:A1 *765:A 2.19778e-05
12 *760:A1 *202:27 4.79842e-05
13 *761:A *241:10 0
14 *877:A *805:B1 0.000142856
15 *200:6 *765:A 0.000142856
16 *200:21 *765:A 0.000164232
17 *200:30 *765:A 0.000167325
18 *200:34 *805:B1 0
19 p[12] *761:A 0
20 *760:A2 *760:A1 0.000119618
21 *760:A2 *200:34 0
22 *197:10 *760:A1 5.83304e-05
23 *197:10 *200:34 0
24 *198:25 *761:A 0
*RES
1 *720:X *200:6 14.3536 
2 *200:6 *760:A1 20.55 
3 *200:6 *200:21 1.78571 
4 *200:21 *759:A 9.3 
5 *200:21 *200:30 3.01786 
6 *200:30 *200:34 6.75 
7 *200:34 *877:A 15.1571 
8 *200:34 *761:A 16.8893 
9 *200:30 *765:B 9.3 
*END

*D_NET *201 0.00205662
*CONN
*I *767:A2 I *D sky130_fd_sc_hd__a21o_1
*I *766:B I *D sky130_fd_sc_hd__and2_1
*I *764:B1 I *D sky130_fd_sc_hd__a21o_1
*I *721:X O *D sky130_fd_sc_hd__and2_1
*CAP
1 *767:A2 0.000109042
2 *766:B 4.11559e-05
3 *764:B1 0.000128101
4 *721:X 0.000560703
5 *201:28 0.0005828
6 *764:B1 *202:10 8.16036e-05
7 *766:B *767:B1 7.77751e-05
8 *766:B *205:8 0.000186669
9 *767:A2 *767:B1 4.57445e-05
10 *767:A2 *205:14 0
11 *201:28 *202:8 2.65105e-05
12 *201:28 *202:55 0
13 *721:B *201:28 0.000105163
14 *760:B1 *764:B1 1.33343e-05
15 *764:A2 *764:B1 9.80173e-05
16 *175:10 *201:28 0
*RES
1 *721:X *764:B1 30.4929 
2 *721:X *201:28 20.7643 
3 *201:28 *766:B 15.5679 
4 *201:28 *767:A2 16.05 
*END

*D_NET *202 0.00410657
*CONN
*I *878:A I *D sky130_fd_sc_hd__xor2_1
*I *768:B I *D sky130_fd_sc_hd__and2_1
*I *763:A I *D sky130_fd_sc_hd__and2_1
*I *765:A I *D sky130_fd_sc_hd__and2_1
*I *764:A1 I *D sky130_fd_sc_hd__a21o_1
*I *722:X O *D sky130_fd_sc_hd__xor2_1
*CAP
1 *878:A 0.000208354
2 *768:B 1.63023e-05
3 *763:A 0
4 *765:A 0.000314946
5 *764:A1 0.000114281
6 *722:X 0.000183091
7 *202:55 0.000557642
8 *202:27 0.000418551
9 *202:10 0.000324453
10 *202:8 0.000622646
11 *768:B *205:8 1.3701e-05
12 *768:B *249:15 0
13 *878:A *810:A 2.44318e-05
14 *878:A *878:B 1.04232e-05
15 *878:A *249:6 0.00010096
16 *878:A *249:15 0.000117621
17 *202:10 *241:10 0
18 *202:55 *241:10 0
19 *202:55 *241:21 0
20 *721:A *202:8 0.00010096
21 *721:B *202:8 4.88637e-05
22 *760:A1 *765:A 2.19778e-05
23 *760:A1 *202:27 4.79842e-05
24 *760:A2 *202:27 0
25 *764:A2 *764:A1 5.52238e-05
26 *764:B1 *202:10 8.16036e-05
27 *199:10 *765:A 8.25098e-05
28 *199:23 *764:A1 9.25014e-06
29 *199:23 *765:A 1.02504e-05
30 *199:23 *202:27 0.000119618
31 *200:6 *765:A 0.000142856
32 *200:21 *765:A 0.000164232
33 *200:30 *765:A 0.000167325
34 *201:28 *202:8 2.65105e-05
35 *201:28 *202:55 0
*RES
1 *722:X *202:8 17.2107 
2 *202:8 *202:10 2.40179 
3 *202:10 *764:A1 15.4518 
4 *202:10 *202:27 2.63393 
5 *202:27 *765:A 19.925 
6 *202:27 *763:A 13.8 
7 *202:8 *202:55 10.3214 
8 *202:55 *768:B 9.72857 
9 *202:55 *878:A 13.9607 
*END

*D_NET *203 0.000872644
*CONN
*I *601:B I *D sky130_fd_sc_hd__xor2_1
*I *602:B I *D sky130_fd_sc_hd__and2_1
*I *563:X O *D sky130_fd_sc_hd__and2_1
*CAP
1 *601:B 9.32497e-05
2 *602:B 0
3 *563:X 0.00013019
4 *203:10 0.00022344
5 *601:A *601:B 0.000189094
6 *127:10 *601:B 1.00887e-05
7 *127:10 *203:10 0.000226581
*RES
1 *563:X *203:10 16.3893 
2 *203:10 *602:B 13.8 
3 *203:10 *601:B 16.3536 
*END

*D_NET *204 0.00122054
*CONN
*I *767:B1 I *D sky130_fd_sc_hd__a21o_1
*I *723:X O *D sky130_fd_sc_hd__and2_1
*CAP
1 *767:B1 0.000438319
2 *723:X 0.000438319
3 *767:B1 *724:A 0.000144773
4 *767:B1 *205:8 3.30237e-05
5 *767:B1 *205:14 4.25809e-05
6 *766:B *767:B1 7.77751e-05
7 *767:A2 *767:B1 4.57445e-05
*RES
1 *723:X *767:B1 34.2964 
*END

*D_NET *205 0.00175536
*CONN
*I *768:A I *D sky130_fd_sc_hd__and2_1
*I *766:A I *D sky130_fd_sc_hd__and2_1
*I *879:A I *D sky130_fd_sc_hd__xor2_1
*I *767:A1 I *D sky130_fd_sc_hd__a21o_1
*I *724:X O *D sky130_fd_sc_hd__xor2_1
*CAP
1 *768:A 3.08975e-05
2 *766:A 0
3 *879:A 9.12338e-05
4 *767:A1 0.000160079
5 *724:X 0.000171661
6 *205:14 0.000378592
7 *205:8 0.000329837
8 *767:A1 *809:B1 5.52238e-05
9 *879:A *809:B1 0.000261858
10 *205:14 *809:A2 0
11 *205:14 *879:B 0
12 *766:B *205:8 0.000186669
13 *767:A2 *205:14 0
14 *767:B1 *205:8 3.30237e-05
15 *767:B1 *205:14 4.25809e-05
16 *768:B *205:8 1.3701e-05
*RES
1 *724:X *205:8 13.1393 
2 *205:8 *205:14 11.25 
3 *205:14 *767:A1 12.0321 
4 *205:14 *879:A 11.8893 
5 *205:8 *766:A 9.3 
6 *205:8 *768:A 9.83571 
*END

*D_NET *206 0.00206103
*CONN
*I *814:B I *D sky130_fd_sc_hd__and2_1
*I *848:B I *D sky130_fd_sc_hd__and2_1
*I *772:B I *D sky130_fd_sc_hd__and2_1
*I *725:X O *D sky130_fd_sc_hd__and2_1
*CAP
1 *814:B 0.000100413
2 *848:B 0.000148736
3 *772:B 0.000185418
4 *725:X 4.69356e-05
5 *206:19 0.000303394
6 *206:8 0.000286598
7 *772:B *772:A 5.33005e-05
8 *772:B *779:B 5.52238e-05
9 *814:B *814:A 5.33005e-05
10 *814:B *208:33 0.000214342
11 *206:8 *208:33 0.000153047
12 *206:19 *208:33 0.000166983
13 *19:27 *814:B 0.000118339
14 *19:27 *206:8 8.15939e-05
15 *19:27 *206:19 9.34004e-05
*RES
1 *725:X *206:8 15.7464 
2 *206:8 *772:B 16.8 
3 *206:8 *206:19 2.25 
4 *206:19 *848:B 15.9786 
5 *206:19 *814:B 17.1929 
*END

*D_NET *208 0.00923791
*CONN
*I *774:B I *D sky130_fd_sc_hd__and2_1
*I *849:B I *D sky130_fd_sc_hd__and2_1
*I *850:A2 I *D sky130_fd_sc_hd__a21o_1
*I *815:B I *D sky130_fd_sc_hd__and2_1
*I *816:A2 I *D sky130_fd_sc_hd__a21o_1
*I *775:A2 I *D sky130_fd_sc_hd__a21o_1
*I *867:B I *D sky130_fd_sc_hd__xor2_1
*I *727:X O *D sky130_fd_sc_hd__a21o_1
*CAP
1 *774:B 0
2 *849:B 0
3 *850:A2 0.00010488
4 *815:B 0
5 *816:A2 0.00025778
6 *775:A2 3.20034e-05
7 *867:B 0
8 *727:X 0.000107973
9 *208:80 0.000308895
10 *208:65 0.000237024
11 *208:50 0.00062309
12 *208:37 0.0005775
13 *208:33 0.00135789
14 *208:10 0.00125267
15 *775:A2 *775:A1 5.71472e-05
16 *775:A2 *255:33 2.89016e-05
17 *816:A2 *816:A1 0.000113089
18 *816:A2 *831:A 5.71472e-05
19 *816:A2 *263:18 0.000485276
20 *850:A2 *850:A1 0.00014285
21 *850:A2 *310:19 0.000186669
22 *208:33 *769:A 0
23 *208:33 *774:A 1.04232e-05
24 *208:33 *776:A 0.00013548
25 *208:33 *209:8 0
26 *208:33 *216:27 1.21289e-05
27 *208:33 *256:12 3.18676e-05
28 *208:37 *774:A 2.53134e-05
29 *208:37 *775:A1 0.000301817
30 *208:37 *216:27 0.000372343
31 *208:37 *255:33 2.89114e-05
32 *208:50 *780:B 0
33 *208:50 *856:B 1.81709e-05
34 *208:50 *215:10 0
35 *208:50 *255:37 0.000197991
36 *208:50 *263:10 0.000293422
37 *208:65 *263:10 5.59013e-05
38 *208:80 *817:A 0.000166983
39 *208:80 *817:B 0
40 *208:80 *849:A 5.7661e-06
41 *208:80 *852:A 5.33334e-05
42 *208:80 *263:10 1.02504e-05
43 *208:80 *310:10 0
44 *208:80 *310:19 4.88637e-05
45 p[5] *208:50 0
46 *725:A *208:33 4.75521e-05
47 *730:A *208:10 5.52302e-05
48 *732:A *208:33 7.81028e-05
49 *814:B *208:33 0.000214342
50 *869:A *775:A2 3.99614e-06
51 *869:A *208:37 6.84564e-05
52 *19:18 *208:10 0
53 *19:18 *208:33 0.000130928
54 *19:27 *208:33 0.000226082
55 *26:20 *208:10 0.000128154
56 *26:20 *208:33 0.000265285
57 *206:8 *208:33 0.000153047
58 *206:19 *208:33 0.000166983
*RES
1 *727:X *208:10 15.9786 
2 *208:10 *867:B 13.8 
3 *208:10 *208:33 31.9464 
4 *208:33 *208:37 6.71429 
5 *208:37 *775:A2 10.2643 
6 *208:37 *208:50 11.9107 
7 *208:50 *816:A2 20.1214 
8 *208:50 *208:65 0.732143 
9 *208:65 *815:B 13.8 
10 *208:65 *208:80 9.25 
11 *208:80 *850:A2 12.3 
12 *208:80 *849:B 9.3 
13 *208:33 *774:B 9.3 
*END

*D_NET *209 0.00286309
*CONN
*I *769:A I *D sky130_fd_sc_hd__and2_1
*I *776:B I *D sky130_fd_sc_hd__and2_1
*I *728:X O *D sky130_fd_sc_hd__and2_1
*CAP
1 *769:A 0.000216478
2 *776:B 0
3 *728:X 0.000806493
4 *209:8 0.00102297
5 *769:A *845:A 4.35048e-05
6 *769:A *858:A 9.14882e-05
7 *769:A *256:12 5.35423e-05
8 *209:8 *846:A 0
9 *209:8 *212:19 0.000148903
10 *209:8 *212:32 0.000176234
11 *725:A *209:8 0.000104974
12 *811:B *769:A 0
13 *846:B *209:8 5.03787e-05
14 *19:42 *769:A 0
15 *176:64 *209:8 0.000131563
16 *176:92 *209:8 1.65558e-05
17 *208:33 *769:A 0
18 *208:33 *209:8 0
*RES
1 *728:X *209:8 30.0143 
2 *209:8 *776:B 13.8 
3 *209:8 *769:A 18.7821 
*END

*D_NET *211 0.00177242
*CONN
*I *771:B1 I *D sky130_fd_sc_hd__a21o_1
*I *777:B I *D sky130_fd_sc_hd__and2_1
*I *778:A2 I *D sky130_fd_sc_hd__a21o_1
*I *731:X O *D sky130_fd_sc_hd__a21o_1
*CAP
1 *771:B1 2.48428e-05
2 *777:B 5.24109e-05
3 *778:A2 3.1877e-05
4 *731:X 0.000356041
5 *211:12 0.000116219
6 *211:10 0.000412815
7 *777:B *216:14 0.000175519
8 *777:B *219:34 0.000153054
9 *778:A2 *219:34 0.0001399
10 *211:10 *868:B 6.5185e-05
11 *211:10 *216:14 4.43698e-05
12 *211:12 *219:34 5.52302e-05
13 p[8] *771:B1 2.28598e-05
14 p[8] *778:A2 7.61932e-05
15 p[8] *211:12 4.58976e-05
16 *734:A2 *211:10 0
17 *735:B *211:10 0
18 *176:42 *211:10 0
19 *183:34 *211:10 0
*RES
1 *731:X *211:10 25.1036 
2 *211:10 *211:12 0.946429 
3 *211:12 *778:A2 10.6571 
4 *211:12 *777:B 20.55 
5 *211:10 *771:B1 9.83571 
*END

*D_NET *212 0.00238327
*CONN
*I *772:A I *D sky130_fd_sc_hd__and2_1
*I *779:B I *D sky130_fd_sc_hd__and2_1
*I *770:A I *D sky130_fd_sc_hd__and2_1
*I *771:A1 I *D sky130_fd_sc_hd__a21o_1
*I *732:X O *D sky130_fd_sc_hd__and2_1
*CAP
1 *772:A 2.52948e-05
2 *779:B 0.000184388
3 *770:A 3.04135e-05
4 *771:A1 0.000214128
5 *732:X 8.83798e-05
6 *212:32 0.000262065
7 *212:19 0.000147111
8 *212:8 0.000366824
9 *779:B *253:8 0.000129595
10 p[8] *771:A1 1.32552e-05
11 *728:A *771:A1 1.02936e-05
12 *728:B *771:A1 2.44318e-05
13 *728:B *212:8 9.86835e-05
14 *732:B *212:8 2.65612e-05
15 *770:B *770:A 5.33005e-05
16 *771:A2 *771:A1 0.000102197
17 *772:B *772:A 5.33005e-05
18 *772:B *779:B 5.52238e-05
19 *176:53 *212:19 6.5185e-05
20 *176:64 *212:19 1.76135e-05
21 *176:64 *212:32 8.98897e-05
22 *209:8 *212:19 0.000148903
23 *209:8 *212:32 0.000176234
*RES
1 *732:X *212:8 11.0857 
2 *212:8 *771:A1 12.3 
3 *212:8 *212:19 6.44643 
4 *212:19 *770:A 14.3357 
5 *212:19 *212:32 6.75 
6 *212:32 *779:B 13.1393 
7 *212:32 *772:A 9.83571 
*END

*D_NET *214 0.000745855
*CONN
*I *929:B I *D sky130_fd_sc_hd__and2_1
*I *928:B I *D sky130_fd_sc_hd__xor2_1
*I *574:X O *D sky130_fd_sc_hd__and2_1
*CAP
1 *929:B 0
2 *928:B 0.000161965
3 *574:X 0.000113124
4 *214:10 0.000275089
5 *928:B *403:10 2.04681e-05
6 *928:A *928:B 0.000159007
7 *3:53 *928:B 1.62025e-05
*RES
1 *574:X *214:10 19.9429 
2 *214:10 *928:B 13.05 
3 *214:10 *929:B 9.3 
*END

*D_NET *215 0.00371594
*CONN
*I *775:B1 I *D sky130_fd_sc_hd__a21o_1
*I *780:B I *D sky130_fd_sc_hd__and2_1
*I *781:A2 I *D sky130_fd_sc_hd__a21o_1
*I *734:X O *D sky130_fd_sc_hd__a21o_1
*CAP
1 *775:B1 0
2 *780:B 0.00016264
3 *781:A2 4.56082e-05
4 *734:X 0.00107106
5 *215:12 0.000262471
6 *215:10 0.00112529
7 *780:B *222:21 0
8 *780:B *262:10 0
9 *781:A2 *255:8 7.61932e-05
10 *215:10 *216:14 0
11 *215:10 *259:10 0.000279137
12 *215:10 *259:25 0.000199511
13 *215:10 *327:14 0
14 *215:12 *255:8 4.88637e-05
15 *215:12 *255:33 9.90367e-05
16 p[5] *215:10 0
17 *738:B *215:10 0.000220434
18 *869:A *780:B 2.94103e-05
19 *869:A *781:A2 5.03772e-05
20 *869:A *215:10 0
21 *869:A *215:12 4.59075e-05
22 *183:34 *215:10 0
23 *185:38 *215:10 0
24 *185:49 *215:10 0
25 *208:50 *780:B 0
26 *208:50 *215:10 0
*RES
1 *734:X *215:10 39.3714 
2 *215:10 *215:12 1.76786 
3 *215:12 *781:A2 10.6571 
4 *215:12 *780:B 21.1571 
5 *215:10 *775:B1 9.3 
*END

*D_NET *216 0.00610504
*CONN
*I *782:B I *D sky130_fd_sc_hd__and2_1
*I *776:A I *D sky130_fd_sc_hd__and2_1
*I *774:A I *D sky130_fd_sc_hd__and2_1
*I *775:A1 I *D sky130_fd_sc_hd__a21o_1
*I *735:X O *D sky130_fd_sc_hd__and2_1
*CAP
1 *782:B 0.000431008
2 *776:A 0.000114727
3 *774:A 1.41579e-05
4 *775:A1 0.000258996
5 *735:X 0.000984487
6 *216:27 0.000395715
7 *216:16 0.000525826
8 *216:14 0.00141549
9 *775:A1 *255:33 1.74352e-05
10 *782:B *822:B 5.33005e-05
11 *782:B *824:A 5.41494e-05
12 *782:B *255:37 0
13 *782:B *256:12 0
14 *782:B *263:10 9.80173e-05
15 *782:B *270:32 9.74552e-05
16 *216:14 *779:A 0.000164783
17 *216:14 *846:A 0
18 *216:14 *259:10 0
19 *216:14 *260:8 0
20 *216:14 *307:12 0
21 *216:14 *327:14 0
22 p[5] *782:B 7.11085e-05
23 p[5] *216:14 1.90936e-05
24 *738:B *216:14 0
25 *775:A2 *775:A1 5.71472e-05
26 *777:B *216:14 0.000175519
27 *811:B *782:B 0
28 *847:A2 *216:14 0.000222878
29 *868:A *216:14 3.18676e-05
30 *176:64 *216:14 0
31 *208:33 *774:A 1.04232e-05
32 *208:33 *776:A 0.00013548
33 *208:33 *216:27 1.21289e-05
34 *208:37 *774:A 2.53134e-05
35 *208:37 *775:A1 0.000301817
36 *208:37 *216:27 0.000372343
37 *211:10 *216:14 4.43698e-05
38 *215:10 *216:14 0
*RES
1 *735:X *216:14 33.0321 
2 *216:14 *216:16 4.5 
3 *216:16 *775:A1 13.1214 
4 *216:16 *216:27 4.25 
5 *216:27 *774:A 9.72857 
6 *216:27 *776:A 11.9071 
7 *216:14 *782:B 22.2286 
*END

*D_NET *218 0.00279526
*CONN
*I *778:B1 I *D sky130_fd_sc_hd__a21o_1
*I *783:B I *D sky130_fd_sc_hd__and2_1
*I *786:A2 I *D sky130_fd_sc_hd__a21o_1
*I *737:X O *D sky130_fd_sc_hd__a21o_1
*CAP
1 *778:B1 0.000132705
2 *783:B 0
3 *786:A2 0.000257249
4 *737:X 0.000206472
5 *218:23 0.000239765
6 *218:10 0.000570782
7 *778:B1 *787:B 0.000309619
8 *778:B1 *219:6 7.99227e-06
9 *778:B1 *219:23 7.32955e-05
10 *218:23 *252:10 2.88424e-05
11 *218:23 *252:19 4.1331e-06
12 p[8] *778:B1 0.000307199
13 *737:B1 *218:10 5.62995e-05
14 *738:A *778:B1 0.000186669
15 *738:B *778:B1 5.33005e-05
16 *185:38 *218:10 0.000139773
17 *185:38 *218:23 0.000197984
18 *185:49 *218:23 2.31791e-05
*RES
1 *737:X *218:10 17.2107 
2 *218:10 *786:A2 18.0321 
3 *218:10 *218:23 7.35714 
4 *218:23 *783:B 9.3 
5 *218:23 *778:B1 15.3357 
*END

*D_NET *219 0.00303249
*CONN
*I *779:A I *D sky130_fd_sc_hd__and2_1
*I *777:A I *D sky130_fd_sc_hd__and2_1
*I *778:A1 I *D sky130_fd_sc_hd__a21o_1
*I *787:B I *D sky130_fd_sc_hd__and2_1
*I *738:X O *D sky130_fd_sc_hd__and2_1
*CAP
1 *779:A 0.000121369
2 *777:A 0
3 *778:A1 0
4 *787:B 0.000329863
5 *738:X 1.88369e-05
6 *219:34 0.000313407
7 *219:23 0.000276781
8 *219:6 0.000433443
9 *779:A *253:8 2.89114e-05
10 *787:B *819:B 9.71197e-05
11 *787:B *820:A1 0.00017924
12 *787:B *252:19 6.19181e-05
13 *787:B *252:34 1.52978e-05
14 *787:B *259:10 1.33343e-05
15 *787:B *266:6 5.52238e-05
16 *219:23 *259:10 5.71472e-05
17 p[8] *787:B 1.55885e-05
18 p[8] *219:23 3.48705e-05
19 p[8] *219:34 1.21289e-05
20 *738:B *787:B 5.33005e-05
21 *777:B *219:34 0.000153054
22 *778:A2 *219:34 0.0001399
23 *778:B1 *787:B 0.000309619
24 *778:B1 *219:6 7.99227e-06
25 *778:B1 *219:23 7.32955e-05
26 *176:53 *779:A 0
27 *176:53 *219:34 0
28 *176:64 *779:A 0
29 *185:49 *787:B 1.08359e-05
30 *211:12 *219:34 5.52302e-05
31 *216:14 *779:A 0.000164783
*RES
1 *738:X *219:6 9.72857 
2 *219:6 *787:B 25.8357 
3 *219:6 *219:23 2.17857 
4 *219:23 *778:A1 9.3 
5 *219:23 *219:34 8.625 
6 *219:34 *777:A 13.8 
7 *219:34 *779:A 16.8893 
*END

*D_NET *221 0.00479419
*CONN
*I *789:A2 I *D sky130_fd_sc_hd__a21o_1
*I *788:B I *D sky130_fd_sc_hd__and2_1
*I *781:B1 I *D sky130_fd_sc_hd__a21o_1
*I *741:X O *D sky130_fd_sc_hd__a21o_1
*CAP
1 *789:A2 9.84239e-05
2 *788:B 0
3 *781:B1 0.000113511
4 *741:X 0.000874255
5 *221:14 0.000167775
6 *221:10 0.00102694
7 *781:B1 *788:A 4.88637e-05
8 *781:B1 *255:8 0.000320024
9 *789:A2 *788:A 0.000197991
10 *789:A2 *823:A1 2.89016e-05
11 *789:A2 *857:A2 7.7674e-05
12 *789:A2 *229:28 5.52238e-05
13 *789:A2 *333:14 0
14 *221:10 *833:A1 0.000153054
15 *221:10 *857:A2 4.1331e-06
16 *221:10 *279:10 0.000126439
17 *221:10 *333:14 0
18 *221:10 *340:12 0
19 *221:14 *788:A 0.000229456
20 *221:14 *255:8 0.000139097
21 *221:14 *333:14 2.14757e-05
22 *741:B1 *221:10 3.18676e-05
23 *744:A2 *221:10 0
24 *748:A *221:10 0.000314369
25 *187:21 *221:10 4.46186e-06
26 *187:36 *221:10 0.000330504
27 *187:59 *221:10 0.000429745
28 *189:30 *221:10 0
*RES
1 *741:X *221:10 35.4071 
2 *221:10 *221:14 7.08929 
3 *221:14 *781:B1 13.1571 
4 *221:14 *788:B 9.3 
5 *221:10 *789:A2 17.1929 
*END

*D_NET *222 0.0017304
*CONN
*I *782:A I *D sky130_fd_sc_hd__and2_1
*I *780:A I *D sky130_fd_sc_hd__and2_1
*I *790:B I *D sky130_fd_sc_hd__and2_1
*I *781:A1 I *D sky130_fd_sc_hd__a21o_1
*I *742:X O *D sky130_fd_sc_hd__and2_1
*CAP
1 *782:A 1.74066e-05
2 *780:A 0
3 *790:B 0.00010889
4 *781:A1 0
5 *742:X 0.000151792
6 *222:32 0.00011713
7 *222:21 0.000345537
8 *222:10 0.000288716
9 *782:A *270:32 4.38128e-05
10 *790:B *790:A 5.7661e-06
11 *790:B *270:6 9.80173e-05
12 *790:B *270:32 0.00014285
13 *222:21 *262:10 0
14 *222:32 *270:32 0.000258915
15 *742:B *222:10 5.33334e-05
16 *780:B *222:21 0
17 *869:A *222:10 6.42242e-05
18 *869:A *222:21 3.40128e-05
*RES
1 *742:X *222:10 16.3893 
2 *222:10 *781:A1 13.8 
3 *222:10 *222:21 7.05357 
4 *222:21 *790:B 11.9071 
5 *222:21 *222:32 2.58929 
6 *222:32 *780:A 9.3 
7 *222:32 *782:A 9.83571 
*END

*D_NET *224 0.00228171
*CONN
*I *786:B1 I *D sky130_fd_sc_hd__a21o_1
*I *792:A2 I *D sky130_fd_sc_hd__a21o_1
*I *791:B I *D sky130_fd_sc_hd__and2_1
*I *744:X O *D sky130_fd_sc_hd__a21o_1
*CAP
1 *786:B1 0.000270643
2 *792:A2 0.000184453
3 *791:B 0
4 *744:X 8.67848e-05
5 *224:10 0.00038286
6 *224:6 0.000555834
7 *786:B1 *786:A1 2.89114e-05
8 *786:B1 *265:10 4.87953e-05
9 *792:A2 *793:A 0.000186662
10 *792:A2 *232:14 0
11 *224:10 *232:14 0
12 *744:A1 *786:B1 1.69961e-05
13 *744:A1 *224:6 7.43578e-06
14 *744:A2 *786:B1 0.000139907
15 *744:B1 *224:6 5.62995e-05
16 *752:B *224:10 0
17 *189:30 *224:10 0.000106552
18 *189:43 *792:A2 0.000117378
19 *189:43 *224:10 9.21958e-05
20 *191:10 *224:10 0
21 *191:21 *224:10 0
*RES
1 *744:X *224:6 11.0679 
2 *224:6 *224:10 9.17857 
3 *224:10 *791:B 13.8 
4 *224:10 *792:A2 18.425 
5 *224:6 *786:B1 14.3714 
*END

*D_NET *225 0.000710566
*CONN
*I *930:B I *D sky130_fd_sc_hd__xor2_1
*I *931:B I *D sky130_fd_sc_hd__and2_1
*I *585:X O *D sky130_fd_sc_hd__and2_1
*CAP
1 *930:B 8.78565e-05
2 *931:B 0
3 *585:X 0.000117466
4 *225:10 0.000205323
5 *585:B *225:10 7.33708e-05
6 *930:A *930:B 0.00012943
7 *933:B1 *930:B 9.71197e-05
8 *4:53 *225:10 0
*RES
1 *585:X *225:10 20.2464 
2 *225:10 *931:B 9.3 
3 *225:10 *930:B 11.4964 
*END

*D_NET *226 0.00398146
*CONN
*I *783:A I *D sky130_fd_sc_hd__and2_1
*I *786:A1 I *D sky130_fd_sc_hd__a21o_1
*I *793:B I *D sky130_fd_sc_hd__and2_1
*I *787:A I *D sky130_fd_sc_hd__and2_1
*I *745:X O *D sky130_fd_sc_hd__and2_1
*CAP
1 *783:A 0.000252633
2 *786:A1 0.000210141
3 *793:B 6.71548e-05
4 *787:A 0.000371479
5 *745:X 0
6 *226:32 0.000542031
7 *226:10 0.000619161
8 *226:4 0.000259784
9 *783:A *820:A1 9.80173e-05
10 *783:A *820:B1 0.000232399
11 *783:A *872:B 2.44318e-05
12 *786:A1 *265:10 0.000150625
13 *786:A1 *265:12 2.31791e-05
14 *787:A *279:10 4.88515e-05
15 p[8] *783:A 6.4443e-05
16 *745:A *226:10 7.43578e-06
17 *745:B *226:10 4.72818e-05
18 *745:B *226:32 5.33005e-05
19 *748:A *793:B 0.000225307
20 *748:A *226:10 0.000126439
21 *786:B1 *786:A1 2.89114e-05
22 *872:A *783:A 1.98839e-05
23 *872:A *226:10 1.39841e-05
24 *872:A *226:32 1.98839e-05
25 *187:36 *786:A1 0.000245342
26 *187:59 *786:A1 3.17148e-05
27 *189:43 *793:B 0.000113877
28 *189:43 *226:10 6.97972e-05
29 *191:45 *226:10 1.39726e-05
*RES
1 *745:X *226:4 9.3 
2 *226:4 *226:10 7.91071 
3 *226:10 *787:A 19.675 
4 *226:10 *793:B 16.6571 
5 *226:4 *226:32 1.375 
6 *226:32 *786:A1 23.1214 
7 *226:32 *783:A 14.7821 
*END

*D_NET *228 0.00416167
*CONN
*I *789:B1 I *D sky130_fd_sc_hd__a21o_1
*I *795:A2 I *D sky130_fd_sc_hd__a21o_1
*I *794:B I *D sky130_fd_sc_hd__and2_1
*I *747:X O *D sky130_fd_sc_hd__a21o_1
*CAP
1 *789:B1 0.000368067
2 *795:A2 7.18568e-05
3 *794:B 0
4 *747:X 0.000706183
5 *228:21 0.000562948
6 *228:10 0.000829208
7 *789:B1 *797:A 0.000261858
8 *789:B1 *823:A1 1.24368e-05
9 *789:B1 *229:21 0.000192195
10 *795:A2 *797:A 0.000136951
11 *228:10 *800:A 0
12 *228:10 *839:A2 5.75803e-05
13 *228:10 *229:12 0
14 *228:10 *272:8 0.000125649
15 *228:21 *229:12 0
16 p[10] *228:10 0.000103041
17 *747:B1 *228:10 5.62995e-05
18 *752:B *228:10 6.74911e-05
19 *874:A *228:10 9.25014e-06
20 *874:A *228:21 0.000209483
21 *194:10 *228:10 5.26184e-05
22 *194:32 *228:10 0.00033855
*RES
1 *747:X *228:10 30.9607 
2 *228:10 *794:B 13.8 
3 *228:10 *228:21 7.35714 
4 *228:21 *795:A2 10.6571 
5 *228:21 *789:B1 16.9786 
*END

*D_NET *229 0.00363622
*CONN
*I *790:A I *D sky130_fd_sc_hd__and2_1
*I *788:A I *D sky130_fd_sc_hd__and2_1
*I *789:A1 I *D sky130_fd_sc_hd__a21o_1
*I *797:B I *D sky130_fd_sc_hd__and2_1
*I *748:X O *D sky130_fd_sc_hd__and2_1
*CAP
1 *790:A 0.000182218
2 *788:A 0.000193155
3 *789:A1 0
4 *797:B 0
5 *748:X 0.000364073
6 *229:28 0.000448945
7 *229:21 0.000327943
8 *229:12 0.000618444
9 *788:A *837:B 8.15095e-05
10 *788:A *857:A2 0
11 *788:A *262:10 0
12 *788:A *333:14 0.000150624
13 *790:A *823:A1 1.21258e-05
14 *790:A *270:6 0.000106467
15 *229:12 *874:B 0.00015234
16 *229:12 *327:14 3.97657e-05
17 *229:21 *823:A1 2.77258e-05
18 *229:21 *268:8 5.52302e-05
19 *229:28 *823:A1 2.42547e-05
20 *781:B1 *788:A 4.88637e-05
21 *789:A2 *788:A 0.000197991
22 *789:A2 *229:28 5.52238e-05
23 *789:B1 *229:21 0.000192195
24 *790:B *790:A 5.7661e-06
25 *871:A *229:12 0.000121904
26 *221:14 *788:A 0.000229456
27 *228:10 *229:12 0
28 *228:21 *229:12 0
*RES
1 *748:X *229:12 24.8536 
2 *229:12 *797:B 9.3 
3 *229:12 *229:21 4.66071 
4 *229:21 *789:A1 9.3 
5 *229:21 *229:28 1.35714 
6 *229:28 *788:A 24.1571 
7 *229:28 *790:A 12.7286 
*END

*D_NET *231 0.00190403
*CONN
*I *798:B I *D sky130_fd_sc_hd__and2_1
*I *799:A2 I *D sky130_fd_sc_hd__a21o_1
*I *792:B1 I *D sky130_fd_sc_hd__a21o_1
*I *750:X O *D sky130_fd_sc_hd__a21o_1
*CAP
1 *798:B 6.16945e-05
2 *799:A2 9.08277e-05
3 *792:B1 0.000279196
4 *750:X 8.32968e-05
5 *231:21 0.000238043
6 *231:8 0.000448013
7 *798:B *833:B1 7.61932e-05
8 *798:B *239:23 0.000191059
9 *799:A2 *799:A1 5.52238e-05
10 *799:A2 *799:B1 9.80173e-05
11 *799:A2 *239:23 9.71197e-05
12 *231:21 *239:12 1.52978e-05
13 *754:A1 *799:A2 1.24368e-05
14 *194:32 *231:8 8.15939e-05
15 *194:32 *231:21 7.6021e-05
16 *196:19 *231:21 0
*RES
1 *750:X *231:8 15.7464 
2 *231:8 *792:B1 18.0321 
3 *231:8 *231:21 6.44643 
4 *231:21 *799:A2 11.4964 
5 *231:21 *798:B 11.4964 
*END

*D_NET *232 0.00163981
*CONN
*I *791:A I *D sky130_fd_sc_hd__and2_1
*I *800:B I *D sky130_fd_sc_hd__and2_1
*I *793:A I *D sky130_fd_sc_hd__and2_1
*I *792:A1 I *D sky130_fd_sc_hd__a21o_1
*I *752:X O *D sky130_fd_sc_hd__and2_1
*CAP
1 *791:A 0.00014398
2 *800:B 0
3 *793:A 0.000195073
4 *792:A1 0
5 *752:X 8.71496e-05
6 *232:14 0.000345115
7 *232:8 0.000172427
8 *232:6 0.000253515
9 *791:A *279:10 0.000122091
10 *232:14 *800:A 0.000133797
11 *792:A2 *793:A 0.000186662
12 *792:A2 *232:14 0
13 *189:43 *232:14 0
14 *224:10 *232:14 0
*RES
1 *752:X *232:6 10.6571 
2 *232:6 *232:8 0.428571 
3 *232:8 *232:14 12.1607 
4 *232:14 *792:A1 9.3 
5 *232:14 *793:A 12.7286 
6 *232:8 *800:B 9.3 
7 *232:6 *791:A 12.3 
*END

*D_NET *234 0.00302789
*CONN
*I *801:B I *D sky130_fd_sc_hd__and2_1
*I *802:A2 I *D sky130_fd_sc_hd__a21o_1
*I *795:B1 I *D sky130_fd_sc_hd__a21o_1
*I *754:X O *D sky130_fd_sc_hd__a21o_1
*CAP
1 *801:B 3.16789e-05
2 *802:A2 0
3 *795:B1 0.000281672
4 *754:X 0.000481241
5 *234:21 0.000140713
6 *234:8 0.000871947
7 *801:B *801:A 0.000186669
8 *801:B *836:B1 0.000102207
9 *234:21 *810:B 3.17163e-05
10 *234:21 *242:8 3.92757e-05
11 *234:21 *275:8 0
12 p[12] *234:21 1.50181e-05
13 *755:A *234:8 0
14 *195:23 *234:8 7.38652e-05
15 *196:30 *234:8 0
16 *196:43 *234:8 0
17 *198:25 *234:8 0.000771886
*RES
1 *754:X *234:8 25.4607 
2 *234:8 *795:B1 18.4429 
3 *234:8 *234:21 6.75 
4 *234:21 *802:A2 9.3 
5 *234:21 *801:B 11.0679 
*END

*D_NET *235 0.00215672
*CONN
*I *803:B I *D sky130_fd_sc_hd__and2_1
*I *795:A1 I *D sky130_fd_sc_hd__a21o_1
*I *797:A I *D sky130_fd_sc_hd__and2_1
*I *794:A I *D sky130_fd_sc_hd__and2_1
*I *755:X O *D sky130_fd_sc_hd__and2_1
*CAP
1 *803:B 6.51809e-05
2 *795:A1 0
3 *797:A 0.000196588
4 *794:A 9.19716e-05
5 *755:X 0.000207043
6 *235:33 0.000104159
7 *235:22 0.000350638
8 *794:A *333:14 0.000311183
9 *803:B *275:8 0
10 *235:22 *333:14 5.71472e-05
11 *235:33 *275:8 0
12 p[10] *803:B 6.97972e-05
13 p[10] *235:22 6.5185e-05
14 p[10] *235:33 4.58192e-05
15 *755:B *794:A 9.90367e-05
16 *789:B1 *797:A 0.000261858
17 *795:A2 *797:A 0.000136951
18 *874:A *794:A 9.41642e-05
*RES
1 *755:X *794:A 21.6 
2 *755:X *235:22 15.9786 
3 *235:22 *797:A 18.0321 
4 *235:22 *235:33 1.03571 
5 *235:33 *795:A1 13.8 
6 *235:33 *803:B 15.4429 
*END

*D_NET *236 0.000702464
*CONN
*I *909:B I *D sky130_fd_sc_hd__and2_1
*I *908:B I *D sky130_fd_sc_hd__xor2_1
*I *596:X O *D sky130_fd_sc_hd__and2_1
*CAP
1 *909:B 0.000155811
2 *908:B 0
3 *596:X 4.26671e-05
4 *236:6 0.000198478
5 *596:B *236:6 1.24368e-05
6 *908:A *909:B 5.49544e-05
7 *908:A *236:6 5.33005e-05
8 *3:21 *909:B 9.54364e-05
9 *4:53 *909:B 4.35597e-05
10 *4:53 *236:6 4.58194e-05
*RES
1 *596:X *236:6 10.2464 
2 *236:6 *908:B 9.3 
3 *236:6 *909:B 21.8 
*END

*D_NET *238 0.00307995
*CONN
*I *799:B1 I *D sky130_fd_sc_hd__a21o_1
*I *804:B I *D sky130_fd_sc_hd__and2_1
*I *805:A2 I *D sky130_fd_sc_hd__a21o_1
*I *757:X O *D sky130_fd_sc_hd__a21o_1
*CAP
1 *799:B1 0.000189877
2 *804:B 0
3 *805:A2 7.75375e-05
4 *757:X 0.000137216
5 *238:27 0.000299762
6 *238:12 0.000324639
7 *799:B1 *806:A 0.000126566
8 *799:B1 *806:B 0.000239236
9 *799:B1 *839:B1 0.000214192
10 *799:B1 *239:12 0.000151333
11 *799:B1 *245:19 0.00010096
12 *805:A2 *245:19 3.93247e-05
13 *238:27 *839:B1 0.000227532
14 *238:27 *245:19 0.000320223
15 *757:A2 *238:12 0.00010096
16 *757:B1 *238:12 0
17 *799:A2 *799:B1 9.80173e-05
18 *196:30 *799:B1 0.0002253
19 *196:43 *799:B1 0.000173804
20 *198:25 *238:12 3.34672e-05
*RES
1 *757:X *238:12 20.5857 
2 *238:12 *805:A2 10.675 
3 *238:12 *238:27 3.96429 
4 *238:27 *804:B 9.3 
5 *238:27 *799:B1 26.4071 
*END

*D_NET *239 0.00333121
*CONN
*I *806:B I *D sky130_fd_sc_hd__and2_1
*I *800:A I *D sky130_fd_sc_hd__and2_1
*I *798:A I *D sky130_fd_sc_hd__and2_1
*I *799:A1 I *D sky130_fd_sc_hd__a21o_1
*I *758:X O *D sky130_fd_sc_hd__and2_1
*CAP
1 *806:B 0.000161406
2 *800:A 0.000289803
3 *798:A 0
4 *799:A1 3.7533e-05
5 *758:X 9.65396e-05
6 *239:23 0.000564177
7 *239:12 0.00042273
8 *239:8 0.000368768
9 *800:A *833:B1 0.00018372
10 *800:A *272:8 6.74911e-05
11 *806:B *806:A 5.52302e-05
12 *806:B *839:B1 0.000142856
13 *239:23 *833:B1 2.42662e-05
14 *752:B *800:A 2.8266e-06
15 *758:B *239:8 3.69047e-06
16 *798:B *239:23 0.000191059
17 *799:A2 *799:A1 5.52238e-05
18 *799:A2 *239:23 9.71197e-05
19 *799:B1 *806:B 0.000239236
20 *799:B1 *239:12 0.000151333
21 *189:43 *800:A 0
22 *194:32 *806:B 0
23 *194:32 *239:12 0
24 *196:19 *239:12 4.46186e-06
25 *196:30 *239:12 2.26424e-05
26 *228:10 *800:A 0
27 *231:21 *239:12 1.52978e-05
28 *232:14 *800:A 0.000133797
*RES
1 *758:X *239:8 14.7464 
2 *239:8 *239:12 7.05357 
3 *239:12 *799:A1 9.83571 
4 *239:12 *239:23 4.14286 
5 *239:23 *798:A 9.3 
6 *239:23 *800:A 25.05 
7 *239:8 *806:B 18.3179 
*END

*D_NET *241 0.00218713
*CONN
*I *809:A2 I *D sky130_fd_sc_hd__a21o_1
*I *808:B I *D sky130_fd_sc_hd__and2_1
*I *802:B1 I *D sky130_fd_sc_hd__a21o_1
*I *760:X O *D sky130_fd_sc_hd__a21o_1
*CAP
1 *809:A2 0.000160076
2 *808:B 0
3 *802:B1 0.000279001
4 *760:X 0.000305624
5 *241:21 0.000321909
6 *241:10 0.000746456
7 *802:B1 *836:B1 4.87854e-05
8 *809:A2 *809:A1 0
9 *809:A2 *809:B1 0.000142856
10 *809:A2 *879:B 0.000125731
11 *241:10 *805:B1 2.65105e-05
12 p[13] *809:A2 0
13 p[13] *241:21 0
14 p[14] *809:A2 2.27416e-05
15 *760:B1 *241:10 7.43578e-06
16 *761:A *241:10 0
17 *876:A *241:10 0
18 *876:A *241:21 0
19 *202:10 *241:10 0
20 *202:55 *241:10 0
21 *202:55 *241:21 0
22 *205:14 *809:A2 0
*RES
1 *760:X *241:10 18.8179 
2 *241:10 *802:B1 18.4429 
3 *241:10 *241:21 2.85714 
4 *241:21 *808:B 13.8 
5 *241:21 *809:A2 17.4071 
*END

*D_NET *242 0.0019278
*CONN
*I *803:A I *D sky130_fd_sc_hd__and2_1
*I *810:B I *D sky130_fd_sc_hd__and2_1
*I *801:A I *D sky130_fd_sc_hd__and2_1
*I *802:A1 I *D sky130_fd_sc_hd__a21o_1
*I *761:X O *D sky130_fd_sc_hd__and2_1
*CAP
1 *803:A 8.22627e-05
2 *810:B 0.000175662
3 *801:A 0.000245065
4 *802:A1 0
5 *761:X 3.1815e-05
6 *242:12 0.000206321
7 *242:8 0.000250995
8 *801:A *836:B1 3.30237e-05
9 *803:A *836:B1 0.000229456
10 *810:B *878:B 3.18676e-05
11 *810:B *879:B 3.18676e-05
12 *242:12 *836:B1 1.00073e-05
13 p[12] *810:B 0.000261715
14 p[12] *242:8 8.00806e-05
15 *801:B *801:A 0.000186669
16 *234:21 *810:B 3.17163e-05
17 *234:21 *242:8 3.92757e-05
*RES
1 *761:X *242:8 14.8357 
2 *242:8 *242:12 5.03571 
3 *242:12 *802:A1 9.3 
4 *242:12 *801:A 12.7464 
5 *242:8 *810:B 18.3357 
6 *801:A *803:A 20.7786 
*END

*D_NET *244 0.00164495
*CONN
*I *805:B1 I *D sky130_fd_sc_hd__a21o_1
*I *764:X O *D sky130_fd_sc_hd__a21o_1
*CAP
1 *805:B1 0.00052309
2 *764:X 0.00052309
3 *805:B1 *245:10 8.06427e-05
4 *805:B1 *333:14 3.69047e-06
5 *760:A2 *805:B1 9.90367e-05
6 *760:B1 *805:B1 4.72917e-05
7 *877:A *805:B1 0.000142856
8 *198:25 *805:B1 0.000198738
9 *200:34 *805:B1 0
10 *241:10 *805:B1 2.65105e-05
*RES
1 *764:X *805:B1 38.5643 
*END

*D_NET *245 0.00157475
*CONN
*I *806:A I *D sky130_fd_sc_hd__and2_1
*I *804:A I *D sky130_fd_sc_hd__and2_1
*I *805:A1 I *D sky130_fd_sc_hd__a21o_1
*I *765:X O *D sky130_fd_sc_hd__and2_1
*CAP
1 *806:A 9.87041e-05
2 *804:A 0
3 *805:A1 0
4 *765:X 9.37899e-05
5 *245:19 0.000325197
6 *245:10 0.000320282
7 *806:A *839:B1 1.38323e-05
8 *799:B1 *806:A 0.000126566
9 *799:B1 *245:19 0.00010096
10 *805:A2 *245:19 3.93247e-05
11 *805:B1 *245:10 8.06427e-05
12 *806:B *806:A 5.52302e-05
13 *197:10 *245:10 0
14 *238:27 *245:19 0.000320223
*RES
1 *765:X *245:10 20.2464 
2 *245:10 *805:A1 9.3 
3 *245:10 *245:19 5.07143 
4 *245:19 *804:A 9.3 
5 *245:19 *806:A 11.4786 
*END

*D_NET *247 0.000976776
*CONN
*I *910:B I *D sky130_fd_sc_hd__xor2_1
*I *911:B I *D sky130_fd_sc_hd__and2_1
*I *607:X O *D sky130_fd_sc_hd__and2_1
*CAP
1 *910:B 8.72656e-05
2 *911:B 0
3 *607:X 0.000194749
4 *247:10 0.000282014
5 *910:B *913:B1 0.000127446
6 *901:B *910:B 0
7 *910:A *910:B 0.000125731
8 *914:A *910:B 3.31535e-05
9 *914:A *247:10 0.000126416
*RES
1 *607:X *247:10 16.8 
2 *247:10 *911:B 13.8 
3 *247:10 *910:B 16.3536 
*END

*D_NET *248 0.00119227
*CONN
*I *809:B1 I *D sky130_fd_sc_hd__a21o_1
*I *767:X O *D sky130_fd_sc_hd__a21o_1
*CAP
1 *809:B1 0.000366167
2 *767:X 0.000366167
3 *767:A1 *809:B1 5.52238e-05
4 *809:A2 *809:B1 0.000142856
5 *879:A *809:B1 0.000261858
*RES
1 *767:X *809:B1 25.3143 
*END

*D_NET *249 0.00154186
*CONN
*I *810:A I *D sky130_fd_sc_hd__and2_1
*I *809:A1 I *D sky130_fd_sc_hd__a21o_1
*I *808:A I *D sky130_fd_sc_hd__and2_1
*I *768:X O *D sky130_fd_sc_hd__and2_1
*CAP
1 *810:A 0.000116624
2 *809:A1 7.45788e-05
3 *808:A 0
4 *768:X 3.21849e-05
5 *249:15 0.000256163
6 *249:6 9.71452e-05
7 *810:A *878:B 5.56594e-05
8 *810:A *879:B 0.000353086
9 *249:15 *879:B 0.000227532
10 p[13] *809:A1 3.2534e-05
11 p[13] *810:A 5.33433e-05
12 *768:B *249:15 0
13 *809:A2 *809:A1 0
14 *878:A *810:A 2.44318e-05
15 *878:A *249:6 0.00010096
16 *878:A *249:15 0.000117621
*RES
1 *768:X *249:6 10.2464 
2 *249:6 *808:A 9.3 
3 *249:6 *249:15 2.60714 
4 *249:15 *809:A1 19.6393 
5 *249:15 *810:A 13.1393 
*END

*D_NET *250 0.00169138
*CONN
*I *817:B I *D sky130_fd_sc_hd__and2_1
*I *852:B I *D sky130_fd_sc_hd__and2_1
*I *769:X O *D sky130_fd_sc_hd__and2_1
*CAP
1 *817:B 0.000143485
2 *852:B 0
3 *769:X 0.000531319
4 *250:12 0.000674804
5 *817:B *849:A 3.99614e-06
6 *817:B *852:A 8.60175e-05
7 *250:12 *817:A 0
8 *250:12 *858:A 0.000251754
9 *250:12 *263:10 0
10 *208:80 *817:B 0
*RES
1 *769:X *250:12 26.6036 
2 *250:12 *852:B 9.3 
3 *250:12 *817:B 12.3357 
*END

*D_NET *252 0.00469505
*CONN
*I *868:B I *D sky130_fd_sc_hd__xor2_1
*I *853:B I *D sky130_fd_sc_hd__and2_1
*I *854:A2 I *D sky130_fd_sc_hd__a21o_1
*I *819:B I *D sky130_fd_sc_hd__and2_1
*I *820:A2 I *D sky130_fd_sc_hd__a21o_1
*I *771:X O *D sky130_fd_sc_hd__a21o_1
*CAP
1 *868:B 0.000164184
2 *853:B 9.62835e-06
3 *854:A2 5.9403e-05
4 *819:B 0.000130456
5 *820:A2 0
6 *771:X 0
7 *252:34 0.000329275
8 *252:19 0.000489139
9 *252:10 0.000784704
10 *252:4 0.00085045
11 *819:B *819:A 1.98839e-05
12 *819:B *266:6 1.98839e-05
13 *853:B *853:A 4.27935e-05
14 *853:B *861:A 5.52302e-05
15 *854:A2 *853:A 0.000140933
16 *854:A2 *854:A1 5.52238e-05
17 *854:A2 *861:A 5.52238e-05
18 *252:10 *265:10 0
19 *252:10 *265:12 0
20 *252:19 *265:12 0
21 *252:34 *820:A1 9.11365e-06
22 *252:34 *833:A2 0
23 *252:34 *265:12 0
24 *252:34 *266:23 6.16864e-05
25 *252:34 *314:22 3.5707e-05
26 p[4] *868:B 9.15186e-06
27 p[8] *868:B 0.000139907
28 p[8] *252:10 0.000960573
29 *787:B *819:B 9.71197e-05
30 *787:B *252:19 6.19181e-05
31 *787:B *252:34 1.52978e-05
32 *176:42 *868:B 0
33 *185:49 *252:19 0
34 *185:49 *252:34 0
35 *211:10 *868:B 6.5185e-05
36 *218:23 *252:10 2.88424e-05
37 *218:23 *252:19 4.1331e-06
*RES
1 *771:X *252:4 9.3 
2 *252:4 *252:10 14.6964 
3 *252:10 *820:A2 13.8 
4 *252:10 *252:19 1.94643 
5 *252:19 *819:B 15.9964 
6 *252:19 *252:34 9.78571 
7 *252:34 *854:A2 11.0679 
8 *252:34 *853:B 9.83571 
9 *252:4 *868:B 21.3 
*END

*D_NET *253 0.00152303
*CONN
*I *821:B I *D sky130_fd_sc_hd__and2_1
*I *855:B I *D sky130_fd_sc_hd__and2_1
*I *772:X O *D sky130_fd_sc_hd__and2_1
*CAP
1 *821:B 0
2 *855:B 0.000104701
3 *772:X 0.000505174
4 *253:8 0.000609874
5 *855:B *821:A 0.000144773
6 *779:A *253:8 2.89114e-05
7 *779:B *253:8 0.000129595
*RES
1 *772:X *253:8 17.6571 
2 *253:8 *855:B 11.4786 
3 *253:8 *821:B 9.3 
*END

*D_NET *255 0.00471781
*CONN
*I *869:B I *D sky130_fd_sc_hd__xor2_1
*I *856:B I *D sky130_fd_sc_hd__and2_1
*I *822:B I *D sky130_fd_sc_hd__and2_1
*I *823:A2 I *D sky130_fd_sc_hd__a21o_1
*I *857:A2 I *D sky130_fd_sc_hd__a21o_1
*I *775:X O *D sky130_fd_sc_hd__a21o_1
*CAP
1 *869:B 0
2 *856:B 0.000158116
3 *822:B 1.67089e-05
4 *823:A2 0
5 *857:A2 0.000210714
6 *775:X 0.000836775
7 *255:37 0.000286506
8 *255:33 0.000186006
9 *255:8 0.000973163
10 *822:B *270:32 2.89114e-05
11 *856:B *263:10 0.000128154
12 *856:B *317:18 5.52302e-05
13 *857:A2 *823:A1 0.000175519
14 *857:A2 *837:A 4.72917e-05
15 *857:A2 *837:B 0
16 *857:A2 *857:A1 3.18676e-05
17 *857:A2 *283:19 6.05161e-06
18 *857:A2 *340:12 0.000113887
19 *255:8 *333:14 3.80277e-05
20 *775:A1 *255:33 1.74352e-05
21 *775:A2 *255:33 2.89016e-05
22 *781:A2 *255:8 7.61932e-05
23 *781:B1 *255:8 0.000320024
24 *782:B *822:B 5.33005e-05
25 *782:B *255:37 0
26 *788:A *857:A2 0
27 *789:A2 *857:A2 7.7674e-05
28 *811:B *856:B 0
29 *869:A *255:33 0.000315152
30 *208:37 *255:33 2.89114e-05
31 *208:50 *856:B 1.81709e-05
32 *208:50 *255:37 0.000197991
33 *215:12 *255:8 4.88637e-05
34 *215:12 *255:33 9.90367e-05
35 *221:10 *857:A2 4.1331e-06
36 *221:14 *255:8 0.000139097
*RES
1 *775:X *255:8 20.0143 
2 *255:8 *857:A2 24.2286 
3 *255:8 *823:A2 9.3 
4 *775:X *255:33 12.3 
5 *255:33 *255:37 7.05357 
6 *255:37 *822:B 14.3357 
7 *255:37 *856:B 17.1214 
8 *255:33 *869:B 9.3 
*END

*D_NET *256 0.00095631
*CONN
*I *824:B I *D sky130_fd_sc_hd__and2_1
*I *811:A I *D sky130_fd_sc_hd__and2_1
*I *776:X O *D sky130_fd_sc_hd__and2_1
*CAP
1 *824:B 0
2 *811:A 0.000117067
3 *776:X 0.000135238
4 *256:12 0.000252305
5 *811:A *824:A 0.000223441
6 *811:A *858:B 0.00014285
7 *769:A *256:12 5.35423e-05
8 *782:B *256:12 0
9 *811:B *256:12 0
10 *208:33 *256:12 3.18676e-05
*RES
1 *776:X *256:12 20.7821 
2 *256:12 *811:A 12.8536 
3 *256:12 *824:B 9.3 
*END

*D_NET *258 0.000995235
*CONN
*I *917:A I *D sky130_fd_sc_hd__xor2_1
*I *918:A I *D sky130_fd_sc_hd__and2_1
*I *618:X O *D sky130_fd_sc_hd__and2_1
*CAP
1 *917:A 0.000181662
2 *918:A 0
3 *618:X 0.000147522
4 *258:12 0.000329185
5 *917:A *917:B 8.08939e-05
6 *917:A *918:B 7.22686e-05
7 *618:B *258:12 3.06123e-05
8 *5:94 *258:12 0.000124749
9 *17:25 *917:A 2.83425e-05
*RES
1 *618:X *258:12 20.8893 
2 *258:12 *918:A 9.3 
3 *258:12 *917:A 12.7286 
*END

*D_NET *259 0.00233399
*CONN
*I *813:B1 I *D sky130_fd_sc_hd__a21o_1
*I *826:A2 I *D sky130_fd_sc_hd__a21o_1
*I *825:B I *D sky130_fd_sc_hd__and2_1
*I *778:X O *D sky130_fd_sc_hd__a21o_1
*CAP
1 *813:B1 0.000138377
2 *826:A2 0
3 *825:B 0
4 *778:X 0.000315753
5 *259:25 0.000247005
6 *259:10 0.000424381
7 *813:B1 *826:B1 7.72233e-05
8 *813:B1 *827:A 0.000112489
9 *813:B1 *827:B 0
10 *813:B1 *293:12 0.000273269
11 *259:10 *825:A 1.02504e-05
12 *259:25 *825:A 0.000139465
13 *259:25 *826:A1 4.66511e-05
14 *787:B *259:10 1.33343e-05
15 *176:72 *813:B1 0
16 *215:10 *259:10 0.000279137
17 *215:10 *259:25 0.000199511
18 *216:14 *259:10 0
19 *219:23 *259:10 5.71472e-05
*RES
1 *778:X *259:10 20.8357 
2 *259:10 *825:B 13.8 
3 *259:10 *259:25 8.01786 
4 *259:25 *826:A2 9.3 
5 *259:25 *813:B1 13.5679 
*END

*D_NET *260 0.0022538
*CONN
*I *827:B I *D sky130_fd_sc_hd__and2_1
*I *813:A1 I *D sky130_fd_sc_hd__a21o_1
*I *814:A I *D sky130_fd_sc_hd__and2_1
*I *812:A I *D sky130_fd_sc_hd__and2_1
*I *779:X O *D sky130_fd_sc_hd__and2_1
*CAP
1 *827:B 1.99857e-05
2 *813:A1 8.53312e-05
3 *814:A 0.000140977
4 *812:A 0
5 *779:X 0.000164593
6 *260:30 0.00018203
7 *260:12 0.000256505
8 *260:8 0.000356835
9 *814:A *861:B 5.33433e-05
10 *260:8 *846:A 5.59013e-05
11 *260:8 *861:B 9.99989e-05
12 *260:8 *307:12 0.000173804
13 *260:12 *861:B 9.02232e-05
14 *260:30 *846:A 4.80729e-05
15 *260:30 *861:B 2.94103e-05
16 *812:B *260:12 5.52302e-05
17 *813:B1 *827:B 0
18 *814:B *814:A 5.33005e-05
19 *847:A2 *813:A1 5.52302e-05
20 *176:64 *260:8 0
21 *176:72 *813:A1 0.000118395
22 *176:72 *827:B 1.04232e-05
23 *176:72 *260:12 0.000181803
24 *176:72 *260:30 2.24079e-05
25 *216:14 *260:8 0
*RES
1 *779:X *260:8 17.8714 
2 *260:8 *260:12 7.5 
3 *260:12 *812:A 9.3 
4 *260:12 *814:A 11.8893 
5 *260:8 *260:30 6.17857 
6 *260:30 *813:A1 11.0679 
7 *260:30 *827:B 9.72857 
*END

*D_NET *262 0.00172931
*CONN
*I *816:B1 I *D sky130_fd_sc_hd__a21o_1
*I *828:B I *D sky130_fd_sc_hd__and2_1
*I *830:A2 I *D sky130_fd_sc_hd__a21o_1
*I *781:X O *D sky130_fd_sc_hd__a21o_1
*CAP
1 *816:B1 0
2 *828:B 0
3 *830:A2 0.000120021
4 *781:X 0.000414777
5 *262:12 0.00017293
6 *262:10 0.000467686
7 *830:A2 *830:A1 3.93893e-05
8 *830:A2 *830:B1 0.000101493
9 *830:A2 *276:31 5.71472e-05
10 *830:A2 *296:12 0
11 *262:10 *830:A1 0
12 *262:10 *837:B 0
13 *262:12 *830:B1 0.00010096
14 *262:12 *831:A 0.00014285
15 *262:12 *276:31 8.76257e-05
16 *262:12 *296:12 2.44318e-05
17 *780:B *262:10 0
18 *788:A *262:10 0
19 *222:21 *262:10 0
*RES
1 *781:X *262:10 25.1036 
2 *262:10 *262:12 2.17857 
3 *262:12 *830:A2 21.0857 
4 *262:12 *828:B 9.3 
5 *262:10 *816:B1 9.3 
*END

*D_NET *263 0.00275102
*CONN
*I *817:A I *D sky130_fd_sc_hd__and2_1
*I *815:A I *D sky130_fd_sc_hd__and2_1
*I *816:A1 I *D sky130_fd_sc_hd__a21o_1
*I *831:B I *D sky130_fd_sc_hd__and2_1
*I *782:X O *D sky130_fd_sc_hd__and2_1
*CAP
1 *817:A 0.000134409
2 *815:A 0
3 *816:A1 9.85998e-05
4 *831:B 0
5 *782:X 0.000239041
6 *263:18 0.000314298
7 *263:12 0.000215698
8 *263:10 0.00037345
9 *816:A1 *831:A 2.44318e-05
10 *782:B *263:10 9.80173e-05
11 *816:A2 *816:A1 0.000113089
12 *816:A2 *263:18 0.000485276
13 *856:B *263:10 0.000128154
14 *208:50 *263:10 0.000293422
15 *208:65 *263:10 5.59013e-05
16 *208:80 *817:A 0.000166983
17 *208:80 *263:10 1.02504e-05
18 *250:12 *817:A 0
19 *250:12 *263:10 0
*RES
1 *782:X *263:10 19.1214 
2 *263:10 *263:12 4.5 
3 *263:12 *263:18 5.5 
4 *263:18 *831:B 9.3 
5 *263:18 *816:A1 11.4964 
6 *263:12 *815:A 9.3 
7 *263:10 *817:A 16.5857 
*END

*D_NET *265 0.00259646
*CONN
*I *820:B1 I *D sky130_fd_sc_hd__a21o_1
*I *833:A2 I *D sky130_fd_sc_hd__a21o_1
*I *832:B I *D sky130_fd_sc_hd__and2_1
*I *786:X O *D sky130_fd_sc_hd__a21o_1
*CAP
1 *820:B1 8.25111e-05
2 *833:A2 0.000251984
3 *832:B 0
4 *786:X 0.000167431
5 *265:12 0.000447959
6 *265:10 0.000445917
7 *820:B1 *872:B 0.000144773
8 *833:A2 *833:B1 8.01893e-05
9 *833:A2 *854:B1 6.05161e-06
10 *833:A2 *314:22 0
11 p[8] *820:B1 4.88637e-05
12 *783:A *820:B1 0.000232399
13 *786:A1 *265:10 0.000150625
14 *786:A1 *265:12 2.31791e-05
15 *786:B1 *265:10 4.87953e-05
16 *187:59 *833:A2 0.000119618
17 *187:59 *265:12 0.000346166
18 *252:10 *265:10 0
19 *252:10 *265:12 0
20 *252:19 *265:12 0
21 *252:34 *833:A2 0
22 *252:34 *265:12 0
*RES
1 *786:X *265:10 16.6929 
2 *265:10 *265:12 4.98214 
3 *265:12 *832:B 13.8 
4 *265:12 *833:A2 18.6036 
5 *265:10 *820:B1 16.925 
*END

*D_NET *266 0.00259115
*CONN
*I *819:A I *D sky130_fd_sc_hd__and2_1
*I *821:A I *D sky130_fd_sc_hd__and2_1
*I *834:B I *D sky130_fd_sc_hd__and2_1
*I *820:A1 I *D sky130_fd_sc_hd__a21o_1
*I *787:X O *D sky130_fd_sc_hd__and2_1
*CAP
1 *819:A 8.28584e-05
2 *821:A 0.000120352
3 *834:B 0.00018122
4 *820:A1 0.00018328
5 *787:X 4.73418e-05
6 *266:23 0.000358679
7 *266:8 0.000240386
8 *266:6 0.0001302
9 *821:A *855:A 5.33005e-05
10 *834:B *855:A 0.000271345
11 p[8] *820:A1 9.22103e-06
12 *783:A *820:A1 9.80173e-05
13 *787:B *820:A1 0.00017924
14 *787:B *266:6 5.52238e-05
15 *819:B *819:A 1.98839e-05
16 *819:B *266:6 1.98839e-05
17 *855:B *821:A 0.000144773
18 *185:49 *820:A1 0.000148911
19 *185:49 *266:23 0.000176234
20 *252:34 *820:A1 9.11365e-06
21 *252:34 *266:23 6.16864e-05
*RES
1 *787:X *266:6 10.2464 
2 *266:6 *266:8 4.5 
3 *266:8 *820:A1 17.5143 
4 *266:8 *266:23 6.75 
5 *266:23 *834:B 13.1393 
6 *266:23 *821:A 11.8893 
7 *266:6 *819:A 10.6571 
*END

*D_NET *268 0.00160386
*CONN
*I *835:B I *D sky130_fd_sc_hd__and2_1
*I *836:A2 I *D sky130_fd_sc_hd__a21o_1
*I *823:B1 I *D sky130_fd_sc_hd__a21o_1
*I *789:X O *D sky130_fd_sc_hd__a21o_1
*CAP
1 *835:B 0.000121333
2 *836:A2 0
3 *823:B1 0.000132326
4 *789:X 3.92213e-05
5 *268:21 0.000166107
6 *268:8 0.000216321
7 *823:B1 *333:14 2.89114e-05
8 *823:B1 *340:12 0.00014003
9 *835:B *830:B1 9.71197e-05
10 *835:B *836:A1 4.56437e-05
11 *835:B *878:B 0.000126759
12 *835:B *276:14 1.21258e-05
13 *835:B *340:12 6.07328e-05
14 *268:21 *836:A1 1.02504e-05
15 *268:21 *340:12 6.74911e-05
16 *871:A *823:B1 0.000141366
17 *871:A *835:B 8.47107e-05
18 *871:A *268:21 5.8183e-05
19 *229:21 *268:8 5.52302e-05
*RES
1 *789:X *268:8 14.3357 
2 *268:8 *823:B1 17.8 
3 *268:8 *268:21 1.64286 
4 *268:21 *836:A2 13.8 
5 *268:21 *835:B 17.6036 
*END

*D_NET *269 0.000900781
*CONN
*I *698:A I *D sky130_fd_sc_hd__xor2_1
*I *697:A I *D sky130_fd_sc_hd__and2_1
*I *629:X O *D sky130_fd_sc_hd__and2_1
*CAP
1 *698:A 4.82973e-05
2 *697:A 0.000101122
3 *629:X 0.000121899
4 *269:10 0.000271318
5 *698:B *697:A 0.000140933
6 *698:B *698:A 5.32166e-05
7 *125:12 *269:10 5.35423e-05
8 *130:10 *269:10 0
9 *176:10 *269:10 0
10 *177:12 *697:A 5.52238e-05
11 *177:12 *698:A 5.52302e-05
12 *178:8 *269:10 0
*RES
1 *629:X *269:10 20.55 
2 *269:10 *697:A 11.4964 
3 *269:10 *698:A 10.675 
*END

*D_NET *270 0.00412787
*CONN
*I *824:A I *D sky130_fd_sc_hd__and2_1
*I *822:A I *D sky130_fd_sc_hd__and2_1
*I *837:B I *D sky130_fd_sc_hd__and2_1
*I *823:A1 I *D sky130_fd_sc_hd__a21o_1
*I *790:X O *D sky130_fd_sc_hd__and2_1
*CAP
1 *824:A 0.000259113
2 *822:A 2.23854e-05
3 *837:B 0.000149774
4 *823:A1 0.000210833
5 *790:X 0
6 *270:32 0.000687142
7 *270:6 0.000579932
8 *270:4 0.000624969
9 *823:A1 *340:12 0.000177234
10 *782:A *270:32 4.38128e-05
11 *782:B *824:A 5.41494e-05
12 *782:B *270:32 9.74552e-05
13 *788:A *837:B 8.15095e-05
14 *789:A2 *823:A1 2.89016e-05
15 *789:B1 *823:A1 1.24368e-05
16 *790:A *823:A1 1.21258e-05
17 *790:A *270:6 0.000106467
18 *790:B *270:6 9.80173e-05
19 *790:B *270:32 0.00014285
20 *811:A *824:A 0.000223441
21 *822:B *270:32 2.89114e-05
22 *857:A2 *823:A1 0.000175519
23 *857:A2 *837:B 0
24 *222:32 *270:32 0.000258915
25 *229:21 *823:A1 2.77258e-05
26 *229:28 *823:A1 2.42547e-05
27 *262:10 *837:B 0
*RES
1 *790:X *270:4 9.3 
2 *270:4 *270:6 4.23214 
3 *270:6 *823:A1 23.1393 
4 *270:6 *837:B 21.1571 
5 *270:4 *270:32 7.92857 
6 *270:32 *822:A 9.72857 
7 *270:32 *824:A 14.3714 
*END

*D_NET *272 0.00453376
*CONN
*I *839:A2 I *D sky130_fd_sc_hd__a21o_1
*I *838:B I *D sky130_fd_sc_hd__and2_1
*I *826:B1 I *D sky130_fd_sc_hd__a21o_1
*I *792:X O *D sky130_fd_sc_hd__a21o_1
*CAP
1 *839:A2 0.000109166
2 *838:B 0
3 *826:B1 0.000496213
4 *792:X 0.000174374
5 *272:12 0.000627745
6 *272:8 0.000415072
7 *826:B1 *827:A 0.000109466
8 *826:B1 *841:A 0.000188586
9 *826:B1 *273:14 0.00130032
10 *826:B1 *293:12 0.000127028
11 *826:B1 *320:8 0.000657852
12 *839:A2 *286:19 0
13 *800:A *272:8 6.74911e-05
14 *813:B1 *826:B1 7.72233e-05
15 *228:10 *839:A2 5.75803e-05
16 *228:10 *272:8 0.000125649
*RES
1 *792:X *272:8 18.175 
2 *272:8 *272:12 6.67857 
3 *272:12 *826:B1 26.3 
4 *272:12 *838:B 9.3 
5 *272:8 *839:A2 16.05 
*END

*D_NET *273 0.00497921
*CONN
*I *841:B I *D sky130_fd_sc_hd__and2_1
*I *827:A I *D sky130_fd_sc_hd__and2_1
*I *826:A1 I *D sky130_fd_sc_hd__a21o_1
*I *825:A I *D sky130_fd_sc_hd__and2_1
*I *793:X O *D sky130_fd_sc_hd__and2_1
*CAP
1 *841:B 1.96206e-05
2 *827:A 0.000247502
3 *826:A1 2.24922e-05
4 *825:A 0.000120036
5 *793:X 0.000224708
6 *273:16 0.000142528
7 *273:14 0.000863524
8 *273:10 0.00086035
9 *825:A *847:B1 2.6949e-05
10 *825:A *327:14 4.73566e-05
11 *826:A1 *327:14 1.88048e-05
12 *748:A *841:B 2.84494e-05
13 *748:A *273:10 0.000154124
14 *813:B1 *827:A 0.000112489
15 *826:B1 *827:A 0.000109466
16 *826:B1 *273:14 0.00130032
17 *847:A2 *827:A 9.60939e-05
18 *176:72 *827:A 4.38128e-05
19 *189:43 *841:B 4.73656e-05
20 *189:43 *273:10 0.000296852
21 *259:10 *825:A 1.02504e-05
22 *259:25 *825:A 0.000139465
23 *259:25 *826:A1 4.66511e-05
*RES
1 *793:X *273:10 18.925 
2 *273:10 *273:14 16.9464 
3 *273:14 *273:16 4.5 
4 *273:16 *825:A 16.7107 
5 *273:16 *826:A1 14.5321 
6 *273:14 *827:A 14.4964 
7 *273:10 *841:B 14.5321 
*END

*D_NET *275 0.00412692
*CONN
*I *843:A2 I *D sky130_fd_sc_hd__a21o_1
*I *842:B I *D sky130_fd_sc_hd__and2_1
*I *830:B1 I *D sky130_fd_sc_hd__a21o_1
*I *795:X O *D sky130_fd_sc_hd__a21o_1
*CAP
1 *843:A2 0.000146822
2 *842:B 0
3 *830:B1 0.000515382
4 *795:X 0.000269142
5 *275:12 0.000540124
6 *275:8 0.000440706
7 *830:B1 *830:A1 1.66955e-05
8 *830:B1 *878:B 0.000433056
9 *830:B1 *879:B 0.000718906
10 *830:B1 *276:14 8.20393e-05
11 *830:B1 *276:31 6.03974e-05
12 *830:B1 *289:8 3.4855e-05
13 *830:B1 *296:12 0.000356028
14 *843:A2 *289:14 0
15 *275:12 *878:B 7.03393e-05
16 *275:12 *289:8 0.000142856
17 p[10] *843:A2 0
18 p[10] *275:8 0
19 *803:B *275:8 0
20 *830:A2 *830:B1 0.000101493
21 *835:B *830:B1 9.71197e-05
22 *234:21 *275:8 0
23 *235:33 *275:8 0
24 *262:12 *830:B1 0.00010096
*RES
1 *795:X *275:8 18.175 
2 *275:8 *275:12 5.85714 
3 *275:12 *830:B1 35.2107 
4 *275:12 *842:B 9.3 
5 *275:8 *843:A2 16.05 
*END

*D_NET *276 0.00439698
*CONN
*I *844:B I *D sky130_fd_sc_hd__and2_1
*I *831:A I *D sky130_fd_sc_hd__and2_1
*I *828:A I *D sky130_fd_sc_hd__and2_1
*I *830:A1 I *D sky130_fd_sc_hd__a21o_1
*I *797:X O *D sky130_fd_sc_hd__and2_1
*CAP
1 *844:B 0.000164562
2 *831:A 0.000132754
3 *828:A 0
4 *830:A1 0.000233944
5 *797:X 0.000141176
6 *276:31 0.000221451
7 *276:14 0.00076633
8 *276:8 0.000749427
9 *830:A1 *835:A 0
10 *830:A1 *876:B 0.000183726
11 *830:A1 *296:12 3.92854e-05
12 *830:A1 *340:12 0
13 *844:B *864:A2 0.000186662
14 *844:B *876:B 0.000186662
15 *276:8 *874:B 0.000125724
16 *276:14 *878:B 0.000178847
17 p[9] *844:B 0
18 p[9] *276:8 0
19 *816:A1 *831:A 2.44318e-05
20 *816:A2 *831:A 5.71472e-05
21 *830:A2 *830:A1 3.93893e-05
22 *830:A2 *276:31 5.71472e-05
23 *830:B1 *830:A1 1.66955e-05
24 *830:B1 *276:14 8.20393e-05
25 *830:B1 *276:31 6.03974e-05
26 *835:B *276:14 1.21258e-05
27 *871:A *844:B 0.000241198
28 *871:A *276:8 0.000265385
29 *262:10 *830:A1 0
30 *262:12 *831:A 0.00014285
31 *262:12 *276:31 8.76257e-05
*RES
1 *797:X *276:8 17.2643 
2 *276:8 *276:14 10.4911 
3 *276:14 *830:A1 22.3446 
4 *276:14 *276:31 2.38393 
5 *276:31 *828:A 9.3 
6 *276:31 *831:A 12.3 
7 *276:8 *844:B 18.7286 
*END

*D_NET *278 0.00156651
*CONN
*I *833:B1 I *D sky130_fd_sc_hd__a21o_1
*I *799:X O *D sky130_fd_sc_hd__a21o_1
*CAP
1 *833:B1 0.000601069
2 *799:X 0.000601069
3 *798:B *833:B1 7.61932e-05
4 *800:A *833:B1 0.00018372
5 *833:A2 *833:B1 8.01893e-05
6 *239:23 *833:B1 2.42662e-05
*RES
1 *799:X *833:B1 29.4214 
*END

*D_NET *279 0.00187472
*CONN
*I *833:A1 I *D sky130_fd_sc_hd__a21o_1
*I *834:A I *D sky130_fd_sc_hd__and2_1
*I *832:A I *D sky130_fd_sc_hd__and2_1
*I *800:X O *D sky130_fd_sc_hd__and2_1
*CAP
1 *833:A1 4.70872e-05
2 *834:A 2.79386e-05
3 *832:A 0
4 *800:X 0.00038162
5 *279:14 0.000212278
6 *279:10 0.000613047
7 *748:A *833:A1 7.4826e-05
8 *748:A *279:10 6.74911e-05
9 *787:A *279:10 4.88515e-05
10 *791:A *279:10 0.000122091
11 *221:10 *833:A1 0.000153054
12 *221:10 *279:10 0.000126439
*RES
1 *800:X *279:10 19.675 
2 *279:10 *279:14 7.08929 
3 *279:14 *832:A 9.3 
4 *279:14 *834:A 9.83571 
5 *279:10 *833:A1 15.7464 
*END

*D_NET *280 0.000832542
*CONN
*I *645:A I *D sky130_fd_sc_hd__xor2_1
*I *646:A I *D sky130_fd_sc_hd__and2_1
*I *640:X O *D sky130_fd_sc_hd__and2_1
*CAP
1 *645:A 5.01376e-05
2 *646:A 5.549e-05
3 *640:X 8.57892e-05
4 *280:8 0.000191417
5 *645:A *345:6 5.33005e-05
6 *646:A *646:B 0.000175519
7 *280:8 *646:B 3.17148e-05
8 *629:A *645:A 2.28598e-05
9 *640:B *646:A 9.47456e-05
10 *640:B *280:8 7.15687e-05
11 *648:B1 *280:8 0
*RES
1 *640:X *280:8 15.7464 
2 *280:8 *646:A 16.05 
3 *280:8 *645:A 14.7464 
*END

*D_NET *282 0.00240245
*CONN
*I *836:B1 I *D sky130_fd_sc_hd__a21o_1
*I *802:X O *D sky130_fd_sc_hd__a21o_1
*CAP
1 *836:B1 0.000805299
2 *802:X 0.000805299
3 *836:B1 *857:B1 1.98839e-05
4 *836:B1 *874:B 0.000225192
5 *836:B1 *283:6 2.42547e-05
6 *801:A *836:B1 3.30237e-05
7 *801:B *836:B1 0.000102207
8 *802:B1 *836:B1 4.87854e-05
9 *803:A *836:B1 0.000229456
10 *874:A *836:B1 9.90431e-05
11 *242:12 *836:B1 1.00073e-05
*RES
1 *802:X *836:B1 33.4571 
*END

*D_NET *283 0.0022365
*CONN
*I *837:A I *D sky130_fd_sc_hd__and2_1
*I *835:A I *D sky130_fd_sc_hd__and2_1
*I *836:A1 I *D sky130_fd_sc_hd__a21o_1
*I *803:X O *D sky130_fd_sc_hd__and2_1
*CAP
1 *837:A 9.02175e-05
2 *835:A 9.05441e-05
3 *836:A1 1.92398e-05
4 *803:X 0.000253662
5 *283:19 0.000306552
6 *283:6 0.000398692
7 *835:A *340:12 7.83366e-05
8 *837:A *857:A1 1.32552e-05
9 *837:A *857:B1 0
10 *283:6 *857:B1 0.000180764
11 *283:6 *874:B 0.000249395
12 *283:19 *857:B1 0.00016834
13 p[9] *283:6 0.000144773
14 *830:A1 *835:A 0
15 *835:B *836:A1 4.56437e-05
16 *836:B1 *283:6 2.42547e-05
17 *857:A2 *837:A 4.72917e-05
18 *857:A2 *283:19 6.05161e-06
19 *871:A *836:A1 5.58941e-05
20 *874:A *283:6 5.33433e-05
21 *268:21 *836:A1 1.02504e-05
*RES
1 *803:X *283:6 15.175 
2 *283:6 *836:A1 19.0321 
3 *283:6 *283:19 2.17857 
4 *283:19 *835:A 20.2464 
5 *283:19 *837:A 11.0857 
*END

*D_NET *285 0.00197067
*CONN
*I *839:B1 I *D sky130_fd_sc_hd__a21o_1
*I *805:X O *D sky130_fd_sc_hd__a21o_1
*CAP
1 *839:B1 0.000500486
2 *805:X 0.000500486
3 *839:B1 *286:6 0.000270326
4 *839:B1 *286:19 0.00010096
5 *799:B1 *839:B1 0.000214192
6 *806:A *839:B1 1.38323e-05
7 *806:B *839:B1 0.000142856
8 *238:27 *839:B1 0.000227532
*RES
1 *805:X *839:B1 29.0107 
*END

*D_NET *286 0.0016227
*CONN
*I *841:A I *D sky130_fd_sc_hd__and2_1
*I *838:A I *D sky130_fd_sc_hd__and2_1
*I *839:A1 I *D sky130_fd_sc_hd__a21o_1
*I *806:X O *D sky130_fd_sc_hd__and2_1
*CAP
1 *841:A 6.86241e-05
2 *838:A 0
3 *839:A1 0
4 *806:X 0.000181895
5 *286:19 0.000335067
6 *286:6 0.000448338
7 *286:19 *860:B1 2.89016e-05
8 *826:B1 *841:A 0.000188586
9 *839:A2 *286:19 0
10 *839:B1 *286:6 0.000270326
11 *839:B1 *286:19 0.00010096
12 *189:43 *286:19 0
*RES
1 *806:X *286:6 11.8893 
2 *286:6 *839:A1 9.3 
3 *286:6 *286:19 12.8214 
4 *286:19 *838:A 9.3 
5 *286:19 *841:A 11.0679 
*END

*D_NET *288 0.00135651
*CONN
*I *843:B1 I *D sky130_fd_sc_hd__a21o_1
*I *809:X O *D sky130_fd_sc_hd__a21o_1
*CAP
1 *843:B1 0.000382051
2 *809:X 0.000382051
3 *843:B1 *843:A1 0.00010096
4 *843:B1 *844:A 1.04232e-05
5 *843:B1 *876:B 0.000122055
6 *876:A *843:B1 0.000358971
*RES
1 *809:X *843:B1 26.5464 
*END

*D_NET *289 0.00229248
*CONN
*I *842:A I *D sky130_fd_sc_hd__and2_1
*I *844:A I *D sky130_fd_sc_hd__and2_1
*I *843:A1 I *D sky130_fd_sc_hd__a21o_1
*I *810:X O *D sky130_fd_sc_hd__and2_1
*CAP
1 *842:A 0
2 *844:A 0.000183022
3 *843:A1 9.44054e-05
4 *810:X 9.99646e-05
5 *289:14 0.000391056
6 *289:8 0.000213593
7 *843:A1 *876:B 7.48301e-06
8 *844:A *864:A1 9.90431e-05
9 *844:A *864:A2 4.22908e-05
10 *844:A *864:B1 0.00014183
11 *844:A *876:B 5.91367e-05
12 *289:8 *878:B 0.0001202
13 *289:8 *879:B 0.00049041
14 p[10] *289:14 6.09476e-05
15 *830:B1 *289:8 3.4855e-05
16 *843:A2 *289:14 0
17 *843:B1 *843:A1 0.00010096
18 *843:B1 *844:A 1.04232e-05
19 *275:12 *289:8 0.000142856
*RES
1 *810:X *289:8 14.3714 
2 *289:8 *289:14 10.6429 
3 *289:14 *843:A1 10.6571 
4 *289:14 *844:A 13.5679 
5 *289:8 *842:A 9.3 
*END

*D_NET *290 0.000724849
*CONN
*I *858:B I *D sky130_fd_sc_hd__and2_1
*I *811:X O *D sky130_fd_sc_hd__and2_1
*CAP
1 *858:B 0.000266595
2 *811:X 0.000266595
3 *858:B *845:A 4.88104e-05
4 *811:A *858:B 0.00014285
*RES
1 *811:X *858:B 23.2607 
*END

*D_NET *291 0.000960593
*CONN
*I *604:A I *D sky130_fd_sc_hd__and2_1
*I *603:A I *D sky130_fd_sc_hd__xor2_1
*I *651:X O *D sky130_fd_sc_hd__and2_1
*CAP
1 *604:A 4.98332e-05
2 *603:A 2.04426e-05
3 *651:X 5.2177e-05
4 *291:8 0.000122453
5 *603:A *606:A2 5.33005e-05
6 *606:A1 *603:A 2.59355e-05
7 *11:28 *604:A 0.000175519
8 *11:28 *291:8 0.000148189
9 *13:59 *604:A 0.000164554
10 *13:59 *291:8 0.000148189
*RES
1 *651:X *291:8 15.7464 
2 *291:8 *603:A 14.3357 
3 *291:8 *604:A 16.05 
*END

*D_NET *293 0.0030843
*CONN
*I *870:B I *D sky130_fd_sc_hd__xor2_1
*I *859:B I *D sky130_fd_sc_hd__and2_1
*I *860:A2 I *D sky130_fd_sc_hd__a21o_1
*I *813:X O *D sky130_fd_sc_hd__a21o_1
*CAP
1 *870:B 0
2 *859:B 0
3 *860:A2 0.00022165
4 *813:X 0.000512475
5 *293:16 0.000379772
6 *293:12 0.000670597
7 *860:A2 *860:A1 0.000617886
8 *293:12 *320:23 0
9 *293:16 *860:A1 5.16637e-05
10 *742:A *293:12 2.97756e-05
11 *813:B1 *293:12 0.000273269
12 *826:B1 *293:12 0.000127028
13 *870:A *293:16 3.67257e-05
14 *185:49 *293:12 0.000151333
15 *187:59 *293:16 1.21258e-05
*RES
1 *813:X *293:12 26.1214 
2 *293:12 *293:16 3.01786 
3 *293:16 *860:A2 15.175 
4 *293:16 *859:B 9.3 
5 *293:12 *870:B 9.3 
*END

*D_NET *294 0.000990337
*CONN
*I *861:B I *D sky130_fd_sc_hd__and2_1
*I *814:X O *D sky130_fd_sc_hd__and2_1
*CAP
1 *861:B 0.000265325
2 *814:X 0.000265325
3 *812:B *861:B 5.52302e-05
4 *814:A *861:B 5.33433e-05
5 *846:B *861:B 1.17968e-05
6 *176:64 *861:B 9.56968e-05
7 *176:92 *861:B 2.39876e-05
8 *260:8 *861:B 9.99989e-05
9 *260:12 *861:B 9.02232e-05
10 *260:30 *861:B 2.94103e-05
*RES
1 *814:X *861:B 33.7607 
*END

*D_NET *296 0.00267047
*CONN
*I *863:B I *D sky130_fd_sc_hd__and2_1
*I *871:B I *D sky130_fd_sc_hd__xor2_1
*I *864:A2 I *D sky130_fd_sc_hd__a21o_1
*I *816:X O *D sky130_fd_sc_hd__a21o_1
*CAP
1 *863:B 0
2 *871:B 0
3 *864:A2 0.000116083
4 *816:X 0.000362046
5 *296:16 0.000193372
6 *296:12 0.000439335
7 *864:A2 *864:A1 1.21289e-05
8 *864:A2 *876:B 0.00015582
9 *864:A2 *323:20 0.000188586
10 *296:16 *876:B 0.000361914
11 *296:16 *323:20 0.000192489
12 *830:A1 *296:12 3.92854e-05
13 *830:A2 *296:12 0
14 *830:B1 *296:12 0.000356028
15 *844:A *864:A2 4.22908e-05
16 *844:B *864:A2 0.000186662
17 *871:A *296:12 0
18 *262:12 *296:12 2.44318e-05
*RES
1 *816:X *296:12 23.7643 
2 *296:12 *296:16 3.83929 
3 *296:16 *864:A2 13.55 
4 *296:16 *871:B 9.3 
5 *296:12 *863:B 9.3 
*END

*D_NET *297 0.000216212
*CONN
*I *865:B I *D sky130_fd_sc_hd__and2_1
*I *817:X O *D sky130_fd_sc_hd__and2_1
*CAP
1 *865:B 0.000108106
2 *817:X 0.000108106
*RES
1 *817:X *865:B 29.5464 
*END

*D_NET *299 0.0003332
*CONN
*I *872:B I *D sky130_fd_sc_hd__xor2_1
*I *820:X O *D sky130_fd_sc_hd__a21o_1
*CAP
1 *872:B 5.34241e-05
2 *820:X 5.34241e-05
3 p[8] *872:B 5.71472e-05
4 *783:A *872:B 2.44318e-05
5 *820:B1 *872:B 0.000144773
*RES
1 *820:X *872:B 20.3679 
*END

*D_NET *302 0.000499107
*CONN
*I *932:B I *D sky130_fd_sc_hd__xor2_1
*I *933:A2 I *D sky130_fd_sc_hd__a21o_1
*I *662:X O *D sky130_fd_sc_hd__and2_1
*CAP
1 *932:B 7.95657e-05
2 *933:A2 1.95145e-05
3 *662:X 9.90802e-05
4 *662:B *932:B 0.000147474
5 *729:B *933:A2 2.27416e-05
6 *932:A *932:B 0.000123295
7 *932:A *933:A2 7.43578e-06
8 *4:65 *932:B 0
*RES
1 *662:X *933:A2 19.1357 
2 *662:X *932:B 29.5464 
*END

*D_NET *303 0.00167905
*CONN
*I *874:B I *D sky130_fd_sc_hd__xor2_1
*I *823:X O *D sky130_fd_sc_hd__a21o_1
*CAP
1 *874:B 0.000315936
2 *823:X 0.000315936
3 *874:B *857:B1 5.52238e-05
4 *874:B *333:14 0.00014183
5 *836:B1 *874:B 0.000225192
6 *871:A *874:B 9.7478e-05
7 *874:A *874:B 0
8 *229:12 *874:B 0.00015234
9 *276:8 *874:B 0.000125724
10 *283:6 *874:B 0.000249395
*RES
1 *823:X *874:B 36.5821 
*END

*D_NET *304 0.000540395
*CONN
*I *845:A I *D sky130_fd_sc_hd__and2_1
*I *824:X O *D sky130_fd_sc_hd__and2_1
*CAP
1 *845:A 0.00022404
2 *824:X 0.00022404
3 *769:A *845:A 4.35048e-05
4 *858:B *845:A 4.88104e-05
5 *19:42 *845:A 0
*RES
1 *824:X *845:A 31.0107 
*END

*D_NET *306 0.000378363
*CONN
*I *847:B1 I *D sky130_fd_sc_hd__a21o_1
*I *826:X O *D sky130_fd_sc_hd__a21o_1
*CAP
1 *847:B1 0.000108051
2 *826:X 0.000108051
3 *847:B1 *861:A 5.52302e-05
4 *847:B1 *327:14 8.00806e-05
5 *825:A *847:B1 2.6949e-05
6 *847:A2 *847:B1 0
*RES
1 *826:X *847:B1 30.0821 
*END

*D_NET *307 0.00235035
*CONN
*I *846:A I *D sky130_fd_sc_hd__and2_1
*I *848:A I *D sky130_fd_sc_hd__and2_1
*I *847:A1 I *D sky130_fd_sc_hd__a21o_1
*I *827:X O *D sky130_fd_sc_hd__and2_1
*CAP
1 *846:A 0.000259813
2 *848:A 0.00019632
3 *847:A1 0.000152733
4 *827:X 4.36033e-05
5 *307:12 0.000443013
6 *307:8 0.000397376
7 *847:A1 *861:A 0.000170955
8 *848:A *861:A 2.59355e-05
9 p[6] *846:A 0.000274294
10 *846:B *846:A 5.52302e-05
11 *176:72 *307:8 5.33005e-05
12 *209:8 *846:A 0
13 *216:14 *846:A 0
14 *216:14 *307:12 0
15 *260:8 *846:A 5.59013e-05
16 *260:8 *307:12 0.000173804
17 *260:30 *846:A 4.80729e-05
*RES
1 *827:X *307:8 14.3357 
2 *307:8 *307:12 6.75 
3 *307:12 *847:A1 12.3 
4 *307:12 *848:A 12.3179 
5 *307:8 *846:A 19.55 
*END

*D_NET *309 0.00019119
*CONN
*I *850:B1 I *D sky130_fd_sc_hd__a21o_1
*I *830:X O *D sky130_fd_sc_hd__a21o_1
*CAP
1 *850:B1 6.70213e-05
2 *830:X 6.70213e-05
3 *850:B1 *876:B 5.71472e-05
*RES
1 *830:X *850:B1 19.9571 
*END

*D_NET *310 0.00144669
*CONN
*I *852:A I *D sky130_fd_sc_hd__and2_1
*I *849:A I *D sky130_fd_sc_hd__and2_1
*I *850:A1 I *D sky130_fd_sc_hd__a21o_1
*I *831:X O *D sky130_fd_sc_hd__and2_1
*CAP
1 *852:A 0.000151499
2 *849:A 1.85698e-05
3 *850:A1 9.1313e-05
4 *831:X 8.29479e-05
5 *310:19 0.000285338
6 *310:10 0.00028953
7 *817:B *849:A 3.99614e-06
8 *817:B *852:A 8.60175e-05
9 *850:A2 *850:A1 0.00014285
10 *850:A2 *310:19 0.000186669
11 *208:80 *849:A 5.7661e-06
12 *208:80 *852:A 5.33334e-05
13 *208:80 *310:10 0
14 *208:80 *310:19 4.88637e-05
*RES
1 *831:X *310:10 19.6393 
2 *310:10 *850:A1 11.0679 
3 *310:10 *310:19 2.58929 
4 *310:19 *849:A 9.72857 
5 *310:19 *852:A 12.3179 
*END

*D_NET *312 0.0001737
*CONN
*I *854:B1 I *D sky130_fd_sc_hd__a21o_1
*I *833:X O *D sky130_fd_sc_hd__a21o_1
*CAP
1 *854:B1 8.38241e-05
2 *833:X 8.38241e-05
3 *833:A2 *854:B1 6.05161e-06
*RES
1 *833:X *854:B1 19.9571 
*END

*D_NET *313 0.000710711
*CONN
*I *937:A I *D sky130_fd_sc_hd__xor2_1
*I *938:A I *D sky130_fd_sc_hd__and2_1
*I *674:X O *D sky130_fd_sc_hd__and2_1
*CAP
1 *937:A 9.45937e-05
2 *938:A 0
3 *674:X 9.04722e-06
4 *313:6 0.000103641
5 *937:A *937:B 0.000235013
6 *729:B *937:A 3.9846e-05
7 *729:B *313:6 3.18676e-05
8 *149:8 *937:A 0.000164835
9 *149:8 *313:6 3.18676e-05
*RES
1 *674:X *313:6 9.83571 
2 *313:6 *938:A 9.3 
3 *313:6 *937:A 12.7286 
*END

*D_NET *314 0.00138703
*CONN
*I *853:A I *D sky130_fd_sc_hd__and2_1
*I *854:A1 I *D sky130_fd_sc_hd__a21o_1
*I *855:A I *D sky130_fd_sc_hd__and2_1
*I *834:X O *D sky130_fd_sc_hd__and2_1
*CAP
1 *853:A 0.000126003
2 *854:A1 5.51189e-05
3 *855:A 0.000131376
4 *834:X 0.000200525
5 *314:22 0.000250271
6 *853:A *861:A 2.44318e-05
7 *821:A *855:A 5.33005e-05
8 *833:A2 *314:22 0
9 *834:B *855:A 0.000271345
10 *853:B *853:A 4.27935e-05
11 *854:A2 *853:A 0.000140933
12 *854:A2 *854:A1 5.52238e-05
13 *187:59 *314:22 0
14 *252:34 *314:22 3.5707e-05
*RES
1 *834:X *855:A 21.6 
2 *834:X *314:22 19.6393 
3 *314:22 *854:A1 10.2464 
4 *314:22 *853:A 11.9071 
*END

*D_NET *316 0.000747345
*CONN
*I *857:B1 I *D sky130_fd_sc_hd__a21o_1
*I *836:X O *D sky130_fd_sc_hd__a21o_1
*CAP
1 *857:B1 0.000161566
2 *836:X 0.000161566
3 *836:B1 *857:B1 1.98839e-05
4 *837:A *857:B1 0
5 *874:B *857:B1 5.52238e-05
6 *283:6 *857:B1 0.000180764
7 *283:19 *857:B1 0.00016834
*RES
1 *836:X *857:B1 22.4393 
*END

*D_NET *317 0.00328406
*CONN
*I *858:A I *D sky130_fd_sc_hd__and2_1
*I *856:A I *D sky130_fd_sc_hd__and2_1
*I *857:A1 I *D sky130_fd_sc_hd__a21o_1
*I *837:X O *D sky130_fd_sc_hd__and2_1
*CAP
1 *858:A 0.000379288
2 *856:A 0
3 *857:A1 0.00021111
4 *837:X 0.00091658
5 *317:18 0.00108476
6 *769:A *858:A 9.14882e-05
7 *811:B *858:A 0.000151071
8 *837:A *857:A1 1.32552e-05
9 *856:B *317:18 5.52302e-05
10 *857:A2 *857:A1 3.18676e-05
11 *19:42 *858:A 9.7659e-05
12 *250:12 *858:A 0.000251754
*RES
1 *837:X *857:A1 21.1893 
2 *837:X *317:18 20.925 
3 *317:18 *856:A 9.3 
4 *317:18 *858:A 27.9607 
*END

*D_NET *319 0.000280259
*CONN
*I *860:B1 I *D sky130_fd_sc_hd__a21o_1
*I *839:X O *D sky130_fd_sc_hd__a21o_1
*CAP
1 *860:B1 0.00010559
2 *839:X 0.00010559
3 *860:B1 *340:12 4.01768e-05
4 *286:19 *860:B1 2.89016e-05
*RES
1 *839:X *860:B1 20.7786 
*END

*D_NET *320 0.00513575
*CONN
*I *859:A I *D sky130_fd_sc_hd__and2_1
*I *860:A1 I *D sky130_fd_sc_hd__a21o_1
*I *861:A I *D sky130_fd_sc_hd__and2_1
*I *841:X O *D sky130_fd_sc_hd__and2_1
*CAP
1 *859:A 0
2 *860:A1 0.000246121
3 *861:A 0.000817664
4 *841:X 0.000269251
5 *320:23 0.000386507
6 *320:8 0.0012273
7 *860:A1 *340:12 4.0342e-06
8 *861:A *333:14 0
9 *320:23 *333:14 0
10 *742:A *320:23 5.59013e-05
11 *826:B1 *320:8 0.000657852
12 *847:A1 *861:A 0.000170955
13 *847:B1 *861:A 5.52302e-05
14 *848:A *861:A 2.59355e-05
15 *853:A *861:A 2.44318e-05
16 *853:B *861:A 5.52302e-05
17 *854:A2 *861:A 5.52238e-05
18 *860:A2 *860:A1 0.000617886
19 *870:A *860:A1 1.3701e-05
20 *185:49 *861:A 0
21 *185:49 *320:23 0
22 *187:59 *860:A1 0.00040086
23 *187:59 *861:A 0
24 *293:12 *320:23 0
25 *293:16 *860:A1 5.16637e-05
*RES
1 *841:X *320:8 20.0857 
2 *320:8 *861:A 27.9786 
3 *320:8 *320:23 6.75 
4 *320:23 *860:A1 16.8357 
5 *320:23 *859:A 9.3 
*END

*D_NET *322 0.00027643
*CONN
*I *864:B1 I *D sky130_fd_sc_hd__a21o_1
*I *843:X O *D sky130_fd_sc_hd__a21o_1
*CAP
1 *864:B1 2.92035e-05
2 *843:X 2.92035e-05
3 *864:B1 *876:B 7.61932e-05
4 *844:A *864:B1 0.00014183
*RES
1 *843:X *864:B1 19.9571 
*END

*D_NET *323 0.0030846
*CONN
*I *863:A I *D sky130_fd_sc_hd__and2_1
*I *865:A I *D sky130_fd_sc_hd__and2_1
*I *864:A1 I *D sky130_fd_sc_hd__a21o_1
*I *844:X O *D sky130_fd_sc_hd__and2_1
*CAP
1 *863:A 0
2 *865:A 0.000703057
3 *864:A1 0.000174146
4 *844:X 0.000431831
5 *323:20 0.000960742
6 *864:A1 *876:B 0.000144773
7 *323:20 *876:B 3.30352e-05
8 p[7] *865:A 0
9 p[7] *323:20 0.000144773
10 *844:A *864:A1 9.90431e-05
11 *864:A2 *864:A1 1.21289e-05
12 *864:A2 *323:20 0.000188586
13 *296:16 *323:20 0.000192489
*RES
1 *844:X *864:A1 21.1893 
2 *844:X *323:20 15.6036 
3 *323:20 *865:A 29.7107 
4 *323:20 *863:A 9.3 
*END

*D_NET *324 0.000580098
*CONN
*I *912:B I *D sky130_fd_sc_hd__xor2_1
*I *913:A2 I *D sky130_fd_sc_hd__a21o_1
*I *685:X O *D sky130_fd_sc_hd__and2_1
*CAP
1 *912:B 0.000119831
2 *913:A2 0
3 *685:X 2.23983e-05
4 *324:6 0.00014223
5 *912:B *912:A 6.05161e-06
6 *912:B *913:A1 0.000115043
7 *912:B *913:B1 5.49544e-05
8 *912:B *397:14 0.000103127
9 *324:6 *397:14 1.64616e-05
*RES
1 *685:X *324:6 9.83571 
2 *324:6 *913:A2 9.3 
3 *324:6 *912:B 12.7286 
*END

*D_NET *327 0.00393323
*CONN
*I *875:B I *D sky130_fd_sc_hd__xor2_1
*I *847:X O *D sky130_fd_sc_hd__a21o_1
*CAP
1 *875:B 0
2 *847:X 0.0017486
3 *327:14 0.0017486
4 p[10] *327:14 9.90367e-05
5 *742:B *327:14 5.33334e-05
6 *748:B *327:14 1.98839e-05
7 *825:A *327:14 4.73566e-05
8 *826:A1 *327:14 1.88048e-05
9 *847:A2 *327:14 0
10 *847:B1 *327:14 8.00806e-05
11 *871:A *327:14 7.77652e-05
12 *215:10 *327:14 0
13 *216:14 *327:14 0
14 *229:12 *327:14 3.97657e-05
*RES
1 *847:X *327:14 45.9964 
2 *327:14 *875:B 9.3 
*END

*D_NET *330 0.00342882
*CONN
*I *876:B I *D sky130_fd_sc_hd__xor2_1
*I *850:X O *D sky130_fd_sc_hd__a21o_1
*CAP
1 *876:B 0.000839833
2 *850:X 0.000839833
3 p[11] *876:B 0.000144773
4 p[15] *876:B 0.000186662
5 p[9] *876:B 2.97756e-05
6 *830:A1 *876:B 0.000183726
7 *843:A1 *876:B 7.48301e-06
8 *843:B1 *876:B 0.000122055
9 *844:A *876:B 5.91367e-05
10 *844:B *876:B 0.000186662
11 *850:B1 *876:B 5.71472e-05
12 *864:A1 *876:B 0.000144773
13 *864:A2 *876:B 0.00015582
14 *864:B1 *876:B 7.61932e-05
15 *296:16 *876:B 0.000361914
16 *323:20 *876:B 3.30352e-05
*RES
1 *850:X *876:B 46.975 
*END

*D_NET *333 0.00437015
*CONN
*I *877:B I *D sky130_fd_sc_hd__xor2_1
*I *854:X O *D sky130_fd_sc_hd__a21o_1
*CAP
1 *877:B 0
2 *854:X 0.00158156
3 *333:14 0.00158156
4 p[12] *333:14 0.0001399
5 *742:A *333:14 0
6 *755:B *333:14 4.88637e-05
7 *788:A *333:14 0.000150624
8 *789:A2 *333:14 0
9 *794:A *333:14 0.000311183
10 *805:B1 *333:14 3.69047e-06
11 *823:B1 *333:14 2.89114e-05
12 *861:A *333:14 0
13 *874:B *333:14 0.00014183
14 *187:59 *333:14 0.000265378
15 *221:10 *333:14 0
16 *221:14 *333:14 2.14757e-05
17 *235:22 *333:14 5.71472e-05
18 *255:8 *333:14 3.80277e-05
19 *320:23 *333:14 0
*RES
1 *854:X *333:14 46.4607 
2 *333:14 *877:B 9.3 
*END

*D_NET *335 0.000915964
*CONN
*I *917:B I *D sky130_fd_sc_hd__xor2_1
*I *918:B I *D sky130_fd_sc_hd__and2_1
*I *696:X O *D sky130_fd_sc_hd__and2_1
*CAP
1 *917:B 7.02342e-05
2 *918:B 6.25537e-05
3 *696:X 4.95224e-05
4 *335:10 0.00018231
5 *917:B *920:B1 0.000124296
6 *917:B *393:8 1.19813e-05
7 *918:B *920:B1 5.49995e-05
8 *607:B *335:10 1.46689e-05
9 *917:A *917:B 8.08939e-05
10 *917:A *918:B 7.22686e-05
11 *4:23 *335:10 9.96487e-05
12 *17:25 *918:B 5.49995e-05
13 *17:27 *335:10 3.75868e-05
*RES
1 *696:X *335:10 19.6393 
2 *335:10 *918:B 11.0857 
3 *335:10 *917:B 11.3893 
*END

*D_NET *337 0.00298289
*CONN
*I *878:B I *D sky130_fd_sc_hd__xor2_1
*I *857:X O *D sky130_fd_sc_hd__a21o_1
*CAP
1 *878:B 0.000861991
2 *857:X 0.000861991
3 *878:B *879:B 2.99701e-05
4 *878:B *340:12 0.000100823
5 p[13] *878:B 0.00010096
6 *810:A *878:B 5.56594e-05
7 *810:B *878:B 3.18676e-05
8 *830:B1 *878:B 0.000433056
9 *835:B *878:B 0.000126759
10 *878:A *878:B 1.04232e-05
11 *275:12 *878:B 7.03393e-05
12 *276:14 *878:B 0.000178847
13 *289:8 *878:B 0.0001202
*RES
1 *857:X *878:B 45.5107 
*END

*D_NET *340 0.0071127
*CONN
*I *879:B I *D sky130_fd_sc_hd__xor2_1
*I *860:X O *D sky130_fd_sc_hd__a21o_1
*CAP
1 *879:B 0.00145168
2 *860:X 0.000617969
3 *340:12 0.00206965
4 p[13] *879:B 0
5 *748:A *340:12 6.42338e-05
6 *809:A2 *879:B 0.000125731
7 *810:A *879:B 0.000353086
8 *810:B *879:B 3.18676e-05
9 *823:A1 *340:12 0.000177234
10 *823:B1 *340:12 0.00014003
11 *830:A1 *340:12 0
12 *830:B1 *879:B 0.000718906
13 *835:A *340:12 7.83366e-05
14 *835:B *340:12 6.07328e-05
15 *857:A2 *340:12 0.000113887
16 *860:A1 *340:12 4.0342e-06
17 *860:B1 *340:12 4.01768e-05
18 *871:A *340:12 0
19 *878:B *879:B 2.99701e-05
20 *878:B *340:12 0.000100823
21 *189:43 *340:12 0.000148911
22 *205:14 *879:B 0
23 *221:10 *340:12 0
24 *249:15 *879:B 0.000227532
25 *268:21 *340:12 6.74911e-05
26 *289:8 *879:B 0.00049041
*RES
1 *860:X *340:12 32.3357 
2 *340:12 *879:B 39.675 
*END

*D_NET *344 0.000817275
*CONN
*I *923:A I *D sky130_fd_sc_hd__xor2_1
*I *924:A I *D sky130_fd_sc_hd__and2_1
*I *707:X O *D sky130_fd_sc_hd__and2_1
*CAP
1 *923:A 5.20407e-05
2 *924:A 0.000167389
3 *707:X 3.26382e-05
4 *344:10 0.000252068
5 *923:A *923:B 6.05161e-06
6 *923:A *924:B 0
7 *924:A *923:B 1.98839e-05
8 *924:A *924:B 8.06843e-05
9 *344:10 *351:10 0.00010326
10 *18:27 *344:10 0.00010326
*RES
1 *707:X *344:10 19.6393 
2 *344:10 *924:A 11.9071 
3 *344:10 *923:A 10.2643 
*END

*D_NET *345 0.000998235
*CONN
*I *645:B I *D sky130_fd_sc_hd__xor2_1
*I *646:B I *D sky130_fd_sc_hd__and2_1
*I *718:X O *D sky130_fd_sc_hd__and2_1
*CAP
1 *645:B 0
2 *646:B 0.000132878
3 *718:X 0.000103
4 *345:6 0.000235878
5 *629:A *345:6 0.000178847
6 *645:A *345:6 5.33005e-05
7 *646:A *646:B 0.000175519
8 *648:B1 *646:B 0
9 *673:B *646:B 5.52302e-05
10 *12:76 *646:B 3.18676e-05
11 *134:8 *646:B 0
12 *280:8 *646:B 3.17148e-05
*RES
1 *718:X *345:6 11.4786 
2 *345:6 *646:B 21.3893 
3 *345:6 *645:B 9.3 
*END

*D_NET *346 0.00131219
*CONN
*I *604:B I *D sky130_fd_sc_hd__and2_1
*I *603:B I *D sky130_fd_sc_hd__xor2_1
*I *729:X O *D sky130_fd_sc_hd__and2_1
*CAP
1 *604:B 0.000164323
2 *603:B 0
3 *729:X 0.000228196
4 *346:10 0.000392519
5 *606:B1 *604:B 0
6 *654:A *604:B 0
7 *807:A *346:10 0
8 *5:40 *346:10 6.65398e-05
9 *5:57 *346:10 7.50601e-05
10 *6:76 *604:B 0
11 *11:28 *346:10 1.69115e-05
12 *13:59 *604:B 0.000197984
13 *13:59 *346:10 0.000170661
14 *90:8 *604:B 0
*RES
1 *729:X *346:10 18.4071 
2 *346:10 *603:B 13.8 
3 *346:10 *604:B 16.8893 
*END

*D_NET *347 0.00127231
*CONN
*I *935:A I *D sky130_fd_sc_hd__and2_1
*I *934:A I *D sky130_fd_sc_hd__xor2_1
*I *740:X O *D sky130_fd_sc_hd__and2_1
*CAP
1 *935:A 0.00012165
2 *934:A 0
3 *740:X 0.000130313
4 *347:12 0.000251963
5 *935:A *935:B 0.00027532
6 *12:61 *935:A 0.000368053
7 *97:12 *347:12 0.00012501
*RES
1 *740:X *347:12 20.4786 
2 *347:12 *934:A 9.3 
3 *347:12 *935:A 14.0857 
*END

*D_NET *348 0.000957335
*CONN
*I *938:B I *D sky130_fd_sc_hd__and2_1
*I *937:B I *D sky130_fd_sc_hd__xor2_1
*I *751:X O *D sky130_fd_sc_hd__and2_1
*CAP
1 *938:B 3.66151e-05
2 *937:B 8.07834e-05
3 *751:X 7.89863e-05
4 *348:8 0.000196385
5 *729:B *937:B 0.000266479
6 *937:A *937:B 0.000235013
7 *12:5 *348:8 0
8 *13:13 *938:B 0
9 *14:24 *938:B 1.65758e-05
10 *14:24 *348:8 3.25247e-05
11 *149:8 *937:B 1.39726e-05
*RES
1 *751:X *348:8 15.1393 
2 *348:8 *937:B 16.8179 
3 *348:8 *938:B 14.5321 
*END

*D_NET *349 0.000490644
*CONN
*I *915:A I *D sky130_fd_sc_hd__xor2_1
*I *916:A I *D sky130_fd_sc_hd__and2_1
*I *762:X O *D sky130_fd_sc_hd__and2_1
*CAP
1 *915:A 0.000109069
2 *916:A 8.66145e-06
3 *762:X 0.000117731
4 *915:A *916:B 5.85031e-05
5 *915:A *356:8 1.17968e-05
6 *915:A *385:6 2.89114e-05
7 *916:A *386:6 5.71472e-05
8 *6:42 *916:A 2.27416e-05
9 *15:37 *915:A 4.51009e-05
10 *15:39 *915:A 3.09814e-05
*RES
1 *762:X *916:A 19.1357 
2 *762:X *915:A 30.0821 
*END

*D_NET *350 0.000348651
*CONN
*I *919:B I *D sky130_fd_sc_hd__xor2_1
*I *920:A2 I *D sky130_fd_sc_hd__a21o_1
*I *773:X O *D sky130_fd_sc_hd__and2_1
*CAP
1 *919:B 6.55281e-05
2 *920:A2 1.97813e-05
3 *773:X 8.53094e-05
4 *919:B *920:A1 6.44649e-05
5 *6:19 *920:A2 5.66971e-05
6 *14:78 *919:B 8.08608e-06
7 *16:69 *919:B 4.87841e-05
*RES
1 *773:X *920:A2 19.1357 
2 *773:X *919:B 29.5464 
*END

*D_NET *351 0.000681165
*CONN
*I *923:B I *D sky130_fd_sc_hd__xor2_1
*I *924:B I *D sky130_fd_sc_hd__and2_1
*I *785:X O *D sky130_fd_sc_hd__and2_1
*CAP
1 *923:B 3.13685e-05
2 *924:B 9.62732e-05
3 *785:X 5.63586e-05
4 *351:10 0.000184
5 *923:A *923:B 6.05161e-06
6 *923:A *924:B 0
7 *924:A *923:B 1.98839e-05
8 *924:A *924:B 8.06843e-05
9 *7:25 *351:10 7.83366e-05
10 *18:27 *351:10 2.49484e-05
11 *344:10 *351:10 0.00010326
*RES
1 *785:X *351:10 20.2464 
2 *351:10 *924:B 11.0857 
3 *351:10 *923:B 9.83571 
*END

*D_NET *352 0.000817758
*CONN
*I *588:A I *D sky130_fd_sc_hd__xor2_1
*I *589:A I *D sky130_fd_sc_hd__and2_1
*I *796:X O *D sky130_fd_sc_hd__and2_1
*CAP
1 *588:A 4.81531e-05
2 *589:A 0.000167389
3 *796:X 3.26382e-05
4 *352:10 0.00024818
5 *588:A *588:B 6.05161e-06
6 *588:A *589:B 0
7 *589:A *588:B 1.98839e-05
8 *589:A *589:B 8.06843e-05
9 *352:10 *359:10 0.00010326
10 *591:B1 *588:A 8.25843e-06
11 *18:21 *352:10 0.00010326
*RES
1 *796:X *352:10 19.6393 
2 *352:10 *589:A 11.9071 
3 *352:10 *588:A 10.2643 
*END

*D_NET *353 0.00196515
*CONN
*I *605:B I *D sky130_fd_sc_hd__xor2_1
*I *606:A2 I *D sky130_fd_sc_hd__a21o_1
*I *807:X O *D sky130_fd_sc_hd__and2_1
*CAP
1 *605:B 4.92197e-05
2 *606:A2 0.000200377
3 *807:X 0.000317328
4 *353:10 0.000566925
5 *603:A *606:A2 5.33005e-05
6 *605:A *605:B 0.000153054
7 *605:A *606:A2 6.05161e-06
8 *605:A *353:10 5.66157e-05
9 *606:A1 *606:A2 0.000109671
10 *5:57 *605:B 1.41029e-05
11 *5:57 *353:10 2.16719e-05
12 *11:28 *605:B 9.12446e-05
13 *11:28 *353:10 0.000132377
14 *13:46 *353:10 0.000139907
15 *13:59 *353:10 5.33005e-05
*RES
1 *807:X *353:10 19.7643 
2 *353:10 *606:A2 17.3536 
3 *353:10 *605:B 16.05 
*END

*D_NET *354 0.0011276
*CONN
*I *935:B I *D sky130_fd_sc_hd__and2_1
*I *934:B I *D sky130_fd_sc_hd__xor2_1
*I *818:X O *D sky130_fd_sc_hd__and2_1
*CAP
1 *935:B 0.000172023
2 *934:B 0
3 *818:X 3.09601e-05
4 *354:6 0.000202983
5 *935:A *935:B 0.00027532
6 *12:57 *935:B 0
7 *12:61 *935:B 1.02936e-05
8 *12:61 *354:6 9.60875e-05
9 *40:12 *935:B 0.000312215
10 *40:12 *354:6 2.77143e-05
*RES
1 *818:X *354:6 10.2464 
2 *354:6 *934:B 9.3 
3 *354:6 *935:B 14.2821 
*END

*D_NET *355 0.000527984
*CONN
*I *939:B I *D sky130_fd_sc_hd__xor2_1
*I *940:A2 I *D sky130_fd_sc_hd__a21o_1
*I *829:X O *D sky130_fd_sc_hd__and2_1
*CAP
1 *939:B 0
2 *940:A2 4.46348e-05
3 *829:X 8.19398e-05
4 *355:10 0.000126575
5 *939:A *940:A2 5.73295e-05
6 *4:53 *355:10 0.000121418
7 *6:61 *940:A2 9.60875e-05
8 *13:46 *355:10 0
*RES
1 *829:X *355:10 19.9429 
2 *355:10 *940:A2 10.675 
3 *355:10 *939:B 9.3 
*END

*D_NET *356 0.000668053
*CONN
*I *915:B I *D sky130_fd_sc_hd__xor2_1
*I *916:B I *D sky130_fd_sc_hd__and2_1
*I *840:X O *D sky130_fd_sc_hd__and2_1
*CAP
1 *915:B 0
2 *916:B 0.000143754
3 *840:X 7.71524e-05
4 *356:8 0.000220907
5 *916:B *386:6 2.89114e-05
6 *916:B *392:8 3.71391e-05
7 *356:8 *392:8 5.80217e-05
8 *674:B *916:B 0
9 *915:A *916:B 5.85031e-05
10 *915:A *356:8 1.17968e-05
11 *6:42 *916:B 3.18676e-05
12 *12:20 *916:B 0
13 *15:37 *356:8 0
14 *15:39 *916:B 0
*RES
1 *840:X *356:8 15.7464 
2 *356:8 *916:B 16.8893 
3 *356:8 *915:B 13.8 
*END

*D_NET *357 0.000654959
*CONN
*I *922:A I *D sky130_fd_sc_hd__and2_1
*I *921:A I *D sky130_fd_sc_hd__xor2_1
*I *851:X O *D sky130_fd_sc_hd__and2_1
*CAP
1 *922:A 0
2 *921:A 0.000109811
3 *851:X 4.03476e-05
4 *357:6 0.000150158
5 *921:A *584:A 5.52302e-05
6 *921:A *584:B 9.71197e-05
7 *921:A *396:10 1.78447e-05
8 *921:A *398:10 6.09476e-05
9 *707:A *921:A 0
10 *5:94 *921:A 4.57352e-05
11 *7:33 *357:6 5.62995e-05
12 *16:47 *921:A 2.14658e-05
*RES
1 *851:X *357:6 10.2464 
2 *357:6 *921:A 21.4964 
3 *357:6 *922:A 9.3 
*END

*D_NET *358 0.000656211
*CONN
*I *926:B I *D sky130_fd_sc_hd__xor2_1
*I *927:A2 I *D sky130_fd_sc_hd__a21o_1
*I *862:X O *D sky130_fd_sc_hd__and2_1
*CAP
1 *926:B 6.87556e-05
2 *927:A2 0
3 *862:X 8.97099e-05
4 *358:12 0.000158466
5 *926:B *926:A 5.12869e-05
6 *926:B *927:A1 5.33005e-05
7 *358:12 *399:12 3.17148e-05
8 *358:12 *402:16 0.000127446
9 *862:B *358:12 2.89114e-05
10 *16:47 *358:12 4.66203e-05
*RES
1 *862:X *358:12 20.4786 
2 *358:12 *927:A2 9.3 
3 *358:12 *926:B 10.675 
*END

*D_NET *359 0.000694306
*CONN
*I *588:B I *D sky130_fd_sc_hd__xor2_1
*I *589:B I *D sky130_fd_sc_hd__and2_1
*I *873:X O *D sky130_fd_sc_hd__and2_1
*CAP
1 *588:B 2.01984e-05
2 *589:B 8.51072e-05
3 *873:X 5.63586e-05
4 *359:10 0.000161664
5 *588:A *588:B 6.05161e-06
6 *588:A *589:B 0
7 *589:A *588:B 1.98839e-05
8 *589:A *589:B 8.06843e-05
9 *591:B1 *588:B 2.89114e-05
10 *591:B1 *589:B 2.89016e-05
11 *8:25 *359:10 7.83366e-05
12 *18:21 *359:10 2.49484e-05
13 *352:10 *359:10 0.00010326
*RES
1 *873:X *359:10 20.2464 
2 *359:10 *589:B 11.0857 
3 *359:10 *588:B 9.83571 
*END

*D_NET *360 0.000521262
*CONN
*I *598:A I *D sky130_fd_sc_hd__and2_1
*I *597:A I *D sky130_fd_sc_hd__xor2_1
*I *880:X O *D sky130_fd_sc_hd__and2_1
*CAP
1 *598:A 0
2 *597:A 8.32604e-05
3 *880:X 3.79164e-05
4 *360:6 0.000121177
5 *597:A *598:B 0.000177948
6 *18:11 *597:A 0
7 *18:21 *360:6 0.00010096
*RES
1 *880:X *360:6 10.2464 
2 *360:6 *597:A 20.55 
3 *360:6 *598:A 9.3 
*END

*D_NET *361 0.00112681
*CONN
*I *608:A I *D sky130_fd_sc_hd__xor2_1
*I *609:A I *D sky130_fd_sc_hd__and2_1
*I *882:X O *D sky130_fd_sc_hd__and2_1
*CAP
1 *608:A 0.000195498
2 *609:A 0
3 *882:X 0.000267313
4 *361:12 0.00046281
5 *608:A *608:B 0.000195638
6 *361:12 *404:12 5.54817e-06
*RES
1 *882:X *361:12 21.7107 
2 *361:12 *609:A 9.3 
3 *361:12 *608:A 13.1571 
*END

*D_NET *362 0.000697251
*CONN
*I *941:A I *D sky130_fd_sc_hd__xor2_1
*I *942:A I *D sky130_fd_sc_hd__and2_1
*I *883:X O *D sky130_fd_sc_hd__and2_1
*CAP
1 *941:A 8.41235e-05
2 *942:A 0
3 *883:X 9.04722e-06
4 *362:6 9.31707e-05
5 *941:A *941:B 0.000237956
6 *818:A *941:A 3.9846e-05
7 *818:A *362:6 3.18676e-05
8 *12:57 *941:A 0.000169373
9 *12:57 *362:6 3.18676e-05
*RES
1 *883:X *362:6 9.83571 
2 *362:6 *942:A 9.3 
3 *362:6 *941:A 12.7286 
*END

*D_NET *363 0.00082252
*CONN
*I *945:A I *D sky130_fd_sc_hd__xor2_1
*I *946:A I *D sky130_fd_sc_hd__and2_1
*I *884:X O *D sky130_fd_sc_hd__and2_1
*CAP
1 *945:A 0.000144948
2 *946:A 0
3 *884:X 0.000119959
4 *363:10 0.000264907
5 *945:A *946:B 0.000182628
6 *884:A *363:10 0
7 *8:48 *945:A 1.39841e-05
8 *8:67 *945:A 9.60939e-05
9 *8:67 *363:10 0
10 *10:42 *363:10 0
11 *12:46 *945:A 0
*RES
1 *884:X *363:10 20.2464 
2 *363:10 *946:A 9.3 
3 *363:10 *945:A 12.7464 
*END

*D_NET *364 0.00072345
*CONN
*I *921:B I *D sky130_fd_sc_hd__xor2_1
*I *922:B I *D sky130_fd_sc_hd__and2_1
*I *885:X O *D sky130_fd_sc_hd__and2_1
*CAP
1 *921:B 0.000113858
2 *922:B 5.26269e-05
3 *885:X 0.000166485
4 *921:B *583:B 5.66157e-05
5 *921:B *584:B 6.05161e-06
6 *921:B *396:10 9.91086e-05
7 *922:B *398:10 2.89016e-05
8 *685:A *921:B 2.08721e-05
9 *7:33 *922:B 7.61932e-05
10 *14:89 *921:B 4.94362e-05
11 *16:47 *921:B 5.33005e-05
*RES
1 *885:X *922:B 19.9571 
2 *885:X *921:B 30.0821 
*END

*D_NET *365 0.00111046
*CONN
*I *579:A I *D sky130_fd_sc_hd__xor2_1
*I *580:A I *D sky130_fd_sc_hd__and2_1
*I *886:X O *D sky130_fd_sc_hd__and2_1
*CAP
1 *579:A 7.86048e-05
2 *580:A 8.93879e-05
3 *886:X 0.000182194
4 *365:12 0.000350187
5 *579:A *579:B 9.58181e-05
6 *579:A *580:B 6.06083e-05
7 *580:A *580:B 4.75972e-05
8 *886:A *365:12 0.000140882
9 *68:10 *365:12 6.5185e-05
*RES
1 *886:X *365:12 21.3 
2 *365:12 *580:A 11.0679 
3 *365:12 *579:A 11.0857 
*END

*D_NET *366 0.00060474
*CONN
*I *590:B I *D sky130_fd_sc_hd__xor2_1
*I *591:A2 I *D sky130_fd_sc_hd__a21o_1
*I *887:X O *D sky130_fd_sc_hd__and2_1
*CAP
1 *590:B 0.000166852
2 *591:A2 2.17274e-05
3 *887:X 2.91823e-05
4 *366:6 0.000217762
5 *590:A *590:B 5.96516e-05
6 *591:A1 *590:B 7.32173e-05
7 *887:B *590:B 1.39841e-05
8 *887:B *591:A2 3.08382e-06
9 *887:B *366:6 1.92789e-05
*RES
1 *887:X *366:6 9.83571 
2 *366:6 *591:A2 9.72857 
3 *366:6 *590:B 12.3 
*END

*D_NET *367 0.000724366
*CONN
*I *598:B I *D sky130_fd_sc_hd__and2_1
*I *597:B I *D sky130_fd_sc_hd__xor2_1
*I *888:X O *D sky130_fd_sc_hd__and2_1
*CAP
1 *598:B 0.000115473
2 *597:B 0
3 *888:X 5.63185e-05
4 *367:6 0.000171791
5 *597:A *598:B 0.000177948
6 *10:15 *598:B 0.000202835
7 *18:11 *598:B 0
*RES
1 *888:X *367:6 10.2464 
2 *367:6 *597:B 9.3 
3 *367:6 *598:B 21.8 
*END

*D_NET *368 0.000626473
*CONN
*I *639:A I *D sky130_fd_sc_hd__and2_1
*I *638:A I *D sky130_fd_sc_hd__xor2_1
*I *889:X O *D sky130_fd_sc_hd__and2_1
*CAP
1 *639:A 0.000115559
2 *638:A 0
3 *889:X 8.179e-05
4 *368:8 0.000197349
5 *639:A *638:B 0.000175512
6 *639:A *642:A2 0
7 *639:A *382:10 0
8 *368:8 *382:10 0
9 *642:A1 *639:A 0
10 *10:9 *368:8 0
11 *10:85 *368:8 0
12 *17:93 *639:A 1.37022e-05
13 *17:93 *368:8 4.25599e-05
*RES
1 *889:X *368:8 15.4429 
2 *368:8 *638:A 13.8 
3 *368:8 *639:A 16.6571 
*END

*D_NET *369 0.00110391
*CONN
*I *942:B I *D sky130_fd_sc_hd__and2_1
*I *941:B I *D sky130_fd_sc_hd__xor2_1
*I *890:X O *D sky130_fd_sc_hd__and2_1
*CAP
1 *942:B 2.75224e-05
2 *941:B 6.5708e-05
3 *890:X 0.000101919
4 *369:10 0.00019515
5 *666:B1 *942:B 5.59013e-05
6 *666:B1 *369:10 9.91086e-05
7 *818:A *941:B 0.000271345
8 *882:A *942:B 0
9 *882:A *369:10 3.18676e-05
10 *941:A *941:B 0.000237956
11 *8:67 *942:B 0
12 *12:57 *941:B 1.74352e-05
*RES
1 *890:X *369:10 15.675 
2 *369:10 *941:B 16.8179 
3 *369:10 *942:B 14.5321 
*END

*D_NET *370 0.000779907
*CONN
*I *945:B I *D sky130_fd_sc_hd__xor2_1
*I *946:B I *D sky130_fd_sc_hd__and2_1
*I *891:X O *D sky130_fd_sc_hd__and2_1
*CAP
1 *945:B 0
2 *946:B 0.000108894
3 *891:X 5.27743e-05
4 *370:6 0.000161668
5 *818:A *946:B 6.05161e-06
6 *818:A *370:6 9.16074e-05
7 *945:A *946:B 0.000182628
8 *8:48 *946:B 9.4397e-05
9 *8:67 *946:B 1.74352e-05
10 *8:67 *370:6 6.44515e-05
*RES
1 *891:X *370:6 11.0679 
2 *370:6 *946:B 12.4429 
3 *370:6 *945:B 9.3 
*END

*D_NET *371 0.0011685
*CONN
*I *570:A I *D sky130_fd_sc_hd__xor2_1
*I *571:A I *D sky130_fd_sc_hd__and2_1
*I *893:X O *D sky130_fd_sc_hd__and2_1
*CAP
1 *570:A 0.000103468
2 *571:A 0
3 *893:X 0.000216465
4 *371:12 0.000319933
5 *570:A *571:B 0.000154727
6 *570:A *395:6 0.000311277
7 *914:A *371:12 3.6337e-05
8 *3:34 *371:12 2.62951e-05
*RES
1 *893:X *371:12 21.3 
2 *371:12 *571:A 9.3 
3 *371:12 *570:A 12.7286 
*END

*D_NET *372 0.000870104
*CONN
*I *579:B I *D sky130_fd_sc_hd__xor2_1
*I *580:B I *D sky130_fd_sc_hd__and2_1
*I *894:X O *D sky130_fd_sc_hd__and2_1
*CAP
1 *579:B 0.000109928
2 *580:B 8.8167e-05
3 *894:X 3.742e-05
4 *372:10 0.000235515
5 *579:A *579:B 9.58181e-05
6 *579:A *580:B 6.06083e-05
7 *580:A *580:B 4.75972e-05
8 *582:B1 *372:10 8.00806e-05
9 *65:8 *579:B 1.17091e-05
10 *68:10 *372:10 0.00010326
*RES
1 *894:X *372:10 19.6393 
2 *372:10 *580:B 11.0857 
3 *372:10 *579:B 11.3893 
*END

*D_NET *373 0.000764735
*CONN
*I *593:A I *D sky130_fd_sc_hd__and2_1
*I *592:A I *D sky130_fd_sc_hd__xor2_1
*I *895:X O *D sky130_fd_sc_hd__and2_1
*CAP
1 *593:A 0.000104103
2 *592:A 0
3 *895:X 9.70993e-05
4 *373:10 0.000201202
5 *593:A *593:B 9.56968e-05
6 *373:10 *593:B 1.41029e-05
7 *373:10 *380:8 6.42338e-05
8 *634:B *593:A 0
9 *9:38 *373:10 3.18676e-05
10 *10:23 *593:A 7.57869e-05
11 *10:23 *373:10 8.06427e-05
12 *76:10 *593:A 0
*RES
1 *895:X *373:10 16.2821 
2 *373:10 *592:A 13.8 
3 *373:10 *593:A 16.5857 
*END

*D_NET *374 0.000422883
*CONN
*I *600:A2 I *D sky130_fd_sc_hd__a21o_1
*I *599:B I *D sky130_fd_sc_hd__xor2_1
*I *896:X O *D sky130_fd_sc_hd__and2_1
*CAP
1 *600:A2 5.31446e-05
2 *599:B 0
3 *896:X 7.77349e-05
4 *374:10 0.000130879
5 *599:A *600:A2 0.000115379
6 *81:12 *374:10 4.57445e-05
7 *120:10 *374:10 0
*RES
1 *896:X *374:10 19.9429 
2 *374:10 *599:B 9.3 
3 *374:10 *600:A2 10.675 
*END

*D_NET *375 0.000709977
*CONN
*I *639:B I *D sky130_fd_sc_hd__and2_1
*I *638:B I *D sky130_fd_sc_hd__xor2_1
*I *897:X O *D sky130_fd_sc_hd__and2_1
*CAP
1 *639:B 4.71388e-05
2 *638:B 5.5499e-05
3 *897:X 1.55834e-05
4 *375:6 0.000118221
5 *639:B *642:A2 1.3701e-05
6 *639:A *638:B 0.000175512
7 *897:A *639:B 0
8 *906:B *639:B 3.14163e-05
9 *906:B *375:6 1.92789e-05
10 *9:24 *639:B 8.36572e-05
11 *9:24 *375:6 5.52238e-05
12 *17:93 *638:B 9.47456e-05
*RES
1 *897:X *375:6 9.83571 
2 *375:6 *638:B 20.55 
3 *375:6 *639:B 10.675 
*END

*D_NET *376 0.00194691
*CONN
*I *691:A I *D sky130_fd_sc_hd__and2_1
*I *690:A I *D sky130_fd_sc_hd__xor2_1
*I *898:X O *D sky130_fd_sc_hd__and2_1
*CAP
1 *691:A 0.000119433
2 *690:A 4.95411e-05
3 *898:X 0.000333758
4 *376:10 0.000502732
5 *690:A *383:6 5.49489e-05
6 *691:A *691:B 0.00014209
7 *691:A *723:A 0.00015134
8 *376:10 *691:B 3.17148e-05
9 *376:10 *723:A 0.000150625
10 *692:B *690:A 2.14658e-05
11 *693:A2 *691:A 7.02693e-05
12 *693:A2 *376:10 5.79582e-06
13 *906:A *376:10 0
14 *907:B *376:10 0.000125731
15 *170:10 *376:10 0.000187465
*RES
1 *898:X *376:10 19.9429 
2 *376:10 *690:A 14.7464 
3 *376:10 *691:A 17.1214 
*END

*D_NET *377 0.000945343
*CONN
*I *564:B I *D sky130_fd_sc_hd__xor2_1
*I *565:A2 I *D sky130_fd_sc_hd__a21o_1
*I *899:X O *D sky130_fd_sc_hd__and2_1
*CAP
1 *564:B 5.25718e-05
2 *565:A2 0
3 *899:X 0.000203983
4 *377:12 0.000256554
5 *564:B *389:12 2.89114e-05
6 *564:A *564:B 2.286e-05
7 *565:A1 *564:B 9.71197e-05
8 *818:A *377:12 7.6644e-05
9 *899:B *377:12 2.11336e-05
10 *12:37 *377:12 0
11 *49:10 *377:12 0.000103275
12 *107:14 *377:12 8.22896e-05
*RES
1 *899:X *377:12 22.9071 
2 *377:12 *565:A2 9.3 
3 *377:12 *564:B 10.675 
*END

*D_NET *378 0.00090314
*CONN
*I *570:B I *D sky130_fd_sc_hd__xor2_1
*I *571:B I *D sky130_fd_sc_hd__and2_1
*I *900:X O *D sky130_fd_sc_hd__and2_1
*CAP
1 *570:B 0
2 *571:B 0.000126972
3 *900:X 6.33794e-05
4 *378:10 0.000190351
5 *571:B *395:6 1.4796e-05
6 *570:A *571:B 0.000154727
7 *573:B1 *571:B 0.000181899
8 *7:41 *378:10 0.000121897
9 *57:8 *571:B 1.19813e-05
10 *60:10 *378:10 3.71362e-05
*RES
1 *900:X *378:10 19.9429 
2 *378:10 *571:B 13.05 
3 *378:10 *570:B 9.3 
*END

*D_NET *379 0.0019283
*CONN
*I *581:B I *D sky130_fd_sc_hd__xor2_1
*I *582:A2 I *D sky130_fd_sc_hd__a21o_1
*I *901:X O *D sky130_fd_sc_hd__and2_1
*CAP
1 *581:B 0.000214873
2 *582:A2 2.52229e-05
3 *901:X 0.000320061
4 *379:10 0.000560158
5 *379:10 *576:B 0.000128154
6 *581:A *581:B 1.24368e-05
7 *582:A1 *581:B 6.74911e-05
8 *582:B1 *581:B 0
9 *625:A *581:B 0
10 *626:A *581:B 0
11 *9:65 *582:A2 5.52238e-05
12 *9:65 *379:10 0.00031588
13 *10:42 *379:10 0.000225386
14 *65:8 *581:B 3.41517e-06
15 *72:14 *581:B 0
*RES
1 *901:X *379:10 20.3536 
2 *379:10 *582:A2 14.3357 
3 *379:10 *581:B 17.6214 
*END

*D_NET *380 0.00119498
*CONN
*I *593:B I *D sky130_fd_sc_hd__and2_1
*I *592:B I *D sky130_fd_sc_hd__xor2_1
*I *902:X O *D sky130_fd_sc_hd__and2_1
*CAP
1 *593:B 0.000152173
2 *592:B 2.36895e-05
3 *902:X 0.000181705
4 *380:8 0.000357567
5 *593:A *593:B 9.56968e-05
6 *886:B *380:8 0.000125724
7 *9:54 *380:8 0.000124869
8 *10:23 *380:8 0
9 *75:6 *592:B 5.52238e-05
10 *373:10 *593:B 1.41029e-05
11 *373:10 *380:8 6.42338e-05
*RES
1 *902:X *380:8 17.8714 
2 *380:8 *592:B 14.3357 
3 *380:8 *593:B 16.8893 
*END

*D_NET *381 0.000480087
*CONN
*I *634:A I *D sky130_fd_sc_hd__xor2_1
*I *635:A I *D sky130_fd_sc_hd__and2_1
*I *904:X O *D sky130_fd_sc_hd__and2_1
*CAP
1 *634:A 0.000137307
2 *635:A 9.04722e-06
3 *904:X 0.000146354
4 *634:B *634:A 0.000128154
5 *637:B1 *634:A 1.41029e-05
6 *9:38 *634:A 0
7 *10:23 *634:A 1.32552e-05
8 *10:23 *635:A 3.18676e-05
*RES
1 *904:X *635:A 19.1357 
2 *904:X *634:A 30.4929 
*END

*D_NET *382 0.00108471
*CONN
*I *642:A2 I *D sky130_fd_sc_hd__a21o_1
*I *641:B I *D sky130_fd_sc_hd__xor2_1
*I *905:X O *D sky130_fd_sc_hd__and2_1
*CAP
1 *642:A2 0.000117036
2 *641:B 0
3 *905:X 0.000161034
4 *382:10 0.000278069
5 *639:A *642:A2 0
6 *639:A *382:10 0
7 *639:B *642:A2 1.3701e-05
8 *642:A1 *642:A2 0.00012401
9 *642:B1 *642:A2 5.27816e-05
10 *9:24 *642:A2 0.000177681
11 *9:24 *382:10 7.50697e-05
12 *10:9 *382:10 3.15196e-05
13 *10:85 *382:10 2.05484e-05
14 *18:95 *382:10 3.32631e-05
15 *368:8 *382:10 0
*RES
1 *905:X *382:10 16.6929 
2 *382:10 *641:B 13.8 
3 *382:10 *642:A2 17.425 
*END

*D_NET *383 0.000829086
*CONN
*I *690:B I *D sky130_fd_sc_hd__xor2_1
*I *691:B I *D sky130_fd_sc_hd__and2_1
*I *906:X O *D sky130_fd_sc_hd__and2_1
*CAP
1 *690:B 0
2 *691:B 8.17402e-05
3 *906:X 6.25872e-05
4 *383:6 0.000144327
5 *691:B *723:A 1.31516e-05
6 *690:A *383:6 5.49489e-05
7 *691:A *691:B 0.00014209
8 *692:B *383:6 9.8621e-05
9 *693:A2 *691:B 0.000101566
10 *124:10 *383:6 9.83388e-05
11 *376:10 *691:B 3.17148e-05
*RES
1 *906:X *383:6 11.0679 
2 *383:6 *691:B 20.8536 
3 *383:6 *690:B 9.3 
*END

*D_NET *384 0.00197392
*CONN
*I *724:A I *D sky130_fd_sc_hd__xor2_1
*I *723:A I *D sky130_fd_sc_hd__and2_1
*I *907:X O *D sky130_fd_sc_hd__and2_1
*CAP
1 *724:A 0.000128907
2 *723:A 0.000614014
3 *907:X 0.000485107
4 *691:A *723:A 0.00015134
5 *691:B *723:A 1.31516e-05
6 *723:B *724:A 9.83388e-05
7 *724:B *724:A 0.000109466
8 *767:B1 *724:A 0.000144773
9 *169:10 *723:A 7.8195e-05
10 *376:10 *723:A 0.000150625
*RES
1 *907:X *723:A 36.4036 
2 *723:A *724:A 22.0464 
*END

*D_NET *385 0.00399069
*CONN
*I *612:A I *D sky130_fd_sc_hd__xor2_1
*I *613:A I *D sky130_fd_sc_hd__and2_1
*I *908:X O *D sky130_fd_sc_hd__xor2_1
*CAP
1 *612:A 0.000139323
2 *613:A 1.48553e-05
3 *908:X 0.000502834
4 *385:6 0.000657012
5 *385:6 *391:6 0.000137983
6 *613:B *612:A 0.000255085
7 *615:B1 *612:A 7.32173e-05
8 *915:A *385:6 2.89114e-05
9 *4:53 *385:6 0.00137486
10 *13:21 *385:6 0.000272389
11 *13:46 *385:6 0.000260954
12 *53:12 *385:6 0.000273269
*RES
1 *908:X *385:6 25.0321 
2 *385:6 *613:A 9.72857 
3 *385:6 *612:A 13.2821 
*END

*D_NET *386 0.00146997
*CONN
*I *566:A I *D sky130_fd_sc_hd__xor2_1
*I *567:A I *D sky130_fd_sc_hd__and2_1
*I *909:X O *D sky130_fd_sc_hd__and2_1
*CAP
1 *566:A 0.000121408
2 *567:A 2.23854e-05
3 *909:X 0.000316761
4 *386:6 0.000460555
5 *566:A *567:B 0.000172358
6 *916:A *386:6 5.71472e-05
7 *916:B *386:6 2.89114e-05
8 *6:42 *566:A 9.22103e-06
9 *6:42 *386:6 0.000102043
10 *12:20 *566:A 9.11365e-06
11 *13:13 *566:A 0.000170062
*RES
1 *909:X *386:6 14.7643 
2 *386:6 *567:A 9.72857 
3 *386:6 *566:A 21.4964 
*END

*D_NET *387 0.00123415
*CONN
*I *912:A I *D sky130_fd_sc_hd__xor2_1
*I *913:A1 I *D sky130_fd_sc_hd__a21o_1
*I *910:X O *D sky130_fd_sc_hd__xor2_1
*CAP
1 *912:A 5.99689e-05
2 *913:A1 0.000149449
3 *910:X 0.00012493
4 *387:12 0.000334347
5 *913:A1 *913:B1 5.49544e-05
6 *901:B *387:12 0.000170301
7 *912:B *912:A 6.05161e-06
8 *912:B *913:A1 0.000115043
9 *7:33 *387:12 0.000143375
10 *8:48 *387:12 7.57312e-05
*RES
1 *910:X *387:12 21.9071 
2 *387:12 *913:A1 11.8893 
3 *387:12 *912:A 10.2643 
*END

*D_NET *388 0.000842959
*CONN
*I *913:B1 I *D sky130_fd_sc_hd__a21o_1
*I *911:X O *D sky130_fd_sc_hd__and2_1
*CAP
1 *913:B1 0.000267453
2 *911:X 0.000267453
3 *910:A *913:B1 1.41029e-05
4 *910:B *913:B1 0.000127446
5 *912:B *913:B1 5.49544e-05
6 *913:A1 *913:B1 5.49544e-05
7 *15:37 *913:B1 5.65955e-05
*RES
1 *911:X *913:B1 32.7429 
*END

*D_NET *389 0.00180953
*CONN
*I *616:A I *D sky130_fd_sc_hd__xor2_1
*I *617:A I *D sky130_fd_sc_hd__and2_1
*I *912:X O *D sky130_fd_sc_hd__xor2_1
*CAP
1 *616:A 0.000171317
2 *617:A 0
3 *912:X 0.000607103
4 *389:12 0.00077842
5 *564:B *389:12 2.89114e-05
6 *565:A1 *389:12 1.55885e-05
7 *565:B1 *389:12 5.03772e-05
8 *616:B *616:A 5.56205e-05
9 *617:B *616:A 0.000102197
10 *51:10 *389:12 0
11 *106:14 *389:12 0
12 *107:14 *389:12 0
*RES
1 *912:X *389:12 27.7643 
2 *389:12 *617:A 9.3 
3 *389:12 *616:A 12.7286 
*END

*D_NET *390 0.0011644
*CONN
*I *576:B I *D sky130_fd_sc_hd__and2_1
*I *575:B I *D sky130_fd_sc_hd__xor2_1
*I *913:X O *D sky130_fd_sc_hd__a21o_1
*CAP
1 *576:B 9.94288e-05
2 *575:B 0
3 *913:X 7.91702e-05
4 *390:12 0.000178599
5 *576:B *576:A 0.000173083
6 *576:B *397:14 5.68722e-05
7 *390:12 *397:14 0.000221703
8 *901:B *576:B 4.17433e-05
9 *901:B *390:12 0.000128396
10 *9:65 *576:B 3.57844e-05
11 *10:42 *576:B 2.14658e-05
12 *379:10 *576:B 0.000128154
*RES
1 *913:X *390:12 20.8893 
2 *390:12 *575:B 9.3 
3 *390:12 *576:B 21.8 
*END

*D_NET *391 0.000829961
*CONN
*I *566:B I *D sky130_fd_sc_hd__xor2_1
*I *567:B I *D sky130_fd_sc_hd__and2_1
*I *915:X O *D sky130_fd_sc_hd__xor2_1
*CAP
1 *566:B 0
2 *567:B 0.000118239
3 *915:X 6.55435e-05
4 *391:6 0.000183782
5 *566:A *567:B 0.000172358
6 *6:42 *567:B 3.18676e-05
7 *12:20 *567:B 9.52387e-05
8 *13:13 *567:B 2.49484e-05
9 *385:6 *391:6 0.000137983
*RES
1 *915:X *391:6 10.6571 
2 *391:6 *567:B 21.3893 
3 *391:6 *566:B 9.3 
*END

*D_NET *392 0.00155735
*CONN
*I *572:B I *D sky130_fd_sc_hd__xor2_1
*I *573:A2 I *D sky130_fd_sc_hd__a21o_1
*I *916:X O *D sky130_fd_sc_hd__and2_1
*CAP
1 *572:B 5.50785e-05
2 *573:A2 0
3 *916:X 0.000235708
4 *392:8 0.000290786
5 *573:A1 *572:B 0.000126272
6 *573:B1 *572:B 1.33248e-05
7 *573:B1 *392:8 3.67279e-06
8 *916:B *392:8 3.71391e-05
9 *7:41 *392:8 0
10 *12:20 *572:B 0.000199045
11 *12:20 *392:8 0.000525763
12 *15:37 *392:8 0
13 *60:10 *572:B 1.25366e-05
14 *356:8 *392:8 5.80217e-05
*RES
1 *916:X *392:8 20.6036 
2 *392:8 *573:A2 13.8 
3 *392:8 *572:B 16.3536 
*END

*D_NET *393 0.000586092
*CONN
*I *919:A I *D sky130_fd_sc_hd__xor2_1
*I *920:A1 I *D sky130_fd_sc_hd__a21o_1
*I *917:X O *D sky130_fd_sc_hd__xor2_1
*CAP
1 *919:A 8.81827e-05
2 *920:A1 4.45945e-05
3 *917:X 5.89101e-05
4 *393:8 0.000191687
5 *917:B *393:8 1.19813e-05
6 *919:B *920:A1 6.44649e-05
7 *14:78 *920:A1 0.000126272
*RES
1 *917:X *393:8 10.2643 
2 *393:8 *920:A1 19.9429 
3 *393:8 *919:A 10.6571 
*END

*D_NET *394 0.000865021
*CONN
*I *920:B1 I *D sky130_fd_sc_hd__a21o_1
*I *918:X O *D sky130_fd_sc_hd__and2_1
*CAP
1 *920:B1 0.000269172
2 *918:X 0.000269172
3 *920:B1 *396:10 2.09722e-05
4 *917:B *920:B1 0.000124296
5 *918:B *920:B1 5.49995e-05
6 *14:78 *920:B1 0.000126409
*RES
1 *918:X *920:B1 31.8321 
*END

*D_NET *395 0.00289409
*CONN
*I *621:A I *D sky130_fd_sc_hd__xor2_1
*I *622:A I *D sky130_fd_sc_hd__and2_1
*I *919:X O *D sky130_fd_sc_hd__xor2_1
*CAP
1 *621:A 7.03428e-05
2 *622:A 6.18774e-05
3 *919:X 0.00040152
4 *395:6 0.00053374
5 *570:A *395:6 0.000311277
6 *571:B *395:6 1.4796e-05
7 *572:A *395:6 4.58194e-05
8 *573:B1 *395:6 2.10974e-05
9 *622:B *622:A 0.000148658
10 *884:B *622:A 4.27842e-06
11 *3:42 *621:A 9.41642e-05
12 *3:42 *395:6 0.000947627
13 *13:106 *622:A 7.27183e-05
14 *57:8 *395:6 2.59355e-05
15 *59:6 *621:A 4.17702e-05
16 *59:6 *395:6 9.84729e-05
*RES
1 *919:X *395:6 20.5143 
2 *395:6 *622:A 20.2464 
3 *395:6 *621:A 10.9786 
*END

*D_NET *396 0.00303267
*CONN
*I *583:B I *D sky130_fd_sc_hd__xor2_1
*I *584:B I *D sky130_fd_sc_hd__and2_1
*I *920:X O *D sky130_fd_sc_hd__a21o_1
*CAP
1 *583:B 0.00012612
2 *584:B 8.66022e-05
3 *920:X 0.00060758
4 *396:10 0.000820302
5 *583:B *583:A 9.23809e-05
6 *583:B *398:10 5.85979e-05
7 *584:B *584:A 7.17136e-05
8 *396:10 *398:10 9.91086e-05
9 *587:B1 *583:B 0.000119917
10 *685:A *584:B 0.000266479
11 *707:A *584:B 1.24368e-05
12 *920:B1 *396:10 2.09722e-05
13 *921:A *584:B 9.71197e-05
14 *921:A *396:10 1.78447e-05
15 *921:B *583:B 5.66157e-05
16 *921:B *584:B 6.05161e-06
17 *921:B *396:10 9.91086e-05
18 *4:23 *396:10 0.00031071
19 *5:94 *396:10 0
20 *6:19 *396:10 2.11336e-05
21 *14:78 *396:10 0
22 *14:89 *396:10 0
23 *16:47 *584:B 8.43535e-06
24 *69:10 *583:B 3.34366e-05
*RES
1 *920:X *396:10 25.3893 
2 *396:10 *584:B 16.8179 
3 *396:10 *583:B 17.3179 
*END

*D_NET *397 0.00263971
*CONN
*I *575:A I *D sky130_fd_sc_hd__xor2_1
*I *576:A I *D sky130_fd_sc_hd__and2_1
*I *921:X O *D sky130_fd_sc_hd__xor2_1
*CAP
1 *575:A 0
2 *576:A 9.59697e-05
3 *921:X 0.000645237
4 *397:14 0.000741207
5 *576:B *576:A 0.000173083
6 *576:B *397:14 5.68722e-05
7 *685:B *397:14 7.08917e-05
8 *901:B *397:14 1.98839e-05
9 *912:B *397:14 0.000103127
10 *10:42 *397:14 0.000183477
11 *16:47 *397:14 0.000311793
12 *324:6 *397:14 1.64616e-05
13 *390:12 *397:14 0.000221703
*RES
1 *921:X *397:14 28.7107 
2 *397:14 *576:A 20.55 
3 *397:14 *575:A 9.3 
*END

*D_NET *398 0.00149417
*CONN
*I *583:A I *D sky130_fd_sc_hd__xor2_1
*I *584:A I *D sky130_fd_sc_hd__and2_1
*I *922:X O *D sky130_fd_sc_hd__and2_1
*CAP
1 *583:A 0.000137725
2 *584:A 0.000120658
3 *922:X 0.000113233
4 *398:10 0.000371616
5 *583:B *583:A 9.23809e-05
6 *583:B *398:10 5.85979e-05
7 *584:B *584:A 7.17136e-05
8 *707:A *583:A 0
9 *707:A *584:A 3.30237e-05
10 *707:A *398:10 0
11 *921:A *584:A 5.52302e-05
12 *921:A *398:10 6.09476e-05
13 *922:B *398:10 2.89016e-05
14 *16:47 *583:A 0
15 *16:47 *584:A 0.000186662
16 *69:10 *583:A 6.43749e-05
17 *396:10 *398:10 9.91086e-05
*RES
1 *922:X *398:10 16.4339 
2 *398:10 *584:A 17.2018 
3 *398:10 *583:A 16.7375 
*END

*D_NET *399 0.000877878
*CONN
*I *926:A I *D sky130_fd_sc_hd__xor2_1
*I *927:A1 I *D sky130_fd_sc_hd__a21o_1
*I *923:X O *D sky130_fd_sc_hd__xor2_1
*CAP
1 *926:A 8.0857e-05
2 *927:A1 6.29199e-05
3 *923:X 0.000131183
4 *399:12 0.00027496
5 *927:A1 *402:16 6.05161e-06
6 *399:12 *402:16 1.18064e-05
7 *926:B *926:A 5.12869e-05
8 *926:B *927:A1 5.33005e-05
9 *15:21 *399:12 0
10 *16:47 *399:12 0.000173797
11 *358:12 *399:12 3.17148e-05
*RES
1 *923:X *399:12 21.0857 
2 *399:12 *927:A1 10.2464 
3 *399:12 *926:A 10.675 
*END

*D_NET *400 0.000610662
*CONN
*I *927:B1 I *D sky130_fd_sc_hd__a21o_1
*I *924:X O *D sky130_fd_sc_hd__and2_1
*CAP
1 *927:B1 0.000152015
2 *924:X 0.000152015
3 *927:B1 *402:16 9.60875e-05
4 *7:25 *927:B1 0.000154762
5 *18:27 *927:B1 5.5782e-05
*RES
1 *924:X *927:B1 31.3143 
*END

*D_NET *401 0.000695868
*CONN
*I *586:B I *D sky130_fd_sc_hd__xor2_1
*I *587:A2 I *D sky130_fd_sc_hd__a21o_1
*I *926:X O *D sky130_fd_sc_hd__xor2_1
*CAP
1 *586:B 0.000106322
2 *587:A2 7.18583e-05
3 *926:X 0.00017818
4 *586:A *586:B 0.000184745
5 *586:A *587:A2 0.000144512
6 *16:47 *587:A2 0
7 *69:10 *587:A2 1.02504e-05
*RES
1 *926:X *587:A2 29.5464 
2 *926:X *586:B 20.7786 
*END

*D_NET *402 0.00466324
*CONN
*I *594:B I *D sky130_fd_sc_hd__xor2_1
*I *595:A2 I *D sky130_fd_sc_hd__a21o_1
*I *927:X O *D sky130_fd_sc_hd__a21o_1
*CAP
1 *594:B 0.000322714
2 *595:A2 0
3 *927:X 0.000729634
4 *402:16 0.00105235
5 *595:A1 *594:B 0.000270909
6 *595:A1 *402:16 1.02132e-05
7 *630:A *594:B 0.000104197
8 *631:A *594:B 5.20751e-05
9 *631:B *594:B 5.72546e-05
10 *796:A *402:16 0.000187629
11 *927:A1 *402:16 6.05161e-06
12 *927:B1 *402:16 9.60875e-05
13 *9:38 *594:B 2.48034e-05
14 *9:38 *402:16 4.99809e-05
15 *15:21 *402:16 0.00033445
16 *15:94 *402:16 0.000608514
17 *16:30 *402:16 0.000196442
18 *16:47 *402:16 1.50087e-05
19 *75:6 *594:B 0.000175892
20 *79:12 *594:B 5.79582e-06
21 *80:18 *594:B 0.000223991
22 *358:12 *402:16 0.000127446
23 *399:12 *402:16 1.18064e-05
*RES
1 *927:X *402:16 35.9429 
2 *402:16 *595:A2 9.3 
3 *402:16 *594:B 26.1571 
*END

*D_NET *403 0.00222779
*CONN
*I *649:B I *D sky130_fd_sc_hd__xor2_1
*I *650:B I *D sky130_fd_sc_hd__and2_1
*I *928:X O *D sky130_fd_sc_hd__xor2_1
*CAP
1 *649:B 0
2 *650:B 8.40684e-05
3 *928:X 0.000675826
4 *403:10 0.000759894
5 *650:A *650:B 8.51847e-05
6 *652:B *650:B 0.000148376
7 *653:A1 *650:B 5.50052e-05
8 *653:A1 *403:10 3.76625e-05
9 *928:B *403:10 2.04681e-05
10 *3:53 *403:10 0.000334355
11 *5:57 *650:B 2.69483e-05
*RES
1 *928:X *403:10 21.5679 
2 *403:10 *650:B 21.3893 
3 *403:10 *649:B 9.3 
*END

*D_NET *404 0.000715324
*CONN
*I *608:B I *D sky130_fd_sc_hd__xor2_1
*I *609:B I *D sky130_fd_sc_hd__and2_1
*I *929:X O *D sky130_fd_sc_hd__and2_1
*CAP
1 *608:B 8.35101e-05
2 *609:B 0
3 *929:X 0.00014521
4 *404:12 0.00022872
5 *608:A *608:B 0.000195638
6 *3:53 *404:12 5.66971e-05
7 *361:12 *404:12 5.54817e-06
*RES
1 *929:X *404:12 20.7821 
2 *404:12 *609:B 9.3 
3 *404:12 *608:B 11.4964 
*END
