*SPEF "ieee 1481-1999"
*DESIGN "behav8"
*DATE "16:27:23 Sunday September 06, 2026"
*VENDOR "The OpenROAD Project"
*PROGRAM "OpenROAD"
*VERSION "dcf36133a369abc8f3c5e5738cd4d82e4903c0e0"
*DESIGN_FLOW "NAME_SCOPE LOCAL" "PIN_CAP NONE"
*DIVIDER /
*DELIMITER :
*BUS_DELIMITER []
*T_UNIT 1 NS
*C_UNIT 1 PF
*R_UNIT 1 OHM
*L_UNIT 1 HENRY

*NAME_MAP
*3 a[0]
*4 a[1]
*5 a[2]
*6 a[3]
*7 a[4]
*8 a[5]
*9 a[6]
*10 a[7]
*11 b[0]
*12 b[1]
*13 b[2]
*14 b[3]
*15 b[4]
*16 b[5]
*17 b[6]
*18 b[7]
*19 p[0]
*20 p[10]
*21 p[11]
*22 p[12]
*23 p[13]
*24 p[14]
*25 p[15]
*26 p[1]
*27 p[2]
*28 p[3]
*29 p[4]
*30 p[5]
*31 p[6]
*32 p[7]
*33 p[8]
*34 p[9]
*35 _000_
*36 _001_
*37 _002_
*38 _003_
*39 _004_
*40 _005_
*41 _006_
*42 _007_
*43 _008_
*44 _009_
*45 _010_
*46 _011_
*47 _012_
*48 _013_
*49 _014_
*50 _015_
*51 _016_
*52 _017_
*53 _018_
*54 _019_
*55 _020_
*56 _021_
*57 _022_
*58 _023_
*59 _024_
*60 _025_
*61 _026_
*62 _027_
*63 _028_
*64 _029_
*65 _030_
*66 _031_
*67 _032_
*68 _033_
*69 _034_
*70 _035_
*71 _036_
*72 _037_
*73 _038_
*74 _039_
*75 _040_
*76 _041_
*77 _042_
*78 _043_
*79 _044_
*80 _045_
*81 _046_
*82 _047_
*83 _048_
*84 _049_
*85 _050_
*86 _051_
*87 _052_
*88 _053_
*89 _054_
*90 _055_
*91 _056_
*92 _057_
*93 _058_
*94 _059_
*95 _060_
*96 _061_
*97 _062_
*98 _063_
*99 _064_
*100 _065_
*101 _066_
*102 _067_
*103 _068_
*104 _069_
*105 _070_
*106 _071_
*107 _072_
*108 _073_
*109 _074_
*110 _075_
*111 _076_
*112 _077_
*113 _078_
*114 _079_
*115 _080_
*116 _081_
*117 _082_
*118 _083_
*119 _084_
*120 _085_
*121 _086_
*122 _087_
*123 _088_
*124 _089_
*125 _090_
*126 _091_
*127 _092_
*128 _093_
*129 _094_
*130 _095_
*131 _096_
*132 _097_
*133 _098_
*134 _099_
*135 _100_
*136 _101_
*137 _102_
*138 _103_
*139 _104_
*140 _105_
*141 _106_
*142 _107_
*143 _108_
*144 _109_
*145 _110_
*146 _111_
*147 _112_
*148 _113_
*149 _114_
*150 _115_
*151 _116_
*152 _117_
*153 _118_
*154 _119_
*155 _120_
*156 _121_
*157 _122_
*158 _123_
*159 _124_
*160 _125_
*161 _126_
*162 _127_
*163 _128_
*164 _129_
*165 _130_
*166 _131_
*167 _132_
*168 _133_
*169 _134_
*170 _135_
*171 _136_
*172 _137_
*173 _138_
*174 _139_
*175 _140_
*176 _141_
*177 _142_
*178 _143_
*179 _144_
*180 _145_
*181 _146_
*182 _147_
*183 _148_
*184 _149_
*185 _150_
*186 _151_
*187 _152_
*188 _153_
*189 _154_
*190 _155_
*191 _156_
*192 _157_
*193 _158_
*194 _159_
*195 _160_
*196 _161_
*197 _162_
*198 _163_
*199 _164_
*200 _165_
*201 _166_
*202 _167_
*203 _168_
*204 _169_
*205 _170_
*206 _171_
*207 _172_
*208 _173_
*209 _174_
*210 _175_
*211 _176_
*212 _177_
*213 _178_
*214 _179_
*215 _180_
*216 _181_
*217 _182_
*218 _183_
*219 _184_
*220 _185_
*221 _186_
*222 _187_
*223 _188_
*224 _189_
*225 _190_
*226 _191_
*227 _192_
*228 _193_
*229 _194_
*230 _195_
*231 _196_
*232 _197_
*233 _198_
*234 _199_
*235 _200_
*236 _201_
*237 _202_
*238 _203_
*239 _204_
*240 _205_
*241 _206_
*242 _207_
*243 _208_
*244 _209_
*245 _210_
*246 _211_
*247 _212_
*248 _213_
*249 _214_
*250 _215_
*251 _216_
*252 _217_
*253 _218_
*254 _219_
*255 _220_
*256 _221_
*257 _222_
*258 _223_
*259 _224_
*260 _225_
*261 _226_
*262 _227_
*263 _228_
*264 _229_
*265 _230_
*266 _231_
*267 _232_
*268 _233_
*269 _234_
*270 _235_
*271 _236_
*272 _237_
*273 _238_
*274 _239_
*275 _240_
*276 _241_
*277 _242_
*278 _243_
*279 _244_
*280 _245_
*281 _246_
*282 _247_
*283 _248_
*284 _249_
*285 _250_
*286 _251_
*287 _252_
*288 _253_
*289 _254_
*290 _255_
*291 _256_
*292 _257_
*293 _258_
*294 _259_
*295 _260_
*296 _261_
*297 _262_
*298 _263_
*299 _264_
*300 _265_
*301 _266_
*302 _267_
*303 _268_
*304 _269_
*305 _270_
*306 _271_
*307 _272_
*308 _273_
*309 _274_
*310 _275_
*311 _276_
*312 _277_
*313 _278_
*314 _279_
*315 _280_
*316 _281_
*317 _282_
*318 _283_
*319 _284_
*320 _285_
*321 _286_
*322 _287_
*323 _288_
*324 _289_
*325 _290_
*326 _291_
*327 _292_
*328 _293_
*329 _294_
*330 _295_
*331 _296_
*332 _297_
*333 _298_
*334 _299_
*335 _300_
*336 _301_
*337 _302_
*338 _303_
*339 _304_
*340 _305_
*341 _306_
*342 _307_
*343 _308_
*344 _309_
*345 _310_
*346 _311_
*347 _312_
*348 _313_
*349 _314_
*350 _315_
*351 _316_
*352 _317_
*353 _318_
*354 _319_
*355 _320_
*356 _321_
*357 _322_
*358 _323_
*359 _324_
*360 _325_
*361 _326_
*362 _327_
*363 _328_
*364 _329_
*365 _330_
*366 _331_
*367 _332_
*368 _333_
*369 _334_
*370 _335_
*371 _336_
*372 _337_
*373 _338_
*374 _339_
*375 _340_
*376 _341_
*377 _342_
*378 _343_
*379 _344_
*380 _345_
*381 _346_
*382 _347_
*383 _348_
*384 _349_
*385 _350_
*386 _351_
*387 _352_
*388 _353_
*389 _354_
*390 _355_
*391 _356_
*392 _357_
*393 _358_
*394 _359_
*395 _360_
*396 _361_
*397 _362_
*398 _363_
*399 _364_
*400 _365_
*401 _366_
*402 _367_
*403 _368_
*404 _369_
*405 _370_
*406 _371_
*407 _372_
*408 _373_
*409 _374_
*410 _375_
*411 _376_
*412 _377_
*413 _378_
*414 _379_
*415 _380_
*416 _381_
*417 _382_
*418 _383_
*419 _384_
*420 _385_
*421 _386_
*422 _387_
*423 _388_
*424 _389_
*425 _390_
*426 _391_
*427 _392_
*428 _393_
*429 _394_
*430 _395_
*431 _396_
*432 _397_
*433 _398_
*434 _399_
*435 _400_
*436 _401_
*437 _402_
*438 _403_
*439 _404_
*440 _405_
*441 _406_
*442 _407_
*443 _408_
*444 _409_
*445 _410_
*446 _411_
*447 _412_
*448 _413_
*449 _414_
*450 _415_
*451 _416_
*452 _417_
*453 _418_
*454 _419_
*455 _420_
*456 _421_
*457 _422_
*458 _423_
*459 _424_
*460 _425_
*461 _426_
*462 _427_
*463 _428_
*464 _429_
*465 _430_
*466 _431_
*467 _432_
*468 _433_
*469 _434_
*470 _435_
*471 _436_
*472 _437_
*473 _438_
*474 _439_
*475 _440_
*476 _441_
*477 _442_
*478 _443_
*479 _444_
*480 _445_
*481 _446_
*482 _447_
*483 _448_
*484 _449_
*485 _450_
*486 _451_
*487 _452_
*488 _453_
*489 _454_
*490 _455_
*491 _456_
*492 _457_
*493 _458_
*494 _459_
*495 _460_
*496 _461_
*497 _462_
*498 _463_
*499 _464_
*500 _465_
*501 _466_
*502 _467_
*503 _468_
*504 _469_
*505 _470_
*506 net1
*507 net10
*508 net100
*509 net101
*510 net102
*511 net103
*512 net104
*513 net105
*514 net106
*515 net107
*516 net108
*517 net109
*518 net11
*519 net110
*520 net111
*521 net112
*522 net113
*523 net114
*524 net115
*525 net116
*526 net117
*527 net118
*528 net119
*529 net12
*530 net120
*531 net121
*532 net122
*533 net123
*534 net124
*535 net125
*536 net126
*537 net127
*538 net128
*539 net129
*540 net13
*541 net130
*542 net131
*543 net132
*544 net133
*545 net134
*546 net135
*547 net136
*548 net137
*549 net138
*550 net139
*551 net14
*552 net140
*553 net141
*554 net142
*555 net143
*556 net144
*557 net145
*558 net146
*559 net147
*560 net148
*561 net149
*562 net15
*563 net150
*564 net151
*565 net152
*566 net153
*567 net154
*568 net155
*569 net156
*570 net157
*571 net158
*572 net159
*573 net16
*574 net160
*575 net161
*576 net162
*577 net163
*578 net164
*579 net165
*580 net166
*581 net167
*582 net168
*583 net169
*584 net17
*585 net170
*586 net171
*587 net172
*588 net173
*589 net174
*590 net175
*591 net176
*592 net177
*593 net178
*594 net179
*595 net18
*596 net180
*597 net181
*598 net182
*599 net183
*600 net185
*601 net19
*602 net2
*603 net20
*604 net21
*605 net22
*606 net23
*607 net24
*608 net25
*609 net26
*610 net27
*611 net28
*612 net29
*613 net3
*614 net30
*615 net31
*616 net32
*617 net33
*618 net34
*619 net35
*620 net36
*621 net37
*622 net38
*623 net4
*624 net40
*625 net41
*626 net43
*627 net44
*628 net45
*629 net46
*630 net47
*631 net48
*632 net49
*633 net5
*634 net50
*635 net51
*636 net52
*637 net53
*638 net55
*639 net57
*640 net58
*641 net59
*642 net6
*643 net60
*644 net61
*645 net62
*646 net63
*647 net64
*648 net65
*649 net66
*650 net68
*651 net69
*652 net7
*653 net70
*654 net71
*655 net73
*656 net74
*657 net75
*658 net76
*659 net77
*660 net78
*661 net79
*662 net8
*663 net80
*664 net81
*665 net82
*666 net83
*667 net84
*668 net85
*669 net87
*670 net88
*671 net89
*672 net9
*673 net90
*674 net91
*675 net92
*676 net93
*677 net94
*678 net95
*679 net97
*680 net98
*681 net99
*682 PHY_EDGE_ROW_0_Left_39
*683 PHY_EDGE_ROW_0_Right_0
*684 PHY_EDGE_ROW_10_Left_49
*685 PHY_EDGE_ROW_10_Right_10
*686 PHY_EDGE_ROW_11_Left_50
*687 PHY_EDGE_ROW_11_Right_11
*688 PHY_EDGE_ROW_12_Left_51
*689 PHY_EDGE_ROW_12_Right_12
*690 PHY_EDGE_ROW_13_Left_52
*691 PHY_EDGE_ROW_13_Right_13
*692 PHY_EDGE_ROW_14_Left_53
*693 PHY_EDGE_ROW_14_Right_14
*694 PHY_EDGE_ROW_15_Left_54
*695 PHY_EDGE_ROW_15_Right_15
*696 PHY_EDGE_ROW_16_Left_55
*697 PHY_EDGE_ROW_16_Right_16
*698 PHY_EDGE_ROW_17_Left_56
*699 PHY_EDGE_ROW_17_Right_17
*700 PHY_EDGE_ROW_18_Left_57
*701 PHY_EDGE_ROW_18_Right_18
*702 PHY_EDGE_ROW_19_Left_58
*703 PHY_EDGE_ROW_19_Right_19
*704 PHY_EDGE_ROW_1_Left_40
*705 PHY_EDGE_ROW_1_Right_1
*706 PHY_EDGE_ROW_20_Left_59
*707 PHY_EDGE_ROW_20_Right_20
*708 PHY_EDGE_ROW_21_Left_60
*709 PHY_EDGE_ROW_21_Right_21
*710 PHY_EDGE_ROW_22_Left_61
*711 PHY_EDGE_ROW_22_Right_22
*712 PHY_EDGE_ROW_23_Left_62
*713 PHY_EDGE_ROW_23_Right_23
*714 PHY_EDGE_ROW_24_Left_63
*715 PHY_EDGE_ROW_24_Right_24
*716 PHY_EDGE_ROW_25_Left_64
*717 PHY_EDGE_ROW_25_Right_25
*718 PHY_EDGE_ROW_26_Left_65
*719 PHY_EDGE_ROW_26_Right_26
*720 PHY_EDGE_ROW_27_Left_66
*721 PHY_EDGE_ROW_27_Right_27
*722 PHY_EDGE_ROW_28_Left_67
*723 PHY_EDGE_ROW_28_Right_28
*724 PHY_EDGE_ROW_29_Left_68
*725 PHY_EDGE_ROW_29_Right_29
*726 PHY_EDGE_ROW_2_Left_41
*727 PHY_EDGE_ROW_2_Right_2
*728 PHY_EDGE_ROW_30_Left_69
*729 PHY_EDGE_ROW_30_Right_30
*730 PHY_EDGE_ROW_31_Left_70
*731 PHY_EDGE_ROW_31_Right_31
*732 PHY_EDGE_ROW_32_Left_71
*733 PHY_EDGE_ROW_32_Right_32
*734 PHY_EDGE_ROW_33_Left_72
*735 PHY_EDGE_ROW_33_Right_33
*736 PHY_EDGE_ROW_34_Left_73
*737 PHY_EDGE_ROW_34_Right_34
*738 PHY_EDGE_ROW_35_Left_74
*739 PHY_EDGE_ROW_35_Right_35
*740 PHY_EDGE_ROW_36_Left_75
*741 PHY_EDGE_ROW_36_Right_36
*742 PHY_EDGE_ROW_37_Left_76
*743 PHY_EDGE_ROW_37_Right_37
*744 PHY_EDGE_ROW_38_Left_77
*745 PHY_EDGE_ROW_38_Right_38
*746 PHY_EDGE_ROW_3_Left_42
*747 PHY_EDGE_ROW_3_Right_3
*748 PHY_EDGE_ROW_4_Left_43
*749 PHY_EDGE_ROW_4_Right_4
*750 PHY_EDGE_ROW_5_Left_44
*751 PHY_EDGE_ROW_5_Right_5
*752 PHY_EDGE_ROW_6_Left_45
*753 PHY_EDGE_ROW_6_Right_6
*754 PHY_EDGE_ROW_7_Left_46
*755 PHY_EDGE_ROW_7_Right_7
*756 PHY_EDGE_ROW_8_Left_47
*757 PHY_EDGE_ROW_8_Right_8
*758 PHY_EDGE_ROW_9_Left_48
*759 PHY_EDGE_ROW_9_Right_9
*760 TAP_TAPCELL_ROW_0_78
*761 TAP_TAPCELL_ROW_0_79
*762 TAP_TAPCELL_ROW_0_80
*763 TAP_TAPCELL_ROW_0_81
*764 TAP_TAPCELL_ROW_0_82
*765 TAP_TAPCELL_ROW_0_83
*766 TAP_TAPCELL_ROW_0_84
*767 TAP_TAPCELL_ROW_0_85
*768 TAP_TAPCELL_ROW_10_122
*769 TAP_TAPCELL_ROW_10_123
*770 TAP_TAPCELL_ROW_10_124
*771 TAP_TAPCELL_ROW_10_125
*772 TAP_TAPCELL_ROW_11_126
*773 TAP_TAPCELL_ROW_11_127
*774 TAP_TAPCELL_ROW_11_128
*775 TAP_TAPCELL_ROW_11_129
*776 TAP_TAPCELL_ROW_12_130
*777 TAP_TAPCELL_ROW_12_131
*778 TAP_TAPCELL_ROW_12_132
*779 TAP_TAPCELL_ROW_12_133
*780 TAP_TAPCELL_ROW_13_134
*781 TAP_TAPCELL_ROW_13_135
*782 TAP_TAPCELL_ROW_13_136
*783 TAP_TAPCELL_ROW_13_137
*784 TAP_TAPCELL_ROW_14_138
*785 TAP_TAPCELL_ROW_14_139
*786 TAP_TAPCELL_ROW_14_140
*787 TAP_TAPCELL_ROW_14_141
*788 TAP_TAPCELL_ROW_15_142
*789 TAP_TAPCELL_ROW_15_143
*790 TAP_TAPCELL_ROW_15_144
*791 TAP_TAPCELL_ROW_15_145
*792 TAP_TAPCELL_ROW_16_146
*793 TAP_TAPCELL_ROW_16_147
*794 TAP_TAPCELL_ROW_16_148
*795 TAP_TAPCELL_ROW_16_149
*796 TAP_TAPCELL_ROW_17_150
*797 TAP_TAPCELL_ROW_17_151
*798 TAP_TAPCELL_ROW_17_152
*799 TAP_TAPCELL_ROW_17_153
*800 TAP_TAPCELL_ROW_18_154
*801 TAP_TAPCELL_ROW_18_155
*802 TAP_TAPCELL_ROW_18_156
*803 TAP_TAPCELL_ROW_18_157
*804 TAP_TAPCELL_ROW_19_158
*805 TAP_TAPCELL_ROW_19_159
*806 TAP_TAPCELL_ROW_19_160
*807 TAP_TAPCELL_ROW_19_161
*808 TAP_TAPCELL_ROW_1_86
*809 TAP_TAPCELL_ROW_1_87
*810 TAP_TAPCELL_ROW_1_88
*811 TAP_TAPCELL_ROW_1_89
*812 TAP_TAPCELL_ROW_20_162
*813 TAP_TAPCELL_ROW_20_163
*814 TAP_TAPCELL_ROW_20_164
*815 TAP_TAPCELL_ROW_20_165
*816 TAP_TAPCELL_ROW_21_166
*817 TAP_TAPCELL_ROW_21_167
*818 TAP_TAPCELL_ROW_21_168
*819 TAP_TAPCELL_ROW_21_169
*820 TAP_TAPCELL_ROW_22_170
*821 TAP_TAPCELL_ROW_22_171
*822 TAP_TAPCELL_ROW_22_172
*823 TAP_TAPCELL_ROW_22_173
*824 TAP_TAPCELL_ROW_23_174
*825 TAP_TAPCELL_ROW_23_175
*826 TAP_TAPCELL_ROW_23_176
*827 TAP_TAPCELL_ROW_23_177
*828 TAP_TAPCELL_ROW_24_178
*829 TAP_TAPCELL_ROW_24_179
*830 TAP_TAPCELL_ROW_24_180
*831 TAP_TAPCELL_ROW_24_181
*832 TAP_TAPCELL_ROW_25_182
*833 TAP_TAPCELL_ROW_25_183
*834 TAP_TAPCELL_ROW_25_184
*835 TAP_TAPCELL_ROW_25_185
*836 TAP_TAPCELL_ROW_26_186
*837 TAP_TAPCELL_ROW_26_187
*838 TAP_TAPCELL_ROW_26_188
*839 TAP_TAPCELL_ROW_26_189
*840 TAP_TAPCELL_ROW_27_190
*841 TAP_TAPCELL_ROW_27_191
*842 TAP_TAPCELL_ROW_27_192
*843 TAP_TAPCELL_ROW_27_193
*844 TAP_TAPCELL_ROW_28_194
*845 TAP_TAPCELL_ROW_28_195
*846 TAP_TAPCELL_ROW_28_196
*847 TAP_TAPCELL_ROW_28_197
*848 TAP_TAPCELL_ROW_29_198
*849 TAP_TAPCELL_ROW_29_199
*850 TAP_TAPCELL_ROW_29_200
*851 TAP_TAPCELL_ROW_29_201
*852 TAP_TAPCELL_ROW_2_90
*853 TAP_TAPCELL_ROW_2_91
*854 TAP_TAPCELL_ROW_2_92
*855 TAP_TAPCELL_ROW_2_93
*856 TAP_TAPCELL_ROW_30_202
*857 TAP_TAPCELL_ROW_30_203
*858 TAP_TAPCELL_ROW_30_204
*859 TAP_TAPCELL_ROW_30_205
*860 TAP_TAPCELL_ROW_31_206
*861 TAP_TAPCELL_ROW_31_207
*862 TAP_TAPCELL_ROW_31_208
*863 TAP_TAPCELL_ROW_31_209
*864 TAP_TAPCELL_ROW_32_210
*865 TAP_TAPCELL_ROW_32_211
*866 TAP_TAPCELL_ROW_32_212
*867 TAP_TAPCELL_ROW_32_213
*868 TAP_TAPCELL_ROW_33_214
*869 TAP_TAPCELL_ROW_33_215
*870 TAP_TAPCELL_ROW_33_216
*871 TAP_TAPCELL_ROW_33_217
*872 TAP_TAPCELL_ROW_34_218
*873 TAP_TAPCELL_ROW_34_219
*874 TAP_TAPCELL_ROW_34_220
*875 TAP_TAPCELL_ROW_34_221
*876 TAP_TAPCELL_ROW_35_222
*877 TAP_TAPCELL_ROW_35_223
*878 TAP_TAPCELL_ROW_35_224
*879 TAP_TAPCELL_ROW_35_225
*880 TAP_TAPCELL_ROW_36_226
*881 TAP_TAPCELL_ROW_36_227
*882 TAP_TAPCELL_ROW_36_228
*883 TAP_TAPCELL_ROW_36_229
*884 TAP_TAPCELL_ROW_37_230
*885 TAP_TAPCELL_ROW_37_231
*886 TAP_TAPCELL_ROW_37_232
*887 TAP_TAPCELL_ROW_37_233
*888 TAP_TAPCELL_ROW_38_234
*889 TAP_TAPCELL_ROW_38_235
*890 TAP_TAPCELL_ROW_38_236
*891 TAP_TAPCELL_ROW_38_237
*892 TAP_TAPCELL_ROW_38_238
*893 TAP_TAPCELL_ROW_38_239
*894 TAP_TAPCELL_ROW_38_240
*895 TAP_TAPCELL_ROW_38_241
*896 TAP_TAPCELL_ROW_3_94
*897 TAP_TAPCELL_ROW_3_95
*898 TAP_TAPCELL_ROW_3_96
*899 TAP_TAPCELL_ROW_3_97
*900 TAP_TAPCELL_ROW_4_100
*901 TAP_TAPCELL_ROW_4_101
*902 TAP_TAPCELL_ROW_4_98
*903 TAP_TAPCELL_ROW_4_99
*904 TAP_TAPCELL_ROW_5_102
*905 TAP_TAPCELL_ROW_5_103
*906 TAP_TAPCELL_ROW_5_104
*907 TAP_TAPCELL_ROW_5_105
*908 TAP_TAPCELL_ROW_6_106
*909 TAP_TAPCELL_ROW_6_107
*910 TAP_TAPCELL_ROW_6_108
*911 TAP_TAPCELL_ROW_6_109
*912 TAP_TAPCELL_ROW_7_110
*913 TAP_TAPCELL_ROW_7_111
*914 TAP_TAPCELL_ROW_7_112
*915 TAP_TAPCELL_ROW_7_113
*916 TAP_TAPCELL_ROW_8_114
*917 TAP_TAPCELL_ROW_8_115
*918 TAP_TAPCELL_ROW_8_116
*919 TAP_TAPCELL_ROW_8_117
*920 TAP_TAPCELL_ROW_9_118
*921 TAP_TAPCELL_ROW_9_119
*922 TAP_TAPCELL_ROW_9_120
*923 TAP_TAPCELL_ROW_9_121
*924 _471_
*925 _472_
*926 _473_
*927 _474_
*928 _475_
*929 _476_
*930 _477_
*931 _478_
*932 _479_
*933 _480_
*934 _481_
*935 _482_
*936 _483_
*937 _484_
*938 _485_
*939 _486_
*940 _487_
*941 _488_
*942 _489_
*943 _490_
*944 _491_
*945 _492_
*946 _493_
*947 _494_
*948 _495_
*949 _496_
*950 _497_
*951 _498_
*952 _499_
*953 _500_
*954 _501_
*955 _502_
*956 _503_
*957 _504_
*958 _505_
*959 _506_
*960 _507_
*961 _508_
*962 _509_
*963 _510_
*964 _511_
*965 _512_
*966 _513_
*967 _514_
*968 _515_
*969 _516_
*970 _517_
*971 _518_
*972 _519_
*973 _520_
*974 _521_
*975 _522_
*976 _523_
*977 _524_
*978 _525_
*979 _526_
*980 _527_
*981 _528_
*982 _529_
*983 _530_
*984 _531_
*985 _532_
*986 _533_
*987 _534_
*988 _535_
*989 _536_
*990 _537_
*991 _538_
*992 _539_
*993 _540_
*994 _541_
*995 _542_
*996 _543_
*997 _544_
*998 _545_
*999 _546_
*1000 _547_
*1001 _548_
*1002 _549_
*1003 _550_
*1004 _551_
*1005 _552_
*1006 _553_
*1007 _554_
*1008 _555_
*1009 _556_
*1010 _557_
*1011 _558_
*1012 _559_
*1013 _560_
*1014 _561_
*1015 _562_
*1016 _563_
*1017 _564_
*1018 _565_
*1019 _566_
*1020 _567_
*1021 _568_
*1022 _569_
*1023 _570_
*1024 _571_
*1025 _572_
*1026 _573_
*1027 _574_
*1028 _575_
*1029 _576_
*1030 _577_
*1031 _578_
*1032 _579_
*1033 _580_
*1034 _581_
*1035 _582_
*1036 _583_
*1037 _584_
*1038 _585_
*1039 _586_
*1040 _587_
*1041 _588_
*1042 _589_
*1043 _590_
*1044 _591_
*1045 _592_
*1046 _593_
*1047 _594_
*1048 _595_
*1049 _596_
*1050 _597_
*1051 _598_
*1052 _599_
*1053 _600_
*1054 _601_
*1055 _602_
*1056 _603_
*1057 _604_
*1058 _605_
*1059 _606_
*1060 _607_
*1061 _608_
*1062 _609_
*1063 _610_
*1064 _611_
*1065 _612_
*1066 _613_
*1067 _614_
*1068 _615_
*1069 _616_
*1070 _617_
*1071 _618_
*1072 _619_
*1073 _620_
*1074 _621_
*1075 _622_
*1076 _623_
*1077 _624_
*1078 _625_
*1079 _626_
*1080 _627_
*1081 _628_
*1082 _629_
*1083 _630_
*1084 _631_
*1085 _632_
*1086 _633_
*1087 _634_
*1088 _635_
*1089 _636_
*1090 _637_
*1091 _638_
*1092 _639_
*1093 _640_
*1094 _641_
*1095 _642_
*1096 _643_
*1097 _644_
*1098 _645_
*1099 _646_
*1100 _647_
*1101 _648_
*1102 _649_
*1103 _650_
*1104 _651_
*1105 _652_
*1106 _653_
*1107 _654_
*1108 _655_
*1109 _656_
*1110 _657_
*1111 _658_
*1112 _659_
*1113 _660_
*1114 _661_
*1115 _662_
*1116 _663_
*1117 _664_
*1118 _665_
*1119 _666_
*1120 _667_
*1121 _668_
*1122 _669_
*1123 _670_
*1124 _671_
*1125 _672_
*1126 _673_
*1127 _674_
*1128 _675_
*1129 _676_
*1130 _677_
*1131 _678_
*1132 _679_
*1133 _680_
*1134 _681_
*1135 _682_
*1136 _683_
*1137 _684_
*1138 _685_
*1139 _686_
*1140 _687_
*1141 _688_
*1142 _689_
*1143 _690_
*1144 _691_
*1145 _692_
*1146 _693_
*1147 _694_
*1148 _695_
*1149 _696_
*1150 _697_
*1151 _698_
*1152 _699_
*1153 _700_
*1154 _701_
*1155 _702_
*1156 _703_
*1157 _704_
*1158 _705_
*1159 _706_
*1160 _707_
*1161 _708_
*1162 _709_
*1163 _710_
*1164 _711_
*1165 _712_
*1166 _713_
*1167 _714_
*1168 _715_
*1169 _716_
*1170 _717_
*1171 _718_
*1172 _719_
*1173 _720_
*1174 _721_
*1175 _722_
*1176 _723_
*1177 _724_
*1178 _725_
*1179 _726_
*1180 _727_
*1181 _728_
*1182 _729_
*1183 _730_
*1184 _731_
*1185 _732_
*1186 _733_
*1187 _734_
*1188 _735_
*1189 _736_
*1190 _737_
*1191 _738_
*1192 _739_
*1193 _740_
*1194 _741_
*1195 _742_
*1196 _743_
*1197 _744_
*1198 _745_
*1199 _746_
*1200 _747_
*1201 _748_
*1202 _749_
*1203 _750_
*1204 _751_
*1205 _752_
*1206 _753_
*1207 _754_
*1208 _755_
*1209 _756_
*1210 _757_
*1211 _758_
*1212 _759_
*1213 _760_
*1214 _761_
*1215 _762_
*1216 _763_
*1217 _764_
*1218 _765_
*1219 _766_
*1220 _767_
*1221 _768_
*1222 _769_
*1223 _770_
*1224 _771_
*1225 _772_
*1226 _773_
*1227 _774_
*1228 _775_
*1229 _776_
*1230 _777_
*1231 _778_
*1232 _779_
*1233 _780_
*1234 _781_
*1235 _782_
*1236 _783_
*1237 _784_
*1238 _785_
*1239 _786_
*1240 _787_
*1241 _788_
*1242 _789_
*1243 _790_
*1244 _791_
*1245 _792_
*1246 _793_
*1247 _794_
*1248 _795_
*1249 _796_
*1250 _797_
*1251 _798_
*1252 _799_
*1253 _800_
*1254 _801_
*1255 _802_
*1256 _803_
*1257 _804_
*1258 _805_
*1259 _806_
*1260 _807_
*1261 _808_
*1262 _809_
*1263 _810_
*1264 _811_
*1265 _812_
*1266 _813_
*1267 _814_
*1268 _815_
*1269 _816_
*1270 _817_
*1271 _818_
*1272 _819_
*1273 _820_
*1274 _821_
*1275 _822_
*1276 _823_
*1277 _824_
*1278 _825_
*1279 _826_
*1280 _827_
*1281 _828_
*1282 _829_
*1283 _830_
*1284 _831_
*1285 _832_
*1286 _833_
*1287 _834_
*1288 _835_
*1289 _836_
*1290 _837_
*1291 _838_
*1292 _839_
*1293 _840_
*1294 _841_
*1295 _842_
*1296 _843_
*1297 _844_
*1298 _845_
*1299 _846_
*1300 _847_
*1301 _848_
*1302 _849_
*1303 _850_
*1304 _851_
*1305 _852_
*1306 _853_
*1307 _854_
*1308 _855_
*1309 _856_
*1310 _857_
*1311 _858_
*1312 _859_
*1313 _860_
*1314 _861_
*1315 _862_
*1316 _863_
*1317 _864_
*1318 _865_
*1319 _866_
*1320 _867_
*1321 _868_
*1322 _869_
*1323 _870_
*1324 _871_
*1325 _872_
*1326 _873_
*1327 _874_
*1328 _875_
*1329 _876_
*1330 _877_
*1331 _878_
*1332 _879_
*1333 _880_
*1334 _881_
*1335 _882_
*1336 _883_
*1337 _884_
*1338 _885_
*1339 _886_
*1340 _887_
*1341 _888_
*1342 _889_
*1343 _890_
*1344 _891_
*1345 _892_
*1346 _893_
*1347 _894_
*1348 _895_
*1349 _896_
*1350 _897_
*1351 _898_
*1352 _899_
*1353 _900_
*1354 _901_
*1355 _902_
*1356 _903_
*1357 _904_
*1358 _905_
*1359 _906_
*1360 _907_
*1361 _908_
*1362 _909_
*1363 _910_
*1364 _911_
*1365 _912_
*1366 _913_
*1367 _914_
*1368 _915_
*1369 _916_
*1370 _917_
*1371 _918_
*1372 _919_
*1373 _920_
*1374 _921_
*1375 _922_
*1376 _923_
*1377 _924_
*1378 _925_
*1379 _926_
*1380 _927_
*1381 _928_
*1382 _929_
*1383 _930_
*1384 _931_
*1385 _932_
*1386 _933_
*1387 _934_
*1388 _935_
*1389 _936_
*1390 _937_
*1391 _938_
*1392 _939_
*1393 _940_
*1394 _941_
*1395 _942_
*1396 _943_
*1397 _944_
*1398 _945_
*1399 _946_
*1400 _947_
*1401 _948_
*1402 _949_
*1403 _950_
*1404 _951_
*1405 _952_
*1406 _953_
*1407 _954_
*1408 _955_
*1409 _956_
*1410 _957_
*1411 clone140
*1412 fanout45
*1413 fanout46
*1414 fanout47
*1415 fanout48
*1416 fanout49
*1417 fanout50
*1418 fanout51
*1419 fanout52
*1420 fanout53
*1421 fanout55
*1422 fanout57
*1423 fanout58
*1424 fanout59
*1425 fanout60
*1426 fanout61
*1427 fanout62
*1428 fanout63
*1429 fanout64
*1430 fanout65
*1431 fanout66
*1432 fanout68
*1433 fanout70
*1434 fanout73
*1435 fanout74
*1436 fanout75
*1437 fanout77
*1438 fanout79
*1439 fanout80
*1440 fanout82
*1441 fanout83
*1442 fanout85
*1443 fanout88
*1444 fanout90
*1445 fanout91
*1446 fanout93
*1447 fanout94
*1448 fanout95
*1449 input1
*1450 input10
*1451 input11
*1452 input12
*1453 input13
*1454 input14
*1455 input15
*1456 input16
*1457 input2
*1458 input3
*1459 input4
*1460 input5
*1461 input6
*1462 input7
*1463 input8
*1464 input9
*1465 load_slew69
*1466 load_slew71
*1467 load_slew76
*1468 load_slew78
*1469 load_slew84
*1470 load_slew89
*1471 load_slew92
*1472 max_cap33
*1473 max_cap34
*1474 max_cap36
*1475 max_cap37
*1476 max_cap38
*1477 max_cap40
*1478 max_cap41
*1479 max_cap43
*1480 max_cap44
*1481 output17
*1482 output18
*1483 output19
*1484 output20
*1485 output21
*1486 output22
*1487 output23
*1488 output24
*1489 output25
*1490 output26
*1491 output27
*1492 output28
*1493 output29
*1494 output30
*1495 output31
*1496 output32
*1497 rebuffer100
*1498 rebuffer101
*1499 rebuffer102
*1500 rebuffer103
*1501 rebuffer104
*1502 rebuffer105
*1503 rebuffer106
*1504 rebuffer107
*1505 rebuffer108
*1506 rebuffer109
*1507 rebuffer110
*1508 rebuffer111
*1509 rebuffer112
*1510 rebuffer113
*1511 rebuffer114
*1512 rebuffer115
*1513 rebuffer116
*1514 rebuffer117
*1515 rebuffer118
*1516 rebuffer119
*1517 rebuffer120
*1518 rebuffer121
*1519 rebuffer122
*1520 rebuffer123
*1521 rebuffer124
*1522 rebuffer125
*1523 rebuffer126
*1524 rebuffer127
*1525 rebuffer128
*1526 rebuffer129
*1527 rebuffer130
*1528 rebuffer131
*1529 rebuffer132
*1530 rebuffer133
*1531 rebuffer134
*1532 rebuffer135
*1533 rebuffer136
*1534 rebuffer137
*1535 rebuffer138
*1536 rebuffer139
*1537 rebuffer141
*1538 rebuffer142
*1539 rebuffer143
*1540 rebuffer144
*1541 rebuffer145
*1542 rebuffer146
*1543 rebuffer147
*1544 rebuffer148
*1545 rebuffer149
*1546 rebuffer150
*1547 rebuffer151
*1548 rebuffer152
*1549 rebuffer153
*1550 rebuffer154
*1551 rebuffer155
*1552 rebuffer156
*1553 rebuffer157
*1554 rebuffer158
*1555 rebuffer159
*1556 rebuffer160
*1557 rebuffer161
*1558 rebuffer162
*1559 rebuffer163
*1560 rebuffer164
*1561 rebuffer165
*1562 rebuffer166
*1563 rebuffer167
*1564 rebuffer168
*1565 rebuffer169
*1566 rebuffer170
*1567 rebuffer171
*1568 rebuffer172
*1569 rebuffer173
*1570 rebuffer174
*1571 rebuffer175
*1572 rebuffer176
*1573 rebuffer177
*1574 rebuffer178
*1575 rebuffer179
*1576 rebuffer180
*1577 rebuffer181
*1578 rebuffer182
*1579 rebuffer183
*1580 rebuffer185
*1581 rebuffer97
*1582 rebuffer98
*1583 rebuffer99
*1584 wire35
*1585 wire81
*1586 wire87

*PORTS
a[0] I
a[1] I
a[2] I
a[3] I
a[4] I
a[5] I
a[6] I
a[7] I
b[0] I
b[1] I
b[2] I
b[3] I
b[4] I
b[5] I
b[6] I
b[7] I
p[0] O
p[10] O
p[11] O
p[12] O
p[13] O
p[14] O
p[15] O
p[1] O
p[2] O
p[3] O
p[4] O
p[5] O
p[6] O
p[7] O
p[8] O
p[9] O

*D_NET *3 0.00114321
*CONN
*P a[0] I
*I *1449:A I *D sky130_fd_sc_hd__clkbuf_4
*CAP
1 a[0] 0.000551557
2 *1449:A 0.000551557
3 *1449:A *1103:B1 2.89016e-05
4 *1449:A *1458:A 1.11993e-05
*RES
1 a[0] *1449:A 24.7464 
*END

*D_NET *4 0.0019543
*CONN
*P a[1] I
*I *1457:A I *D sky130_fd_sc_hd__clkdlybuf4s25_1
*CAP
1 a[1] 0.000638441
2 *1457:A 0.000638441
3 *1457:A p[1] 0
4 *1457:A *941:C 0.000104238
5 *1457:A *941:D 0.000176285
6 *1457:A *629:87 0.000396898
*RES
1 a[1] *1457:A 28.3357 
*END

*D_NET *5 0.00505256
*CONN
*P a[2] I
*I *1458:A I *D sky130_fd_sc_hd__clkbuf_2
*CAP
1 a[2] 0.00178308
2 *1458:A 0.00178308
3 *1458:A *1064:A2 0
4 *1458:A *1064:A3 0.000102187
5 *1458:A *1064:B1 0.000140126
6 *1458:A *1103:B1 0
7 *1458:A *1108:A1 3.97563e-05
8 *1458:A *1108:A2 9.90367e-05
9 *1458:A *1108:B1 5.84355e-05
10 *1458:A *1108:C1 2.59355e-05
11 *1458:A *1155:A1 2.89016e-05
12 *1458:A *1159:A1 5.49544e-05
13 *1458:A *1535:A 0
14 *1458:A *282:12 3.68826e-05
15 *1458:A *282:18 5.52238e-05
16 *1458:A *506:12 3.38578e-05
17 *1458:A *506:18 0
18 *1458:A *525:18 5.33334e-05
19 *1458:A *543:10 1.32552e-05
20 *1458:A *583:16 0.000365794
21 *1458:A *599:22 0.000200728
22 *1458:A *613:14 2.88018e-06
23 *1458:A *637:58 0.000163916
24 *1449:A *1458:A 1.11993e-05
*RES
1 a[2] *1458:A 45.8714 
*END

*D_NET *6 0.0012408
*CONN
*P a[3] I
*I *1459:A I *D sky130_fd_sc_hd__clkdlybuf4s25_1
*CAP
1 a[3] 0.000548451
2 *1459:A 0.000548451
3 *1459:A *1450:A 0
4 *1459:A *1451:A 0
5 *1459:A *459:10 8.86669e-05
6 *1459:A *507:14 5.52302e-05
*RES
1 a[3] *1459:A 25.05 
*END

*D_NET *7 0.00113228
*CONN
*P a[4] I
*I *1460:A I *D sky130_fd_sc_hd__clkdlybuf4s25_1
*CAP
1 a[4] 0.000509326
2 *1460:A 0.000509326
3 *1460:A *1461:A 0
4 *1460:A *1463:A 0.000113626
*RES
1 a[4] *1460:A 25.4662 
*END

*D_NET *8 0.00127333
*CONN
*P a[5] I
*I *1461:A I *D sky130_fd_sc_hd__dlymetal6s2s_1
*CAP
1 a[5] 0.00050094
2 *1461:A 0.00050094
3 *1461:A *1455:A 0
4 *1461:A *1463:A 0
5 *1461:A *405:12 0.000165157
6 *1461:A *662:14 0.000106299
7 *1460:A *1461:A 0
*RES
1 a[5] *1461:A 22.8303 
*END

*D_NET *9 0.00137267
*CONN
*P a[6] I
*I *1462:A I *D sky130_fd_sc_hd__dlymetal6s4s_1
*CAP
1 a[6] 0.000389357
2 *1462:A 0.000389357
3 *1462:A *1451:A 0.0004835
4 *1462:A *459:10 5.52302e-05
5 *1462:A *507:14 5.52302e-05
*RES
1 a[6] *1462:A 25.05 
*END

*D_NET *10 0.00182249
*CONN
*P a[7] I
*I *1463:A I *D sky130_fd_sc_hd__clkbuf_2
*CAP
1 a[7] 0.000352083
2 *1463:A 0.000352083
3 *1463:A p[15] 0.000695025
4 *1463:A *648:10 0
5 *1463:A *662:8 0.000169405
6 *1463:A *662:14 0.000140263
7 *1460:A *1463:A 0.000113626
8 *1461:A *1463:A 0
*RES
1 a[7] *1463:A 23.206 
*END

*D_NET *11 0.00512534
*CONN
*P b[0] I
*I *1464:A I *D sky130_fd_sc_hd__clkbuf_2
*CAP
1 b[0] 0.00189694
2 *1464:A 0
3 *11:17 0.00189694
4 *11:17 *1100:A 0.000161868
5 *11:17 *1101:C1 3.40043e-05
6 *11:17 *1443:A 6.62868e-05
7 *11:17 *1451:A 0.000171817
8 *11:17 *1586:A 8.48428e-05
9 *11:17 *144:10 0.000103253
10 *11:17 *460:14 3.14048e-05
11 *11:17 *518:12 0.000282313
12 *11:17 *640:42 0
13 *11:17 *669:10 0.000318101
14 *11:17 *672:16 7.75834e-05
*RES
1 b[0] *11:17 44.1607 
2 *11:17 *1464:A 9.3 
*END

*D_NET *12 0.00120677
*CONN
*P b[1] I
*I *1450:A I *D sky130_fd_sc_hd__buf_6
*CAP
1 b[1] 0.000603385
2 *1450:A 0.000603385
3 *1450:A *459:10 0
4 *1459:A *1450:A 0
*RES
1 b[1] *1450:A 25.4607 
*END

*D_NET *13 0.00276433
*CONN
*P b[2] I
*I *1451:A I *D sky130_fd_sc_hd__clkbuf_2
*CAP
1 b[2] 0.000758475
2 *1451:A 0.000758475
3 *1451:A *1427:A 5.57486e-05
4 *1451:A *459:10 0
5 *1451:A *518:12 0.000104564
6 *1451:A *594:8 0.000310526
7 *1451:A *623:10 0.000112777
8 *1451:A *672:16 8.44271e-06
9 *1459:A *1451:A 0
10 *1462:A *1451:A 0.0004835
11 *11:17 *1451:A 0.000171817
*RES
1 b[2] *1451:A 33.2643 
*END

*D_NET *14 0.0008551
*CONN
*P b[3] I
*I *1452:A I *D sky130_fd_sc_hd__buf_6
*CAP
1 b[3] 0.000387128
2 *1452:A 0.000387128
3 *1452:A *1453:A 8.08429e-05
4 *1452:A *662:14 0
*RES
1 b[3] *1452:A 21.7901 
*END

*D_NET *15 0.000770713
*CONN
*P b[4] I
*I *1453:A I *D sky130_fd_sc_hd__clkdlybuf4s25_1
*CAP
1 b[4] 0.000344935
2 *1453:A 0.000344935
3 *1452:A *1453:A 8.08429e-05
*RES
1 b[4] *1453:A 21.7531 
*END

*D_NET *16 0.00125179
*CONN
*P b[5] I
*I *1454:A I *D sky130_fd_sc_hd__buf_6
*CAP
1 b[5] 0.000326261
2 *1454:A 0.000326261
3 *1454:A p[3] 0.000586414
4 *1454:A *1490:A 1.28585e-05
*RES
1 b[5] *1454:A 19.0495 
*END

*D_NET *17 0.000979171
*CONN
*P b[6] I
*I *1455:A I *D sky130_fd_sc_hd__clkdlybuf4s25_1
*CAP
1 b[6] 0.000407007
2 *1455:A 0.000407007
3 *1455:A *405:12 0.000165157
4 *1461:A *1455:A 0
*RES
1 b[6] *1455:A 20.4017 
*END

*D_NET *18 0.00087135
*CONN
*P b[7] I
*I *1456:A I *D sky130_fd_sc_hd__clkbuf_2
*CAP
1 b[7] 0.000435675
2 *1456:A 0.000435675
3 *1456:A p[14] 0
*RES
1 b[7] *1456:A 19.5631 
*END

*D_NET *19 0.00210948
*CONN
*P p[0] O
*I *1481:X O *D sky130_fd_sc_hd__clkdlybuf4s25_1
*CAP
1 p[0] 0.000637272
2 *1481:X 0.000637272
3 p[0] p[1] 0.000477121
4 p[0] *948:B2 3.48705e-05
5 p[0] *1481:A 5.71472e-05
6 p[0] *629:87 0.000265794
*RES
1 *1481:X p[0] 30.0857 
*END

*D_NET *20 0.0012039
*CONN
*P p[10] O
*I *1482:X O *D sky130_fd_sc_hd__clkbuf_2
*CAP
1 p[10] 0.000601951
2 *1482:X 0.000601951
3 p[10] p[9] 0
*RES
1 *1482:X p[10] 25.5277 
*END

*D_NET *21 0.00120916
*CONN
*P p[11] O
*I *1483:X O *D sky130_fd_sc_hd__clkbuf_2
*CAP
1 p[11] 0.000593212
2 *1483:X 0.000593212
3 p[11] *1483:A 2.27416e-05
*RES
1 *1483:X p[11] 25.5277 
*END

*D_NET *22 0.00143286
*CONN
*P p[12] O
*I *1484:X O *D sky130_fd_sc_hd__buf_6
*CAP
1 p[12] 0.000716432
2 *1484:X 0.000716432
*RES
1 *1484:X p[12] 27.4741 
*END

*D_NET *23 0.00122852
*CONN
*P p[13] O
*I *1485:X O *D sky130_fd_sc_hd__buf_6
*CAP
1 p[13] 0.000614259
2 *1485:X 0.000614259
*RES
1 *1485:X p[13] 25.8312 
*END

*D_NET *24 0.00110657
*CONN
*P p[14] O
*I *1486:X O *D sky130_fd_sc_hd__clkbuf_2
*CAP
1 p[14] 0.000519413
2 *1486:X 0.000519413
3 p[14] *1486:A 6.77408e-05
4 *1456:A p[14] 0
*RES
1 *1486:X p[14] 20.3864 
*END

*D_NET *25 0.00188714
*CONN
*P p[15] O
*I *1487:X O *D sky130_fd_sc_hd__buf_6
*CAP
1 p[15] 0.000596056
2 *1487:X 0.000596056
3 p[15] *573:12 0
4 p[15] *648:10 0
5 *1463:A p[15] 0.000695025
*RES
1 *1487:X p[15] 24.2767 
*END

*D_NET *26 0.00228917
*CONN
*P p[1] O
*I *1488:X O *D sky130_fd_sc_hd__clkdlybuf4s25_1
*CAP
1 p[1] 0.000811203
2 *1488:X 0.000811203
3 p[1] *941:B 9.14786e-05
4 p[1] *1488:A 5.06983e-05
5 p[1] *589:18 4.74612e-05
6 p[0] p[1] 0.000477121
7 *1457:A p[1] 0
*RES
1 *1488:X p[1] 30.5679 
*END

*D_NET *27 0.00115785
*CONN
*P p[2] O
*I *1489:X O *D sky130_fd_sc_hd__dlymetal6s2s_1
*CAP
1 p[2] 0.000578927
2 *1489:X 0.000578927
*RES
1 *1489:X p[2] 25.05 
*END

*D_NET *28 0.0019723
*CONN
*P p[3] O
*I *1490:X O *D sky130_fd_sc_hd__clkdlybuf4s25_1
*CAP
1 p[3] 0.00058011
2 *1490:X 0.00058011
3 p[3] p[4] 0.000203458
4 p[3] *495:10 2.22043e-05
5 *1454:A p[3] 0.000586414
*RES
1 *1490:X p[3] 19.6981 
*END

*D_NET *29 0.000853008
*CONN
*P p[4] O
*I *1491:X O *D sky130_fd_sc_hd__clkdlybuf4s25_1
*CAP
1 p[4] 0.000324775
2 *1491:X 0.000324775
3 p[4] *1491:A 0
4 p[3] p[4] 0.000203458
*RES
1 *1491:X p[4] 19.2243 
*END

*D_NET *30 0.00163323
*CONN
*P p[5] O
*I *1492:X O *D sky130_fd_sc_hd__dlygate4sd1_1
*CAP
1 p[5] 0.000703782
2 *1492:X 0.000703782
3 p[5] p[6] 0
4 p[5] *1051:A1 6.57431e-05
5 p[5] *1509:A 0.000142315
6 p[5] *469:41 1.76039e-05
*RES
1 *1492:X p[5] 23.2995 
*END

*D_NET *31 0.00114457
*CONN
*P p[6] O
*I *1493:X O *D sky130_fd_sc_hd__clkbuf_2
*CAP
1 p[6] 0.000554433
2 *1493:X 0.000554433
3 p[6] *1493:A 3.5707e-05
4 p[6] *91:32 0
5 p[5] p[6] 0
*RES
1 *1493:X p[6] 21.4934 
*END

*D_NET *32 0.00131351
*CONN
*P p[7] O
*I *1494:X O *D sky130_fd_sc_hd__clkdlybuf4s25_1
*CAP
1 p[7] 0.000656755
2 *1494:X 0.000656755
3 p[7] p[8] 0
*RES
1 *1494:X p[7] 23.7032 
*END

*D_NET *33 0.0012362
*CONN
*P p[8] O
*I *1495:X O *D sky130_fd_sc_hd__clkbuf_2
*CAP
1 p[8] 0.000618098
2 *1495:X 0.000618098
3 p[7] p[8] 0
*RES
1 *1495:X p[8] 19.5693 
*END

*D_NET *34 0.00141679
*CONN
*P p[9] O
*I *1496:X O *D sky130_fd_sc_hd__clkbuf_2
*CAP
1 p[9] 0.000708396
2 *1496:X 0.000708396
3 p[10] p[9] 0
*RES
1 *1496:X p[9] 27.1705 
*END

*D_NET *35 0.00200277
*CONN
*I *992:B1 I *D sky130_fd_sc_hd__a21oi_2
*I *994:B2 I *D sky130_fd_sc_hd__o2bb2ai_2
*I *991:X O *D sky130_fd_sc_hd__and3_2
*CAP
1 *992:B1 0.000219908
2 *994:B2 2.37855e-05
3 *991:X 7.51052e-05
4 *35:12 0.000318799
5 *992:B1 *994:A2_N 2.59355e-05
6 *992:B1 *1040:A3 2.31791e-05
7 *992:B1 *36:8 0.000169333
8 *992:B1 *38:6 6.25848e-05
9 *992:B1 *69:12 0.000479645
10 *992:B1 *499:22 0.000217406
11 *992:B1 *502:25 7.02611e-05
12 *992:B1 *646:72 1.00375e-05
13 *992:B1 *672:83 2.42516e-05
14 *35:12 *991:A 4.84486e-05
15 *35:12 *69:12 9.71197e-05
16 *35:12 *503:10 6.05161e-06
17 *35:12 *644:102 0.000101346
18 *35:12 *672:83 2.95726e-05
*RES
1 *991:X *35:12 20.5857 
2 *35:12 *994:B2 9.72857 
3 *35:12 *992:B1 25.8 
*END

*D_NET *36 0.00100786
*CONN
*I *1040:A3 I *D sky130_fd_sc_hd__a311o_2
*I *993:C I *D sky130_fd_sc_hd__nand3_4
*I *992:Y O *D sky130_fd_sc_hd__a21oi_2
*CAP
1 *1040:A3 0.000135236
2 *993:C 0
3 *992:Y 7.65403e-05
4 *36:8 0.000211777
5 *1040:A3 *1539:A 4.46186e-06
6 *1040:A3 *499:22 7.15591e-05
7 *1040:A3 *625:8 0.000139913
8 *1040:A3 *646:72 9.24299e-05
9 *36:8 *646:72 8.34323e-05
10 *992:B1 *1040:A3 2.31791e-05
11 *992:B1 *36:8 0.000169333
*RES
1 *992:Y *36:8 16.05 
2 *36:8 *993:C 13.8 
3 *36:8 *1040:A3 17.4071 
*END

*D_NET *37 0.00414631
*CONN
*I *1004:B1 I *D sky130_fd_sc_hd__o211ai_2
*I *1003:A1_N I *D sky130_fd_sc_hd__o2bb2ai_2
*I *1006:B1 I *D sky130_fd_sc_hd__o211ai_2
*I *1005:A1_N I *D sky130_fd_sc_hd__o2bb2ai_2
*I *993:Y O *D sky130_fd_sc_hd__nand3_4
*CAP
1 *1004:B1 0.00010463
2 *1003:A1_N 0.00010463
3 *1006:B1 6.9778e-05
4 *1005:A1_N 0
5 *993:Y 0.000265873
6 *37:23 0.000276769
7 *37:10 0.000472863
8 *1004:B1 *1004:A2 0.000186669
9 *1004:B1 *1004:C1 6.90625e-05
10 *1004:B1 *1008:B1 0.000228558
11 *1006:B1 *1004:C1 3.17148e-05
12 *1006:B1 *1006:C1 0.000166269
13 *1006:B1 *66:10 0.000103275
14 *37:10 *949:B 0.00018372
15 *37:10 *999:C 0.000153054
16 *37:10 *38:6 0.000168957
17 *37:10 *38:25 3.14163e-05
18 *37:10 *65:10 0.000153054
19 *37:10 *69:12 0.000610058
20 *37:23 *999:C 0.000137224
21 *37:23 *1003:B2 5.33005e-05
22 *37:23 *1006:A1 9.25014e-06
23 *37:23 *1008:B1 0.000139907
24 *37:23 *1041:A 1.81709e-05
25 *37:23 *38:42 0.000178847
26 *37:23 *43:24 3.37161e-05
27 *37:23 *65:10 0.000195547
*RES
1 *993:Y *37:10 22.8536 
2 *37:10 *1005:A1_N 13.8 
3 *37:10 *37:23 10.0536 
4 *37:23 *1006:B1 20.8536 
5 *37:23 *1003:A1_N 9.3 
6 *1003:A1_N *1004:B1 22.0286 
*END

*D_NET *38 0.00757703
*CONN
*I *1003:A2_N I *D sky130_fd_sc_hd__o2bb2ai_2
*I *1006:C1 I *D sky130_fd_sc_hd__o211ai_2
*I *1004:C1 I *D sky130_fd_sc_hd__o211ai_2
*I *1005:A2_N I *D sky130_fd_sc_hd__o2bb2ai_2
*I *1041:A I *D sky130_fd_sc_hd__nand2_2
*I *994:Y O *D sky130_fd_sc_hd__o2bb2ai_2
*CAP
1 *1003:A2_N 0
2 *1006:C1 0.000133569
3 *1004:C1 0.000419762
4 *1005:A2_N 0
5 *1041:A 0.000189719
6 *994:Y 0.000718168
7 *38:44 0.000553332
8 *38:42 0.000181956
9 *38:25 0.00036164
10 *38:6 0.00108757
11 *1004:C1 *1004:A2 7.90803e-05
12 *1004:C1 *1008:B1 0.000310286
13 *1004:C1 *66:10 1.59689e-05
14 *1006:C1 *1004:A2 9.25014e-06
15 *1006:C1 *1005:B1 1.08359e-05
16 *1006:C1 *1007:B 5.71472e-05
17 *1006:C1 *84:16 0
18 *1041:A *999:C 0.000362538
19 *1041:A *1006:A1 3.17148e-05
20 *1041:A *43:24 9.60875e-05
21 *1041:A *45:6 9.60875e-05
22 *1041:A *69:12 0.000333486
23 *1041:A *647:77 0
24 *38:6 *949:B 0.000100625
25 *38:6 *994:A2_N 5.33005e-05
26 *38:6 *69:12 8.20176e-05
27 *38:6 *116:16 0.000307336
28 *38:6 *502:25 0.0003377
29 *38:25 *65:10 0.000227736
30 *38:25 *271:26 0.000123912
31 *38:42 *1003:B2 9.25014e-06
32 *38:42 *1008:B1 2.14658e-05
33 *38:42 *43:24 0.000219711
34 *38:42 *65:10 0.000185857
35 *38:42 *271:26 0.000132894
36 *992:B1 *38:6 6.25848e-05
37 *1004:B1 *1004:C1 6.90625e-05
38 *1006:B1 *1004:C1 3.17148e-05
39 *1006:B1 *1006:C1 0.000166269
40 *37:10 *38:6 0.000168957
41 *37:10 *38:25 3.14163e-05
42 *37:23 *1041:A 1.81709e-05
43 *37:23 *38:42 0.000178847
*RES
1 *994:Y *38:6 23.8 
2 *38:6 *1041:A 24.8357 
3 *38:6 *38:25 9.125 
4 *38:25 *1005:A2_N 13.8 
5 *38:25 *38:42 10.1964 
6 *38:42 *38:44 4.5 
7 *38:44 *1004:C1 20.4429 
8 *38:44 *1006:C1 16.9964 
9 *38:42 *1003:A2_N 9.3 
*END

*D_NET *39 0.00850869
*CONN
*I *1032:A1 I *D sky130_fd_sc_hd__a21o_2
*I *1252:A2 I *D sky130_fd_sc_hd__o221ai_2
*I *1001:A3 I *D sky130_fd_sc_hd__o31a_2
*I *1000:A3 I *D sky130_fd_sc_hd__o31a_2
*I *995:X O *D sky130_fd_sc_hd__and2_2
*CAP
1 *1032:A1 0
2 *1252:A2 0.000432438
3 *1001:A3 0.000137158
4 *1000:A3 0
5 *995:X 7.24013e-06
6 *39:44 0.00181676
7 *39:14 0.000740987
8 *39:8 0.00199539
9 *1001:A3 *1001:A1 2.50479e-05
10 *1001:A3 *1002:A 4.08637e-05
11 *1001:A3 *41:80 2.16719e-05
12 *1001:A3 *44:12 0.000124657
13 *1001:A3 *634:72 0.000124868
14 *1001:A3 *634:91 5.41794e-05
15 *1001:A3 *646:97 0
16 *1252:A2 *995:B 5.59533e-05
17 *1252:A2 *1253:A2 0.000108535
18 *1252:A2 *75:10 0.000148196
19 *1252:A2 *631:112 0.000221634
20 *1252:A2 *652:56 0.000262357
21 *39:8 *161:35 2.06178e-05
22 *39:8 *665:55 3.43988e-06
23 *39:14 *996:B 9.02133e-05
24 *39:14 *1002:A 5.52238e-05
25 *39:14 *1439:A 0.000439685
26 *39:14 *40:10 5.71472e-05
27 *39:14 *161:35 8.88838e-05
28 *39:14 *548:22 0
29 *39:14 *631:138 0.000112904
30 *39:14 *665:55 1.77247e-05
31 *39:44 *1118:A3 8.78688e-05
32 *39:44 *1252:B2 8.97491e-05
33 *39:44 *42:26 9.89464e-05
34 *39:44 *506:114 0.000108023
35 *39:44 *529:22 0.000780424
36 *39:44 *631:112 5.71472e-05
37 *39:44 *631:119 8.27532e-05
*RES
1 *995:X *39:8 14.0768 
2 *39:8 *39:14 16.0804 
3 *39:14 *1000:A3 9.3 
4 *39:14 *1001:A3 21.6929 
5 *39:8 *39:44 18.1527 
6 *39:44 *1252:A2 25.9964 
7 *39:44 *1032:A1 9.3 
*END

*D_NET *40 0.00166245
*CONN
*I *1412:A I *D sky130_fd_sc_hd__buf_8
*I *1169:B2 I *D sky130_fd_sc_hd__a221o_2
*I *996:Y O *D sky130_fd_sc_hd__nand2_2
*CAP
1 *1412:A 2.05209e-05
2 *1169:B2 8.01145e-05
3 *996:Y 0.000256172
4 *40:10 0.000356807
5 *1169:B2 *1166:B1 5.7616e-05
6 *1169:B2 *1168:B1 5.41794e-05
7 *1169:B2 *1169:B1 1.28809e-05
8 *1169:B2 *357:53 6.61814e-05
9 *1169:B2 *357:66 4.08637e-05
10 *1412:A *1168:A1 2.84494e-05
11 *1412:A *1168:B1 4.66511e-05
12 *40:10 *996:A 5.33882e-05
13 *40:10 *1166:B1 1.50181e-05
14 *40:10 *1168:A1 0.000178101
15 *40:10 *1168:B1 0.000338359
16 *40:10 *114:14 0
17 *39:14 *40:10 5.71472e-05
*RES
1 *996:Y *40:10 20.5321 
2 *40:10 *1169:B2 24.608 
3 *40:10 *1412:A 14.5321 
*END

*D_NET *41 0.0121307
*CONN
*I *1000:A1 I *D sky130_fd_sc_hd__o31a_2
*I *1001:A1 I *D sky130_fd_sc_hd__o31a_2
*I *1078:A2 I *D sky130_fd_sc_hd__a221o_2
*I *1169:A2 I *D sky130_fd_sc_hd__a221o_2
*I *1214:A2 I *D sky130_fd_sc_hd__a221o_2
*I *1326:C I *D sky130_fd_sc_hd__and3_2
*I *997:Y O *D sky130_fd_sc_hd__nor2_2
*CAP
1 *1000:A1 1.7778e-05
2 *1001:A1 6.47833e-05
3 *1078:A2 0
4 *1169:A2 0
5 *1214:A2 2.59951e-05
6 *1326:C 0.000191017
7 *997:Y 0
8 *41:80 0.00041844
9 *41:67 0.00112496
10 *41:48 0.00192235
11 *41:25 0.00208482
12 *41:4 0.00111657
13 *1000:A1 *1002:A 5.52238e-05
14 *1000:A1 *44:12 2.59355e-05
15 *1001:A1 *44:12 0.000123133
16 *1001:A1 *602:29 0.000170055
17 *1214:A2 *1212:A 0
18 *1214:A2 *1214:A1 2.61387e-05
19 *1214:A2 *1215:B1 3.37729e-05
20 *1326:C *997:B 0.000100126
21 *1326:C *540:43 2.77173e-05
22 *1326:C *660:50 6.05161e-06
23 *41:25 *1211:A2 2.14658e-05
24 *41:25 *1214:A1 1.30365e-05
25 *41:25 *1217:B 0.000221634
26 *41:25 *247:22 2.14757e-05
27 *41:25 *640:24 3.4984e-05
28 *41:25 *654:52 2.9281e-05
29 *41:25 *660:50 2.59355e-05
30 *41:25 *660:65 0.000299423
31 *41:48 *1170:A1 0.000286594
32 *41:48 *1170:B1 1.04232e-05
33 *41:48 *1212:A 4.00276e-06
34 *41:48 *1212:C 5.49544e-05
35 *41:48 *1214:A1 1.39726e-05
36 *41:48 *1214:B2 2.80433e-05
37 *41:48 *1214:C1 1.92789e-05
38 *41:48 *190:14 2.59355e-05
39 *41:48 *209:16 0.00021604
40 *41:48 *209:26 0.00013422
41 *41:48 *216:14 0.000506022
42 *41:48 *357:53 0.000210054
43 *41:48 *639:73 2.79421e-05
44 *41:67 *1076:C 3.28686e-05
45 *41:67 *1077:A1 1.41029e-05
46 *41:67 *1169:B1 0.000268403
47 *41:67 *1169:C1 0
48 *41:67 *117:8 5.80706e-06
49 *41:67 *209:16 1.97695e-05
50 *41:67 *357:53 2.66473e-05
51 *41:67 *357:66 3.2687e-05
52 *41:67 *357:72 0.000426985
53 *41:67 *551:46 1.59935e-05
54 *41:67 *634:91 0.000121573
55 *41:67 *647:93 0.000100831
56 *41:80 *1076:C 0.000107038
57 *41:80 *1077:B1 0.000123288
58 *41:80 *551:46 6.32852e-05
59 *41:80 *602:29 0.000763891
60 *41:80 *634:91 0.000221256
61 *1001:A3 *1001:A1 2.50479e-05
62 *1001:A3 *41:80 2.16719e-05
*RES
1 *997:Y *41:4 9.3 
2 *41:4 *1326:C 11.8893 
3 *41:4 *41:25 21.2143 
4 *41:25 *1214:A2 10.1795 
5 *41:25 *41:48 19.7277 
6 *41:48 *1169:A2 9.3 
7 *41:48 *41:67 20.6027 
8 *41:67 *1078:A2 9.3 
9 *41:67 *41:80 16.0268 
10 *41:80 *1001:A1 16.05 
11 *41:80 *1000:A1 14.3357 
*END

*D_NET *42 0.0143265
*CONN
*I *1252:B2 I *D sky130_fd_sc_hd__o221ai_2
*I *1114:A I *D sky130_fd_sc_hd__nand3_4
*I *1034:A I *D sky130_fd_sc_hd__nand3_2
*I *1002:C I *D sky130_fd_sc_hd__and4_2
*I *999:A I *D sky130_fd_sc_hd__and4_2
*I *1328:A3 I *D sky130_fd_sc_hd__o31a_2
*I *998:X O *D sky130_fd_sc_hd__or2_4
*CAP
1 *1252:B2 0.000367291
2 *1114:A 0
3 *1034:A 0.000265168
4 *1002:C 0
5 *999:A 0
6 *1328:A3 6.52616e-05
7 *998:X 0.000887934
8 *42:53 0.000413791
9 *42:42 0.00195587
10 *42:26 0.00196083
11 *42:22 0.00134355
12 *1034:A *999:D 4.75762e-05
13 *1034:A *1034:B 3.99614e-06
14 *1034:A *76:14 5.33005e-05
15 *1034:A *76:16 9.69119e-06
16 *1034:A *506:114 9.54798e-06
17 *1034:A *554:25 0
18 *1034:A *561:10 6.85604e-05
19 *1034:A *593:33 0.000370533
20 *1034:A *647:77 2.0586e-05
21 *1034:A *647:81 2.14658e-05
22 *1034:A *647:93 7.32272e-05
23 *1252:B2 *995:B 3.45453e-05
24 *1252:B2 *1118:A3 2.87948e-05
25 *1252:B2 *1252:A1 7.02611e-05
26 *1252:B2 *1252:B1 1.97695e-05
27 *1252:B2 *73:10 0
28 *1252:B2 *297:33 0.000519496
29 *1252:B2 *378:87 0.000236746
30 *1252:B2 *640:24 0
31 *1252:B2 *654:29 0
32 *1328:A3 *1328:A2 4.88658e-05
33 *42:22 *998:A 2.84109e-05
34 *42:22 *998:B 0.000164373
35 *42:22 *1251:A1 2.59355e-05
36 *42:22 *1253:A1 0.000730738
37 *42:22 *1253:B2 1.59935e-05
38 *42:22 *1328:A2 0.000129888
39 *42:22 *75:10 0.00031119
40 *42:22 *295:10 0.000185643
41 *42:26 *1118:A3 4.29086e-05
42 *42:26 *73:10 0
43 *42:26 *73:12 0
44 *42:42 *994:A1_N 0.00018372
45 *42:42 *1040:B1 0.000304394
46 *42:42 *1114:B 0.000861286
47 *42:42 *1163:B1 1.98839e-05
48 *42:42 *1466:A 0.000136682
49 *42:42 *1539:A 2.89114e-05
50 *42:42 *45:6 9.41642e-05
51 *42:42 *191:20 5.33005e-05
52 *42:42 *191:29 0.000125547
53 *42:42 *551:36 0.000197552
54 *42:42 *551:38 0.000117621
55 *42:42 *551:72 0.000235143
56 *42:42 *654:10 0.000561076
57 *42:53 *999:D 7.72916e-05
58 *42:53 *1040:B1 0.000212147
59 *42:53 *45:6 0.00022266
60 *42:53 *506:114 2.06178e-05
61 *42:53 *561:10 2.84009e-05
62 *42:53 *647:77 0.00012566
63 *39:44 *1252:B2 8.97491e-05
64 *39:44 *42:26 9.89464e-05
*RES
1 *998:X *1328:A3 19.9571 
2 *998:X *42:22 30.7821 
3 *42:22 *42:26 7.35714 
4 *42:26 *42:42 33.625 
5 *42:42 *999:A 9.3 
6 *42:42 *42:53 8.92857 
7 *42:53 *1002:C 13.8 
8 *42:53 *1034:A 21.2821 
9 *42:26 *1114:A 9.3 
10 *42:22 *1252:B2 23.4786 
*END

*D_NET *43 0.00406983
*CONN
*I *1004:A1 I *D sky130_fd_sc_hd__o211ai_2
*I *1005:B1 I *D sky130_fd_sc_hd__o2bb2ai_2
*I *1040:B1 I *D sky130_fd_sc_hd__a311o_2
*I *999:X O *D sky130_fd_sc_hd__and4_2
*CAP
1 *1004:A1 2.65134e-05
2 *1005:B1 0.000158049
3 *1040:B1 0.000538339
4 *999:X 0.00087629
5 *43:24 0.000522513
6 *1004:A1 *1004:A2 4.27935e-05
7 *1005:B1 *1004:A2 0.000213868
8 *1005:B1 *1008:B1 0
9 *1040:B1 *44:12 7.50505e-05
10 *1040:B1 *45:6 2.14658e-05
11 *1040:B1 *646:97 0
12 *43:24 *999:C 5.33005e-05
13 *43:24 *1003:B2 5.33005e-05
14 *43:24 *1004:A2 5.33005e-05
15 *43:24 *1008:B1 8.43535e-06
16 *43:24 *45:6 9.95174e-05
17 *43:24 *271:26 0.000265453
18 *43:24 *551:26 0.000184745
19 *1006:C1 *1005:B1 1.08359e-05
20 *1041:A *43:24 9.60875e-05
21 *37:23 *43:24 3.37161e-05
22 *38:42 *43:24 0.000219711
23 *42:42 *1040:B1 0.000304394
24 *42:53 *1040:B1 0.000212147
*RES
1 *999:X *1040:B1 35.0107 
2 *999:X *43:24 17.2286 
3 *43:24 *1005:B1 21.4607 
4 *43:24 *1004:A1 9.83571 
*END

*D_NET *44 0.00453537
*CONN
*I *1005:B2 I *D sky130_fd_sc_hd__o2bb2ai_2
*I *1004:A2 I *D sky130_fd_sc_hd__o211ai_2
*I *1040:C1 I *D sky130_fd_sc_hd__a311o_2
*I *1000:X O *D sky130_fd_sc_hd__o31a_2
*CAP
1 *1005:B2 0
2 *1004:A2 0.000191567
3 *1040:C1 0
4 *1000:X 0.000266205
5 *44:25 0.000734991
6 *44:12 0.000809629
7 *1004:A2 *1008:B1 1.98839e-05
8 *1004:A2 *66:10 0
9 *44:12 *1002:A 1.21258e-05
10 *44:12 *1538:A 7.83587e-05
11 *44:12 *602:29 6.15243e-05
12 *44:12 *646:97 0
13 *44:25 *1007:A 0.00014285
14 *44:25 *1041:B 0.000557398
15 *44:25 *1477:A 2.8428e-05
16 *44:25 *1538:A 0.000257619
17 *44:25 *84:16 2.44318e-05
18 *44:25 *551:26 0.000402922
19 *44:25 *625:8 1.3701e-05
20 *1000:A1 *44:12 2.59355e-05
21 *1001:A1 *44:12 0.000123133
22 *1001:A3 *44:12 0.000124657
23 *1004:A1 *1004:A2 4.27935e-05
24 *1004:B1 *1004:A2 0.000186669
25 *1004:C1 *1004:A2 7.90803e-05
26 *1005:B1 *1004:A2 0.000213868
27 *1006:C1 *1004:A2 9.25014e-06
28 *1040:B1 *44:12 7.50505e-05
29 *43:24 *1004:A2 5.33005e-05
*RES
1 *1000:X *44:12 23.6214 
2 *44:12 *1040:C1 9.3 
3 *44:12 *44:25 13.0179 
4 *44:25 *1004:A2 23.3357 
5 *44:25 *1005:B2 9.3 
*END

*D_NET *45 0.00224516
*CONN
*I *1003:B1 I *D sky130_fd_sc_hd__o2bb2ai_2
*I *1006:A1 I *D sky130_fd_sc_hd__o211ai_2
*I *1001:X O *D sky130_fd_sc_hd__o31a_2
*CAP
1 *1003:B1 0
2 *1006:A1 0.000118281
3 *1001:X 0.000196659
4 *45:6 0.000314939
5 *1006:A1 *1091:C 8.50152e-05
6 *1006:A1 *46:6 9.41642e-05
7 *1006:A1 *65:10 6.38303e-05
8 *1006:A1 *69:12 1.81805e-05
9 *1006:A1 *271:34 0.000100831
10 *45:6 *999:C 0.000487088
11 *45:6 *551:26 1.5424e-05
12 *45:6 *551:36 0.000175892
13 *1040:B1 *45:6 2.14658e-05
14 *1041:A *1006:A1 3.17148e-05
15 *1041:A *45:6 9.60875e-05
16 *37:23 *1006:A1 9.25014e-06
17 *42:42 *45:6 9.41642e-05
18 *42:53 *45:6 0.00022266
19 *43:24 *45:6 9.95174e-05
*RES
1 *1001:X *45:6 15.9964 
2 *45:6 *1006:A1 21.4964 
3 *45:6 *1003:B1 9.3 
*END

*D_NET *46 0.00126477
*CONN
*I *1006:A2 I *D sky130_fd_sc_hd__o211ai_2
*I *1003:B2 I *D sky130_fd_sc_hd__o2bb2ai_2
*I *1002:X O *D sky130_fd_sc_hd__and4_2
*CAP
1 *1006:A2 5.65919e-05
2 *1003:B2 9.36712e-05
3 *1002:X 0.000193515
4 *46:6 0.000343778
5 *1003:B2 *65:10 0.000168939
6 *1003:B2 *66:10 4.06782e-05
7 *1003:B2 *271:26 2.16719e-05
8 *46:6 *1091:C 0.000135913
9 *1006:A1 *46:6 9.41642e-05
10 *37:23 *1003:B2 5.33005e-05
11 *38:42 *1003:B2 9.25014e-06
12 *43:24 *1003:B2 5.33005e-05
*RES
1 *1002:X *46:6 13.1214 
2 *46:6 *1003:B2 21.0857 
3 *46:6 *1006:A2 10.2464 
*END

*D_NET *47 0.00165843
*CONN
*I *1008:B1 I *D sky130_fd_sc_hd__o211ai_4
*I *1003:Y O *D sky130_fd_sc_hd__o2bb2ai_2
*CAP
1 *1008:B1 0.000400324
2 *1003:Y 0.000400324
3 *1008:B1 *1007:B 2.60064e-05
4 *1008:B1 *1008:A2 4.1331e-06
5 *1008:B1 *1008:C1 0
6 *1008:B1 *66:10 0
7 *1008:B1 *84:16 9.91086e-05
8 *1004:A2 *1008:B1 1.98839e-05
9 *1004:B1 *1008:B1 0.000228558
10 *1004:C1 *1008:B1 0.000310286
11 *1005:B1 *1008:B1 0
12 *37:23 *1008:B1 0.000139907
13 *38:42 *1008:B1 2.14658e-05
14 *43:24 *1008:B1 8.43535e-06
*RES
1 *1003:Y *1008:B1 36.6179 
*END

*D_NET *48 0.000555083
*CONN
*I *1008:C1 I *D sky130_fd_sc_hd__o211ai_4
*I *1004:Y O *D sky130_fd_sc_hd__o211ai_2
*CAP
1 *1008:C1 0.000141979
2 *1004:Y 0.000141979
3 *1008:C1 *1007:B 0.00015234
4 *1008:C1 *469:16 0.000118784
5 *1008:B1 *1008:C1 0
*RES
1 *1004:Y *1008:C1 31.6714 
*END

*D_NET *49 0.000738195
*CONN
*I *1007:A I *D sky130_fd_sc_hd__nand3_4
*I *1005:Y O *D sky130_fd_sc_hd__o2bb2ai_2
*CAP
1 *1007:A 0.0001187
2 *1005:Y 0.0001187
3 *1007:A *551:26 0.000357945
4 *44:25 *1007:A 0.00014285
*RES
1 *1005:Y *1007:A 22.4393 
*END

*D_NET *50 0.00127231
*CONN
*I *1007:B I *D sky130_fd_sc_hd__nand3_4
*I *1006:Y O *D sky130_fd_sc_hd__o211ai_2
*CAP
1 *1007:B 0.000444619
2 *1006:Y 0.000444619
3 *1007:B *973:B 0
4 *1007:B *51:17 0
5 *1007:B *84:16 0.00014758
6 *1007:B *469:16 0
7 *1006:C1 *1007:B 5.71472e-05
8 *1008:B1 *1007:B 2.60064e-05
9 *1008:C1 *1007:B 0.00015234
*RES
1 *1006:Y *1007:B 36.1 
*END

*D_NET *51 0.00233081
*CONN
*I *1046:B1_N I *D sky130_fd_sc_hd__a21boi_2
*I *1009:C I *D sky130_fd_sc_hd__nand3_4
*I *1583:A I *D sky130_fd_sc_hd__buf_2
*I *1010:A2 I *D sky130_fd_sc_hd__a21o_4
*I *1007:Y O *D sky130_fd_sc_hd__nand3_4
*CAP
1 *1046:B1_N 6.93237e-05
2 *1009:C 0
3 *1583:A 0.000152874
4 *1010:A2 0
5 *1007:Y 3.8068e-05
6 *51:34 0.000181823
7 *51:17 0.00034472
8 *51:8 0.000117414
9 *1046:B1_N *1009:B 0.000206223
10 *1046:B1_N *1046:A2 5.33005e-05
11 *1046:B1_N *53:6 1.32552e-05
12 *1583:A *974:A 9.41642e-05
13 *1583:A *1011:A1_N 0.000111501
14 *1583:A *1052:B 0
15 *1583:A *681:10 5.17614e-05
16 *51:8 *973:B 0.000127446
17 *51:8 *52:10 0.000127446
18 *51:17 *973:B 0.00014279
19 *51:17 *52:10 3.51442e-05
20 *51:17 *52:19 0.00018529
21 *51:17 *84:16 0
22 *51:34 *1009:A 5.33005e-05
23 *51:34 *1009:B 2.6269e-05
24 *51:34 *1531:A 4.56437e-05
25 *51:34 *52:19 0.000153054
26 *51:34 *84:16 0
27 *1007:B *51:17 0
*RES
1 *1007:Y *51:8 15.4429 
2 *51:8 *1010:A2 13.8 
3 *51:8 *51:17 2.85714 
4 *51:17 *1583:A 17.2286 
5 *51:17 *51:34 7.58929 
6 *51:34 *1009:C 9.3 
7 *51:34 *1046:B1_N 11.4964 
*END

*D_NET *52 0.00333288
*CONN
*I *1531:A I *D sky130_fd_sc_hd__buf_2
*I *1009:A I *D sky130_fd_sc_hd__nand3_4
*I *1010:A1 I *D sky130_fd_sc_hd__a21o_4
*I *1008:Y O *D sky130_fd_sc_hd__o211ai_4
*CAP
1 *1531:A 0.000363772
2 *1009:A 0.000160999
3 *1010:A1 0
4 *1008:Y 0.000186065
5 *52:19 0.00067
6 *52:10 0.000331294
7 *1009:A *1009:B 2.68461e-05
8 *1009:A *1028:A2 5.30637e-06
9 *1009:A *1046:A2 0
10 *1531:A *1028:A2 0
11 *1531:A *1046:A2 0.000108477
12 *1531:A *1049:A1 0
13 *1531:A *84:16 0
14 *1531:A *90:12 5.80217e-05
15 *1531:A *681:10 0
16 *52:10 *973:B 3.32442e-05
17 *52:10 *974:A 0.000414769
18 *52:10 *487:29 0.000201127
19 *52:19 *974:A 0.000173076
20 *52:19 *1145:C1 0
21 *52:19 *681:10 0
22 *51:8 *52:10 0.000127446
23 *51:17 *52:10 3.51442e-05
24 *51:17 *52:19 0.00018529
25 *51:34 *1009:A 5.33005e-05
26 *51:34 *1531:A 4.56437e-05
27 *51:34 *52:19 0.000153054
*RES
1 *1008:Y *52:10 20.0321 
2 *52:10 *1010:A1 13.8 
3 *52:10 *52:19 4.375 
4 *52:19 *1009:A 16.8357 
5 *52:19 *1531:A 20.3357 
*END

*D_NET *53 0.00502839
*CONN
*I *1011:B2 I *D sky130_fd_sc_hd__a2bb2oi_4
*I *1012:D I *D sky130_fd_sc_hd__nand4_4
*I *1049:A2 I *D sky130_fd_sc_hd__a21oi_2
*I *1047:B I *D sky130_fd_sc_hd__nand2_2
*I *1009:Y O *D sky130_fd_sc_hd__nand3_4
*CAP
1 *1011:B2 3.90029e-05
2 *1012:D 4.96837e-05
3 *1049:A2 0.000183613
4 *1047:B 0.000268954
5 *1009:Y 0.000145564
6 *53:46 0.000569551
7 *53:10 0.000590634
8 *53:6 0.000764495
9 *1011:B2 *1011:B1 5.33005e-05
10 *1011:B2 *1015:B 5.52302e-05
11 *1012:D *495:23 0.00015234
12 *1012:D *495:38 2.31791e-05
13 *1012:D *496:29 0.000175519
14 *1047:B *1028:A1 0
15 *1047:B *1047:A 0.000123309
16 *1049:A2 *1049:A1 0.00010685
17 *1049:A2 *1145:A1 0
18 *1049:A2 *1145:B2 0
19 *1049:A2 *1145:C1 1.8791e-05
20 *1049:A2 *1146:C 0.000154762
21 *1049:A2 *92:10 0
22 *1049:A2 *681:10 7.79781e-06
23 *53:6 *1046:A2 4.58917e-05
24 *53:10 *1145:B2 0
25 *53:10 *1145:C1 0.00022117
26 *53:10 *551:127 4.02462e-05
27 *53:46 *1011:A1_N 8.89385e-05
28 *53:46 *1011:B1 0.000219711
29 *53:46 *1012:A 3.34295e-05
30 *53:46 *1046:A2 0.000119135
31 *53:46 *1145:B2 0.000476749
32 *53:46 *1512:A 5.59013e-05
33 *53:46 *54:10 0.000173804
34 *53:46 *551:127 5.75803e-05
35 *1046:B1_N *53:6 1.32552e-05
*RES
1 *1009:Y *53:6 11.0679 
2 *53:6 *53:10 7.35714 
3 *53:10 *1047:B 18.05 
4 *53:10 *1049:A2 18.2643 
5 *53:6 *53:46 20.1607 
6 *53:46 *1012:D 20.55 
7 *53:46 *1011:B2 10.2464 
*END

*D_NET *54 0.00209646
*CONN
*I *1011:B1 I *D sky130_fd_sc_hd__a2bb2oi_4
*I *1012:A I *D sky130_fd_sc_hd__nand4_4
*I *1010:X O *D sky130_fd_sc_hd__a21o_4
*CAP
1 *1011:B1 0.000144387
2 *1012:A 0.000260627
3 *1010:X 8.03407e-05
4 *54:10 0.000485355
5 *1011:B1 *55:8 9.60939e-05
6 *1012:A *1011:A1_N 3.51442e-05
7 *1012:A *1012:B 4.98938e-05
8 *1012:A *1012:C 6.26078e-05
9 *1012:A *1145:C1 5.52238e-05
10 *1012:A *1512:A 6.39901e-05
11 *1012:A *551:10 6.39901e-05
12 *54:10 *1011:A1_N 0.000165262
13 *54:10 *469:16 5.33005e-05
14 *1011:B2 *1011:B1 5.33005e-05
15 *53:46 *1011:B1 0.000219711
16 *53:46 *1012:A 3.34295e-05
17 *53:46 *54:10 0.000173804
*RES
1 *1010:X *54:10 16.5857 
2 *54:10 *1012:A 19.6036 
3 *54:10 *1011:B1 16.8 
*END

*D_NET *55 0.00338535
*CONN
*I *1145:B2 I *D sky130_fd_sc_hd__o221ai_4
*I *1512:A I *D sky130_fd_sc_hd__buf_2
*I *1011:Y O *D sky130_fd_sc_hd__a2bb2oi_4
*CAP
1 *1145:B2 0.000320521
2 *1512:A 0.000555743
3 *1011:Y 5.41058e-05
4 *55:8 0.00093037
5 *1145:B2 *1145:B1 0.000168799
6 *1145:B2 *1410:B 0.000103267
7 *1145:B2 *92:10 0
8 *1145:B2 *496:29 5.13896e-05
9 *1145:B2 *551:127 0
10 *1512:A *1016:A1 5.52238e-05
11 *1512:A *1016:A2 0.000139019
12 *1512:A *1410:B 0.000196269
13 *1512:A *1508:A 2.22999e-05
14 *1512:A *524:6 8.71761e-05
15 *1512:A *524:8 8.43535e-06
16 *1512:A *551:10 0
17 *1011:B1 *55:8 9.60939e-05
18 *1012:A *1512:A 6.39901e-05
19 *1049:A2 *1145:B2 0
20 *53:10 *1145:B2 0
21 *53:46 *1145:B2 0.000476749
22 *53:46 *1512:A 5.59013e-05
*RES
1 *1011:Y *55:8 14.7464 
2 *55:8 *1512:A 24.3 
3 *55:8 *1145:B2 23.0321 
*END

*D_NET *56 0.00260831
*CONN
*I *1508:A I *D sky130_fd_sc_hd__buf_2
*I *1145:C1 I *D sky130_fd_sc_hd__o221ai_4
*I *1012:Y O *D sky130_fd_sc_hd__nand4_4
*CAP
1 *1508:A 0.000120764
2 *1145:C1 0.000441804
3 *1012:Y 0.000562568
4 *1145:C1 *974:A 0
5 *1145:C1 *1011:A2_N 0.000175519
6 *1145:C1 *1012:B 5.71472e-05
7 *1145:C1 *1567:A 0.000137157
8 *1145:C1 *551:10 1.78353e-05
9 *1145:C1 *551:114 5.7599e-05
10 *1145:C1 *551:127 0.000102315
11 *1145:C1 *681:10 0.000310314
12 *1508:A *1410:B 0.000154762
13 *1508:A *496:29 0.00015304
14 *1012:A *1145:C1 5.52238e-05
15 *1049:A2 *1145:C1 1.8791e-05
16 *1512:A *1508:A 2.22999e-05
17 *52:19 *1145:C1 0
18 *53:10 *1145:C1 0.00022117
*RES
1 *1012:Y *1145:C1 40.1 
2 *1012:Y *1508:A 30.4929 
*END

*D_NET *57 0.00220505
*CONN
*I *1014:B1 I *D sky130_fd_sc_hd__o21ai_2
*I *1013:Y O *D sky130_fd_sc_hd__nand2b_2
*CAP
1 *1014:B1 0.000446959
2 *1013:Y 0.000446959
3 *1014:B1 *1013:B 0.000441214
4 *1014:B1 *1016:B1 0.000315172
5 *1014:B1 *1050:A2 3.46272e-05
6 *1014:B1 *1410:A 0
7 *1014:B1 *1492:A 1.02504e-05
8 *1014:B1 *495:10 0
9 *1014:B1 *520:19 0.000495193
10 *1014:B1 *524:14 1.46717e-05
*RES
1 *1013:Y *1014:B1 40.5286 
*END

*D_NET *58 0.000823242
*CONN
*I *1016:B1 I *D sky130_fd_sc_hd__o31a_2
*I *1014:Y O *D sky130_fd_sc_hd__o21ai_2
*CAP
1 *1016:B1 0.000154196
2 *1014:Y 0.000154196
3 *1016:B1 *1050:A2 8.16036e-05
4 *1016:B1 *469:41 2.89016e-05
5 *1016:B1 *524:14 8.91726e-05
6 *1014:B1 *1016:B1 0.000315172
*RES
1 *1014:Y *1016:B1 32.2071 
*END

*D_NET *59 0.00165591
*CONN
*I *1051:A1 I *D sky130_fd_sc_hd__a211oi_4
*I *1015:X O *D sky130_fd_sc_hd__or3_4
*CAP
1 *1051:A1 0.000296
2 *1015:X 0.000296
3 *1051:A1 *1015:A 3.48705e-05
4 *1051:A1 *1015:B 2.28598e-05
5 *1051:A1 *1015:C 5.52238e-05
6 *1051:A1 *1051:A2 0.00020455
7 *1051:A1 *1509:A 0.000126209
8 *1051:A1 *91:32 9.11365e-06
9 *1051:A1 *469:41 0.000176234
10 *1051:A1 *520:19 0.000369111
11 p[5] *1051:A1 6.57431e-05
*RES
1 *1015:X *1051:A1 37.6 
*END

*D_NET *60 0.00017548
*CONN
*I *1019:B1 I *D sky130_fd_sc_hd__o21ai_2
*I *1017:X O *D sky130_fd_sc_hd__o21a_2
*CAP
1 *1019:B1 3.32046e-05
2 *1017:X 3.32046e-05
3 *1019:B1 *549:61 5.66971e-05
4 *1019:B1 *646:36 5.23735e-05
*RES
1 *1017:X *1019:B1 19.5464 
*END

*D_NET *61 0.00104226
*CONN
*I *1021:B1 I *D sky130_fd_sc_hd__o22ai_2
*I *1018:Y O *D sky130_fd_sc_hd__o21ai_2
*CAP
1 *1021:B1 0.000350335
2 *1018:Y 0.000350335
3 *1021:B1 *1018:A1 3.18676e-05
4 *1021:B1 *1021:A1 5.71472e-05
5 *1021:B1 *1021:B2 9.71197e-05
6 *1021:B1 *1022:B 4.43256e-05
7 *1021:B1 *634:21 0.000111129
*RES
1 *1018:Y *1021:B1 24.9036 
*END

*D_NET *62 0.00157655
*CONN
*I *1023:C1 I *D sky130_fd_sc_hd__o311ai_2
*I *1019:Y O *D sky130_fd_sc_hd__o21ai_2
*CAP
1 *1023:C1 0.000302615
2 *1019:Y 0.000302615
3 *1023:C1 *953:A1 0.000197991
4 *1023:C1 *1019:A2 0.000145267
5 *1023:C1 *282:88 0.000169769
6 *1023:C1 *282:97 0.000190903
7 *1023:C1 *632:75 4.87953e-05
8 *1023:C1 *647:62 0.000218591
*RES
1 *1019:Y *1023:C1 35.6536 
*END

*D_NET *63 0.00098976
*CONN
*I *1021:A2 I *D sky130_fd_sc_hd__o22ai_2
*I *1020:Y O *D sky130_fd_sc_hd__nand2_2
*CAP
1 *1021:A2 0.000209732
2 *1020:Y 0.000209732
3 *1021:A2 *947:A1 7.60306e-05
4 *1021:A2 *967:B1 9.25014e-06
5 *1021:A2 *1021:A1 9.57219e-05
6 *1021:A2 *1428:A 0.000137957
7 *1021:A2 *629:87 1.02504e-05
8 *1021:A2 *629:106 0.000161983
9 *1021:A2 *646:12 1.90654e-05
10 *1021:A2 *646:24 6.0038e-05
*RES
1 *1020:Y *1021:A2 33.1893 
*END

*D_NET *64 0.000975493
*CONN
*I *1022:B I *D sky130_fd_sc_hd__nand2_2
*I *1021:Y O *D sky130_fd_sc_hd__o22ai_2
*CAP
1 *1022:B 0.000170253
2 *1021:Y 0.000170253
3 *1022:B *948:B1 6.22238e-05
4 *1022:B *975:A1 0.000195562
5 *1022:B *1021:B2 5.52238e-05
6 *1022:B *634:21 0.000268403
7 *1022:B *678:47 9.25014e-06
8 *1021:B1 *1022:B 4.43256e-05
*RES
1 *1021:Y *1022:B 32.7429 
*END

*D_NET *65 0.00896207
*CONN
*I *1028:A1 I *D sky130_fd_sc_hd__a21oi_2
*I *1027:A I *D sky130_fd_sc_hd__nand3_2
*I *1029:A1 I *D sky130_fd_sc_hd__a21o_2
*I *1022:Y O *D sky130_fd_sc_hd__nand2_2
*CAP
1 *1028:A1 0.00028837
2 *1027:A 0
3 *1029:A1 0.000765738
4 *1022:Y 0.00112617
5 *65:16 0.000786349
6 *65:14 0.000406476
7 *65:10 0.00122367
8 *1028:A1 *1028:B1 7.42892e-05
9 *1028:A1 *1037:A2 7.61963e-05
10 *1028:A1 *1037:B1 4.88637e-05
11 *1028:A1 *1037:B2 5.71472e-05
12 *1028:A1 *80:10 4.8035e-05
13 *1029:A1 *1027:B 0.000181803
14 *1029:A1 *1029:A2 0.000248996
15 *1029:A1 *1037:B2 6.39594e-05
16 *1029:A1 *1038:D 8.40913e-05
17 *1029:A1 *1087:A 0.000114102
18 *1029:A1 *66:16 0.000374888
19 *1029:A1 *70:30 1.17968e-05
20 *1029:A1 *72:14 0
21 *65:10 *954:C 0.000141422
22 *65:10 *975:A1 0.000192976
23 *65:10 *999:C 0.00012799
24 *65:10 *1019:A2 0
25 *65:10 *1091:C 0.000417177
26 *65:10 *66:10 0
27 *65:10 *66:16 5.5782e-05
28 *65:10 *271:26 0.000303391
29 *65:10 *510:39 4.31072e-05
30 *65:10 *510:41 0.000192934
31 *65:10 *629:106 5.33005e-05
32 *65:10 *632:75 6.1684e-05
33 *65:10 *632:77 0.000109693
34 *65:10 *632:83 0.000130862
35 *65:10 *678:120 5.41794e-05
36 *65:14 *1037:B1 9.76689e-05
37 *65:16 *1028:B1 0
38 *65:16 *1037:B1 3.99614e-06
39 *1003:B2 *65:10 0.000168939
40 *1006:A1 *65:10 6.38303e-05
41 *1047:B *1028:A1 0
42 *37:10 *65:10 0.000153054
43 *37:23 *65:10 0.000195547
44 *38:25 *65:10 0.000227736
45 *38:42 *65:10 0.000185857
*RES
1 *1022:Y *65:10 46.3357 
2 *65:10 *65:14 6.26786 
3 *65:14 *65:16 0.428571 
4 *65:16 *1029:A1 33.675 
5 *65:16 *1027:A 9.3 
6 *65:14 *1028:A1 15.1929 
*END

*D_NET *66 0.00599279
*CONN
*I *1476:A I *D sky130_fd_sc_hd__clkdlybuf4s25_1
*I *1475:A I *D sky130_fd_sc_hd__dlymetal6s2s_1
*I *1029:A2 I *D sky130_fd_sc_hd__a21o_2
*I *1023:Y O *D sky130_fd_sc_hd__o311ai_2
*CAP
1 *1476:A 0
2 *1475:A 1.76505e-05
3 *1029:A2 0.000229403
4 *1023:Y 0.000974835
5 *66:16 0.000569797
6 *66:10 0.00129758
7 *1029:A2 *1027:B 5.33005e-05
8 *1029:A2 *1076:B 6.05161e-06
9 *1029:A2 *1079:A1 0
10 *1029:A2 *72:14 0.000181742
11 *1475:A *1027:B 5.33005e-05
12 *1475:A *72:14 1.98839e-05
13 *66:10 *1008:A1 0
14 *66:10 *1008:A2 0
15 *66:10 *271:26 0.00075974
16 *66:10 *632:75 0.00011837
17 *66:10 *678:86 0.00012401
18 *66:16 *1027:B 0.000572021
19 *66:16 *1087:A 0.000175512
20 *66:16 *1091:C 0
21 *1003:B2 *66:10 4.06782e-05
22 *1004:A2 *66:10 0
23 *1004:C1 *66:10 1.59689e-05
24 *1006:B1 *66:10 0.000103275
25 *1008:B1 *66:10 0
26 *1029:A1 *1029:A2 0.000248996
27 *1029:A1 *66:16 0.000374888
28 *65:10 *66:10 0
29 *65:10 *66:16 5.5782e-05
*RES
1 *1023:Y *66:10 32.9429 
2 *66:10 *66:16 14.5714 
3 *66:16 *1029:A2 15.1929 
4 *66:16 *1475:A 9.83571 
5 *66:10 *1476:A 13.8 
*END

*D_NET *67 0.000776261
*CONN
*I *1026:B1 I *D sky130_fd_sc_hd__a211o_2
*I *1024:Y O *D sky130_fd_sc_hd__a21oi_2
*CAP
1 *1026:B1 0.000138524
2 *1024:Y 0.000138524
3 *1026:B1 *1024:A2 5.7616e-05
4 *1026:B1 *1025:B 7.05447e-05
5 *1026:B1 *1026:A1 7.18002e-05
6 *1026:B1 *1026:C1 0.000171879
7 *1026:B1 *202:10 1.81709e-05
8 *1026:B1 *548:22 5.33005e-05
9 *1026:B1 *637:134 5.59013e-05
*RES
1 *1024:Y *1026:B1 31.6 
*END

*D_NET *68 0.00178845
*CONN
*I *1026:C1 I *D sky130_fd_sc_hd__a211o_2
*I *1025:X O *D sky130_fd_sc_hd__and3_2
*CAP
1 *1026:C1 0.000216791
2 *1025:X 0.000216791
3 *1026:C1 *1025:A 0.000388051
4 *1026:C1 *1025:B 0.000472721
5 *1026:C1 *202:10 0.000171879
6 *1026:C1 *548:22 0.000150339
7 *1026:B1 *1026:C1 0.000171879
*RES
1 *1025:X *1026:C1 35.3143 
*END

*D_NET *69 0.00909036
*CONN
*I *1028:B1 I *D sky130_fd_sc_hd__a21oi_2
*I *1027:C I *D sky130_fd_sc_hd__nand3_2
*I *1029:B1 I *D sky130_fd_sc_hd__a21o_2
*I *1026:X O *D sky130_fd_sc_hd__a211o_2
*CAP
1 *1028:B1 0.00035496
2 *1027:C 0
3 *1029:B1 0.000436093
4 *1026:X 0.00190912
5 *69:27 0.000389091
6 *69:12 0.00237934
7 *1028:B1 *1037:A2 3.95241e-05
8 *1028:B1 *1037:B1 0.000306324
9 *1028:B1 *70:8 0.000219711
10 *1028:B1 *80:10 9.90431e-05
11 *1029:B1 *1076:A 0.000179082
12 *1029:B1 *1076:B 2.56601e-05
13 *1029:B1 *1085:A3 7.95674e-05
14 *1029:B1 *122:10 0
15 *1029:B1 *271:34 0
16 *1029:B1 *554:25 0
17 *1029:B1 *647:77 1.76039e-05
18 *69:12 *1026:A2 4.88637e-05
19 *69:12 *271:34 0.000511901
20 *69:12 *502:25 7.47337e-05
21 *69:12 *503:10 3.2687e-05
22 *69:12 *551:26 0.000108538
23 *69:12 *641:90 0.00018372
24 *69:12 *647:77 0
25 *992:B1 *69:12 0.000479645
26 *1006:A1 *69:12 1.81805e-05
27 *1028:A1 *1028:B1 7.42892e-05
28 *1041:A *69:12 0.000333486
29 *35:12 *69:12 9.71197e-05
30 *37:10 *69:12 0.000610058
31 *38:6 *69:12 8.20176e-05
32 *65:16 *1028:B1 0
*RES
1 *1026:X *69:12 49.4964 
2 *69:12 *1029:B1 27.3714 
3 *69:12 *69:27 0.535714 
4 *69:27 *1027:C 9.3 
5 *69:27 *1028:B1 17.1571 
*END

*D_NET *70 0.00252338
*CONN
*I *1038:A I *D sky130_fd_sc_hd__nand4_2
*I *1085:A1 I *D sky130_fd_sc_hd__a31oi_2
*I *1086:A1 I *D sky130_fd_sc_hd__a31o_4
*I *1037:A1 I *D sky130_fd_sc_hd__a22o_2
*I *1027:Y O *D sky130_fd_sc_hd__nand3_2
*CAP
1 *1038:A 0.000186078
2 *1085:A1 0.000136841
3 *1086:A1 0
4 *1037:A1 4.99637e-05
5 *1027:Y 0.000167998
6 *70:30 0.000416622
7 *70:19 0.000150281
8 *70:8 0.000274539
9 *1037:A1 *1037:A2 2.8833e-05
10 *1037:A1 *1037:B2 5.9201e-05
11 *1038:A *1038:B 5.52302e-05
12 *1038:A *1038:C 1.56e-05
13 *1038:A *81:6 0.00010096
14 *1038:A *84:22 5.52302e-05
15 *1085:A1 *1038:C 2.60984e-05
16 *1085:A1 *1085:B1 0.000130345
17 *70:19 *1037:A2 5.5782e-05
18 *70:19 *1037:B2 9.22948e-05
19 *70:19 *1038:D 5.66157e-05
20 *70:30 *1037:A2 6.17227e-05
21 *70:30 *1038:D 0.00016384
22 *70:30 *72:14 7.79781e-06
23 *1028:B1 *70:8 0.000219711
24 *1029:A1 *70:30 1.17968e-05
*RES
1 *1027:Y *70:8 15.9786 
2 *70:8 *1037:A1 14.8357 
3 *70:8 *70:19 1.94643 
4 *70:19 *1086:A1 13.8 
5 *70:19 *70:30 7.05357 
6 *70:30 *1085:A1 12.0321 
7 *70:30 *1038:A 13.2643 
*END

*D_NET *71 0.00224914
*CONN
*I *1086:B1 I *D sky130_fd_sc_hd__a31o_4
*I *1085:B1 I *D sky130_fd_sc_hd__a31oi_2
*I *1028:Y O *D sky130_fd_sc_hd__a21oi_2
*CAP
1 *1086:B1 0
2 *1085:B1 0.000201771
3 *1028:Y 0.000384134
4 *71:12 0.000585905
5 *1085:B1 *1027:B 0.00012401
6 *1085:B1 *1038:C 0.000232306
7 *1085:B1 *1085:A2 3.34366e-05
8 *1085:B1 *1086:A2 4.87854e-05
9 *1085:B1 *78:23 0.000103253
10 *71:12 *1037:A2 7.04444e-05
11 *71:12 *1086:A2 0.000134345
12 *71:12 *84:16 0.000200406
13 *1085:A1 *1085:B1 0.000130345
*RES
1 *1028:Y *71:12 25.4964 
2 *71:12 *1085:B1 23.4964 
3 *71:12 *1086:B1 9.3 
*END

*D_NET *72 0.00246345
*CONN
*I *1038:B I *D sky130_fd_sc_hd__nand4_2
*I *1037:A2 I *D sky130_fd_sc_hd__a22o_2
*I *1029:X O *D sky130_fd_sc_hd__a21o_2
*CAP
1 *1038:B 2.52056e-05
2 *1037:A2 0.000222391
3 *1029:X 0.000662964
4 *72:14 0.000910561
5 *1037:A2 *80:10 0
6 *1037:A2 *84:16 0
7 *72:14 *1027:B 4.51726e-05
8 *72:14 *81:10 0
9 *1028:A1 *1037:A2 7.61963e-05
10 *1028:B1 *1037:A2 3.95241e-05
11 *1029:A1 *72:14 0
12 *1029:A2 *72:14 0.000181742
13 *1037:A1 *1037:A2 2.8833e-05
14 *1038:A *1038:B 5.52302e-05
15 *1475:A *72:14 1.98839e-05
16 *70:19 *1037:A2 5.5782e-05
17 *70:30 *1037:A2 6.17227e-05
18 *70:30 *72:14 7.79781e-06
19 *71:12 *1037:A2 7.04444e-05
*RES
1 *1029:X *72:14 22.6929 
2 *72:14 *1037:A2 19.4964 
3 *72:14 *1038:B 14.3357 
*END

*D_NET *73 0.00205497
*CONN
*I *1033:A1 I *D sky130_fd_sc_hd__o21ai_2
*I *1032:B1 I *D sky130_fd_sc_hd__a21o_2
*I *1291:A1 I *D sky130_fd_sc_hd__o21a_2
*I *1113:A2 I *D sky130_fd_sc_hd__o21ai_2
*I *1030:Y O *D sky130_fd_sc_hd__nor3b_4
*CAP
1 *1033:A1 0.000149555
2 *1032:B1 0
3 *1291:A1 0.00010992
4 *1113:A2 0.000138534
5 *1030:Y 0.000282178
6 *73:12 0.000344534
7 *73:10 0.000228703
8 *1033:A1 *995:B 5.74499e-06
9 *1033:A1 *1030:C_N 2.97137e-05
10 *1033:A1 *592:22 5.33005e-05
11 *1113:A2 *933:A 0.000130776
12 *1113:A2 *1118:A2 0
13 *1113:A2 *1118:A3 0
14 *1113:A2 *74:46 5.58875e-06
15 *1113:A2 *154:10 0
16 *1113:A2 *631:87 9.10877e-06
17 *1113:A2 *654:29 5.66157e-05
18 *1291:A1 *1118:A2 8.43535e-06
19 *1291:A1 *1253:B2 5.03772e-05
20 *1291:A1 *1291:A2 7.02611e-05
21 *1291:A1 *654:10 2.59355e-05
22 *73:10 *995:B 5.52302e-05
23 *73:10 *654:29 0.000136618
24 *73:12 *654:29 0.00016384
25 *1252:B2 *73:10 0
26 *42:26 *73:10 0
27 *42:26 *73:12 0
*RES
1 *1030:Y *73:10 16.2821 
2 *73:10 *73:12 2.25 
3 *73:12 *1113:A2 16.6571 
4 *73:12 *1291:A1 15.9786 
5 *73:10 *1032:B1 13.8 
6 *1030:Y *1033:A1 20.6893 
*END

*D_NET *74 0.00427107
*CONN
*I *1253:A2 I *D sky130_fd_sc_hd__a22oi_2
*I *1291:A2 I *D sky130_fd_sc_hd__o21a_2
*I *1033:A2 I *D sky130_fd_sc_hd__o21ai_2
*I *1113:A1 I *D sky130_fd_sc_hd__o21ai_2
*I *1031:Y O *D sky130_fd_sc_hd__nor2_4
*CAP
1 *1253:A2 0.00018681
2 *1291:A2 5.71783e-05
3 *1033:A2 0.000124272
4 *1113:A1 0.000339672
5 *1031:Y 0.000396909
6 *74:46 0.000311024
7 *1033:A2 *1030:C_N 5.33005e-05
8 *1033:A2 *201:8 0.000189357
9 *1033:A2 *641:20 9.1998e-05
10 *1113:A1 *1114:C 5.7616e-05
11 *1113:A1 *1466:A 2.91255e-05
12 *1113:A1 *154:10 9.90367e-05
13 *1113:A1 *155:10 0.000122942
14 *1113:A1 *628:35 6.81083e-05
15 *1113:A1 *631:119 5.33005e-05
16 *1113:A1 *632:59 0.000309253
17 *1113:A1 *640:30 0.000309472
18 *1253:A2 *933:A 9.25014e-06
19 *1253:A2 *1253:A1 0.000351162
20 *1253:A2 *249:12 7.79781e-06
21 *1253:A2 *631:87 9.47312e-05
22 *1253:A2 *631:112 0.000152409
23 *1253:A2 *654:29 0.000209483
24 *1291:A2 *1118:A2 0.000177815
25 *1291:A2 *1253:B2 1.15172e-05
26 *74:46 *933:A 0.000130776
27 *74:46 *631:87 0.00014237
28 *1113:A2 *74:46 5.58875e-06
29 *1252:A2 *1253:A2 0.000108535
30 *1291:A1 *1291:A2 7.02611e-05
*RES
1 *1031:Y *1113:A1 35.2071 
2 *1031:Y *1033:A2 30.6893 
3 *1113:A1 *74:46 15.7464 
4 *74:46 *1291:A2 15.5679 
5 *74:46 *1253:A2 20.0679 
*END

*D_NET *75 0.00671861
*CONN
*I *1363:A2 I *D sky130_fd_sc_hd__a211oi_2
*I *1364:C I *D sky130_fd_sc_hd__and4b_2
*I *1365:A2_N I *D sky130_fd_sc_hd__o2bb2a_2
*I *1032:X O *D sky130_fd_sc_hd__a21o_2
*CAP
1 *1363:A2 4.86946e-05
2 *1364:C 5.57881e-05
3 *1365:A2_N 3.92359e-05
4 *1032:X 0.00100571
5 *75:25 0.00034807
6 *75:10 0.00128853
7 *1363:A2 *562:22 8.46829e-05
8 *1363:A2 *638:102 4.87953e-05
9 *1364:C *1364:D 0.000173097
10 *1364:C *298:21 0.000173097
11 *1365:A2_N *638:91 5.52238e-05
12 *75:10 *995:B 0.00010326
13 *75:10 *1126:B1 0
14 *75:10 *1359:A2 0.000148196
15 *75:10 *1385:C 0.000135427
16 *75:10 *246:14 0.000183941
17 *75:10 *254:10 0.000220455
18 *75:10 *254:23 0.000222878
19 *75:10 *301:16 0
20 *75:10 *349:10 0
21 *75:10 *378:112 7.36407e-05
22 *75:10 *410:10 0
23 *75:10 *627:37 0
24 *75:10 *652:56 0.00121935
25 *75:25 *1363:C1 0.000100831
26 *75:25 *1402:A 4.16984e-05
27 *75:25 *409:12 0.000145753
28 *75:25 *562:22 0.000262504
29 *75:25 *627:37 0
30 *75:25 *638:91 4.06072e-05
31 *75:25 *638:102 3.97677e-05
32 *1252:A2 *75:10 0.000148196
33 *42:22 *75:10 0.00031119
*RES
1 *1032:X *75:10 39.6929 
2 *75:10 *1365:A2_N 14.3357 
3 *75:10 *75:25 9.94643 
4 *75:25 *1364:C 20.55 
5 *75:25 *1363:A2 10.675 
*END

*D_NET *76 0.0069527
*CONN
*I *1036:A1 I *D sky130_fd_sc_hd__a21o_2
*I *1035:B I *D sky130_fd_sc_hd__nand3_2
*I *1033:Y O *D sky130_fd_sc_hd__o21ai_2
*CAP
1 *1036:A1 1.63101e-05
2 *1035:B 5.6977e-05
3 *1033:Y 0.00204348
4 *76:16 0.000181537
5 *76:14 0.00215173
6 *1035:B *1035:A 9.60939e-05
7 *1035:B *1035:C 5.28598e-05
8 *1035:B *79:6 0.00018372
9 *1035:B *357:72 0
10 *1036:A1 *77:12 5.59013e-05
11 *1036:A1 *554:25 4.73656e-05
12 *76:14 *1171:B1 0.000139907
13 *76:14 *1174:C1 0.00022459
14 *76:14 *1175:A 9.26732e-05
15 *76:14 *1574:A 6.57815e-05
16 *76:14 *161:39 0.000225616
17 *76:14 *161:52 0.000507066
18 *76:14 *208:14 4.58976e-05
19 *76:14 *357:39 9.33978e-07
20 *76:14 *506:58 0.000103253
21 *76:14 *647:93 0.000128546
22 *76:14 *651:52 0.000104974
23 *76:16 *77:12 0.000121573
24 *76:16 *554:25 0.00024292
25 *76:16 *593:27 0
26 *76:16 *593:33 0
27 *1034:A *76:14 5.33005e-05
28 *1034:A *76:16 9.69119e-06
*RES
1 *1033:Y *76:14 48.9071 
2 *76:14 *76:16 3.16071 
3 *76:16 *1035:B 15.9964 
4 *76:16 *1036:A1 14.5321 
*END

*D_NET *77 0.0010103
*CONN
*I *1035:C I *D sky130_fd_sc_hd__nand3_2
*I *1036:A2 I *D sky130_fd_sc_hd__a21o_2
*I *1034:Y O *D sky130_fd_sc_hd__nand3_2
*CAP
1 *1035:C 0.000162048
2 *1036:A2 0
3 *1034:Y 0.000147571
4 *77:12 0.00030962
5 *1035:C *1035:A 5.52302e-05
6 *1035:C *78:6 2.89016e-05
7 *1035:C *79:6 2.42662e-05
8 *77:12 *593:27 2.34204e-05
9 *77:12 *647:93 2.89114e-05
10 *1035:B *1035:C 5.28598e-05
11 *1036:A1 *77:12 5.59013e-05
12 *76:16 *77:12 0.000121573
*RES
1 *1034:Y *77:12 21.0857 
2 *77:12 *1036:A2 9.3 
3 *77:12 *1035:C 12.3179 
*END

*D_NET *78 0.0039114
*CONN
*I *1086:A2 I *D sky130_fd_sc_hd__a31o_4
*I *1085:A2 I *D sky130_fd_sc_hd__a31oi_2
*I *1038:C I *D sky130_fd_sc_hd__nand4_2
*I *1037:B1 I *D sky130_fd_sc_hd__a22o_2
*I *1035:Y O *D sky130_fd_sc_hd__nand3_2
*CAP
1 *1086:A2 0.00011173
2 *1085:A2 1.08737e-05
3 *1038:C 0.000349041
4 *1037:B1 0.000162606
5 *1035:Y 0.000147385
6 *78:23 0.000402034
7 *78:8 0.000204725
8 *78:6 0.000259116
9 *1037:B1 *1027:B 8.68665e-05
10 *1037:B1 *1037:B2 5.52238e-05
11 *1037:B1 *1091:C 0.00017309
12 *1085:A2 *1027:B 1.41029e-05
13 *1085:A2 *1091:C 4.97876e-05
14 *1086:A2 *1086:A3 1.04232e-05
15 *1086:A2 *79:21 0.000233636
16 *1086:A2 *79:32 2.89016e-05
17 *78:6 *79:6 0.00018372
18 *78:6 *79:21 0.000178847
19 *78:23 *1027:B 2.59093e-05
20 *78:23 *1091:C 0.000143804
21 *1028:A1 *1037:B1 4.88637e-05
22 *1028:B1 *1037:B1 0.000306324
23 *1035:C *78:6 2.89016e-05
24 *1038:A *1038:C 1.56e-05
25 *1085:A1 *1038:C 2.60984e-05
26 *1085:B1 *1038:C 0.000232306
27 *1085:B1 *1085:A2 3.34366e-05
28 *1085:B1 *1086:A2 4.87854e-05
29 *1085:B1 *78:23 0.000103253
30 *65:14 *1037:B1 9.76689e-05
31 *65:16 *1037:B1 3.99614e-06
32 *71:12 *1086:A2 0.000134345
*RES
1 *1035:Y *78:6 12.7107 
2 *78:6 *78:8 4.5 
3 *78:8 *1037:B1 19.4786 
4 *78:8 *78:23 1.94643 
5 *78:23 *1038:C 18.3536 
6 *78:23 *1085:A2 14.5321 
7 *78:6 *1086:A2 12.8536 
*END

*D_NET *79 0.00393962
*CONN
*I *1038:D I *D sky130_fd_sc_hd__nand4_2
*I *1037:B2 I *D sky130_fd_sc_hd__a22o_2
*I *1086:A3 I *D sky130_fd_sc_hd__a31o_4
*I *1085:A3 I *D sky130_fd_sc_hd__a31oi_2
*I *1036:X O *D sky130_fd_sc_hd__a21o_2
*CAP
1 *1038:D 0.000101394
2 *1037:B2 0.000143411
3 *1086:A3 1.99857e-05
4 *1085:A3 0.000122713
5 *1036:X 0.000228808
6 *79:32 0.000270972
7 *79:21 0.000276633
8 *79:6 0.000582002
9 *1085:A3 *271:34 0.000223592
10 *79:6 *1035:A 3.97677e-05
11 *79:6 *357:72 2.77143e-05
12 *79:6 *593:27 0.000347174
13 *1028:A1 *1037:B2 5.71472e-05
14 *1029:A1 *1037:B2 6.39594e-05
15 *1029:A1 *1038:D 8.40913e-05
16 *1029:B1 *1085:A3 7.95674e-05
17 *1035:B *79:6 0.00018372
18 *1035:C *79:6 2.42662e-05
19 *1037:A1 *1037:B2 5.9201e-05
20 *1037:B1 *1037:B2 5.52238e-05
21 *1086:A2 *1086:A3 1.04232e-05
22 *1086:A2 *79:21 0.000233636
23 *1086:A2 *79:32 2.89016e-05
24 *70:19 *1037:B2 9.22948e-05
25 *70:19 *1038:D 5.66157e-05
26 *70:30 *1038:D 0.00016384
27 *78:6 *79:6 0.00018372
28 *78:6 *79:21 0.000178847
*RES
1 *1036:X *79:6 15.175 
2 *79:6 *1085:A3 21.6929 
3 *79:6 *79:21 4.23214 
4 *79:21 *1086:A3 9.72857 
5 *79:21 *79:32 5.03571 
6 *79:32 *1037:B2 17.2464 
7 *79:32 *1038:D 16.6571 
*END

*D_NET *80 0.00238458
*CONN
*I *1043:C I *D sky130_fd_sc_hd__nand3_2
*I *1039:A I *D sky130_fd_sc_hd__and2_2
*I *1042:A1 I *D sky130_fd_sc_hd__a21oi_2
*I *1037:X O *D sky130_fd_sc_hd__a22o_2
*CAP
1 *1043:C 0
2 *1039:A 8.65367e-05
3 *1042:A1 0
4 *1037:X 0.00047211
5 *80:27 0.000288903
6 *80:10 0.000674476
7 *1039:A *1039:B 0.000169405
8 *1039:A *81:10 1.02504e-05
9 *80:10 *84:16 0
10 *80:10 *90:12 0.000320031
11 *80:27 *1043:B 9.90431e-05
12 *80:27 *81:10 8.16036e-05
13 *80:27 *84:26 0
14 *80:27 *90:12 3.51442e-05
15 *1028:A1 *80:10 4.8035e-05
16 *1028:B1 *80:10 9.90431e-05
17 *1037:A2 *80:10 0
*RES
1 *1037:X *80:10 21.6929 
2 *80:10 *1042:A1 13.8 
3 *80:10 *80:27 8.96429 
4 *80:27 *1039:A 20.55 
5 *80:27 *1043:C 9.3 
*END

*D_NET *81 0.00125605
*CONN
*I *1042:A2 I *D sky130_fd_sc_hd__a21oi_2
*I *1039:B I *D sky130_fd_sc_hd__and2_2
*I *1043:B I *D sky130_fd_sc_hd__nand3_2
*I *1038:Y O *D sky130_fd_sc_hd__nand4_2
*CAP
1 *1042:A2 0
2 *1039:B 0.000122167
3 *1043:B 4.05636e-05
4 *1038:Y 7.07426e-05
5 *81:10 0.000302221
6 *81:6 0.000210232
7 *1039:B *84:35 0
8 *81:6 *84:22 4.88637e-05
9 *81:10 *84:26 0
10 *1038:A *81:6 0.00010096
11 *1039:A *1039:B 0.000169405
12 *1039:A *81:10 1.02504e-05
13 *72:14 *81:10 0
14 *80:27 *1043:B 9.90431e-05
15 *80:27 *81:10 8.16036e-05
*RES
1 *1038:Y *81:6 11.0679 
2 *81:6 *81:10 7.05357 
3 *81:10 *1043:B 14.7464 
4 *81:10 *1039:B 16.5857 
5 *81:6 *1042:A2 9.3 
*END

*D_NET *82 0.0017568
*CONN
*I *1093:C I *D sky130_fd_sc_hd__and3_4
*I *1092:A1 I *D sky130_fd_sc_hd__a22oi_2
*I *1094:C I *D sky130_fd_sc_hd__and4_2
*I *1039:X O *D sky130_fd_sc_hd__and2_2
*CAP
1 *1093:C 0.00010263
2 *1092:A1 6.39057e-05
3 *1094:C 0
4 *1039:X 0.000158754
5 *82:19 0.00022608
6 *82:10 0.000218298
7 *1092:A1 *1092:B1 3.99614e-06
8 *1092:A1 *134:12 0.000101854
9 *1093:C *1093:B 0.000272702
10 *1093:C *1094:B 0.000170667
11 *1093:C *84:44 3.34366e-05
12 *1093:C *132:10 0
13 *1093:C *132:12 0
14 *82:10 *84:35 0.000153047
15 *82:19 *1094:A 0
16 *82:19 *1094:B 0.000100823
17 *82:19 *84:35 1.02504e-05
18 *82:19 *84:44 0.000140361
*RES
1 *1039:X *82:10 16.6929 
2 *82:10 *1094:C 13.8 
3 *82:10 *82:19 1.94643 
4 *82:19 *1092:A1 15.175 
5 *82:19 *1093:C 17.4964 
*END

*D_NET *83 0.00225386
*CONN
*I *1041:B I *D sky130_fd_sc_hd__nand2_2
*I *1040:X O *D sky130_fd_sc_hd__a311o_2
*CAP
1 *1041:B 0.000386673
2 *1040:X 0.000386673
3 *1041:B *999:C 5.41794e-05
4 *1041:B *1477:A 4.69993e-05
5 *1041:B *1538:A 0.000310292
6 *1041:B *84:16 8.00806e-05
7 *1041:B *551:26 4.75908e-05
8 *1041:B *554:8 0.000139907
9 *1041:B *625:8 0.000185643
10 *1041:B *647:77 5.84267e-05
11 *44:25 *1041:B 0.000557398
*RES
1 *1040:X *1041:B 38.1893 
*END

*D_NET *84 0.00705225
*CONN
*I *1042:B1 I *D sky130_fd_sc_hd__a21oi_2
*I *1093:B I *D sky130_fd_sc_hd__and3_4
*I *1092:A2 I *D sky130_fd_sc_hd__a22oi_2
*I *1094:D I *D sky130_fd_sc_hd__and4_2
*I *1043:A I *D sky130_fd_sc_hd__nand3_2
*I *1041:Y O *D sky130_fd_sc_hd__nand2_2
*CAP
1 *1042:B1 0
2 *1093:B 0.000199284
3 *1092:A2 0
4 *1094:D 0
5 *1043:A 0
6 *1041:Y 0.0014045
7 *84:44 0.000290997
8 *84:35 0.00032622
9 *84:26 0.000373761
10 *84:22 0.000380421
11 *84:16 0.00164567
12 *1093:B *1094:B 1.15172e-05
13 *1093:B *132:10 0
14 *1093:B *135:10 4.46186e-06
15 *1093:B *187:8 0
16 *84:16 *1028:A2 0
17 *84:16 *551:26 0.000977438
18 *84:22 *90:12 7.77751e-05
19 *84:26 *1044:A_N 1.87955e-05
20 *84:26 *1045:A_N 5.98387e-05
21 *84:26 *90:12 1.19309e-05
22 *84:35 *1045:A_N 4.1331e-06
23 *84:35 *1146:B 0
24 *84:35 *1146:C 0
25 *84:35 *187:8 0
26 *84:44 *187:8 0
27 *1006:C1 *84:16 0
28 *1007:B *84:16 0.00014758
29 *1008:B1 *84:16 9.91086e-05
30 *1037:A2 *84:16 0
31 *1038:A *84:22 5.52302e-05
32 *1039:B *84:35 0
33 *1041:B *84:16 8.00806e-05
34 *1093:C *1093:B 0.000272702
35 *1093:C *84:44 3.34366e-05
36 *1531:A *84:16 0
37 *44:25 *84:16 2.44318e-05
38 *51:17 *84:16 0
39 *51:34 *84:16 0
40 *71:12 *84:16 0.000200406
41 *80:10 *84:16 0
42 *80:27 *84:26 0
43 *81:6 *84:22 4.88637e-05
44 *81:10 *84:26 0
45 *82:10 *84:35 0.000153047
46 *82:19 *84:35 1.02504e-05
47 *82:19 *84:44 0.000140361
*RES
1 *1041:Y *84:16 46.4786 
2 *84:16 *84:22 8.75 
3 *84:22 *84:26 7.35714 
4 *84:26 *1043:A 13.8 
5 *84:26 *84:35 4.98214 
6 *84:35 *1094:D 13.8 
7 *84:35 *84:44 2.25 
8 *84:44 *1092:A2 13.8 
9 *84:44 *1093:B 18.3179 
10 *84:22 *1042:B1 9.3 
*END

*D_NET *85 0.0010903
*CONN
*I *1045:A_N I *D sky130_fd_sc_hd__nand2b_4
*I *1044:A_N I *D sky130_fd_sc_hd__and2b_2
*I *1042:Y O *D sky130_fd_sc_hd__a21oi_2
*CAP
1 *1045:A_N 7.11424e-05
2 *1044:A_N 0.000147126
3 *1042:Y 9.02999e-05
4 *85:8 0.000308568
5 *1044:A_N *1044:B 0.000104236
6 *1044:A_N *1046:A2 1.40306e-05
7 *1044:A_N *90:12 0
8 *1045:A_N *1044:B 7.92975e-05
9 *1045:A_N *1146:C 9.11365e-06
10 *85:8 *90:12 0.00018372
11 *84:26 *1044:A_N 1.87955e-05
12 *84:26 *1045:A_N 5.98387e-05
13 *84:35 *1045:A_N 4.1331e-06
*RES
1 *1042:Y *85:8 15.5679 
2 *85:8 *1044:A_N 16.8893 
3 *85:8 *1045:A_N 16.05 
*END

*D_NET *86 0.001596
*CONN
*I *1045:B I *D sky130_fd_sc_hd__nand2b_4
*I *1044:B I *D sky130_fd_sc_hd__and2b_2
*I *1043:Y O *D sky130_fd_sc_hd__nand3_2
*CAP
1 *1045:B 0.000160593
2 *1044:B 0.000131845
3 *1043:Y 0.000176044
4 *86:6 0.000468482
5 *1044:B *1049:A1 5.83233e-05
6 *1044:B *1146:C 0.000417184
7 *1044:B *90:12 0
8 *1045:B *1097:A3 0
9 *1044:A_N *1044:B 0.000104236
10 *1045:A_N *1044:B 7.92975e-05
*RES
1 *1043:Y *86:6 11.8893 
2 *86:6 *1044:B 23.5857 
3 *86:6 *1045:B 11.9071 
*END

*D_NET *87 0.00128145
*CONN
*I *1048:B I *D sky130_fd_sc_hd__nor2_4
*I *1096:B1 I *D sky130_fd_sc_hd__a2bb2o_2
*I *1044:X O *D sky130_fd_sc_hd__and2b_2
*CAP
1 *1048:B 0.000322038
2 *1096:B1 0
3 *1044:X 9.00881e-05
4 *87:12 0.000412126
5 *1048:B *1048:A 0.00020221
6 *1048:B *1096:A1_N 1.2747e-05
7 *1048:B *90:12 5.71472e-05
8 *87:12 *1146:C 0.000129868
9 *87:12 *88:10 0
10 *87:12 *90:12 5.52302e-05
*RES
1 *1044:X *87:12 20.4786 
2 *87:12 *1096:B1 9.3 
3 *87:12 *1048:B 15.7464 
*END

*D_NET *88 0.00175828
*CONN
*I *1097:A1 I *D sky130_fd_sc_hd__o31ai_2
*I *1049:B1 I *D sky130_fd_sc_hd__a21oi_2
*I *1145:A1 I *D sky130_fd_sc_hd__o221ai_4
*I *1045:Y O *D sky130_fd_sc_hd__nand2b_4
*CAP
1 *1097:A1 0.000165873
2 *1049:B1 0
3 *1145:A1 8.73989e-05
4 *1045:Y 0.000119956
5 *88:10 0.00026173
6 *88:6 0.000460161
7 *1097:A1 *1097:A2 3.53387e-05
8 *1097:A1 *1097:A3 5.03772e-05
9 *1145:A1 *1097:A2 1.31516e-05
10 *1145:A1 *92:10 0.000153047
11 *88:6 *1097:A3 4.58194e-05
12 *88:10 *1096:A1_N 2.26424e-05
13 *88:10 *1096:A2_N 1.00375e-05
14 *88:10 *1097:A2 0.000206307
15 *88:10 *1097:B1 0.000126439
16 *88:10 *1146:C 0
17 *1049:A2 *1145:A1 0
18 *87:12 *88:10 0
*RES
1 *1045:Y *88:6 11.0679 
2 *88:6 *88:10 9.48214 
3 *88:10 *1145:A1 16.05 
4 *88:10 *1049:B1 13.8 
5 *88:6 *1097:A1 12.3179 
*END

*D_NET *89 0.00247059
*CONN
*I *1097:A2 I *D sky130_fd_sc_hd__o31ai_2
*I *1145:A2 I *D sky130_fd_sc_hd__o221ai_4
*I *1046:Y O *D sky130_fd_sc_hd__a21boi_2
*CAP
1 *1097:A2 0.000378369
2 *1145:A2 0
3 *1046:Y 0.000340162
4 *89:10 0.000718531
5 *1097:A2 *1096:A1_N 0
6 *1097:A2 *1097:A3 3.22063e-05
7 *1097:A2 *1097:B1 9.11365e-06
8 *1097:A2 *1098:A 0
9 *1097:A2 *1098:B 0.000369111
10 *1097:A2 *1146:A_N 4.75812e-05
11 *1097:A2 *91:32 0
12 *1097:A2 *92:10 0.000167691
13 *1097:A2 *134:14 0
14 *89:10 *1046:A1 7.43578e-06
15 *89:10 *1046:A2 1.74352e-05
16 *89:10 *91:32 0
17 *89:10 *92:10 0.000128154
18 *1097:A1 *1097:A2 3.53387e-05
19 *1145:A1 *1097:A2 1.31516e-05
20 *88:10 *1097:A2 0.000206307
*RES
1 *1046:Y *89:10 18.4429 
2 *89:10 *1145:A2 13.8 
3 *89:10 *1097:A2 23.8 
*END

*D_NET *90 0.00266732
*CONN
*I *1048:A I *D sky130_fd_sc_hd__nor2_4
*I *1096:B2 I *D sky130_fd_sc_hd__a2bb2o_2
*I *1047:Y O *D sky130_fd_sc_hd__nand2_2
*CAP
1 *1048:A 0.000397491
2 *1096:B2 0
3 *1047:Y 0.000383643
4 *90:12 0.000781134
5 *1048:A *1096:A1_N 2.13202e-05
6 *1048:A *1097:B1 5.52238e-05
7 *1048:A *91:32 2.72967e-05
8 *1044:A_N *90:12 0
9 *1044:B *90:12 0
10 *1048:B *1048:A 0.00020221
11 *1048:B *90:12 5.71472e-05
12 *1531:A *90:12 5.80217e-05
13 *80:10 *90:12 0.000320031
14 *80:27 *90:12 3.51442e-05
15 *84:22 *90:12 7.77751e-05
16 *84:26 *90:12 1.19309e-05
17 *85:8 *90:12 0.00018372
18 *87:12 *90:12 5.52302e-05
*RES
1 *1047:Y *90:12 27.7286 
2 *90:12 *1096:B2 9.3 
3 *90:12 *1048:A 16.7464 
*END

*D_NET *91 0.00237797
*CONN
*I *1051:B1 I *D sky130_fd_sc_hd__a211oi_4
*I *1050:B1 I *D sky130_fd_sc_hd__o221a_2
*I *1146:A_N I *D sky130_fd_sc_hd__nand3b_4
*I *1048:Y O *D sky130_fd_sc_hd__nor2_4
*CAP
1 *1051:B1 2.65691e-05
2 *1050:B1 0.000110674
3 *1146:A_N 0.000314293
4 *1048:Y 0.000758051
5 *91:32 0.000581001
6 *1050:B1 *1050:A2 5.80706e-06
7 *1050:B1 *1050:B2 0
8 *1050:B1 *1051:A2 0.000103041
9 *1050:B1 *1052:B 1.38106e-05
10 *1050:B1 *1145:B1 0
11 *1050:B1 *520:19 4.46186e-06
12 *1051:B1 *94:8 1.66258e-05
13 *1146:A_N *1098:B 0.00015234
14 *1146:A_N *134:14 0
15 *91:32 *1050:B2 0
16 *91:32 *1051:A2 4.46186e-06
17 *91:32 *1098:A 0.000202842
18 *91:32 *1098:B 0
19 *91:32 *1493:A 0
20 *91:32 *1509:A 0
21 *91:32 *1580:A 0
22 *91:32 *92:10 0
23 p[6] *91:32 0
24 *1048:A *91:32 2.72967e-05
25 *1051:A1 *91:32 9.11365e-06
26 *1097:A2 *1146:A_N 4.75812e-05
27 *1097:A2 *91:32 0
28 *89:10 *91:32 0
*RES
1 *1048:Y *1146:A_N 33.225 
2 *1048:Y *91:32 22.2107 
3 *91:32 *1050:B1 16.483 
4 *91:32 *1051:B1 4.97321 
*END

*D_NET *92 0.00161384
*CONN
*I *1051:C1 I *D sky130_fd_sc_hd__a211oi_4
*I *1050:B2 I *D sky130_fd_sc_hd__o221a_2
*I *1049:Y O *D sky130_fd_sc_hd__a21oi_2
*CAP
1 *1051:C1 0
2 *1050:B2 0.000177176
3 *1049:Y 0.000184795
4 *92:10 0.000361972
5 *1050:B2 *1052:B 9.6087e-05
6 *1050:B2 *1145:B1 0.00020455
7 *92:10 *1145:B1 0.000140368
8 *1049:A2 *92:10 0
9 *1050:B1 *1050:B2 0
10 *1097:A2 *92:10 0.000167691
11 *1145:A1 *92:10 0.000153047
12 *1145:B2 *92:10 0
13 *89:10 *92:10 0.000128154
14 *91:32 *1050:B2 0
15 *91:32 *92:10 0
*RES
1 *1049:Y *92:10 19.1214 
2 *92:10 *1050:B2 18.1214 
3 *92:10 *1051:C1 13.8 
*END

*D_NET *93 0.000102603
*CONN
*I *1052:A I *D sky130_fd_sc_hd__nor2_2
*I *1050:X O *D sky130_fd_sc_hd__o221a_2
*CAP
1 *1052:A 2.36895e-05
2 *1050:X 2.36895e-05
3 *1052:A *1052:B 5.52238e-05
*RES
1 *1050:X *1052:A 19.1357 
*END

*D_NET *94 0.00118181
*CONN
*I *1580:A I *D sky130_fd_sc_hd__buf_6
*I *1509:A I *D sky130_fd_sc_hd__buf_6
*I *1051:Y O *D sky130_fd_sc_hd__a211oi_4
*CAP
1 *1580:A 9.34165e-05
2 *1509:A 0.000108757
3 *1051:Y 0.000246155
4 *94:8 0.000448329
5 p[5] *1509:A 0.000142315
6 *1051:A1 *1509:A 0.000126209
7 *1051:B1 *94:8 1.66258e-05
8 *91:32 *1509:A 0
9 *91:32 *1580:A 0
*RES
1 *1051:Y *94:8 16.5009 
2 *94:8 *1509:A 17.2643 
3 *94:8 *1580:A 15.4429 
*END

*D_NET *95 0.00714315
*CONN
*I *1138:A2 I *D sky130_fd_sc_hd__o31a_2
*I *1057:B I *D sky130_fd_sc_hd__nor2_4
*I *1359:A2 I *D sky130_fd_sc_hd__o31a_2
*I *1053:X O *D sky130_fd_sc_hd__and2_4
*CAP
1 *1138:A2 0.000119132
2 *1057:B 9.46232e-05
3 *1359:A2 0.000982303
4 *1053:X 0.00147409
5 *95:26 0.000705547
6 *1057:B *1057:A 0.00015304
7 *1057:B *1138:A3 5.66157e-05
8 *1057:B *215:12 0.000201127
9 *1138:A2 *1138:A1 3.57366e-05
10 *1138:A2 *1138:A3 0.000143804
11 *1138:A2 *1138:B1 2.00059e-05
12 *1138:A2 *215:12 0.000151333
13 *1359:A2 *1362:A2 7.49272e-05
14 *1359:A2 *1362:B2 1.98839e-05
15 *1359:A2 *1364:D 5.71472e-05
16 *1359:A2 *97:14 0.000781528
17 *1359:A2 *97:57 0.000167436
18 *1359:A2 *378:112 0.000150336
19 *95:26 *1054:A 4.88637e-05
20 *95:26 *1054:B 5.71472e-05
21 *95:26 *1228:A2 0.000181803
22 *95:26 *1228:B1_N 5.33005e-05
23 *95:26 *97:57 0.00108741
24 *95:26 *268:10 0.000177815
25 *75:10 *1359:A2 0.000148196
*RES
1 *1053:X *1359:A2 41.9929 
2 *1053:X *95:26 27.4786 
3 *95:26 *1057:B 16.8893 
4 *95:26 *1138:A2 17.0143 
*END

*D_NET *96 0.00209742
*CONN
*I *1357:C I *D sky130_fd_sc_hd__nand3_2
*I *1127:A1 I *D sky130_fd_sc_hd__a21oi_4
*I *1059:C I *D sky130_fd_sc_hd__and3_2
*I *1054:Y O *D sky130_fd_sc_hd__nand2_2
*CAP
1 *1357:C 0.000354262
2 *1127:A1 0
3 *1059:C 0
4 *1054:Y 9.6675e-05
5 *96:21 0.000600062
6 *96:8 0.000342475
7 *1357:C *1059:A 0.000127039
8 *1357:C *1357:B 0
9 *1357:C *1360:D1 2.89016e-05
10 *1357:C *98:12 6.49132e-05
11 *1357:C *166:19 2.14757e-05
12 *1357:C *168:10 1.33343e-05
13 *96:8 *1059:A 5.80706e-06
14 *96:8 *1245:B1 0
15 *96:8 *506:58 0
16 *96:21 *1059:A 9.74588e-05
17 *96:21 *1226:A2 2.8266e-06
18 *96:21 *1245:B1 0
19 *96:21 *166:19 0.000227532
20 *96:21 *168:10 0.000114655
*RES
1 *1054:Y *96:8 15.4429 
2 *96:8 *1059:C 13.8 
3 *96:8 *96:21 9.83929 
4 *96:21 *1127:A1 9.3 
5 *96:21 *1357:C 16.0321 
*END

*D_NET *97 0.00989365
*CONN
*I *1138:A3 I *D sky130_fd_sc_hd__o31a_2
*I *1057:A I *D sky130_fd_sc_hd__nor2_4
*I *1358:A2 I *D sky130_fd_sc_hd__o211ai_2
*I *1359:A3 I *D sky130_fd_sc_hd__o31a_2
*I *1385:C I *D sky130_fd_sc_hd__and4_2
*I *1055:Y O *D sky130_fd_sc_hd__nor2_4
*CAP
1 *1138:A3 0.000124668
2 *1057:A 5.13864e-05
3 *1358:A2 7.27255e-05
4 *1359:A3 0
5 *1385:C 0.000467432
6 *1055:Y 1.99857e-05
7 *97:57 0.000918485
8 *97:18 0.000561232
9 *97:14 0.000449861
10 *97:6 0.00104575
11 *1057:A *928:A 5.57727e-05
12 *1138:A3 *928:A 8.99513e-05
13 *1138:A3 *215:12 2.82057e-05
14 *1358:A2 *1358:B1 5.33005e-05
15 *1358:A2 *1358:C1 0
16 *1358:A2 *640:22 6.71755e-05
17 *1385:C *1126:B1 2.82057e-05
18 *1385:C *1247:A2 0.000113249
19 *1385:C *1358:C1 1.07719e-05
20 *1385:C *1359:A1 0.000408302
21 *1385:C *1385:B 3.69047e-06
22 *1385:C *288:10 6.05161e-06
23 *1385:C *410:8 0.000526407
24 *1385:C *410:10 3.17148e-05
25 *1385:C *640:22 0.00022266
26 *1385:C *652:60 8.25843e-06
27 *97:6 *651:59 1.04232e-05
28 *97:14 *1055:B 5.17614e-05
29 *97:14 *1360:C1 0.000112587
30 *97:14 *1361:A2_N 1.02504e-05
31 *97:14 *1362:B2 0.000139907
32 *97:14 *297:50 0.000144038
33 *97:14 *407:17 0.00014576
34 *97:18 *1358:C1 7.49387e-06
35 *97:18 *1359:B1 0.000224583
36 *97:18 *640:22 0.000307343
37 *97:57 *1054:B 8.57535e-05
38 *97:57 *1055:B 2.28499e-05
39 *97:57 *1224:B1 0.000142856
40 *97:57 *1228:A1 0.000139907
41 *97:57 *263:14 0.000181803
42 *97:57 *268:10 0.000179745
43 *97:57 *651:52 9.60939e-05
44 *1057:B *1057:A 0.00015304
45 *1057:B *1138:A3 5.66157e-05
46 *1138:A2 *1138:A3 0.000143804
47 *1359:A2 *97:14 0.000781528
48 *1359:A2 *97:57 0.000167436
49 *75:10 *1385:C 0.000135427
50 *95:26 *97:57 0.00108741
*RES
1 *1055:Y *97:6 9.72857 
2 *97:6 *97:14 18.4643 
3 *97:14 *97:18 3.42857 
4 *97:18 *1385:C 31.6571 
5 *97:18 *1359:A3 9.3 
6 *97:14 *1358:A2 11.0857 
7 *97:6 *97:57 21.1964 
8 *97:57 *1057:A 15.7464 
9 *97:57 *1138:A3 17.4964 
*END

*D_NET *98 0.0047572
*CONN
*I *1059:A I *D sky130_fd_sc_hd__and3_2
*I *1357:A I *D sky130_fd_sc_hd__nand3_2
*I *1402:A I *D sky130_fd_sc_hd__and3_2
*I *1056:X O *D sky130_fd_sc_hd__or2_2
*CAP
1 *1059:A 0.00032856
2 *1357:A 3.18084e-05
3 *1402:A 0.000412211
4 *1056:X 0
5 *98:12 0.00068194
6 *98:4 0.000566481
7 *1059:A *166:19 0.000181803
8 *1059:A *506:58 0
9 *1059:A *649:34 1.52978e-05
10 *1059:A *649:44 0.000137983
11 *1059:A *649:68 9.71197e-05
12 *1357:A *1357:B 8.90371e-05
13 *1357:A *406:10 1.98839e-05
14 *1402:A *1357:B 0.000178847
15 *1402:A *1366:B 5.52238e-05
16 *1402:A *349:10 0.000127439
17 *1402:A *406:10 6.57032e-05
18 *1402:A *413:6 0.000356035
19 *1402:A *416:20 5.23142e-05
20 *1402:A *562:22 4.39735e-05
21 *1402:A *627:37 6.42242e-05
22 *1402:A *638:91 5.33005e-05
23 *1402:A *638:102 0.000219711
24 *98:12 *1357:B 2.28598e-05
25 *98:12 *1360:D1 9.90367e-05
26 *98:12 *288:10 7.90803e-05
27 *98:12 *406:10 9.41642e-05
28 *98:12 *562:22 0.000265447
29 *98:12 *645:48 8.07951e-05
30 *1357:C *1059:A 0.000127039
31 *1357:C *98:12 6.49132e-05
32 *75:25 *1402:A 4.16984e-05
33 *96:8 *1059:A 5.80706e-06
34 *96:21 *1059:A 9.74588e-05
*RES
1 *1056:X *98:4 9.3 
2 *98:4 *98:12 15.0893 
3 *98:12 *1402:A 28.6929 
4 *98:12 *1357:A 10.2643 
5 *98:4 *1059:A 25.9071 
*END

*D_NET *99 0.00571486
*CONN
*I *1480:A I *D sky130_fd_sc_hd__buf_4
*I *1178:A1 I *D sky130_fd_sc_hd__a22oi_2
*I *1128:A2 I *D sky130_fd_sc_hd__a22oi_2
*I *1515:A I *D sky130_fd_sc_hd__buf_2
*I *1058:A I *D sky130_fd_sc_hd__inv_4
*I *1057:Y O *D sky130_fd_sc_hd__nor2_4
*CAP
1 *1480:A 0.000129342
2 *1178:A1 2.01984e-05
3 *1128:A2 1.16062e-05
4 *1515:A 0.000351378
5 *1058:A 0.000110578
6 *1057:Y 6.9865e-05
7 *99:51 0.000339368
8 *99:36 0.000486586
9 *99:12 0.00128176
10 *99:8 0.00117482
11 *1058:A *1139:B1_N 3.47641e-06
12 *1058:A *131:8 5.72705e-05
13 *1058:A *172:14 0
14 *1128:A2 *1128:A1 5.52302e-05
15 *1128:A2 *1129:B 5.52302e-05
16 *1178:A1 *1178:B1 2.89114e-05
17 *1178:A1 *292:113 2.59355e-05
18 *1480:A *215:12 0.000166269
19 *1480:A *218:8 0
20 *1515:A *1087:B 3.72932e-05
21 *1515:A *1091:D 0
22 *99:8 *1124:A 0.00020455
23 *99:8 *1128:A1 9.59321e-05
24 *99:8 *215:12 2.82057e-05
25 *99:12 *1083:B1 0.000166416
26 *99:12 *1547:A 7.48091e-05
27 *99:12 *165:10 1.92789e-05
28 *99:36 *1128:A1 0.000106575
29 *99:36 *1129:B 8.5896e-05
30 *99:36 *215:12 0.000116984
31 *99:36 *554:41 0.000266099
32 *99:51 *1129:B 1.52978e-05
33 *99:51 *165:45 0
34 *99:51 *215:12 0.000129695
35 *99:51 *218:8 0
*RES
1 *1057:Y *99:8 16.9607 
2 *99:8 *99:12 14.0714 
3 *99:12 *1058:A 19.9429 
4 *99:12 *1515:A 13.9786 
5 *99:8 *99:36 6.5 
6 *99:36 *1128:A2 14.3357 
7 *99:36 *99:51 3.51786 
8 *99:51 *1178:A1 14.3357 
9 *99:51 *1480:A 16.5857 
*END

*D_NET *100 0.0027949
*CONN
*I *1090:B2 I *D sky130_fd_sc_hd__o2bb2ai_2
*I *1137:A2 I *D sky130_fd_sc_hd__o2111ai_4
*I *1130:B2 I *D sky130_fd_sc_hd__o221a_2
*I *1058:Y O *D sky130_fd_sc_hd__inv_4
*CAP
1 *1090:B2 0.000272166
2 *1137:A2 0.0002091
3 *1130:B2 0.000343568
4 *1058:Y 0.000824834
5 *1090:B2 *1090:B1 0.000273269
6 *1090:B2 *1131:B 5.71472e-05
7 *1090:B2 *172:14 9.90431e-05
8 *1130:B2 *1130:B1 6.26774e-06
9 *1130:B2 *1131:B 2.21589e-05
10 *1130:B2 *1138:A1 3.45371e-05
11 *1130:B2 *1138:B1 7.64371e-05
12 *1130:B2 *1557:A 2.89114e-05
13 *1137:A2 *1131:A 0.000101545
14 *1137:A2 *1131:B 1.32552e-05
15 *1137:A2 *1137:A1 0.000109659
16 *1137:A2 *172:14 0.000148196
17 *1137:A2 *172:23 0.000174805
*RES
1 *1058:Y *1130:B2 23.1536 
2 *1058:Y *1137:A2 33.0286 
3 *1058:Y *1090:B2 24.6357 
*END

*D_NET *101 0.00761124
*CONN
*I *1136:A2 I *D sky130_fd_sc_hd__o22ai_4
*I *1139:A1 I *D sky130_fd_sc_hd__a21boi_2
*I *1059:X O *D sky130_fd_sc_hd__and3_2
*CAP
1 *1136:A2 0.000181756
2 *1139:A1 0.000467033
3 *1059:X 0.00115118
4 *101:22 0.00179997
5 *1136:A2 *1137:D1 0.000123295
6 *1136:A2 *1149:A2 2.89114e-05
7 *1136:A2 *292:113 2.93262e-05
8 *1136:A2 *649:94 8.98585e-05
9 *1136:A2 *649:111 0.000245349
10 *1139:A1 *1131:A 0.000312203
11 *1139:A1 *1132:A1 8.44865e-05
12 *1139:A1 *1137:D1 5.33005e-05
13 *1139:A1 *1139:B1_N 0.000382513
14 *1139:A1 *1141:A_N 3.18676e-05
15 *1139:A1 *131:41 0.000114647
16 *1139:A1 *164:16 1.24368e-05
17 *1139:A1 *292:113 6.8646e-06
18 *101:22 *1130:C1 0.000179919
19 *101:22 *1137:D1 3.17148e-05
20 *101:22 *1138:B1 0.000196188
21 *101:22 *1140:B1 0.000357952
22 *101:22 *1245:A2 1.39726e-05
23 *101:22 *164:10 1.90936e-05
24 *101:22 *165:10 2.04825e-05
25 *101:22 *165:22 0.000251042
26 *101:22 *286:12 0.000144773
27 *101:22 *292:113 5.91696e-05
28 *101:22 *506:66 0.000753287
29 *101:22 *513:10 0.000346149
30 *101:22 *634:99 0.000113256
31 *101:22 *649:94 9.25014e-06
*RES
1 *1059:X *101:22 40.2799 
2 *101:22 *1139:A1 33.2643 
3 *101:22 *1136:A2 18.7107 
*END

*D_NET *102 0.0023438
*CONN
*I *1062:B1 I *D sky130_fd_sc_hd__o211ai_2
*I *1061:B1 I *D sky130_fd_sc_hd__o211a_2
*I *1060:Y O *D sky130_fd_sc_hd__nand2_2
*CAP
1 *1062:B1 0
2 *1061:B1 0.000178452
3 *1060:Y 0.000173154
4 *102:12 0.000351607
5 *1061:B1 *1062:C1 8.43535e-06
6 *1061:B1 *1072:A1_N 9.0145e-05
7 *1061:B1 *1442:A 0.000378038
8 *1061:B1 *637:58 6.66256e-05
9 *1061:B1 *637:72 7.69659e-05
10 *102:12 *1060:B 0.00016641
11 *102:12 *1102:A 1.02821e-05
12 *102:12 *1157:A 0.000146275
13 *102:12 *1446:A 5.23792e-05
14 *102:12 *506:18 0.000144696
15 *102:12 *583:29 0.000221634
16 *102:12 *637:43 0.000265447
17 *102:12 *676:32 1.32552e-05
*RES
1 *1060:Y *102:12 24.0679 
2 *102:12 *1061:B1 13.9786 
3 *102:12 *1062:B1 9.3 
*END

*D_NET *103 0.00257832
*CONN
*I *1072:A1_N I *D sky130_fd_sc_hd__a2bb2oi_4
*I *1061:X O *D sky130_fd_sc_hd__o211a_2
*CAP
1 *1072:A1_N 0.000425237
2 *1061:X 0.000425237
3 *1072:A1_N *1062:C1 5.33005e-05
4 *1072:A1_N *1064:B1 2.28598e-05
5 *1072:A1_N *1157:A 0.000169439
6 *1072:A1_N *1442:A 3.45371e-05
7 *1072:A1_N *282:33 0.000533359
8 *1072:A1_N *506:18 0.000165546
9 *1072:A1_N *549:36 0.000197176
10 *1072:A1_N *549:53 0.000363462
11 *1072:A1_N *675:10 9.80173e-05
12 *1061:B1 *1072:A1_N 9.0145e-05
*RES
1 *1061:X *1072:A1_N 41.4929 
*END

*D_NET *104 0.000753764
*CONN
*I *1064:B1 I *D sky130_fd_sc_hd__o31a_2
*I *1062:Y O *D sky130_fd_sc_hd__o211ai_2
*CAP
1 *1064:B1 0.000177384
2 *1062:Y 0.000177384
3 *1064:B1 *1062:C1 9.60875e-05
4 *1064:B1 *282:12 0.000139922
5 *1072:A1_N *1064:B1 2.28598e-05
6 *1458:A *1064:B1 0.000140126
*RES
1 *1062:Y *1064:B1 30.9036 
*END

*D_NET *105 0.000352264
*CONN
*I *1072:A2_N I *D sky130_fd_sc_hd__a2bb2oi_4
*I *1063:X O *D sky130_fd_sc_hd__and3_2
*CAP
1 *1072:A2_N 6.72486e-05
2 *1063:X 6.72486e-05
3 *1072:A2_N *1071:B 7.2606e-05
4 *1072:A2_N *637:14 0.000145161
*RES
1 *1063:X *1072:A2_N 29.5464 
*END

*D_NET *106 0.00459614
*CONN
*I *1074:C1 I *D sky130_fd_sc_hd__o211ai_4
*I *1073:C1 I *D sky130_fd_sc_hd__o211a_4
*I *1064:X O *D sky130_fd_sc_hd__o31a_2
*CAP
1 *1074:C1 0.000111925
2 *1073:C1 0.000158978
3 *1064:X 0.00116196
4 *106:8 0.00143286
5 *1073:C1 *941:C 0
6 *1073:C1 *1073:B1 6.01512e-05
7 *1073:C1 *115:24 1.21859e-05
8 *1073:C1 *282:39 7.77652e-05
9 *1073:C1 *629:70 0
10 *1074:C1 *941:C 0
11 *1074:C1 *1073:B1 2.09846e-05
12 *1074:C1 *1074:B1 0.000106552
13 *1074:C1 *114:14 0.000222885
14 *106:8 *1584:A 2.39999e-05
15 *106:8 *114:8 0.000520528
16 *106:8 *549:36 0.000392026
17 *106:8 *549:53 0.000293342
*RES
1 *1064:X *106:8 29.1214 
2 *106:8 *1073:C1 17.1036 
3 *106:8 *1074:C1 16.9607 
*END

*D_NET *107 0.0005544
*CONN
*I *1068:A1 I *D sky130_fd_sc_hd__o21a_2
*I *1069:A1 I *D sky130_fd_sc_hd__o21ai_2
*I *1065:Y O *D sky130_fd_sc_hd__o21ai_2
*CAP
1 *1068:A1 8.49757e-05
2 *1069:A1 7.98779e-05
3 *1065:Y 0.000164854
4 *1068:A1 *1068:A2 0
5 *1068:A1 *1558:A 8.47274e-05
6 *1068:A1 *576:8 5.52302e-05
7 *1069:A1 *1065:A2 2.80066e-05
8 *1069:A1 *1065:B1 5.67286e-05
*RES
1 *1065:Y *1069:A1 29.2429 
2 *1065:Y *1068:A1 20.8143 
*END

*D_NET *108 0.000702489
*CONN
*I *1070:C1 I *D sky130_fd_sc_hd__o311ai_4
*I *1066:Y O *D sky130_fd_sc_hd__nand3b_4
*CAP
1 *1070:C1 0.000139537
2 *1066:Y 0.000139537
3 *1070:C1 *282:125 6.5215e-05
4 *1070:C1 *561:50 0.000139338
5 *1070:C1 *641:49 0.000141923
6 *1070:C1 *668:40 4.84073e-05
7 *1070:C1 *668:60 2.85321e-05
*RES
1 *1066:Y *1070:C1 31.3321 
*END

*D_NET *109 0.000613381
*CONN
*I *1068:B1 I *D sky130_fd_sc_hd__o21a_2
*I *1069:B1 I *D sky130_fd_sc_hd__o21ai_2
*I *1067:Y O *D sky130_fd_sc_hd__nand3_2
*CAP
1 *1068:B1 0.000133566
2 *1069:B1 5.78078e-05
3 *1067:Y 0.000191373
4 *1068:B1 *1065:A1 9.69119e-06
5 *1068:B1 *1068:A2 5.71472e-05
6 *1068:B1 *110:8 3.48864e-05
7 *1068:B1 *576:8 5.52302e-05
8 *1068:B1 *576:21 4.04161e-05
9 *1068:B1 *629:70 0
10 *1069:B1 *1065:A2 3.32631e-05
*RES
1 *1067:Y *1069:B1 19.5464 
2 *1067:Y *1068:B1 30.3857 
*END

*D_NET *110 0.00133548
*CONN
*I *1074:A2 I *D sky130_fd_sc_hd__o211ai_4
*I *1073:A2 I *D sky130_fd_sc_hd__o211a_4
*I *1068:X O *D sky130_fd_sc_hd__o21a_2
*CAP
1 *1074:A2 0.000169621
2 *1073:A2 0
3 *1068:X 0.000201952
4 *110:8 0.000371574
5 *1074:A2 *1072:B2 0.000177234
6 *1074:A2 *1073:A1 0.000184187
7 *1074:A2 *629:70 9.10431e-06
8 *1074:A2 *641:49 5.20103e-05
9 *1074:A2 *668:34 0
10 *110:8 *1426:A 4.5539e-05
11 *110:8 *576:21 0
12 *110:8 *629:70 8.93762e-05
13 *110:8 *668:10 0
14 *110:8 *668:34 0
15 *1068:B1 *110:8 3.48864e-05
*RES
1 *1068:X *110:8 17.8714 
2 *110:8 *1073:A2 13.8 
3 *110:8 *1074:A2 18.7821 
*END

*D_NET *111 0.00166002
*CONN
*I *1071:B I *D sky130_fd_sc_hd__nand2_2
*I *1069:Y O *D sky130_fd_sc_hd__o21ai_2
*CAP
1 *1071:B 0.000515468
2 *1069:Y 0.000515468
3 *1071:B *1065:B1 9.88744e-05
4 *1071:B *1070:A1 0
5 *1071:B *1471:A 0
6 *1071:B *1474:A 3.41848e-05
7 *1071:B *1584:A 0.000147114
8 *1071:B *549:53 1.46717e-05
9 *1071:B *637:14 4.89854e-05
10 *1071:B *637:134 1.66853e-05
11 *1071:B *672:59 0.000168667
12 *1071:B *676:49 2.72967e-05
13 *1072:A2_N *1071:B 7.2606e-05
*RES
1 *1069:Y *1071:B 38.0821 
*END

*D_NET *112 0.00290506
*CONN
*I *1474:A I *D sky130_fd_sc_hd__clkbuf_2
*I *1584:A I *D sky130_fd_sc_hd__buf_6
*I *1070:Y O *D sky130_fd_sc_hd__o311ai_4
*CAP
1 *1474:A 0.000243235
2 *1584:A 0.000532236
3 *1070:Y 3.92662e-05
4 *112:8 0.000814737
5 *1474:A *1066:A_N 4.11572e-05
6 *1474:A *1072:B2 9.84673e-05
7 *1474:A *549:53 0.000191475
8 *1474:A *672:59 3.42969e-05
9 *1584:A *114:8 0.000147851
10 *1584:A *282:33 0.000135028
11 *1584:A *549:53 0.000316633
12 *1584:A *619:8 5.03772e-05
13 *112:8 *1072:B1 5.49995e-05
14 *1071:B *1474:A 3.41848e-05
15 *1071:B *1584:A 0.000147114
16 *106:8 *1584:A 2.39999e-05
*RES
1 *1070:Y *112:8 14.3357 
2 *112:8 *1584:A 24.6929 
3 *112:8 *1474:A 18.55 
*END

*D_NET *113 0.00191098
*CONN
*I *1072:B1 I *D sky130_fd_sc_hd__a2bb2oi_4
*I *1071:Y O *D sky130_fd_sc_hd__nand2_2
*CAP
1 *1072:B1 0.000267263
2 *1071:Y 0.000267263
3 *1072:B1 *1070:A1 0.000219366
4 *1072:B1 *1072:B2 0.000336589
5 *1072:B1 *641:49 0.000336589
6 *1072:B1 *668:40 0.000303705
7 *1072:B1 *668:60 0.000125202
8 *112:8 *1072:B1 5.49995e-05
*RES
1 *1071:Y *1072:B1 36.2071 
*END

*D_NET *114 0.0124281
*CONN
*I *1547:A I *D sky130_fd_sc_hd__buf_6
*I *1122:B1 I *D sky130_fd_sc_hd__a21o_4
*I *1507:A I *D sky130_fd_sc_hd__buf_6
*I *1084:A_N I *D sky130_fd_sc_hd__nand3b_4
*I *1121:B I *D sky130_fd_sc_hd__nor2_4
*I *1072:Y O *D sky130_fd_sc_hd__a2bb2oi_4
*CAP
1 *1547:A 0.000128723
2 *1122:B1 2.3671e-05
3 *1507:A 0
4 *1084:A_N 0.000157616
5 *1121:B 0
6 *1072:Y 0.000164659
7 *114:51 0.000206734
8 *114:31 0.000878584
9 *114:25 0.00102437
10 *114:14 0.00217529
11 *114:8 0.00209089
12 *1084:A_N *1084:B 9.71197e-05
13 *1084:A_N *1089:A1 0
14 *1084:A_N *1089:C1 9.90367e-05
15 *1084:A_N *271:34 8.51647e-05
16 *1122:B1 *115:39 5.52302e-05
17 *1547:A *164:10 0.000219193
18 *1547:A *634:91 8.36642e-05
19 *114:8 *619:8 0.000137983
20 *114:14 *941:C 3.47468e-05
21 *114:14 *982:A1 0
22 *114:14 *982:A2 5.53406e-05
23 *114:14 *984:C1 0.000145355
24 *114:14 *987:A 0.000184799
25 *114:14 *990:A1 0
26 *114:14 *991:A 0
27 *114:14 *994:A1_N 0.000102159
28 *114:14 *994:B1 0
29 *114:14 *996:A 0
30 *114:14 *996:B 0.000481574
31 *114:14 *1022:A 0.000106228
32 *114:14 *1075:A2 7.06079e-05
33 *114:14 *1078:C1 0.00013966
34 *114:14 *1113:B1 0.000649084
35 *114:14 *1128:A1 0
36 *114:14 *1166:B1 0
37 *114:14 *1168:A1 0.00012701
38 *114:14 *1537:A 0
39 *114:14 *1539:A 0
40 *114:14 *115:24 0.000136501
41 *114:14 *215:12 0.000696498
42 *114:14 *357:66 5.83304e-05
43 *114:14 *551:46 0
44 *114:14 *561:38 3.16719e-05
45 *114:14 *561:44 0.000142495
46 *114:14 *628:16 3.29967e-05
47 *114:14 *629:70 0
48 *114:14 *656:58 1.17968e-05
49 *114:14 *665:67 2.00751e-05
50 *114:14 *668:71 1.2294e-05
51 *114:25 *1123:B1 0.000128091
52 *114:25 *164:10 0.000108118
53 *114:25 *554:41 0
54 *114:25 *634:91 1.78353e-05
55 *114:31 *1082:B 0.00018077
56 *114:31 *164:10 2.51343e-06
57 *114:51 *164:10 0.000117196
58 *114:51 *634:91 4.03318e-05
59 *1074:C1 *114:14 0.000222885
60 *1584:A *114:8 0.000147851
61 *40:10 *114:14 0
62 *99:12 *1547:A 7.48091e-05
63 *106:8 *114:8 0.000520528
*RES
1 *1072:Y *114:8 19.2643 
2 *114:8 *114:14 49.2143 
3 *114:14 *1121:B 9.3 
4 *114:14 *114:25 10.1429 
5 *114:25 *114:31 12.75 
6 *114:31 *1084:A_N 22.1036 
7 *114:31 *1507:A 9.3 
8 *114:25 *114:51 1.64286 
9 *114:51 *1122:B1 14.3357 
10 *114:51 *1547:A 18.0143 
*END

*D_NET *115 0.0121061
*CONN
*I *1083:A2 I *D sky130_fd_sc_hd__o21ai_2
*I *1081:A2 I *D sky130_fd_sc_hd__o21ai_2
*I *1123:B2 I *D sky130_fd_sc_hd__o2bb2ai_4
*I *1073:X O *D sky130_fd_sc_hd__o211a_4
*CAP
1 *1083:A2 0.000252691
2 *1081:A2 0
3 *1123:B2 0
4 *1073:X 0.0046377
5 *115:39 0.000690482
6 *115:24 0.00507549
7 *1083:A2 *1081:B1 0.000140933
8 *1083:A2 *1083:A1 9.57064e-05
9 *1083:A2 *1087:B 5.35516e-05
10 *1083:A2 *131:8 0
11 *1083:A2 *271:34 0
12 *115:24 *941:C 9.59532e-06
13 *115:24 *1128:A1 0.000114602
14 *115:24 *1428:A 2.1479e-05
15 *115:24 *1532:A 0.000171407
16 *115:24 *164:10 4.5539e-05
17 *115:24 *215:12 0.000181799
18 *115:24 *551:46 0.000135575
19 *115:24 *554:41 1.53908e-05
20 *115:39 *1122:A2 5.33005e-05
21 *115:39 *164:10 0.000153047
22 *115:39 *554:41 5.38886e-05
23 *1073:C1 *115:24 1.21859e-05
24 *1122:B1 *115:39 5.52302e-05
25 *114:14 *115:24 0.000136501
*RES
1 *1073:X *115:24 37.1488 
2 *115:24 *1123:B2 13.8 
3 *115:24 *115:39 11.9286 
4 *115:39 *1081:A2 9.3 
5 *115:39 *1083:A2 23.8714 
*END

*D_NET *116 0.0118702
*CONN
*I *1122:A2 I *D sky130_fd_sc_hd__a21o_4
*I *1082:A I *D sky130_fd_sc_hd__nand2_2
*I *1084:B I *D sky130_fd_sc_hd__nand3b_4
*I *1074:Y O *D sky130_fd_sc_hd__o211ai_4
*CAP
1 *1122:A2 0.000107337
2 *1082:A 0
3 *1084:B 0.000366338
4 *1074:Y 0.000935786
5 *116:39 0.000168193
6 *116:18 0.0010353
7 *116:16 0.00154389
8 *1084:B *1084:C 0.000579959
9 *1084:B *1089:A1 0.000268735
10 *1084:B *1089:B1 1.02504e-05
11 *1084:B *1089:C1 9.31794e-05
12 *1084:B *122:10 2.26424e-05
13 *1122:A2 *131:8 5.63007e-05
14 *1122:A2 *292:82 0.000160403
15 *116:16 *940:A1 4.51945e-05
16 *116:16 *968:B 9.05696e-05
17 *116:16 *968:C 0.000186035
18 *116:16 *987:A 0.000169759
19 *116:16 *992:A1 9.11365e-06
20 *116:16 *1429:A 0.000136958
21 *116:16 *602:29 0
22 *116:16 *644:87 0.000548916
23 *116:16 *646:72 0
24 *116:16 *647:10 8.86413e-05
25 *116:16 *647:45 0.00054713
26 *116:16 *647:58 0.000168592
27 *116:16 *672:115 1.24368e-05
28 *116:16 *672:134 0.000379583
29 *116:16 *672:140 3.17148e-05
30 *116:18 *949:B 0.000242198
31 *116:18 *122:10 0
32 *116:18 *292:82 0.00123789
33 *116:18 *554:25 0.00124157
34 *116:18 *561:10 3.14104e-05
35 *116:18 *634:64 0.000467424
36 *116:39 *1089:A2 0.000154762
37 *116:39 *122:10 0
38 *116:39 *131:8 3.01126e-05
39 *116:39 *292:82 0.000244087
40 *1084:A_N *1084:B 9.71197e-05
41 *38:6 *116:16 0.000307336
42 *115:39 *1122:A2 5.33005e-05
*RES
1 *1074:Y *116:16 45.8357 
2 *116:16 *116:18 22.2857 
3 *116:18 *1084:B 32.0143 
4 *116:18 *116:39 3.16071 
5 *116:39 *1082:A 13.8 
6 *116:39 *1122:A2 16.5857 
*END

*D_NET *117 0.000903861
*CONN
*I *1078:B1 I *D sky130_fd_sc_hd__a221o_2
*I *1077:A1 I *D sky130_fd_sc_hd__a21oi_2
*I *1075:X O *D sky130_fd_sc_hd__o21a_2
*CAP
1 *1078:B1 0
2 *1077:A1 7.53414e-05
3 *1075:X 9.38271e-05
4 *117:8 0.000169169
5 *1077:A1 *1077:A2 2.89016e-05
6 *1077:A1 *357:72 5.52302e-05
7 *1077:A1 *646:97 0.000172368
8 *1077:A1 *647:93 0.000139945
9 *117:8 *1079:B1 0
10 *117:8 *634:91 1.12301e-05
11 *117:8 *646:97 0.000137939
12 *41:67 *1077:A1 1.41029e-05
13 *41:67 *117:8 5.80706e-06
*RES
1 *1075:X *117:8 15.7464 
2 *117:8 *1077:A1 16.5857 
3 *117:8 *1078:B1 13.8 
*END

*D_NET *118 0.00126423
*CONN
*I *1077:B1 I *D sky130_fd_sc_hd__a21oi_2
*I *1076:X O *D sky130_fd_sc_hd__and3_2
*CAP
1 *1077:B1 0.000343183
2 *1076:X 0.000343183
3 *1077:B1 *1076:C 0.000388038
4 *1077:B1 *634:91 6.65398e-05
5 *41:80 *1077:B1 0.000123288
*RES
1 *1076:X *1077:B1 33.0643 
*END

*D_NET *119 0.00151999
*CONN
*I *1079:A2 I *D sky130_fd_sc_hd__o21ai_4
*I *1080:A2 I *D sky130_fd_sc_hd__o21a_2
*I *1077:Y O *D sky130_fd_sc_hd__a21oi_2
*CAP
1 *1079:A2 7.63946e-05
2 *1080:A2 1.69531e-05
3 *1077:Y 0.00018972
4 *119:10 0.000283067
5 *1079:A2 *292:82 0.000218019
6 *1079:A2 *602:29 0.00020634
7 *1080:A2 *1076:C 5.33005e-05
8 *1080:A2 *1080:B1 5.33005e-05
9 *119:10 *292:82 0.000121573
10 *119:10 *357:72 0.000179745
11 *119:10 *602:29 0.000121573
*RES
1 *1077:Y *119:10 17.2107 
2 *119:10 *1080:A2 14.3357 
3 *119:10 *1079:A2 16.6571 
*END

*D_NET *120 0.000928133
*CONN
*I *1080:B1 I *D sky130_fd_sc_hd__o21a_2
*I *1079:B1 I *D sky130_fd_sc_hd__o21ai_4
*I *1078:X O *D sky130_fd_sc_hd__a221o_2
*CAP
1 *1080:B1 0.000193592
2 *1079:B1 9.09993e-05
3 *1078:X 0
4 *120:4 0.000284591
5 *1079:B1 *161:52 0
6 *1079:B1 *554:41 0
7 *1079:B1 *634:91 0.000148196
8 *1080:B1 *1076:C 2.56289e-05
9 *1080:B1 *1080:A1 3.57366e-05
10 *1080:B1 *551:46 9.60875e-05
11 *1080:A2 *1080:B1 5.33005e-05
12 *117:8 *1079:B1 0
*RES
1 *1078:X *120:4 9.3 
2 *120:4 *1079:B1 20.2464 
3 *120:4 *1080:B1 12.3357 
*END

*D_NET *121 0.00354373
*CONN
*I *1083:B1 I *D sky130_fd_sc_hd__o21ai_2
*I *1122:A1 I *D sky130_fd_sc_hd__a21o_4
*I *1082:B I *D sky130_fd_sc_hd__nand2_2
*I *1121:A I *D sky130_fd_sc_hd__nor2_4
*I *1079:Y O *D sky130_fd_sc_hd__o21ai_4
*CAP
1 *1083:B1 0.000188488
2 *1122:A1 0
3 *1082:B 0.000101473
4 *1121:A 0.000122981
5 *1079:Y 0.000273714
6 *121:36 0.000237735
7 *121:23 0.000205372
8 *121:12 0.000451347
9 *1082:B *1089:A2 1.40415e-05
10 *1083:B1 *292:82 0.000227729
11 *1083:B1 *602:29 0.000219193
12 *1121:A *1123:B1 2.89016e-05
13 *121:12 *292:82 0.000126439
14 *121:12 *554:25 9.05384e-05
15 *121:12 *602:29 0.000126439
16 *121:23 *292:82 0.000250915
17 *121:23 *602:29 0.00024338
18 *121:36 *292:82 0.000148196
19 *121:36 *602:29 0.00013966
20 *99:12 *1083:B1 0.000166416
21 *114:31 *1082:B 0.00018077
*RES
1 *1079:Y *121:12 18.4607 
2 *121:12 *1121:A 15.5679 
3 *121:12 *121:23 3.16071 
4 *121:23 *1082:B 15.9964 
5 *121:23 *121:36 1.94643 
6 *121:36 *1122:A1 13.8 
7 *121:36 *1083:B1 19.6571 
*END

*D_NET *122 0.0035514
*CONN
*I *1081:B1 I *D sky130_fd_sc_hd__o21ai_2
*I *1084:C I *D sky130_fd_sc_hd__nand3b_4
*I *1080:X O *D sky130_fd_sc_hd__o21a_2
*CAP
1 *1081:B1 0.000143326
2 *1084:C 0.00044734
3 *1080:X 0.000343384
4 *122:10 0.00093405
5 *1081:B1 *1083:A1 7.79781e-06
6 *1081:B1 *1089:B1 0.000375261
7 *1081:B1 *131:8 0.00033396
8 *1084:C *1089:A1 4.43256e-05
9 *122:10 *1076:B 3.69697e-05
10 *122:10 *1076:C 4.0552e-05
11 *122:10 *1089:A2 2.00751e-05
12 *122:10 *1089:B1 3.34295e-05
13 *122:10 *131:8 1.02504e-05
14 *122:10 *271:34 0
15 *122:10 *554:25 3.71496e-05
16 *1029:B1 *122:10 0
17 *1083:A2 *1081:B1 0.000140933
18 *1084:B *1084:C 0.000579959
19 *1084:B *122:10 2.26424e-05
20 *116:18 *122:10 0
21 *116:39 *122:10 0
*RES
1 *1080:X *122:10 19.8357 
2 *122:10 *1084:C 22.05 
3 *122:10 *1081:B1 19.5321 
*END

*D_NET *123 0.00087046
*CONN
*I *1089:B1 I *D sky130_fd_sc_hd__o211ai_4
*I *1081:Y O *D sky130_fd_sc_hd__o21ai_2
*CAP
1 *1089:B1 0.000137979
2 *1081:Y 0.000137979
3 *1089:B1 *1083:A1 5.84171e-05
4 *1089:B1 *1089:A1 0.000117144
5 *1081:B1 *1089:B1 0.000375261
6 *1084:B *1089:B1 1.02504e-05
7 *122:10 *1089:B1 3.34295e-05
*RES
1 *1081:Y *1089:B1 32.5107 
*END

*D_NET *124 0.000422374
*CONN
*I *1089:A2 I *D sky130_fd_sc_hd__o211ai_4
*I *1082:Y O *D sky130_fd_sc_hd__nand2_2
*CAP
1 *1089:A2 9.00582e-05
2 *1082:Y 9.00582e-05
3 *1089:A2 *131:8 5.33786e-05
4 *1082:B *1089:A2 1.40415e-05
5 *116:39 *1089:A2 0.000154762
6 *122:10 *1089:A2 2.00751e-05
*RES
1 *1082:Y *1089:A2 30.0821 
*END

*D_NET *125 0.000507497
*CONN
*I *1087:B I *D sky130_fd_sc_hd__nand3_4
*I *1083:Y O *D sky130_fd_sc_hd__o21ai_2
*CAP
1 *1087:B 0.000160478
2 *1083:Y 0.000160478
3 *1087:B *271:34 9.56968e-05
4 *1083:A2 *1087:B 5.35516e-05
5 *1515:A *1087:B 3.72932e-05
*RES
1 *1083:Y *1087:B 31.2071 
*END

*D_NET *126 0.000932283
*CONN
*I *1087:C I *D sky130_fd_sc_hd__nand3_4
*I *1084:Y O *D sky130_fd_sc_hd__nand3b_4
*CAP
1 *1087:C 0.000237518
2 *1084:Y 0.000237518
3 *1087:C *1091:C 0.000159687
4 *1087:C *271:34 0.000297559
*RES
1 *1084:Y *1087:C 33.5643 
*END

*D_NET *127 0.00138717
*CONN
*I *1087:A I *D sky130_fd_sc_hd__nand3_4
*I *1085:Y O *D sky130_fd_sc_hd__a31oi_2
*CAP
1 *1087:A 0.000442184
2 *1085:Y 0.000442184
3 *1087:A *1027:B 1.08359e-05
4 *1087:A *1091:C 0.000202353
5 *1029:A1 *1087:A 0.000114102
6 *66:16 *1087:A 0.000175512
*RES
1 *1085:Y *1087:A 37.6714 
*END

*D_NET *128 0.00166734
*CONN
*I *1089:C1 I *D sky130_fd_sc_hd__o211ai_4
*I *1086:X O *D sky130_fd_sc_hd__a31o_4
*CAP
1 *1089:C1 0.000320203
2 *1086:X 0.000320203
3 *1089:C1 *1091:C 0.000327666
4 *1089:C1 *271:34 0.000507057
5 *1084:A_N *1089:C1 9.90367e-05
6 *1084:B *1089:C1 9.31794e-05
*RES
1 *1086:X *1089:C1 37.1179 
*END

*D_NET *129 0.00145222
*CONN
*I *1505:A I *D sky130_fd_sc_hd__buf_2
*I *1090:A1_N I *D sky130_fd_sc_hd__o2bb2ai_2
*I *1091:B I *D sky130_fd_sc_hd__nand4_4
*I *1087:Y O *D sky130_fd_sc_hd__nand3_4
*CAP
1 *1505:A 0.00015557
2 *1090:A1_N 2.76349e-05
3 *1091:B 0
4 *1087:Y 0.000245515
5 *129:19 0.00029282
6 *129:10 0.00035513
7 *1090:A1_N *132:10 2.89114e-05
8 *1505:A *1088:A 5.52302e-05
9 *1505:A *509:8 0.000100969
10 *129:10 *1091:C 0
11 *129:10 *509:8 8.39e-05
12 *129:10 *588:10 0
13 *129:19 *1091:C 0
14 *129:19 *509:8 0.000106542
*RES
1 *1087:Y *129:10 18.5321 
2 *129:10 *1091:B 13.8 
3 *129:10 *129:19 2.55357 
4 *129:19 *1090:A1_N 14.3357 
5 *129:19 *1505:A 16.8893 
*END

*D_NET *130 0.000585424
*CONN
*I *1140:B2 I *D sky130_fd_sc_hd__o2bb2ai_4
*I *1088:Y O *D sky130_fd_sc_hd__inv_2
*CAP
1 *1140:B2 0.000111856
2 *1088:Y 0.000111856
3 *1140:B2 *1140:A1_N 0.0001399
4 *1140:B2 *181:10 9.60875e-05
5 *1140:B2 *509:8 0.000125724
*RES
1 *1088:Y *1140:B2 30.6 
*END

*D_NET *131 0.00528881
*CONN
*I *1090:A2_N I *D sky130_fd_sc_hd__o2bb2ai_2
*I *1091:A I *D sky130_fd_sc_hd__nand4_4
*I *1139:B1_N I *D sky130_fd_sc_hd__a21boi_2
*I *1557:A I *D sky130_fd_sc_hd__buf_2
*I *1089:Y O *D sky130_fd_sc_hd__o211ai_4
*CAP
1 *1090:A2_N 2.9238e-05
2 *1091:A 0.000162268
3 *1139:B1_N 0.000942431
4 *1557:A 1.79896e-05
5 *1089:Y 0.000398686
6 *131:41 0.000742357
7 *131:8 0.000808256
8 *1090:A2_N *132:10 5.33005e-05
9 *1091:A *1569:A 0
10 *1091:A *509:8 0.000175512
11 *1091:A *588:10 4.57538e-05
12 *1139:B1_N *1132:A1 0.000139913
13 *1139:B1_N *172:14 0
14 *1139:B1_N *292:113 0.000229737
15 *1557:A *1131:B 1.92905e-05
16 *131:8 *1081:A1 9.80029e-05
17 *131:8 *1083:A1 0
18 *131:8 *292:82 0
19 *131:8 *292:113 6.66527e-05
20 *131:41 *1088:A 6.57914e-05
21 *131:41 *1139:A2 8.07313e-05
22 *131:41 *509:8 0.000142082
23 *1058:A *1139:B1_N 3.47641e-06
24 *1058:A *131:8 5.72705e-05
25 *1081:B1 *131:8 0.00033396
26 *1083:A2 *131:8 0
27 *1089:A2 *131:8 5.33786e-05
28 *1122:A2 *131:8 5.63007e-05
29 *1130:B2 *1557:A 2.89114e-05
30 *1139:A1 *1139:B1_N 0.000382513
31 *1139:A1 *131:41 0.000114647
32 *116:39 *131:8 3.01126e-05
33 *122:10 *131:8 1.02504e-05
*RES
1 *1089:Y *131:8 23.0321 
2 *131:8 *1557:A 14.3357 
3 *131:8 *1139:B1_N 22.0143 
4 *1139:B1_N *131:41 22.3536 
5 *131:41 *1091:A 17.4071 
6 *131:41 *1090:A2_N 14.3357 
*END

*D_NET *132 0.00190192
*CONN
*I *1093:A I *D sky130_fd_sc_hd__and3_4
*I *1092:B1 I *D sky130_fd_sc_hd__a22oi_2
*I *1094:A I *D sky130_fd_sc_hd__and4_2
*I *1090:Y O *D sky130_fd_sc_hd__o2bb2ai_2
*CAP
1 *1093:A 0
2 *1092:B1 5.63286e-05
3 *1094:A 0.000180147
4 *1090:Y 0.000396734
5 *132:12 0.000322383
6 *132:10 0.000482641
7 *1092:B1 *134:12 3.69047e-06
8 *1094:A *1094:B 5.26091e-05
9 *1094:A *588:10 1.19402e-05
10 *132:10 *1569:A 0.000142797
11 *132:10 *135:10 0
12 *132:12 *1094:B 4.35048e-05
13 *132:12 *1569:A 8.32242e-05
14 *132:12 *588:10 3.9718e-05
15 *1090:A1_N *132:10 2.89114e-05
16 *1090:A2_N *132:10 5.33005e-05
17 *1092:A1 *1092:B1 3.99614e-06
18 *1093:B *132:10 0
19 *1093:C *132:10 0
20 *1093:C *132:12 0
21 *82:19 *1094:A 0
*RES
1 *1090:Y *132:10 20.3893 
2 *132:10 *132:12 2.55357 
3 *132:12 *1094:A 16.5857 
4 *132:12 *1092:B1 14.7643 
5 *132:10 *1093:A 13.8 
*END

*D_NET *133 0.00154318
*CONN
*I *1094:B I *D sky130_fd_sc_hd__and4_2
*I *1569:A I *D sky130_fd_sc_hd__buf_2
*I *1091:Y O *D sky130_fd_sc_hd__nand4_4
*CAP
1 *1094:B 0.000271865
2 *1569:A 9.38367e-05
3 *1091:Y 4.88933e-05
4 *133:6 0.000414595
5 *1569:A *135:10 0
6 *1569:A *588:10 0.000108848
7 *1091:A *1569:A 0
8 *1093:B *1094:B 1.15172e-05
9 *1093:C *1094:B 0.000170667
10 *1094:A *1094:B 5.26091e-05
11 *82:19 *1094:B 0.000100823
12 *132:10 *1569:A 0.000142797
13 *132:12 *1094:B 4.35048e-05
14 *132:12 *1569:A 8.32242e-05
*RES
1 *1091:Y *133:6 9.83571 
2 *133:6 *1569:A 21.4607 
3 *133:6 *1094:B 23.5321 
*END

*D_NET *134 0.00332108
*CONN
*I *1095:A I *D sky130_fd_sc_hd__nor2_4
*I *1097:A3 I *D sky130_fd_sc_hd__o31ai_2
*I *1096:A1_N I *D sky130_fd_sc_hd__a2bb2o_2
*I *1092:Y O *D sky130_fd_sc_hd__a22oi_2
*CAP
1 *1095:A 0
2 *1097:A3 0.000120087
3 *1096:A1_N 7.70308e-05
4 *1092:Y 0.000756958
5 *134:14 0.000368451
6 *134:12 0.000928292
7 *1096:A1_N *1096:A2_N 0.000224599
8 *1096:A1_N *1097:B1 0.00015234
9 *134:12 *187:8 4.06782e-05
10 *134:14 *1096:A2_N 0.00036199
11 *1045:B *1097:A3 0
12 *1048:A *1096:A1_N 2.13202e-05
13 *1048:B *1096:A1_N 1.2747e-05
14 *1092:A1 *134:12 0.000101854
15 *1092:B1 *134:12 3.69047e-06
16 *1097:A1 *1097:A3 5.03772e-05
17 *1097:A2 *1096:A1_N 0
18 *1097:A2 *1097:A3 3.22063e-05
19 *1097:A2 *134:14 0
20 *1146:A_N *134:14 0
21 *88:6 *1097:A3 4.58194e-05
22 *88:10 *1096:A1_N 2.26424e-05
*RES
1 *1092:Y *134:12 23.3893 
2 *134:12 *134:14 4.67857 
3 *134:14 *1096:A1_N 16.8714 
4 *134:14 *1097:A3 15.9964 
5 *134:12 *1095:A 13.8 
*END

*D_NET *135 0.0016303
*CONN
*I *1143:D I *D sky130_fd_sc_hd__nand4_4
*I *1142:A2 I *D sky130_fd_sc_hd__a22oi_2
*I *1093:X O *D sky130_fd_sc_hd__and3_4
*CAP
1 *1143:D 0.000222822
2 *1142:A2 0
3 *1093:X 0.00056238
4 *135:10 0.000785202
5 *1143:D *1140:A2_N 0
6 *1143:D *1147:A 2.8266e-06
7 *1143:D *183:8 5.26091e-05
8 *1143:D *187:8 0
9 *1143:D *187:23 0
10 *135:10 *1140:A2_N 0
11 *135:10 *187:8 0
12 *1093:B *135:10 4.46186e-06
13 *1569:A *135:10 0
14 *132:10 *135:10 0
*RES
1 *1093:X *135:10 23.8714 
2 *135:10 *1142:A2 13.8 
3 *135:10 *1143:D 17.8179 
*END

*D_NET *136 0.0017779
*CONN
*I *1096:A2_N I *D sky130_fd_sc_hd__a2bb2o_2
*I *1095:B I *D sky130_fd_sc_hd__nor2_4
*I *1094:X O *D sky130_fd_sc_hd__and4_2
*CAP
1 *1096:A2_N 0.000290619
2 *1095:B 0
3 *1094:X 0.000240099
4 *136:6 0.000530718
5 *1096:A2_N *1146:B 1.00375e-05
6 *1096:A2_N *1146:C 0
7 *1096:A2_N *187:8 0.0001098
8 *1096:A1_N *1096:A2_N 0.000224599
9 *88:10 *1096:A2_N 1.00375e-05
10 *134:14 *1096:A2_N 0.00036199
*RES
1 *1094:X *136:6 13.1214 
2 *136:6 *1095:B 9.3 
3 *136:6 *1096:A2_N 26.55 
*END

*D_NET *137 0.000373261
*CONN
*I *1146:B I *D sky130_fd_sc_hd__nand3b_4
*I *1095:Y O *D sky130_fd_sc_hd__nor2_4
*CAP
1 *1146:B 8.97174e-05
2 *1095:Y 8.97174e-05
3 *1146:B *1146:C 4.1331e-06
4 *1146:B *187:8 0.000179656
5 *1096:A2_N *1146:B 1.00375e-05
6 *84:35 *1146:B 0
*RES
1 *1095:Y *1146:B 30.1536 
*END

*D_NET *138 0.000515938
*CONN
*I *1097:B1 I *D sky130_fd_sc_hd__o31ai_2
*I *1096:X O *D sky130_fd_sc_hd__a2bb2o_2
*CAP
1 *1097:B1 8.64111e-05
2 *1096:X 8.64111e-05
3 *1048:A *1097:B1 5.52238e-05
4 *1096:A1_N *1097:B1 0.00015234
5 *1097:A2 *1097:B1 9.11365e-06
6 *88:10 *1097:B1 0.000126439
*RES
1 *1096:X *1097:B1 30.0821 
*END

*D_NET *139 0.000810692
*CONN
*I *1098:B I *D sky130_fd_sc_hd__xnor2_2
*I *1097:Y O *D sky130_fd_sc_hd__o31ai_2
*CAP
1 *1098:B 0.000137535
2 *1097:Y 0.000137535
3 *1098:B *1098:A 1.41706e-05
4 *1098:B *1493:A 0
5 *1097:A2 *1098:B 0.000369111
6 *1146:A_N *1098:B 0.00015234
7 *91:32 *1098:B 0
*RES
1 *1097:Y *1098:B 32.2786 
*END

*D_NET *140 0.00139133
*CONN
*I *1100:A I *D sky130_fd_sc_hd__nand2_2
*I *1103:A1 I *D sky130_fd_sc_hd__a21oi_4
*I *1099:X O *D sky130_fd_sc_hd__o21a_2
*CAP
1 *1100:A 0.000208956
2 *1103:A1 5.76714e-05
3 *1099:X 0.000266628
4 *1100:A *1101:C1 6.87574e-05
5 *1100:A *1202:A 3.55569e-05
6 *1100:A *1586:A 0.000170907
7 *1103:A1 *1099:B1 0.000276211
8 *1103:A1 *1103:A2 0.000144773
9 *11:17 *1100:A 0.000161868
*RES
1 *1099:X *1103:A1 21.1893 
2 *1099:X *1100:A 32.6714 
*END

*D_NET *141 0.00135314
*CONN
*I *1101:C1 I *D sky130_fd_sc_hd__o311ai_4
*I *1100:Y O *D sky130_fd_sc_hd__nand2_2
*CAP
1 *1101:C1 0.000353126
2 *1100:Y 0.000353126
3 *1101:C1 *1102:A 0.000126639
4 *1101:C1 *1105:A1 0.000151984
5 *1101:C1 *1586:A 9.60875e-05
6 *1101:C1 *144:19 0.000151984
7 *1101:C1 *669:10 1.74352e-05
8 *1100:A *1101:C1 6.87574e-05
9 *11:17 *1101:C1 3.40043e-05
*RES
1 *1100:Y *1101:C1 35.4214 
*END

*D_NET *142 0.00425834
*CONN
*I *1105:B1 I *D sky130_fd_sc_hd__o21ai_4
*I *1104:B1 I *D sky130_fd_sc_hd__o21a_2
*I *1111:C1 I *D sky130_fd_sc_hd__o211ai_4
*I *1101:Y O *D sky130_fd_sc_hd__o311ai_4
*CAP
1 *1105:B1 0.000217997
2 *1104:B1 0.000324252
3 *1111:C1 2.9238e-05
4 *1101:Y 4.16254e-05
5 *142:12 0.000700132
6 *142:6 0.000606264
7 *1104:B1 *1104:A1 4.98055e-06
8 *1104:B1 *1110:B1 0.000172422
9 *1104:B1 *1111:B1 0.000113309
10 *1104:B1 *1150:A1 2.79421e-05
11 *1104:B1 *1151:B1 0.000543546
12 *1104:B1 *1419:A 6.09762e-05
13 *1104:B1 *1521:A 2.60731e-05
14 *1104:B1 *543:21 2.8266e-06
15 *1104:B1 *639:34 0.000135028
16 *1105:B1 *1102:A 0.000186669
17 *1105:B1 *1112:B1 0
18 *1105:B1 *144:19 0.000196033
19 *1105:B1 *637:72 5.20232e-05
20 *1111:C1 *147:12 5.33005e-05
21 *142:6 *1529:A 4.08637e-05
22 *142:12 *1102:A 0.000144427
23 *142:12 *1105:A1 2.64618e-05
24 *142:12 *1108:A2 4.38243e-05
25 *142:12 *1151:B1 0.000171375
26 *142:12 *1529:A 0.000268396
27 *142:12 *543:21 5.50237e-05
28 *142:12 *556:26 1.33343e-05
*RES
1 *1101:Y *142:6 9.83571 
2 *142:6 *142:12 11.1607 
3 *142:12 *1111:C1 14.3357 
4 *142:12 *1104:B1 22.5679 
5 *142:6 *1105:B1 23.3536 
*END

*D_NET *143 0.00282994
*CONN
*I *1103:B1 I *D sky130_fd_sc_hd__a21oi_4
*I *1102:X O *D sky130_fd_sc_hd__and3_2
*CAP
1 *1103:B1 0.000790142
2 *1102:X 0.000790142
3 *1103:B1 *1062:A2 0.000235437
4 *1103:B1 *1063:A 5.52302e-05
5 *1103:B1 *1063:C 0.000164738
6 *1103:B1 *1099:B1 7.72917e-05
7 *1103:B1 *1442:A 0.000111501
8 *1103:B1 *1445:A 0
9 *1103:B1 *378:10 0.000169373
10 *1103:B1 *506:12 0
11 *1103:B1 *506:18 4.22135e-06
12 *1103:B1 *637:37 0.000186645
13 *1103:B1 *637:43 1.99235e-05
14 *1103:B1 *640:42 0.00014285
15 *1103:B1 *676:32 5.35475e-05
16 *1449:A *1103:B1 2.89016e-05
17 *1458:A *1103:B1 0
*RES
1 *1102:X *1103:B1 45.2786 
*END

*D_NET *144 0.00295959
*CONN
*I *1104:A2 I *D sky130_fd_sc_hd__o21a_2
*I *1111:A2 I *D sky130_fd_sc_hd__o211ai_4
*I *1105:A2 I *D sky130_fd_sc_hd__o21ai_4
*I *1103:Y O *D sky130_fd_sc_hd__a21oi_4
*CAP
1 *1104:A2 0.000293548
2 *1111:A2 0
3 *1105:A2 0
4 *1103:Y 0.0001566
5 *144:19 0.000564681
6 *144:10 0.000427733
7 *1104:A2 *1104:A1 0.000184185
8 *1104:A2 *1110:A1 0.000107784
9 *1104:A2 *1112:A1 0.000143422
10 *1104:A2 *152:12 0
11 *1104:A2 *637:91 0.000167016
12 *144:10 *640:42 0
13 *144:19 *1104:A1 4.46186e-06
14 *144:19 *1105:A1 6.87388e-05
15 *144:19 *1112:B1 0
16 *144:19 *543:21 0.000104463
17 *144:19 *613:14 1.90936e-05
18 *144:19 *637:72 0.000102752
19 *144:19 *637:91 0.000163847
20 *1101:C1 *144:19 0.000151984
21 *1105:B1 *144:19 0.000196033
22 *11:17 *144:10 0.000103253
*RES
1 *1103:Y *144:10 16.5857 
2 *144:10 *1105:A2 13.8 
3 *144:10 *144:19 7.10714 
4 *144:19 *1111:A2 13.8 
5 *144:19 *1104:A2 20.9071 
*END

*D_NET *145 0.00066741
*CONN
*I *1150:A1 I *D sky130_fd_sc_hd__o21ai_2
*I *1104:X O *D sky130_fd_sc_hd__o21a_2
*CAP
1 *1150:A1 0.000271108
2 *1104:X 0.000271108
3 *1150:A1 *1104:A1 5.23822e-05
4 *1150:A1 *1120:A2 3.79336e-05
5 *1150:A1 *639:34 6.93704e-06
6 *1104:B1 *1150:A1 2.79421e-05
*RES
1 *1104:X *1150:A1 31.4214 
*END

*D_NET *146 0.00137946
*CONN
*I *1112:B1 I *D sky130_fd_sc_hd__o21ai_4
*I *1105:Y O *D sky130_fd_sc_hd__o21ai_4
*CAP
1 *1112:B1 0.000453765
2 *1105:Y 0.000453765
3 *1112:B1 *1064:A3 4.38243e-05
4 *1112:B1 *1102:A 3.18676e-05
5 *1112:B1 *1108:B1 5.57345e-05
6 *1112:B1 *1110:A2 3.03692e-05
7 *1112:B1 *152:12 7.15585e-05
8 *1112:B1 *640:42 0.000238579
9 *1105:B1 *1112:B1 0
10 *144:19 *1112:B1 0
*RES
1 *1105:Y *1112:B1 37.6714 
*END

*D_NET *147 0.0029447
*CONN
*I *1110:A2 I *D sky130_fd_sc_hd__a21oi_4
*I *1108:B1 I *D sky130_fd_sc_hd__o211a_2
*I *1106:Y O *D sky130_fd_sc_hd__nand2_2
*CAP
1 *1110:A2 0.000162706
2 *1108:B1 0.000183853
3 *1106:Y 0.00042844
4 *147:12 0.000774999
5 *1108:B1 *1064:A3 1.59312e-05
6 *1108:B1 *1108:A1 7.98958e-05
7 *1108:B1 *1108:A2 4.97479e-05
8 *1108:B1 *1112:A1 5.97623e-05
9 *1108:B1 *1529:A 3.23658e-05
10 *1108:B1 *543:10 0.00026546
11 *1108:B1 *613:14 2.28499e-05
12 *1108:B1 *637:91 4.98055e-06
13 *1110:A2 *1110:A1 0.000161398
14 *1110:A2 *1112:A1 5.41797e-06
15 *1110:A2 *152:12 0.000310769
16 *1110:A2 *637:91 1.18451e-05
17 *147:12 *1110:A1 1.21258e-05
18 *147:12 *1111:A1 5.52302e-05
19 *147:12 *1112:A1 0.000109081
20 *1111:C1 *147:12 5.33005e-05
21 *1112:B1 *1108:B1 5.57345e-05
22 *1112:B1 *1110:A2 3.03692e-05
23 *1458:A *1108:B1 5.84355e-05
*RES
1 *1106:Y *147:12 20.4875 
2 *147:12 *1108:B1 19.6304 
3 *147:12 *1110:A2 18.9339 
*END

*D_NET *148 0.00182888
*CONN
*I *1110:A1 I *D sky130_fd_sc_hd__a21oi_4
*I *1107:Y O *D sky130_fd_sc_hd__a21oi_2
*CAP
1 *1110:A1 0.000492858
2 *1107:Y 0.000492858
3 *1110:A1 *962:A 0.00018624
4 *1110:A1 *1066:A_N 5.49995e-05
5 *1110:A1 *1112:A1 6.05161e-06
6 *1110:A1 *152:12 0.000139913
7 *1110:A1 *460:66 5.49995e-05
8 *1110:A1 *637:91 0.00011965
9 *1104:A2 *1110:A1 0.000107784
10 *1110:A2 *1110:A1 0.000161398
11 *147:12 *1110:A1 1.21258e-05
*RES
1 *1107:Y *1110:A1 37.975 
*END

*D_NET *149 0.00112439
*CONN
*I *1112:A1 I *D sky130_fd_sc_hd__o21ai_4
*I *1108:X O *D sky130_fd_sc_hd__o211a_2
*CAP
1 *1112:A1 0.000214034
2 *1108:X 0.000214034
3 *1112:A1 *1104:A1 0.000143422
4 *1112:A1 *1111:A1 1.33343e-05
5 *1112:A1 *152:12 6.7644e-05
6 *1112:A1 *637:91 0.000148189
7 *1104:A2 *1112:A1 0.000143422
8 *1108:B1 *1112:A1 5.97623e-05
9 *1110:A1 *1112:A1 6.05161e-06
10 *1110:A2 *1112:A1 5.41797e-06
11 *147:12 *1112:A1 0.000109081
*RES
1 *1108:X *1112:A1 42.8321 
*END

*D_NET *150 0.000812703
*CONN
*I *1112:A2 I *D sky130_fd_sc_hd__o21ai_4
*I *1110:B1 I *D sky130_fd_sc_hd__a21oi_4
*I *1109:X O *D sky130_fd_sc_hd__and3_4
*CAP
1 *1112:A2 0.00012736
2 *1110:B1 5.2309e-05
3 *1109:X 0
4 *150:4 0.000179669
5 *1110:B1 *1111:B1 0.000172884
6 *1112:A2 *637:91 0.000108059
7 *1104:B1 *1110:B1 0.000172422
*RES
1 *1109:X *150:4 9.3 
2 *150:4 *1110:B1 20.55 
3 *150:4 *1112:A2 11.4786 
*END

*D_NET *151 0.00179253
*CONN
*I *1521:A I *D sky130_fd_sc_hd__buf_2
*I *1111:B1 I *D sky130_fd_sc_hd__o211ai_4
*I *1110:Y O *D sky130_fd_sc_hd__a21oi_4
*CAP
1 *1521:A 0.000182626
2 *1111:B1 0.000160718
3 *1110:Y 0
4 *151:6 0.000343344
5 *1111:B1 *1104:A1 0.000403659
6 *1521:A *1104:A1 0.000142547
7 *1521:A *1419:A 0.000247368
8 *1104:B1 *1111:B1 0.000113309
9 *1104:B1 *1521:A 2.60731e-05
10 *1110:B1 *1111:B1 0.000172884
*RES
1 *1110:Y *151:6 13.8 
2 *151:6 *1111:B1 19.0857 
3 *151:6 *1521:A 18.175 
*END

*D_NET *152 0.00311853
*CONN
*I *1119:A1_N I *D sky130_fd_sc_hd__o2bb2ai_4
*I *1120:C1 I *D sky130_fd_sc_hd__o211ai_4
*I *1111:Y O *D sky130_fd_sc_hd__o211ai_4
*CAP
1 *1119:A1_N 0.000259374
2 *1120:C1 0
3 *1111:Y 0.000596881
4 *152:12 0.000856255
5 *1119:A1_N *1117:A2 0.00020042
6 *1119:A1_N *1120:A2 8.19857e-05
7 *1119:A1_N *153:23 5.33005e-05
8 *1119:A1_N *160:12 6.42095e-05
9 *1119:A1_N *161:10 0.000144136
10 *1119:A1_N *161:35 0.000232267
11 *152:12 *1104:A1 0
12 *152:12 *1111:A1 1.39841e-05
13 *152:12 *153:8 0
14 *152:12 *161:10 2.58276e-05
15 *1104:A2 *152:12 0
16 *1110:A1 *152:12 0.000139913
17 *1110:A2 *152:12 0.000310769
18 *1112:A1 *152:12 6.7644e-05
19 *1112:B1 *152:12 7.15585e-05
*RES
1 *1111:Y *152:12 24.0321 
2 *152:12 *1120:C1 13.8 
3 *152:12 *1119:A1_N 21.2107 
*END

*D_NET *153 0.0027215
*CONN
*I *1534:A I *D sky130_fd_sc_hd__buf_2
*I *1119:A2_N I *D sky130_fd_sc_hd__o2bb2ai_4
*I *1120:B1 I *D sky130_fd_sc_hd__o211ai_4
*I *1112:Y O *D sky130_fd_sc_hd__o21ai_4
*CAP
1 *1534:A 0.000158386
2 *1119:A2_N 0
3 *1120:B1 0
4 *1112:Y 0.000225704
5 *153:23 0.00045786
6 *153:8 0.000525178
7 *1534:A *1115:B1 3.99614e-06
8 *1534:A *1117:B1 7.2754e-05
9 *1534:A *1159:A1 5.52302e-05
10 *1534:A *303:38 8.43535e-06
11 *1534:A *632:67 4.96113e-05
12 *1534:A *640:73 0.000101116
13 *1534:A *641:20 0.00014066
14 *153:8 *964:A1 4.44437e-05
15 *153:8 *161:10 1.38247e-05
16 *153:8 *640:34 0.000126686
17 *153:8 *640:42 1.00887e-05
18 *153:23 *1117:A1 0.00019369
19 *153:23 *160:12 0.000175892
20 *153:23 *161:10 8.12165e-05
21 *153:23 *161:35 0.000112242
22 *153:23 *303:38 2.14658e-05
23 *153:23 *640:34 8.97147e-05
24 *1119:A1_N *153:23 5.33005e-05
25 *152:12 *153:8 0
*RES
1 *1112:Y *153:8 18.175 
2 *153:8 *1120:B1 13.8 
3 *153:8 *153:23 12.0893 
4 *153:23 *1119:A2_N 9.3 
5 *153:23 *1534:A 22.5679 
*END

*D_NET *154 0.00262224
*CONN
*I *1544:A I *D sky130_fd_sc_hd__buf_2
*I *1117:A2 I *D sky130_fd_sc_hd__a21oi_2
*I *1113:Y O *D sky130_fd_sc_hd__o21ai_2
*CAP
1 *1544:A 0
2 *1117:A2 0.000208303
3 *1113:Y 0.000211664
4 *154:10 0.000419967
5 *1117:A2 *1117:A1 9.58689e-05
6 *1117:A2 *1120:A2 0.000367396
7 *1117:A2 *161:35 8.89289e-05
8 *1117:A2 *190:14 0.000132889
9 *1117:A2 *636:32 0.000195423
10 *154:10 *1113:B1 0.000140263
11 *154:10 *1116:A1 2.16719e-05
12 *154:10 *1118:A2 0.000172607
13 *154:10 *1120:A2 0.000165269
14 *154:10 *161:35 8.06427e-05
15 *154:10 *631:87 0
16 *154:10 *640:30 2.18871e-05
17 *1113:A1 *154:10 9.90367e-05
18 *1113:A2 *154:10 0
19 *1119:A1_N *1117:A2 0.00020042
*RES
1 *1113:Y *154:10 19.7286 
2 *154:10 *1117:A2 21.4786 
3 *154:10 *1544:A 13.8 
*END

*D_NET *155 0.0039123
*CONN
*I *1118:C1 I *D sky130_fd_sc_hd__o311a_2
*I *1116:A2 I *D sky130_fd_sc_hd__a21oi_2
*I *1115:B1 I *D sky130_fd_sc_hd__o311a_2
*I *1117:A1 I *D sky130_fd_sc_hd__a21oi_2
*I *1114:Y O *D sky130_fd_sc_hd__nand3_4
*CAP
1 *1118:C1 0
2 *1116:A2 0.00018851
3 *1115:B1 0.000109272
4 *1117:A1 0.000196605
5 *1114:Y 0.000165419
6 *155:36 0.00018851
7 *155:12 0.000409478
8 *155:10 0.000269021
9 *1115:B1 *1115:A2 5.33005e-05
10 *1115:B1 *1115:A3 0.000178847
11 *1115:B1 *548:22 0
12 *1115:B1 *640:30 2.59355e-05
13 *1115:B1 *640:73 5.96516e-05
14 *1116:A2 *1116:A1 9.90367e-05
15 *1116:A2 *1118:A1 4.70078e-05
16 *1116:A2 *1118:B1 5.54256e-05
17 *1116:A2 *1120:A2 5.33005e-05
18 *1116:A2 *161:35 7.02611e-05
19 *1117:A1 *161:35 5.34565e-05
20 *1117:A1 *190:14 2.97489e-05
21 *1117:A1 *303:30 1.17968e-05
22 *1117:A1 *303:38 1.31516e-05
23 *1117:A1 *636:32 0.000182806
24 *1117:A1 *640:30 3.17163e-05
25 *1117:A1 *640:34 0.000355808
26 *155:10 *1466:A 0.00016267
27 *155:10 *640:30 8.9727e-05
28 *155:10 *653:10 0.00014469
29 *155:10 *654:10 5.33005e-05
30 *155:12 *303:30 9.33506e-05
31 *155:12 *640:30 9.44522e-05
32 *155:12 *653:10 9.54798e-06
33 *1113:A1 *155:10 0.000122942
34 *1117:A2 *1117:A1 9.58689e-05
35 *1534:A *1115:B1 3.99614e-06
36 *153:23 *1117:A1 0.00019369
*RES
1 *1114:Y *155:10 18.4071 
2 *155:10 *155:12 2.55357 
3 *155:12 *1117:A1 20.8536 
4 *155:12 *1115:B1 16.4071 
5 *155:10 *155:36 4.5 
6 *155:36 *1116:A2 13.55 
7 *155:36 *1118:C1 9.3 
*END

*D_NET *156 0.000898132
*CONN
*I *1119:B2 I *D sky130_fd_sc_hd__o2bb2ai_4
*I *1115:X O *D sky130_fd_sc_hd__o311a_2
*CAP
1 *1119:B2 0.00031145
2 *1115:X 0.00031145
3 *1119:B2 *1115:A3 4.80487e-05
4 *1119:B2 *1119:B1 0
5 *1119:B2 *1120:A2 0.000128146
6 *1119:B2 *640:30 9.90367e-05
*RES
1 *1115:X *1119:B2 32.2429 
*END

*D_NET *157 0.000678592
*CONN
*I *1119:B1 I *D sky130_fd_sc_hd__o2bb2ai_4
*I *1116:Y O *D sky130_fd_sc_hd__a21oi_2
*CAP
1 *1119:B1 0.000166834
2 *1116:Y 0.000166834
3 *1119:B1 *1116:A1 0
4 *1119:B1 *1120:A2 0
5 *1119:B1 *249:12 0.000344925
6 *1119:B2 *1119:B1 0
*RES
1 *1116:Y *1119:B1 31.975 
*END

*D_NET *158 0.000209985
*CONN
*I *1120:A1 I *D sky130_fd_sc_hd__o211ai_4
*I *1117:Y O *D sky130_fd_sc_hd__a21oi_2
*CAP
1 *1120:A1 5.03111e-05
2 *1117:Y 5.03111e-05
3 *1120:A1 *1159:A1 6.66813e-05
4 *1120:A1 *378:56 4.26814e-05
*RES
1 *1117:Y *1120:A1 29.2429 
*END

*D_NET *159 0.0023987
*CONN
*I *1120:A2 I *D sky130_fd_sc_hd__o211ai_4
*I *1118:X O *D sky130_fd_sc_hd__o311a_2
*CAP
1 *1120:A2 0.000593275
2 *1118:X 0.000593275
3 *1120:A2 *1116:A1 0.00010326
4 *1120:A2 *1151:B1 0
5 *1120:A2 *249:12 0
6 *1120:A2 *639:34 0.000274861
7 *1116:A2 *1120:A2 5.33005e-05
8 *1117:A2 *1120:A2 0.000367396
9 *1119:A1_N *1120:A2 8.19857e-05
10 *1119:B1 *1120:A2 0
11 *1119:B2 *1120:A2 0.000128146
12 *1150:A1 *1120:A2 3.79336e-05
13 *154:10 *1120:A2 0.000165269
*RES
1 *1118:X *1120:A2 40.9036 
*END

*D_NET *160 0.0110951
*CONN
*I *1124:A I *D sky130_fd_sc_hd__nand3_4
*I *1123:A2_N I *D sky130_fd_sc_hd__o2bb2ai_4
*I *1119:Y O *D sky130_fd_sc_hd__o2bb2ai_4
*CAP
1 *1124:A 0.000225004
2 *1123:A2_N 0
3 *1119:Y 0.00118014
4 *160:24 0.0015351
5 *160:12 0.00249024
6 *1124:A *1128:A1 0
7 *1124:A *215:12 0.000394719
8 *160:12 *1031:B 0.000123295
9 *160:12 *1219:A2 0
10 *160:12 *255:18 0
11 *160:12 *303:28 0.00136397
12 *160:12 *303:30 0.000262343
13 *160:12 *303:38 0.000278115
14 *160:12 *378:87 0.000122439
15 *160:12 *592:14 0.000265816
16 *160:12 *592:22 0.000384988
17 *160:12 *613:20 0.000101444
18 *160:12 *632:59 0.000418354
19 *160:12 *632:67 0.000125724
20 *160:12 *641:20 0.000229121
21 *160:12 *651:52 0
22 *160:12 *656:12 9.34004e-05
23 *160:24 *936:A 5.09694e-05
24 *160:24 *1125:A1 5.92984e-05
25 *160:24 *1223:B1 0.000142053
26 *160:24 *1223:C1 0
27 *160:24 *1229:B 0.000569194
28 *160:24 *263:14 4.88637e-05
29 *160:24 *389:10 0.000185824
30 *1119:A1_N *160:12 6.42095e-05
31 *99:8 *1124:A 0.00020455
32 *153:23 *160:12 0.000175892
*RES
1 *1119:Y *160:12 47.3179 
2 *160:12 *160:24 24.4107 
3 *160:24 *1123:A2_N 9.3 
4 *160:24 *1124:A 24.6393 
*END

*D_NET *161 0.0121527
*CONN
*I *1124:C I *D sky130_fd_sc_hd__nand3_4
*I *1123:A1_N I *D sky130_fd_sc_hd__o2bb2ai_4
*I *1175:B I *D sky130_fd_sc_hd__nand4_4
*I *1150:B1 I *D sky130_fd_sc_hd__o21ai_2
*I *1120:Y O *D sky130_fd_sc_hd__o211ai_4
*CAP
1 *1124:C 0.000124261
2 *1123:A1_N 7.00239e-05
3 *1175:B 2.06112e-05
4 *1150:B1 0
5 *1120:Y 0.000129293
6 *161:52 0.000757106
7 *161:39 0.000637149
8 *161:35 0.00238233
9 *161:10 0.00245791
10 *1124:C *1124:B 0.000202842
11 *1124:C *1128:A1 9.95404e-05
12 *1124:C *554:41 0.000396427
13 *1175:B *1175:A 3.99614e-06
14 *161:10 *475:89 0.000141036
15 *161:10 *639:34 7.82478e-05
16 *161:35 *991:B 5.19098e-05
17 *161:35 *1118:B1 1.32389e-05
18 *161:35 *1175:C 0.000123295
19 *161:35 *1433:A 0.000223469
20 *161:35 *1465:A 2.42516e-05
21 *161:35 *1576:A 2.79421e-05
22 *161:35 *548:22 0
23 *161:35 *640:30 0.000175512
24 *161:35 *641:84 4.57392e-05
25 *161:35 *641:108 2.9058e-05
26 *161:35 *644:102 3.84385e-05
27 *161:35 *644:119 0.000178807
28 *161:35 *653:10 8.5229e-05
29 *161:35 *665:55 0
30 *161:35 *672:59 0.000269422
31 *161:39 *1175:A 0.000119135
32 *161:52 *1078:B2 0.000108118
33 *161:52 *1128:A1 0.000576617
34 *161:52 *1175:A 7.02611e-05
35 *161:52 *1574:A 9.71197e-05
36 *161:52 *215:8 2.55587e-05
37 *161:52 *551:46 0.000235548
38 *161:52 *554:41 0.000213383
39 *161:52 *628:8 0.000109809
40 *161:52 *628:10 1.52978e-05
41 *161:52 *646:97 3.15645e-05
42 *161:52 *665:67 1.81805e-05
43 *1079:B1 *161:52 0
44 *1116:A2 *161:35 7.02611e-05
45 *1117:A1 *161:35 5.34565e-05
46 *1117:A2 *161:35 8.89289e-05
47 *1119:A1_N *161:10 0.000144136
48 *1119:A1_N *161:35 0.000232267
49 *39:8 *161:35 2.06178e-05
50 *39:14 *161:35 8.88838e-05
51 *76:14 *161:39 0.000225616
52 *76:14 *161:52 0.000507066
53 *152:12 *161:10 2.58276e-05
54 *153:8 *161:10 1.38247e-05
55 *153:23 *161:10 8.12165e-05
56 *153:23 *161:35 0.000112242
57 *154:10 *161:35 8.06427e-05
*RES
1 *1120:Y *161:10 17.7107 
2 *161:10 *1150:B1 13.8 
3 *161:10 *161:35 46.9643 
4 *161:35 *161:39 6.67857 
5 *161:39 *1175:B 9.72857 
6 *161:39 *161:52 22.4286 
7 *161:52 *1123:A1_N 14.7464 
8 *161:52 *1124:C 19.3179 
*END

*D_NET *162 0.000750542
*CONN
*I *1123:B1 I *D sky130_fd_sc_hd__o2bb2ai_4
*I *1121:Y O *D sky130_fd_sc_hd__nor2_4
*CAP
1 *1123:B1 0.000159224
2 *1121:Y 0.000159224
3 *1123:B1 *554:41 0
4 *1123:B1 *634:91 0.000275101
5 *1121:A *1123:B1 2.89016e-05
6 *114:25 *1123:B1 0.000128091
*RES
1 *1121:Y *1123:B1 32.0107 
*END

*D_NET *163 0.00069722
*CONN
*I *1124:B I *D sky130_fd_sc_hd__nand3_4
*I *1122:X O *D sky130_fd_sc_hd__a21o_4
*CAP
1 *1124:B 0.000144914
2 *1122:X 0.000144914
3 *1124:B *1128:A1 0.00020455
4 *1124:C *1124:B 0.000202842
*RES
1 *1122:X *1124:B 31.5107 
*END

*D_NET *164 0.0047994
*CONN
*I *1133:A2 I *D sky130_fd_sc_hd__a21o_4
*I *1149:A1 I *D sky130_fd_sc_hd__a21bo_2
*I *1134:B1 I *D sky130_fd_sc_hd__o211a_2
*I *1132:A1 I *D sky130_fd_sc_hd__a21oi_2
*I *1135:B1 I *D sky130_fd_sc_hd__o211ai_2
*I *1123:Y O *D sky130_fd_sc_hd__o2bb2ai_4
*CAP
1 *1133:A2 0.00022832
2 *1149:A1 1.99167e-05
3 *1134:B1 0
4 *1132:A1 6.84445e-05
5 *1135:B1 0
6 *1123:Y 0.000435922
7 *164:43 0.000376725
8 *164:30 0.000198991
9 *164:16 0.000202892
10 *164:10 0.000640873
11 *1132:A1 *1131:A 3.84717e-05
12 *1132:A1 *1132:A2 5.52302e-05
13 *1132:A1 *1137:D1 5.52238e-05
14 *1132:A1 *165:22 9.41642e-05
15 *1133:A2 *1133:A1 0.000243903
16 *1133:A2 *1178:B2 1.65558e-05
17 *1133:A2 *165:45 7.79781e-06
18 *1133:A2 *218:8 0
19 *1133:A2 *649:111 0
20 *1149:A1 *1136:A1 9.90431e-05
21 *1149:A1 *189:10 5.33433e-05
22 *164:10 *1130:A1 6.97253e-05
23 *164:10 *1134:A1 1.19309e-05
24 *164:10 *165:10 0.000175461
25 *164:10 *165:36 3.47856e-05
26 *164:10 *171:10 0
27 *164:10 *554:41 0
28 *164:10 *634:91 0
29 *164:10 *634:123 0
30 *164:16 *1131:A 6.3295e-05
31 *164:16 *1135:A2 5.33005e-05
32 *164:16 *170:6 7.77751e-05
33 *164:16 *170:8 0
34 *164:16 *649:81 0.000304387
35 *164:30 *1134:A1 4.87712e-05
36 *164:30 *165:36 7.4826e-05
37 *164:30 *165:45 5.80706e-06
38 *164:43 *1134:A1 5.68749e-06
39 *164:43 *1178:B2 6.8551e-05
40 *164:43 *165:45 6.77374e-05
41 *1139:A1 *1132:A1 8.44865e-05
42 *1139:A1 *164:16 1.24368e-05
43 *1139:B1_N *1132:A1 0.000139913
44 *1547:A *164:10 0.000219193
45 *101:22 *164:10 1.90936e-05
46 *114:25 *164:10 0.000108118
47 *114:31 *164:10 2.51343e-06
48 *114:51 *164:10 0.000117196
49 *115:24 *164:10 4.5539e-05
50 *115:39 *164:10 0.000153047
*RES
1 *1123:Y *164:10 25.0857 
2 *164:10 *164:16 8.33929 
3 *164:16 *1135:B1 9.3 
4 *164:16 *1132:A1 11.8893 
5 *164:10 *164:30 1.94643 
6 *164:30 *1134:B1 13.8 
7 *164:30 *164:43 3.21429 
8 *164:43 *1149:A1 14.7464 
9 *164:43 *1133:A2 18.425 
*END

*D_NET *165 0.00372021
*CONN
*I *1133:A1 I *D sky130_fd_sc_hd__a21o_4
*I *1149:B1_N I *D sky130_fd_sc_hd__a21bo_2
*I *1134:C1 I *D sky130_fd_sc_hd__o211a_2
*I *1132:A2 I *D sky130_fd_sc_hd__a21oi_2
*I *1135:C1 I *D sky130_fd_sc_hd__o211ai_2
*I *1124:Y O *D sky130_fd_sc_hd__nand3_4
*CAP
1 *1133:A1 0.000288739
2 *1149:B1_N 1.40994e-05
3 *1134:C1 0
4 *1132:A2 9.62835e-06
5 *1135:C1 0
6 *1124:Y 0.000237496
7 *165:45 0.000447867
8 *165:36 0.000262653
9 *165:22 0.000364468
10 *165:10 0.000709961
11 *1132:A2 *1131:A 4.27935e-05
12 *1133:A1 *218:8 0
13 *1149:B1_N *1136:A1 2.9177e-05
14 *1149:B1_N *1178:B2 5.57065e-05
15 *165:10 *1128:A1 0
16 *165:10 *554:41 7.83174e-05
17 *165:22 *1131:A 9.60875e-05
18 *165:22 *292:113 1.90936e-05
19 *165:22 *634:99 1.36077e-05
20 *165:36 *1128:A1 0
21 *165:36 *1129:B 0
22 *165:45 *1129:B 0
23 *165:45 *218:8 0
24 *1132:A1 *1132:A2 5.52302e-05
25 *1132:A1 *165:22 9.41642e-05
26 *1133:A2 *1133:A1 0.000243903
27 *1133:A2 *165:45 7.79781e-06
28 *99:12 *165:10 1.92789e-05
29 *99:51 *165:45 0
30 *101:22 *165:10 2.04825e-05
31 *101:22 *165:22 0.000251042
32 *164:10 *165:10 0.000175461
33 *164:10 *165:36 3.47856e-05
34 *164:30 *165:36 7.4826e-05
35 *164:30 *165:45 5.80706e-06
36 *164:43 *165:45 6.77374e-05
*RES
1 *1124:Y *165:10 19.1661 
2 *165:10 *165:22 13.3829 
3 *165:22 *1135:C1 9.3 
4 *165:22 *1132:A2 9.83571 
5 *165:10 *165:36 2.70536 
6 *165:36 *1134:C1 13.8 
7 *165:36 *165:45 2.85714 
8 *165:45 *1149:B1_N 14.3402 
9 *165:45 *1133:A1 19.4607 
*END

*D_NET *166 0.00549276
*CONN
*I *1130:A1 I *D sky130_fd_sc_hd__o221a_2
*I *1127:B1 I *D sky130_fd_sc_hd__a21oi_4
*I *1360:A2 I *D sky130_fd_sc_hd__o2111a_2
*I *1125:X O *D sky130_fd_sc_hd__o21a_2
*CAP
1 *1130:A1 0.000889692
2 *1127:B1 2.78998e-05
3 *1360:A2 0.000250749
4 *1125:X 0
5 *166:19 0.00108651
6 *166:4 0.000419663
7 *1130:A1 *1226:A2 0.000404707
8 *1130:A1 *1226:B1 3.97677e-05
9 *1130:A1 *1226:B2 0.000221641
10 *1130:A1 *168:30 2.95641e-05
11 *1130:A1 *170:6 0.000190848
12 *1130:A1 *171:10 3.29037e-05
13 *1130:A1 *266:12 0.000100625
14 *1130:A1 *554:41 9.4879e-05
15 *1130:A1 *602:29 1.80444e-05
16 *1130:A1 *634:123 5.80706e-06
17 *1130:A1 *649:68 0.000575196
18 *1130:A1 *649:81 1.63504e-05
19 *1360:A2 *1360:B1 3.8274e-05
20 *1360:A2 *506:58 9.60939e-05
21 *1360:A2 *562:48 0.00018372
22 *166:19 *1056:B 0
23 *166:19 *168:10 3.30352e-05
24 *166:19 *168:30 1.74352e-05
25 *166:19 *649:34 2.61337e-05
26 *166:19 *649:44 7.6644e-05
27 *166:19 *649:68 0.000116049
28 *1059:A *166:19 0.000181803
29 *1357:C *166:19 2.14757e-05
30 *96:21 *166:19 0.000227532
31 *164:10 *1130:A1 6.97253e-05
*RES
1 *1125:X *166:4 9.3 
2 *166:4 *1360:A2 12.7107 
3 *166:4 *166:19 14.4643 
4 *166:19 *1127:B1 9.72857 
5 *166:19 *1130:A1 37.6571 
*END

*D_NET *167 0.000447741
*CONN
*I *1358:B1 I *D sky130_fd_sc_hd__o211ai_2
*I *1126:X O *D sky130_fd_sc_hd__a21o_2
*CAP
1 *1358:B1 8.2319e-05
2 *1126:X 8.2319e-05
3 *1358:B1 *288:10 4.16114e-05
4 *1358:B1 *297:50 0.000153047
5 *1358:B1 *654:52 3.51442e-05
6 *1358:A2 *1358:B1 5.33005e-05
*RES
1 *1126:X *1358:B1 30.0821 
*END

*D_NET *168 0.00608926
*CONN
*I *1178:B1 I *D sky130_fd_sc_hd__a22oi_2
*I *1502:A I *D sky130_fd_sc_hd__buf_2
*I *1503:A I *D sky130_fd_sc_hd__buf_2
*I *1479:A I *D sky130_fd_sc_hd__buf_2
*I *1127:Y O *D sky130_fd_sc_hd__a21oi_4
*CAP
1 *1178:B1 0.000363684
2 *1502:A 0.000200852
3 *1503:A 0.000177998
4 *1479:A 0
5 *1127:Y 0
6 *168:30 0.0010156
7 *168:10 0.000583229
8 *168:4 0.000856291
9 *1178:B1 *1136:A1 0.000473753
10 *1178:B1 *1178:B2 5.7661e-06
11 *1178:B1 *1225:A 0.000126446
12 *1178:B1 *1226:A1 0.000284172
13 *1178:B1 *1246:B 5.33005e-05
14 *1178:B1 *292:113 0.000135921
15 *1178:B1 *506:66 3.92854e-05
16 *1178:B1 *506:79 4.96435e-05
17 *1178:B1 *554:56 5.33334e-05
18 *1502:A *1226:A1 5.58941e-05
19 *1502:A *1245:B1 0
20 *1502:A *267:8 9.10431e-06
21 *1502:A *286:12 0
22 *1502:A *506:66 0.000122651
23 *1503:A *1260:B1 0.000102068
24 *1503:A *1266:B1 4.1331e-06
25 *1503:A *305:8 0
26 *1503:A *307:8 0.000147841
27 *1503:A *630:81 7.72665e-05
28 *1503:A *649:34 0.000148189
29 *168:10 *1127:A2 6.74911e-05
30 *168:10 *649:34 0.000337644
31 *168:30 *1226:A2 0.000222784
32 *168:30 *266:12 0.000137983
33 *1130:A1 *168:30 2.95641e-05
34 *1178:A1 *1178:B1 2.89114e-05
35 *1357:C *168:10 1.33343e-05
36 *96:21 *168:10 0.000114655
37 *166:19 *168:10 3.30352e-05
38 *166:19 *168:30 1.74352e-05
*RES
1 *1127:Y *168:4 9.3 
2 *168:4 *168:10 11.875 
3 *168:10 *1479:A 13.8 
4 *168:10 *1503:A 18.7821 
5 *168:4 *168:30 10.7857 
6 *168:30 *1502:A 17.8 
7 *168:30 *1178:B1 24.175 
*END

*D_NET *169 0.000784786
*CONN
*I *1129:B I *D sky130_fd_sc_hd__nor2_2
*I *1128:Y O *D sky130_fd_sc_hd__a22oi_2
*CAP
1 *1129:B 0.000216714
2 *1128:Y 0.000216714
3 *1129:B *1128:A1 0.000194934
4 *1128:A2 *1129:B 5.52302e-05
5 *99:36 *1129:B 8.5896e-05
6 *99:51 *1129:B 1.52978e-05
7 *165:36 *1129:B 0
8 *165:45 *1129:B 0
*RES
1 *1128:Y *1129:B 32.3321 
*END

*D_NET *170 0.0029676
*CONN
*I *1131:A I *D sky130_fd_sc_hd__or2_4
*I *1135:A1 I *D sky130_fd_sc_hd__o211ai_2
*I *1134:A1 I *D sky130_fd_sc_hd__o211a_2
*I *1129:Y O *D sky130_fd_sc_hd__nor2_2
*CAP
1 *1131:A 0.000469523
2 *1135:A1 0
3 *1134:A1 0.000105535
4 *1129:Y 0.00010751
5 *170:8 0.000126204
6 *170:6 0.000597701
7 *1131:A *1135:A2 5.33005e-05
8 *1131:A *1137:A1 0.000167194
9 *1131:A *172:14 3.7369e-05
10 *1131:A *634:99 9.54798e-06
11 *1134:A1 *1134:A2 0.000169507
12 *1134:A1 *1178:B2 8.58942e-06
13 *1134:A1 *171:10 1.02504e-05
14 *1134:A1 *602:29 1.84896e-05
15 *170:6 *649:81 9.74668e-05
16 *1130:A1 *170:6 0.000190848
17 *1132:A1 *1131:A 3.84717e-05
18 *1132:A2 *1131:A 4.27935e-05
19 *1137:A2 *1131:A 0.000101545
20 *1139:A1 *1131:A 0.000312203
21 *164:10 *1134:A1 1.19309e-05
22 *164:16 *1131:A 6.3295e-05
23 *164:16 *170:6 7.77751e-05
24 *164:16 *170:8 0
25 *164:30 *1134:A1 4.87712e-05
26 *164:43 *1134:A1 5.68749e-06
27 *165:22 *1131:A 9.60875e-05
*RES
1 *1129:Y *170:6 13.1214 
2 *170:6 *170:8 0.428571 
3 *170:8 *1134:A1 21.0812 
4 *170:8 *1135:A1 9.3 
5 *170:6 *1131:A 28.2107 
*END

*D_NET *171 0.00280715
*CONN
*I *1131:B I *D sky130_fd_sc_hd__or2_4
*I *1134:A2 I *D sky130_fd_sc_hd__o211a_2
*I *1135:A2 I *D sky130_fd_sc_hd__o211ai_2
*I *1130:X O *D sky130_fd_sc_hd__o221a_2
*CAP
1 *1131:B 0.000502862
2 *1134:A2 0.000183189
3 *1135:A2 1.69531e-05
4 *1130:X 9.67185e-05
5 *171:10 0.00029787
6 *171:6 0.000697308
7 *1131:B *1138:B1 9.02232e-05
8 *1131:B *1140:B1 8.27532e-05
9 *1134:A2 *602:29 0.000123295
10 *171:6 *1140:B1 0.00014183
11 *171:10 *602:29 0.000143031
12 *1090:B2 *1131:B 5.71472e-05
13 *1130:A1 *171:10 3.29037e-05
14 *1130:B2 *1131:B 2.21589e-05
15 *1131:A *1135:A2 5.33005e-05
16 *1134:A1 *1134:A2 0.000169507
17 *1134:A1 *171:10 1.02504e-05
18 *1137:A2 *1131:B 1.32552e-05
19 *1557:A *1131:B 1.92905e-05
20 *164:10 *171:10 0
21 *164:16 *1135:A2 5.33005e-05
*RES
1 *1130:X *171:6 10.6571 
2 *171:6 *171:10 6.44643 
3 *171:10 *1135:A2 14.3357 
4 *171:10 *1134:A2 17.6571 
5 *171:6 *1131:B 16.6393 
*END

*D_NET *172 0.00351709
*CONN
*I *1133:B1 I *D sky130_fd_sc_hd__a21o_4
*I *1149:A2 I *D sky130_fd_sc_hd__a21bo_2
*I *1132:B1 I *D sky130_fd_sc_hd__a21oi_2
*I *1131:X O *D sky130_fd_sc_hd__or2_4
*CAP
1 *1133:B1 0.000343291
2 *1149:A2 0.000299284
3 *1132:B1 0
4 *1131:X 0.000275031
5 *172:23 0.00078922
6 *172:14 0.000421677
7 *1133:B1 *1136:B1 2.41865e-05
8 *1133:B1 *1136:B2 1.41029e-05
9 *1133:B1 *1137:C1 5.38886e-05
10 *1133:B1 *189:10 0
11 *1133:B1 *271:34 0
12 *1149:A2 *1136:A1 5.33433e-05
13 *1149:A2 *189:10 0.000394969
14 *1149:A2 *292:113 5.22483e-05
15 *172:14 *271:34 8.50971e-06
16 *172:14 *634:99 3.8825e-06
17 *172:23 *1136:B1 0.00029513
18 *172:23 *271:34 0
19 *1058:A *172:14 0
20 *1090:B2 *172:14 9.90431e-05
21 *1131:A *172:14 3.7369e-05
22 *1136:A2 *1149:A2 2.89114e-05
23 *1137:A2 *172:14 0.000148196
24 *1137:A2 *172:23 0.000174805
25 *1139:B1_N *172:14 0
*RES
1 *1131:X *172:14 18.8714 
2 *172:14 *1132:B1 13.8 
3 *172:14 *172:23 4.375 
4 *172:23 *1149:A2 20.1036 
5 *172:23 *1133:B1 20.0679 
*END

*D_NET *173 0.000756268
*CONN
*I *1136:B1 I *D sky130_fd_sc_hd__o22ai_4
*I *1132:Y O *D sky130_fd_sc_hd__a21oi_2
*CAP
1 *1136:B1 0.000137742
2 *1132:Y 0.000137742
3 *1136:B1 *1136:B2 0.000150632
4 *1136:B1 *1137:C1 1.08359e-05
5 *1136:B1 *292:113 0
6 *1133:B1 *1136:B1 2.41865e-05
7 *172:23 *1136:B1 0.00029513
*RES
1 *1132:Y *1136:B1 31.6714 
*END

*D_NET *174 0.000899737
*CONN
*I *1137:C1 I *D sky130_fd_sc_hd__o2111ai_4
*I *1133:X O *D sky130_fd_sc_hd__a21o_4
*CAP
1 *1137:C1 0.000170167
2 *1133:X 0.000170167
3 *1137:C1 *1136:B2 0.000274563
4 *1137:C1 *1137:B1 4.22908e-05
5 *1137:C1 *1140:B1 1.74352e-05
6 *1137:C1 *189:10 0.000120645
7 *1137:C1 *292:113 3.9745e-05
8 *1133:B1 *1137:C1 5.38886e-05
9 *1136:B1 *1137:C1 1.08359e-05
*RES
1 *1133:X *1137:C1 33.475 
*END

*D_NET *175 0.00121272
*CONN
*I *1136:B2 I *D sky130_fd_sc_hd__o22ai_4
*I *1134:X O *D sky130_fd_sc_hd__o211a_2
*CAP
1 *1136:B2 0.000333338
2 *1134:X 0.000333338
3 *1136:B2 *1137:B1 8.5232e-05
4 *1136:B2 *1140:B1 2.15137e-05
5 *1133:B1 *1136:B2 1.41029e-05
6 *1136:B1 *1136:B2 0.000150632
7 *1137:C1 *1136:B2 0.000274563
*RES
1 *1134:X *1136:B2 34.4929 
*END

*D_NET *176 0.000558492
*CONN
*I *1137:D1 I *D sky130_fd_sc_hd__o2111ai_4
*I *1135:Y O *D sky130_fd_sc_hd__o211ai_2
*CAP
1 *1137:D1 7.45992e-05
2 *1135:Y 7.45992e-05
3 *1137:D1 *292:113 0.00014576
4 *1132:A1 *1137:D1 5.52238e-05
5 *1136:A2 *1137:D1 0.000123295
6 *1139:A1 *1137:D1 5.33005e-05
7 *101:22 *1137:D1 3.17148e-05
*RES
1 *1135:Y *1137:D1 30.0821 
*END

*D_NET *177 0.00216456
*CONN
*I *1140:A2_N I *D sky130_fd_sc_hd__o2bb2ai_4
*I *1141:C I *D sky130_fd_sc_hd__nand3b_4
*I *1136:Y O *D sky130_fd_sc_hd__o22ai_4
*CAP
1 *1140:A2_N 0.000286488
2 *1141:C 0.000721758
3 *1136:Y 0.00043527
4 *1140:A2_N *1142:A1 0.000183713
5 *1140:A2_N *1142:B1 6.13693e-05
6 *1140:A2_N *1525:A 2.8034e-05
7 *1140:A2_N *181:10 0.000106542
8 *1140:A2_N *183:8 2.8266e-06
9 *1141:C *1141:B 0.000126639
10 *1141:C *1142:A1 2.89114e-05
11 *1141:C *1142:B1 4.01626e-05
12 *1141:C *182:6 0.00014285
13 *1143:D *1140:A2_N 0
14 *135:10 *1140:A2_N 0
*RES
1 *1136:Y *1141:C 26.5643 
2 *1141:C *1140:A2_N 33.6179 
*END

*D_NET *178 0.00280181
*CONN
*I *1511:A I *D sky130_fd_sc_hd__buf_2
*I *1141:B I *D sky130_fd_sc_hd__nand3b_4
*I *1140:A1_N I *D sky130_fd_sc_hd__o2bb2ai_4
*I *1137:Y O *D sky130_fd_sc_hd__o2111ai_4
*CAP
1 *1511:A 0.000202503
2 *1141:B 9.32874e-05
3 *1140:A1_N 0.000357282
4 *1137:Y 0.000208165
5 *178:23 0.000422628
6 *178:6 0.000692284
7 *1140:A1_N *1140:B1 3.57366e-05
8 *1140:A1_N *181:10 9.61553e-05
9 *1511:A *1148:A 1.92789e-05
10 *1511:A *1148:B 0
11 *1511:A *182:10 0
12 *1511:A *271:34 0
13 *178:6 *1137:A1 9.60939e-05
14 *178:6 *1140:B1 0.000111439
15 *178:23 *1141:A_N 0.00020042
16 *178:23 *182:10 0
17 *178:23 *509:8 0
18 *1140:B2 *1140:A1_N 0.0001399
19 *1141:C *1141:B 0.000126639
*RES
1 *1137:Y *178:6 13.5321 
2 *178:6 *1140:A1_N 15.925 
3 *178:6 *178:23 7.58929 
4 *178:23 *1141:B 15.9786 
5 *178:23 *1511:A 17.4071 
*END

*D_NET *179 0.00428456
*CONN
*I *1140:B1 I *D sky130_fd_sc_hd__o2bb2ai_4
*I *1138:X O *D sky130_fd_sc_hd__o31a_2
*CAP
1 *1140:B1 0.00097265
2 *1138:X 0.00097265
3 *1140:B1 *1130:C1 0.000210235
4 *1140:B1 *1137:A1 4.87953e-05
5 *1140:B1 *1137:B1 0.00030926
6 *1140:B1 *1138:B1 0.000655813
7 *1140:B1 *602:29 0.000279099
8 *1140:B1 *649:94 6.73939e-05
9 *1131:B *1140:B1 8.27532e-05
10 *1136:B2 *1140:B1 2.15137e-05
11 *1137:C1 *1140:B1 1.74352e-05
12 *1140:A1_N *1140:B1 3.57366e-05
13 *101:22 *1140:B1 0.000357952
14 *171:6 *1140:B1 0.00014183
15 *178:6 *1140:B1 0.000111439
*RES
1 *1138:X *1140:B1 47.1357 
*END

*D_NET *180 0.000838569
*CONN
*I *1141:A_N I *D sky130_fd_sc_hd__nand3b_4
*I *1139:Y O *D sky130_fd_sc_hd__a21boi_2
*CAP
1 *1141:A_N 0.000303141
2 *1139:Y 0.000303141
3 *1141:A_N *271:34 0
4 *1141:A_N *509:8 0
5 *1139:A1 *1141:A_N 3.18676e-05
6 *178:23 *1141:A_N 0.00020042
*RES
1 *1139:Y *1141:A_N 32.5107 
*END

*D_NET *181 0.00146901
*CONN
*I *1525:A I *D sky130_fd_sc_hd__buf_4
*I *1142:B2 I *D sky130_fd_sc_hd__a22oi_2
*I *1140:Y O *D sky130_fd_sc_hd__o2bb2ai_4
*CAP
1 *1525:A 0.000260909
2 *1142:B2 0
3 *1140:Y 0.000278861
4 *181:10 0.000539769
5 *1525:A *1143:A 6.26559e-05
6 *1525:A *1143:B 0
7 *1525:A *1148:B 0
8 *1525:A *183:8 0
9 *1525:A *184:12 0
10 *1525:A *509:8 0
11 *181:10 *509:8 0
12 *1140:A1_N *181:10 9.61553e-05
13 *1140:A2_N *1525:A 2.8034e-05
14 *1140:A2_N *181:10 0.000106542
15 *1140:B2 *181:10 9.60875e-05
*RES
1 *1140:Y *181:10 19.7643 
2 *181:10 *1142:B2 13.8 
3 *181:10 *1525:A 18.7821 
*END

*D_NET *182 0.00248009
*CONN
*I *1142:B1 I *D sky130_fd_sc_hd__a22oi_2
*I *1148:B I *D sky130_fd_sc_hd__nand2_2
*I *1143:C I *D sky130_fd_sc_hd__nand4_4
*I *1141:Y O *D sky130_fd_sc_hd__nand3b_4
*CAP
1 *1142:B1 0.000370876
2 *1148:B 0.000112678
3 *1143:C 0.0001199
4 *1141:Y 9.0998e-05
5 *182:10 0.000385216
6 *182:6 0.000614512
7 *1142:B1 *1142:A1 3.54789e-05
8 *1143:C *1143:A 9.7659e-05
9 *1148:B *1143:A 0
10 *1148:B *1143:B 3.34366e-05
11 *1148:B *1148:A 5.5782e-05
12 *1148:B *184:12 9.80029e-05
13 *182:10 *1143:B 9.30093e-05
14 *182:10 *509:8 0.000128161
15 *1140:A2_N *1142:B1 6.13693e-05
16 *1141:C *1142:B1 4.01626e-05
17 *1141:C *182:6 0.00014285
18 *1511:A *1148:B 0
19 *1511:A *182:10 0
20 *1525:A *1148:B 0
21 *178:23 *182:10 0
*RES
1 *1141:Y *182:6 10.6571 
2 *182:6 *182:10 7.35714 
3 *182:10 *1143:C 15.9964 
4 *182:10 *1148:B 16.9607 
5 *182:6 *1142:B1 14.6929 
*END

*D_NET *183 0.00133193
*CONN
*I *1242:A1 I *D sky130_fd_sc_hd__o211ai_4
*I *1497:A I *D sky130_fd_sc_hd__buf_6
*I *1142:Y O *D sky130_fd_sc_hd__a22oi_2
*CAP
1 *1242:A1 0.000131886
2 *1497:A 0
3 *1142:Y 0.000337827
4 *183:8 0.000469713
5 *1242:A1 *1144:B 4.1331e-06
6 *1242:A1 *1195:A 9.90367e-05
7 *1242:A1 *184:21 0
8 *1242:A1 *187:23 9.90367e-05
9 *1242:A1 *284:10 0
10 *1242:A1 *563:10 6.53874e-05
11 *183:8 *1144:B 6.94694e-05
12 *183:8 *1147:A 0
13 *183:8 *1194:A1 0
14 *183:8 *184:12 0
15 *183:8 *184:21 0
16 *1140:A2_N *183:8 2.8266e-06
17 *1143:D *183:8 5.26091e-05
18 *1525:A *183:8 0
*RES
1 *1142:Y *183:8 20.6036 
2 *183:8 *1497:A 13.8 
3 *183:8 *1242:A1 17.3 
*END

*D_NET *184 0.00228083
*CONN
*I *1546:A I *D sky130_fd_sc_hd__buf_2
*I *1242:B1 I *D sky130_fd_sc_hd__o211ai_4
*I *1241:B1 I *D sky130_fd_sc_hd__o211a_2
*I *1143:Y O *D sky130_fd_sc_hd__nand4_4
*CAP
1 *1546:A 0.000359206
2 *1242:B1 0
3 *1241:B1 0
4 *1143:Y 0.000320581
5 *184:21 0.000450833
6 *184:12 0.000412208
7 *1546:A *1193:A 9.71197e-05
8 *1546:A *1241:A1 2.31791e-05
9 *1546:A *1279:A3 0
10 *1546:A *229:27 2.8266e-06
11 *1546:A *232:8 3.70314e-05
12 *1546:A *284:10 7.8327e-05
13 *184:12 *1143:A 0.000198641
14 *184:12 *1241:A1 4.46186e-06
15 *184:12 *188:10 0
16 *184:21 *1241:A1 0.000178508
17 *184:21 *284:10 1.99099e-05
18 *1148:B *184:12 9.80029e-05
19 *1242:A1 *184:21 0
20 *1525:A *184:12 0
21 *183:8 *184:12 0
22 *183:8 *184:21 0
*RES
1 *1143:Y *184:12 20.3714 
2 *184:12 *1241:B1 13.8 
3 *184:12 *184:21 2.55357 
4 *184:21 *1242:B1 13.8 
5 *184:21 *1546:A 19.4786 
*END

*D_NET *185 0.00055763
*CONN
*I *1147:A I *D sky130_fd_sc_hd__xor2_2
*I *1144:Y O *D sky130_fd_sc_hd__nand2b_2
*CAP
1 *1147:A 0.000219787
2 *1144:Y 0.000219787
3 *1147:A *1144:A_N 5.41494e-05
4 *1147:A *1144:B 5.30637e-06
5 *1147:A *1194:A1 5.57727e-05
6 *1143:D *1147:A 2.8266e-06
7 *183:8 *1147:A 0
*RES
1 *1144:Y *1147:A 31.3143 
*END

*D_NET *186 0.00143521
*CONN
*I *1146:C I *D sky130_fd_sc_hd__nand3b_4
*I *1145:Y O *D sky130_fd_sc_hd__o221ai_4
*CAP
1 *1146:C 0.000328081
2 *1145:Y 0.000328081
3 *1146:C *1049:A1 6.39901e-05
4 *1044:B *1146:C 0.000417184
5 *1045:A_N *1146:C 9.11365e-06
6 *1049:A2 *1146:C 0.000154762
7 *1096:A2_N *1146:C 0
8 *1146:B *1146:C 4.1331e-06
9 *84:35 *1146:C 0
10 *87:12 *1146:C 0.000129868
11 *88:10 *1146:C 0
*RES
1 *1145:Y *1146:C 36.8321 
*END

*D_NET *187 0.00512416
*CONN
*I *1242:A2 I *D sky130_fd_sc_hd__o211ai_4
*I *1241:A1 I *D sky130_fd_sc_hd__o211a_2
*I *1581:A I *D sky130_fd_sc_hd__buf_2
*I *1146:Y O *D sky130_fd_sc_hd__nand3b_4
*CAP
1 *1242:A2 0
2 *1241:A1 0.000333111
3 *1581:A 0
4 *1146:Y 0.000850663
5 *187:23 0.00119677
6 *187:8 0.00171432
7 *1241:A1 *1241:C1 1.28809e-05
8 *1241:A1 *1242:C1 0
9 *1241:A1 *188:21 0
10 *187:23 *1147:B 6.97972e-05
11 *187:23 *1194:A1 0.000215137
12 *187:23 *1195:A 9.61553e-05
13 *187:23 *1195:B 0
14 *187:23 *563:10 0
15 *1093:B *187:8 0
16 *1096:A2_N *187:8 0.0001098
17 *1143:D *187:8 0
18 *1143:D *187:23 0
19 *1146:B *187:8 0.000179656
20 *1242:A1 *187:23 9.90367e-05
21 *1546:A *1241:A1 2.31791e-05
22 *84:35 *187:8 0
23 *84:44 *187:8 0
24 *134:12 *187:8 4.06782e-05
25 *135:10 *187:8 0
26 *184:12 *1241:A1 4.46186e-06
27 *184:21 *1241:A1 0.000178508
*RES
1 *1146:Y *187:8 30.925 
2 *187:8 *1581:A 13.8 
3 *187:8 *187:23 21.1607 
4 *187:23 *1241:A1 24.5366 
5 *187:23 *1242:A2 9.3 
*END

*D_NET *188 0.00243537
*CONN
*I *1243:A1 I *D sky130_fd_sc_hd__o21ai_2
*I *1317:A1 I *D sky130_fd_sc_hd__o211ai_4
*I *1192:B1 I *D sky130_fd_sc_hd__a21oi_2
*I *1190:A I *D sky130_fd_sc_hd__and3_2
*I *1191:A I *D sky130_fd_sc_hd__nand2_2
*I *1148:Y O *D sky130_fd_sc_hd__nand2_2
*CAP
1 *1243:A1 8.21614e-06
2 *1317:A1 6.85487e-05
3 *1192:B1 0
4 *1190:A 5.87461e-05
5 *1191:A 3.72704e-05
6 *1148:Y 0.000200502
7 *188:43 8.90667e-05
8 *188:36 0.00011566
9 *188:21 0.00023634
10 *188:10 0.000312008
11 *1190:A *1190:B 2.72859e-05
12 *1190:A *1190:C 9.90367e-05
13 *1243:A1 *1193:A 4.38128e-05
14 *1243:A1 *232:8 5.52302e-05
15 *1317:A1 *1279:A3 0.000200413
16 *1317:A1 *1317:A2 6.98669e-05
17 *1317:A1 *229:27 2.8266e-06
18 *188:10 *1191:B 1.02504e-05
19 *188:10 *271:34 0
20 *188:21 *1191:B 0.000239943
21 *188:21 *1242:C1 1.00375e-05
22 *188:21 *1279:A3 0.0001098
23 *188:36 *1191:B 8.98585e-05
24 *188:36 *1193:A 0.000155846
25 *188:36 *1279:A3 2.36032e-05
26 *188:36 *229:27 1.98839e-05
27 *188:36 *232:8 5.52238e-05
28 *188:43 *1193:A 4.27935e-05
29 *188:43 *232:8 5.33005e-05
30 *1241:A1 *188:21 0
31 *184:12 *188:10 0
*RES
1 *1148:Y *188:10 17.1036 
2 *188:10 *1191:A 14.3357 
3 *188:10 *188:21 3.16071 
4 *188:21 *1190:A 15.1571 
5 *188:21 *188:36 7.39286 
6 *188:36 *1192:B1 9.3 
7 *188:36 *188:43 0.535714 
8 *188:43 *1317:A1 20.8536 
9 *188:43 *1243:A1 9.83571 
*END

*D_NET *189 0.00409898
*CONN
*I *1185:A I *D sky130_fd_sc_hd__nand2_2
*I *1186:A I *D sky130_fd_sc_hd__nand3_2
*I *1188:B1 I *D sky130_fd_sc_hd__a21o_2
*I *1149:X O *D sky130_fd_sc_hd__a21bo_2
*CAP
1 *1185:A 0.000297887
2 *1186:A 0.000134425
3 *1188:B1 0
4 *1149:X 0.000831834
5 *189:19 0.000514944
6 *189:10 0.000914466
7 *1185:A *1186:B 2.49484e-05
8 *1185:A *1189:B1 1.33343e-05
9 *1185:A *222:8 0
10 *1185:A *225:6 0.000144773
11 *1185:A *226:8 0.00015234
12 *1185:A *228:8 1.18064e-05
13 *1185:A *229:10 0
14 *1186:A *1186:B 6.05161e-06
15 *1186:A *1190:B 5.71472e-05
16 *1186:A *1190:C 2.72967e-05
17 *189:10 *1136:A1 0.000119607
18 *189:10 *1188:A1 5.80706e-06
19 *189:10 *271:34 0
20 *189:10 *292:113 0.000128868
21 *189:10 *649:111 0
22 *189:19 *1186:B 4.46186e-06
23 *189:19 *1188:A1 8.66324e-05
24 *189:19 *228:8 5.33882e-05
25 *189:19 *271:34 0
26 *1133:B1 *189:10 0
27 *1137:C1 *189:10 0.000120645
28 *1149:A1 *189:10 5.33433e-05
29 *1149:A2 *189:10 0.000394969
*RES
1 *1149:X *189:10 28.1036 
2 *189:10 *1188:B1 13.8 
3 *189:10 *189:19 2.25 
4 *189:19 *1186:A 16.3 
5 *189:19 *1185:A 19.9071 
*END

*D_NET *190 0.00549111
*CONN
*I *1176:C I *D sky130_fd_sc_hd__nand3_4
*I *1150:Y O *D sky130_fd_sc_hd__o21ai_2
*CAP
1 *1176:C 0
2 *1150:Y 0.00103838
3 *190:14 0.00103838
4 *190:14 *1115:C1 5.72318e-05
5 *190:14 *1117:B1 0.000524288
6 *190:14 *201:8 0.000895525
7 *190:14 *378:87 0.00112647
8 *190:14 *506:45 2.92543e-05
9 *190:14 *636:32 5.37055e-05
10 *190:14 *650:10 0.000121416
11 *190:14 *651:52 0.000417891
12 *1117:A1 *190:14 2.97489e-05
13 *1117:A2 *190:14 0.000132889
14 *41:48 *190:14 2.59355e-05
*RES
1 *1150:Y *190:14 45.675 
2 *190:14 *1176:C 9.3 
*END

*D_NET *191 0.00672383
*CONN
*I *1152:A I *D sky130_fd_sc_hd__inv_2
*I *1165:B1 I *D sky130_fd_sc_hd__a21o_2
*I *1164:B1 I *D sky130_fd_sc_hd__a21oi_4
*I *1162:C1 I *D sky130_fd_sc_hd__o211a_2
*I *1163:C1 I *D sky130_fd_sc_hd__o211ai_2
*I *1151:Y O *D sky130_fd_sc_hd__o21ai_2
*CAP
1 *1152:A 0.00019864
2 *1165:B1 0
3 *1164:B1 6.4086e-05
4 *1162:C1 0.000153094
5 *1163:C1 0
6 *1151:Y 0.00106725
7 *191:59 0.000421905
8 *191:31 0.000297111
9 *191:29 0.000338938
10 *191:20 0.00110299
11 *1152:A *1031:A 0.00010096
12 *1152:A *506:45 0.000191199
13 *1152:A *506:58 0.000177227
14 *1152:A *631:138 1.02821e-05
15 *1152:A *639:73 0.000390947
16 *1152:A *651:27 4.60232e-06
17 *1162:C1 *1161:A2 0.000110956
18 *1162:C1 *1164:A2 2.16719e-05
19 *1162:C1 *198:10 0.000218523
20 *1162:C1 *506:39 0.00037613
21 *1164:B1 *1161:A1 4.05236e-05
22 *1164:B1 *1164:A1 0.000192421
23 *1164:B1 *1164:A2 5.21842e-05
24 *191:20 *933:A 8.99497e-05
25 *191:20 *1113:B1 0
26 *191:20 *1163:B1 5.33005e-05
27 *191:20 *1165:A1 4.28365e-05
28 *191:20 *249:12 6.71264e-05
29 *191:20 *506:45 3.67537e-05
30 *191:20 *529:22 0
31 *191:20 *631:87 6.52967e-05
32 *191:20 *651:8 4.11218e-05
33 *191:29 *1114:B 2.08721e-05
34 *191:29 *1163:B1 9.71197e-05
35 *191:31 *1163:A2 4.43698e-05
36 *191:31 *1164:A2 1.52978e-05
37 *191:31 *506:39 0.000160403
38 *191:59 *1163:A2 1.88048e-05
39 *191:59 *203:8 2.84729e-05
40 *191:59 *204:8 0
41 *191:59 *205:10 1.92789e-05
42 *191:59 *506:39 0.000146627
43 *191:59 *631:138 6.57032e-05
44 *42:42 *191:20 5.33005e-05
45 *42:42 *191:29 0.000125547
*RES
1 *1151:Y *191:20 29.2569 
2 *191:20 *1163:C1 9.3 
3 *191:20 *191:29 5.85714 
4 *191:29 *191:31 2.25 
5 *191:31 *1162:C1 18.7821 
6 *191:31 *1164:B1 15.8714 
7 *191:29 *191:59 8.71429 
8 *191:59 *1165:B1 9.3 
9 *191:59 *1152:A 24.7643 
*END

*D_NET *192 0.00158942
*CONN
*I *1219:A1 I *D sky130_fd_sc_hd__o21ai_2
*I *1218:A2 I *D sky130_fd_sc_hd__o21a_2
*I *1152:Y O *D sky130_fd_sc_hd__inv_2
*CAP
1 *1219:A1 0.00016382
2 *1218:A2 6.05241e-05
3 *1152:Y 0.000158467
4 *192:10 0.000382811
5 *1218:A2 *1218:B1 3.69047e-06
6 *1218:A2 *656:47 2.15245e-05
7 *1219:A1 *1218:B1 1.02936e-05
8 *1219:A1 *1220:A 0.000198647
9 *1219:A1 *257:12 9.90367e-05
10 *192:10 *1172:A 5.44074e-05
11 *192:10 *1176:B 0.000152333
12 *192:10 *1220:A 3.34295e-05
13 *192:10 *204:32 0
14 *192:10 *506:58 0.000124713
15 *192:10 *639:73 0.000125724
*RES
1 *1152:Y *192:10 22.9786 
2 *192:10 *1218:A2 10.2464 
3 *192:10 *1219:A1 22.0143 
*END

*D_NET *193 0.00148131
*CONN
*I *1156:B1 I *D sky130_fd_sc_hd__o21ai_4
*I *1158:A2 I *D sky130_fd_sc_hd__a21oi_4
*I *1153:X O *D sky130_fd_sc_hd__o21a_4
*CAP
1 *1156:B1 0.000203661
2 *1158:A2 0
3 *1153:X 0.000121227
4 *193:10 0.000324888
5 *1156:B1 *1514:A 9.54798e-06
6 *1156:B1 *198:10 0.00016493
7 *1156:B1 *506:39 0.000198783
8 *193:10 *962:B 8.67814e-06
9 *193:10 *1160:B1 2.41452e-05
10 *193:10 *1514:A 0.000144231
11 *193:10 *506:39 3.27359e-05
12 *193:10 *561:50 0.000182804
13 *193:10 *668:40 6.56786e-05
*RES
1 *1153:X *193:10 17.5143 
2 *193:10 *1158:A2 13.8 
3 *193:10 *1156:B1 18.0143 
*END

*D_NET *194 0.00107576
*CONN
*I *1155:B1 I *D sky130_fd_sc_hd__a21oi_2
*I *1154:Y O *D sky130_fd_sc_hd__o21ai_2
*CAP
1 *1155:B1 0.000222685
2 *1154:Y 0.000222685
3 *1155:B1 *1102:A 1.39841e-05
4 *1155:B1 *1154:B1 2.34077e-05
5 *1155:B1 *1442:A 7.6644e-05
6 *1155:B1 *282:12 0.000296008
7 *1155:B1 *378:31 3.49572e-05
8 *1155:B1 *378:56 0.000185392
9 *1155:B1 *583:29 0
*RES
1 *1154:Y *1155:B1 32.6357 
*END

*D_NET *195 0.00267026
*CONN
*I *1159:A1 I *D sky130_fd_sc_hd__o21ai_2
*I *1155:Y O *D sky130_fd_sc_hd__a21oi_2
*CAP
1 *1159:A1 0.000710214
2 *1155:Y 0.000710214
3 *1159:A1 *964:C1 8.00741e-05
4 *1159:A1 *1107:A1 4.42999e-05
5 *1159:A1 *1107:B1 5.41794e-05
6 *1159:A1 *1117:B1 5.94737e-05
7 *1159:A1 *282:12 2.04825e-05
8 *1159:A1 *303:38 9.46929e-05
9 *1159:A1 *378:56 7.6644e-05
10 *1159:A1 *475:89 6.30979e-05
11 *1159:A1 *479:12 6.15739e-06
12 *1159:A1 *632:67 4.35336e-05
13 *1159:A1 *635:58 0.000137494
14 *1159:A1 *640:42 0
15 *1159:A1 *641:20 0.000392834
16 *1120:A1 *1159:A1 6.66813e-05
17 *1458:A *1159:A1 5.49544e-05
18 *1534:A *1159:A1 5.52302e-05
*RES
1 *1155:Y *1159:A1 43.6893 
*END

*D_NET *196 0.000312128
*CONN
*I *1160:C1 I *D sky130_fd_sc_hd__o311ai_4
*I *1156:Y O *D sky130_fd_sc_hd__o21ai_4
*CAP
1 *1160:C1 5.66505e-05
2 *1156:Y 5.66505e-05
3 *1160:C1 *1160:B1 4.87841e-05
4 *1160:C1 *639:73 0.000150043
*RES
1 *1156:Y *1160:C1 29.5464 
*END

*D_NET *197 0.00257585
*CONN
*I *1159:A2 I *D sky130_fd_sc_hd__o21ai_2
*I *1158:B1 I *D sky130_fd_sc_hd__a21oi_4
*I *1157:X O *D sky130_fd_sc_hd__and3_2
*CAP
1 *1159:A2 0.000204915
2 *1158:B1 0
3 *1157:X 0.000292756
4 *197:10 0.00049767
5 *1159:A2 *1153:B1 0.000209864
6 *1159:A2 *378:56 0.000242638
7 *1159:A2 *378:87 0.000197984
8 *1159:A2 *583:8 0.000131536
9 *1159:A2 *639:73 0.000376254
10 *197:10 *1153:B1 0.000119681
11 *197:10 *1157:A 6.82912e-05
12 *197:10 *1157:B 1.85914e-05
13 *197:10 *1157:C 9.75173e-05
14 *197:10 *583:8 0.000118157
*RES
1 *1157:X *197:10 18.4429 
2 *197:10 *1158:B1 13.8 
3 *197:10 *1159:A2 21.5143 
*END

*D_NET *198 0.00470386
*CONN
*I *1161:A2 I *D sky130_fd_sc_hd__o21ai_2
*I *1576:A I *D sky130_fd_sc_hd__buf_2
*I *1158:Y O *D sky130_fd_sc_hd__a21oi_4
*CAP
1 *1161:A2 0.000544132
2 *1576:A 3.97594e-05
3 *1158:Y 0.000591489
4 *198:10 0.00117538
5 *1161:A2 *1161:A1 3.70665e-05
6 *1161:A2 *1161:B1 5.22045e-05
7 *1161:A2 *1163:A2 2.8046e-05
8 *1161:A2 *1164:A1 0.000260574
9 *1161:A2 *1164:A2 9.25014e-06
10 *1161:A2 *1533:A 4.72818e-05
11 *1161:A2 *200:29 5.15925e-05
12 *1161:A2 *650:10 0.000137983
13 *1576:A *1433:A 9.41642e-05
14 *198:10 *1066:C 0.000180207
15 *198:10 *200:10 0.000312743
16 *198:10 *200:29 0.000206686
17 *198:10 *460:66 0.000141935
18 *198:10 *506:39 0.000271015
19 *198:10 *526:12 0
20 *198:10 *636:32 0
21 *198:10 *637:134 0
22 *1156:B1 *198:10 0.00016493
23 *1162:C1 *1161:A2 0.000110956
24 *1162:C1 *198:10 0.000218523
25 *161:35 *1576:A 2.79421e-05
*RES
1 *1158:Y *198:10 28.7643 
2 *198:10 *1576:A 14.7464 
3 *198:10 *1161:A2 22.7107 
*END

*D_NET *199 0.00310951
*CONN
*I *1165:A1 I *D sky130_fd_sc_hd__a21o_2
*I *1164:A1 I *D sky130_fd_sc_hd__a21oi_4
*I *1159:Y O *D sky130_fd_sc_hd__o21ai_2
*CAP
1 *1165:A1 0.000183776
2 *1164:A1 0.000205885
3 *1159:Y 0.000293225
4 *199:8 0.000682886
5 *1164:A1 *1161:A1 9.99644e-06
6 *1164:A1 *1164:A2 0.000309921
7 *1164:A1 *1533:A 0.000137983
8 *1165:A1 *1165:A2 0.000326702
9 *1165:A1 *1533:A 1.18064e-05
10 *1165:A1 *639:73 4.97121e-06
11 *1165:A1 *651:8 0.00016029
12 *199:8 *1554:A 5.01117e-05
13 *199:8 *506:39 0
14 *199:8 *639:73 0.000173968
15 *199:8 *651:8 6.21582e-05
16 *1161:A2 *1164:A1 0.000260574
17 *1164:B1 *1164:A1 0.000192421
18 *191:20 *1165:A1 4.28365e-05
*RES
1 *1159:Y *199:8 20.3 
2 *199:8 *1164:A1 19.6929 
3 *199:8 *1165:A1 18.7821 
*END

*D_NET *200 0.00423754
*CONN
*I *1473:A I *D sky130_fd_sc_hd__buf_6
*I *1533:A I *D sky130_fd_sc_hd__buf_2
*I *1162:B1 I *D sky130_fd_sc_hd__o211a_2
*I *1160:Y O *D sky130_fd_sc_hd__o311ai_4
*CAP
1 *1473:A 0
2 *1533:A 0.000126675
3 *1162:B1 0
4 *1160:Y 0.000546704
5 *200:29 0.000423083
6 *200:10 0.000843112
7 *1533:A *1161:A1 2.14757e-05
8 *1533:A *1164:A2 0.000125547
9 *1533:A *1165:A2 0.000251887
10 *1533:A *639:73 0.00021985
11 *200:10 *1024:A2 0
12 *200:10 *1160:A3 0.000187872
13 *200:10 *1162:A2 1.02504e-05
14 *200:10 *636:32 3.04111e-05
15 *200:10 *637:134 0
16 *200:29 *1162:A2 0.000259906
17 *200:29 *1433:A 0.000177815
18 *200:29 *506:39 0.000121573
19 *200:29 *651:8 0.000123288
20 *1161:A2 *1533:A 4.72818e-05
21 *1161:A2 *200:29 5.15925e-05
22 *1164:A1 *1533:A 0.000137983
23 *1165:A1 *1533:A 1.18064e-05
24 *198:10 *200:10 0.000312743
25 *198:10 *200:29 0.000206686
*RES
1 *1160:Y *200:10 22.5143 
2 *200:10 *1162:B1 13.8 
3 *200:10 *200:29 20.375 
4 *200:29 *1533:A 23.3357 
5 *200:29 *1473:A 9.3 
*END

*D_NET *201 0.0041211
*CONN
*I *1219:A2 I *D sky130_fd_sc_hd__o21ai_2
*I *1218:A1 I *D sky130_fd_sc_hd__o21a_2
*I *1161:Y O *D sky130_fd_sc_hd__o21ai_2
*CAP
1 *1219:A2 0.000452044
2 *1218:A1 7.27597e-05
3 *1161:Y 0.000421847
4 *201:8 0.00094665
5 *1218:A1 *656:47 7.02611e-05
6 *1219:A2 *1220:B 5.63103e-05
7 *1219:A2 *1573:A 4.13496e-05
8 *1219:A2 *255:18 8.50152e-05
9 *1219:A2 *259:10 1.32552e-05
10 *1219:A2 *592:14 7.79781e-06
11 *1219:A2 *641:10 7.80929e-05
12 *1219:A2 *651:52 0.00011061
13 *201:8 *1115:C1 0.000259663
14 *201:8 *1213:B1 0.000125731
15 *201:8 *641:10 0.000127971
16 *201:8 *641:20 8.35054e-05
17 *201:8 *651:52 8.33559e-05
18 *1033:A2 *201:8 0.000189357
19 *160:12 *1219:A2 0
20 *190:14 *201:8 0.000895525
*RES
1 *1161:Y *201:8 27.5857 
2 *201:8 *1218:A1 15.1571 
3 *201:8 *1219:A2 22.4429 
*END

*D_NET *202 0.00222654
*CONN
*I *1173:A1 I *D sky130_fd_sc_hd__o21ai_2
*I *1171:A1 I *D sky130_fd_sc_hd__o221ai_2
*I *1162:X O *D sky130_fd_sc_hd__o211a_2
*CAP
1 *1173:A1 1.20577e-05
2 *1171:A1 3.44009e-05
3 *1162:X 0.00055838
4 *202:10 0.000604839
5 *1171:A1 *995:B 5.52238e-05
6 *1171:A1 *1173:A2 3.46677e-05
7 *1173:A1 *995:B 4.27935e-05
8 *1173:A1 *1173:A2 2.89114e-05
9 *202:10 *1024:A2 1.02504e-05
10 *202:10 *1162:A1 0.000114508
11 *202:10 *1171:B1 4.46186e-06
12 *202:10 *1174:A1 0
13 *202:10 *1433:A 0.000384646
14 *202:10 *204:8 2.92543e-05
15 *202:10 *529:22 2.11419e-05
16 *202:10 *548:22 0
17 *202:10 *665:10 0.00010095
18 *1026:B1 *202:10 1.81709e-05
19 *1026:C1 *202:10 0.000171879
*RES
1 *1162:X *202:10 30.5679 
2 *202:10 *1171:A1 10.2643 
3 *202:10 *1173:A1 9.83571 
*END

*D_NET *203 0.00272831
*CONN
*I *1172:A I *D sky130_fd_sc_hd__nand3_2
*I *1174:C1 I *D sky130_fd_sc_hd__o2111ai_2
*I *1163:Y O *D sky130_fd_sc_hd__o211ai_2
*CAP
1 *1172:A 0.000163407
2 *1174:C1 0.000116538
3 *1163:Y 0.000228624
4 *203:8 0.000508569
5 *1172:A *1170:A1 0.000117189
6 *1172:A *1171:B2 0.000108118
7 *1172:A *1176:A 8.58864e-05
8 *1172:A *1176:B 0.000117135
9 *1172:A *1218:B1 5.52302e-05
10 *1172:A *1220:A 5.52302e-05
11 *1172:A *1517:A 2.48938e-05
12 *1172:A *205:21 5.90443e-06
13 *1174:C1 *1171:B1 0
14 *203:8 *1171:B2 0.000148182
15 *203:8 *1517:A 0.00017309
16 *203:8 *204:8 0
17 *203:8 *205:10 4.53007e-05
18 *203:8 *506:39 0.000110226
19 *203:8 *651:8 0.000167619
20 *203:8 *651:27 0.000189698
21 *76:14 *1174:C1 0.00022459
22 *191:59 *203:8 2.84729e-05
23 *192:10 *1172:A 5.44074e-05
*RES
1 *1163:Y *203:8 20.6036 
2 *203:8 *1174:C1 16.4071 
3 *203:8 *1172:A 19.6214 
*END

*D_NET *204 0.00478883
*CONN
*I *1223:A1 I *D sky130_fd_sc_hd__o211a_4
*I *1224:A1 I *D sky130_fd_sc_hd__o211ai_2
*I *1173:A2 I *D sky130_fd_sc_hd__o21ai_2
*I *1171:A2 I *D sky130_fd_sc_hd__o221ai_2
*I *1164:Y O *D sky130_fd_sc_hd__a21oi_4
*CAP
1 *1223:A1 2.46096e-05
2 *1224:A1 0
3 *1173:A2 0.000145639
4 *1171:A2 0
5 *1164:Y 0.000288865
6 *204:32 0.000613506
7 *204:10 0.000145639
8 *204:8 0.000877761
9 *1173:A2 *995:B 4.69993e-05
10 *1173:A2 *1171:B1 2.59355e-05
11 *1173:A2 *1171:C1 9.60939e-05
12 *1173:A2 *208:10 1.33343e-05
13 *1223:A1 *1223:A2 0.000140933
14 *1223:A1 *1223:B1 0.000128496
15 *204:8 *1162:A1 3.34295e-05
16 *204:8 *1163:A2 0.000172375
17 *204:8 *1171:B1 3.34366e-05
18 *204:8 *205:10 4.40212e-05
19 *204:8 *665:10 0.000231072
20 *204:8 *665:12 0.000138946
21 *204:32 *1170:A2 0
22 *204:32 *1171:B1 0.000147474
23 *204:32 *1171:C1 1.41029e-05
24 *204:32 *1219:B1 0.000227014
25 *204:32 *1222:B1 0
26 *204:32 *1223:A2 5.33005e-05
27 *204:32 *1223:B1 5.33005e-05
28 *204:32 *205:10 5.44074e-05
29 *204:32 *205:21 0.000133032
30 *204:32 *209:26 8.89289e-05
31 *204:32 *210:23 0
32 *204:32 *256:32 0.000193833
33 *204:32 *257:12 0.000529507
34 *204:32 *259:10 0
35 *1171:A1 *1173:A2 3.46677e-05
36 *1173:A1 *1173:A2 2.89114e-05
37 *191:59 *204:8 0
38 *192:10 *204:32 0
39 *202:10 *204:8 2.92543e-05
40 *203:8 *204:8 0
*RES
1 *1164:Y *204:8 20.9071 
2 *204:8 *204:10 4.5 
3 *204:10 *1171:A2 9.3 
4 *204:10 *1173:A2 12.7464 
5 *204:8 *204:32 19.7321 
6 *204:32 *1224:A1 9.3 
7 *204:32 *1223:A1 10.6571 
*END

*D_NET *205 0.00237521
*CONN
*I *1220:A I *D sky130_fd_sc_hd__nand2_2
*I *1172:B I *D sky130_fd_sc_hd__nand3_2
*I *1174:D1 I *D sky130_fd_sc_hd__o2111ai_2
*I *1165:X O *D sky130_fd_sc_hd__a21o_2
*CAP
1 *1220:A 0.000165866
2 *1172:B 0
3 *1174:D1 0
4 *1165:X 0.000246958
5 *205:21 0.000361138
6 *205:10 0.00044223
7 *1220:A *1218:B1 8.86314e-05
8 *1220:A *257:12 4.88637e-05
9 *1220:A *506:58 6.30023e-05
10 *205:10 *1171:B2 8.59056e-05
11 *205:10 *631:138 4.46231e-06
12 *205:21 *1170:A1 6.42242e-05
13 *205:21 *1171:B2 4.23086e-05
14 *205:21 *1176:A 0.000172368
15 *1172:A *1220:A 5.52302e-05
16 *1172:A *205:21 5.90443e-06
17 *1219:A1 *1220:A 0.000198647
18 *191:59 *205:10 1.92789e-05
19 *192:10 *1220:A 3.34295e-05
20 *203:8 *205:10 4.53007e-05
21 *204:8 *205:10 4.40212e-05
22 *204:32 *205:10 5.44074e-05
23 *204:32 *205:21 0.000133032
*RES
1 *1165:X *205:10 18.8179 
2 *205:10 *1174:D1 13.8 
3 *205:10 *205:21 9.48214 
4 *205:21 *1172:B 9.3 
5 *205:21 *1220:A 23.4607 
*END

*D_NET *206 0.00184964
*CONN
*I *1169:B1 I *D sky130_fd_sc_hd__a221o_2
*I *1168:A1 I *D sky130_fd_sc_hd__a21oi_4
*I *1166:X O *D sky130_fd_sc_hd__o21a_2
*CAP
1 *1169:B1 7.63758e-05
2 *1168:A1 0.000155648
3 *1166:X 0.000114315
4 *206:10 0.000346339
5 *1168:A1 *1168:B1 7.79781e-06
6 *1168:A1 *215:12 0.000173804
7 *1169:B1 *357:53 6.24016e-05
8 *1169:B1 *357:66 7.02611e-05
9 *206:10 *1168:B1 2.97074e-05
10 *206:10 *215:12 9.91086e-05
11 *206:10 *665:59 9.90367e-05
12 *1169:B2 *1169:B1 1.28809e-05
13 *1412:A *1168:A1 2.84494e-05
14 *40:10 *1168:A1 0.000178101
15 *41:67 *1169:B1 0.000268403
16 *114:14 *1168:A1 0.00012701
*RES
1 *1166:X *206:10 16.0857 
2 *206:10 *1168:A1 19.0857 
3 *206:10 *1169:B1 16.3893 
*END

*D_NET *207 0.00164921
*CONN
*I *1168:B1 I *D sky130_fd_sc_hd__a21oi_4
*I *1167:X O *D sky130_fd_sc_hd__and3_2
*CAP
1 *1168:B1 0.000300207
2 *1167:X 0.000300207
3 *1168:B1 *995:A 6.05161e-06
4 *1168:B1 *1166:B1 0.000251423
5 *1168:B1 *215:12 0
6 *1168:B1 *656:56 0.000142856
7 *1168:B1 *664:8 2.89114e-05
8 *1168:B1 *665:59 0.000142856
9 *1168:A1 *1168:B1 7.79781e-06
10 *1169:B2 *1168:B1 5.41794e-05
11 *1412:A *1168:B1 4.66511e-05
12 *40:10 *1168:B1 0.000338359
13 *206:10 *1168:B1 2.97074e-05
*RES
1 *1167:X *1168:B1 36.6 
*END

*D_NET *208 0.00323074
*CONN
*I *1170:A2 I *D sky130_fd_sc_hd__o21ai_2
*I *1174:A2 I *D sky130_fd_sc_hd__o2111ai_2
*I *1171:B1 I *D sky130_fd_sc_hd__o221ai_2
*I *1168:Y O *D sky130_fd_sc_hd__a21oi_4
*CAP
1 *1170:A2 0.000204412
2 *1174:A2 0
3 *1171:B1 0.000217743
4 *1168:Y 0.000562976
5 *208:14 0.00024814
6 *208:10 0.000797785
7 *1170:A2 *1173:B1 0
8 *1170:A2 *1174:A1 9.25014e-06
9 *1170:A2 *209:26 0
10 *1170:A2 *210:23 0
11 *1171:B1 *995:B 0.000183726
12 *1171:B1 *1171:C1 0.000146116
13 *1171:B1 *1174:A1 0
14 *208:10 *995:A 2.40379e-05
15 *208:10 *995:B 5.0532e-05
16 *208:10 *1171:C1 0
17 *208:10 *1174:A1 0.00012401
18 *208:10 *1175:C 0.00022266
19 *208:10 *209:26 0
20 *208:14 *1175:A 2.89016e-05
21 *1173:A2 *1171:B1 2.59355e-05
22 *1173:A2 *208:10 1.33343e-05
23 *1174:C1 *1171:B1 0
24 *76:14 *1171:B1 0.000139907
25 *76:14 *208:14 4.58976e-05
26 *202:10 *1171:B1 4.46186e-06
27 *204:8 *1171:B1 3.34366e-05
28 *204:32 *1170:A2 0
29 *204:32 *1171:B1 0.000147474
*RES
1 *1168:Y *208:10 21.3179 
2 *208:10 *208:14 5.44643 
3 *208:14 *1171:B1 24.1036 
4 *208:14 *1174:A2 9.3 
5 *208:10 *1170:A2 16.6571 
*END

*D_NET *209 0.00313373
*CONN
*I *1170:B1 I *D sky130_fd_sc_hd__o21ai_2
*I *1174:B1 I *D sky130_fd_sc_hd__o2111ai_2
*I *1171:C1 I *D sky130_fd_sc_hd__o221ai_2
*I *1169:X O *D sky130_fd_sc_hd__a221o_2
*CAP
1 *1170:B1 1.54317e-05
2 *1174:B1 0
3 *1171:C1 0.000495556
4 *1169:X 0.00011721
5 *209:26 0.000682593
6 *209:16 0.000319679
7 *1170:B1 *357:53 2.79509e-06
8 *1171:C1 *995:B 2.32353e-05
9 *1171:C1 *1171:B2 2.89114e-05
10 *1171:C1 *651:31 3.32631e-05
11 *209:16 *216:14 9.90431e-05
12 *209:16 *357:53 8.36572e-05
13 *209:16 *665:55 5.41794e-05
14 *209:26 *1170:A1 9.90431e-05
15 *209:26 *357:53 0.000353439
16 *1170:A2 *209:26 0
17 *1171:B1 *1171:C1 0.000146116
18 *1173:A2 *1171:C1 9.60939e-05
19 *41:48 *1170:B1 1.04232e-05
20 *41:48 *209:16 0.00021604
21 *41:48 *209:26 0.00013422
22 *41:67 *209:16 1.97695e-05
23 *204:32 *1171:C1 1.41029e-05
24 *204:32 *209:26 8.89289e-05
25 *208:10 *1171:C1 0
26 *208:10 *209:26 0
*RES
1 *1169:X *209:16 21.7643 
2 *209:16 *209:26 10.7143 
3 *209:26 *1171:C1 20.8179 
4 *209:26 *1174:B1 13.8 
5 *209:16 *1170:B1 9.72857 
*END

*D_NET *210 0.00336529
*CONN
*I *1172:C I *D sky130_fd_sc_hd__nand3_2
*I *1219:B1 I *D sky130_fd_sc_hd__o21ai_2
*I *1218:B1 I *D sky130_fd_sc_hd__o21a_2
*I *1173:B1 I *D sky130_fd_sc_hd__o21ai_2
*I *1170:Y O *D sky130_fd_sc_hd__o21ai_2
*CAP
1 *1172:C 0
2 *1219:B1 9.44802e-05
3 *1218:B1 0.000164293
4 *1173:B1 0.000137331
5 *1170:Y 3.92359e-05
6 *210:25 0.00028011
7 *210:23 0.000309583
8 *210:8 0.000464813
9 *1173:B1 *548:22 0.000172368
10 *1173:B1 *665:55 0.000312736
11 *1218:B1 *257:12 2.47833e-05
12 *1218:B1 *656:47 0.000437768
13 *1219:B1 *259:10 3.20153e-05
14 *210:8 *357:53 5.52238e-05
15 *210:23 *656:47 0.000192489
16 *210:23 *665:55 0.000238769
17 *210:25 *656:47 2.44318e-05
18 *1170:A2 *1173:B1 0
19 *1170:A2 *210:23 0
20 *1172:A *1218:B1 5.52302e-05
21 *1218:A2 *1218:B1 3.69047e-06
22 *1219:A1 *1218:B1 1.02936e-05
23 *1220:A *1218:B1 8.86314e-05
24 *204:32 *1219:B1 0.000227014
25 *204:32 *210:23 0
*RES
1 *1170:Y *210:8 14.3357 
2 *210:8 *1173:B1 17.8714 
3 *210:8 *210:23 11.0714 
4 *210:23 *210:25 0.535714 
5 *210:25 *1218:B1 14.3893 
6 *210:25 *1219:B1 21.1571 
7 *210:23 *1172:C 9.3 
*END

*D_NET *211 0.000839582
*CONN
*I *1176:B I *D sky130_fd_sc_hd__nand3_4
*I *1171:Y O *D sky130_fd_sc_hd__o221ai_2
*CAP
1 *1176:B 0.000108809
2 *1171:Y 0.000108809
3 *1176:B *1517:A 0.000149904
4 *1176:B *639:73 0.000202592
5 *1172:A *1176:B 0.000117135
6 *192:10 *1176:B 0.000152333
*RES
1 *1171:Y *1176:B 32.2786 
*END

*D_NET *212 0.000399122
*CONN
*I *1176:A I *D sky130_fd_sc_hd__nand3_4
*I *1172:Y O *D sky130_fd_sc_hd__nand3_2
*CAP
1 *1176:A 7.04337e-05
2 *1172:Y 7.04337e-05
3 *1172:A *1176:A 8.58864e-05
4 *205:21 *1176:A 0.000172368
*RES
1 *1172:Y *1176:A 29.85 
*END

*D_NET *213 0.000742214
*CONN
*I *1175:C I *D sky130_fd_sc_hd__nand4_4
*I *1173:Y O *D sky130_fd_sc_hd__o21ai_2
*CAP
1 *1175:C 0.000131545
2 *1173:Y 0.000131545
3 *1175:C *995:B 8.37335e-05
4 *1175:C *644:119 0
5 *1175:C *665:55 4.94362e-05
6 *161:35 *1175:C 0.000123295
7 *208:10 *1175:C 0.00022266
*RES
1 *1173:Y *1175:C 31.725 
*END

*D_NET *214 0.00126254
*CONN
*I *1175:A I *D sky130_fd_sc_hd__nand4_4
*I *1174:Y O *D sky130_fd_sc_hd__o2111ai_2
*CAP
1 *1175:A 0.000473789
2 *1174:Y 0.000473789
3 *1175:B *1175:A 3.99614e-06
4 *76:14 *1175:A 9.26732e-05
5 *161:39 *1175:A 0.000119135
6 *161:52 *1175:A 7.02611e-05
7 *208:14 *1175:A 2.89016e-05
*RES
1 *1174:Y *1175:A 27.1 
*END

*D_NET *215 0.00775789
*CONN
*I *1183:B1 I *D sky130_fd_sc_hd__o211ai_2
*I *1182:A I *D sky130_fd_sc_hd__and3_4
*I *1184:A2 I *D sky130_fd_sc_hd__a21o_4
*I *1175:Y O *D sky130_fd_sc_hd__nand4_4
*CAP
1 *1183:B1 0
2 *1182:A 0.000173708
3 *1184:A2 0
4 *1175:Y 7.84762e-05
5 *215:16 0.00030238
6 *215:12 0.0015364
7 *215:8 0.0014862
8 *1182:A *1182:C 0.000125724
9 *1182:A *1183:A2 4.87854e-05
10 *1182:A *1184:B1 5.33005e-05
11 *1182:A *1188:A2 0
12 *1182:A *223:19 0.000164481
13 *1182:A *271:38 5.71472e-05
14 *215:12 *928:A 0
15 *215:12 *1128:A1 0
16 *215:12 *1180:A 0
17 *215:12 *1231:A3 0.000100969
18 *215:12 *1261:A1 0
19 *215:12 *216:20 0
20 *215:12 *218:8 0
21 *215:12 *219:10 0
22 *215:12 *237:10 0.000148196
23 *215:12 *268:10 0
24 *215:12 *513:10 2.05938e-05
25 *215:12 *535:10 6.5185e-05
26 *215:12 *554:41 0.000266099
27 *215:12 *554:56 0.000189655
28 *215:12 *649:68 0.000101545
29 *215:16 *1183:A1 5.52302e-05
30 *215:16 *1183:A2 9.71755e-05
31 *215:16 *216:30 6.57914e-05
32 *215:16 *223:19 0.000227532
33 *1057:B *215:12 0.000201127
34 *1124:A *215:12 0.000394719
35 *1138:A2 *215:12 0.000151333
36 *1138:A3 *215:12 2.82057e-05
37 *1168:A1 *215:12 0.000173804
38 *1168:B1 *215:12 0
39 *1480:A *215:12 0.000166269
40 *99:8 *215:12 2.82057e-05
41 *99:36 *215:12 0.000116984
42 *99:51 *215:12 0.000129695
43 *114:14 *215:12 0.000696498
44 *115:24 *215:12 0.000181799
45 *161:52 *215:8 2.55587e-05
46 *206:10 *215:12 9.91086e-05
*RES
1 *1175:Y *215:8 14.7464 
2 *215:8 *215:12 40.4464 
3 *215:12 *215:16 3.83929 
4 *215:16 *1184:A2 9.3 
5 *215:16 *1182:A 22.2464 
6 *215:12 *1183:B1 9.3 
*END

*D_NET *216 0.0118832
*CONN
*I *1523:A I *D sky130_fd_sc_hd__buf_2
*I *1183:C1 I *D sky130_fd_sc_hd__o211ai_2
*I *1524:A I *D sky130_fd_sc_hd__buf_2
*I *1184:A1 I *D sky130_fd_sc_hd__a21o_4
*I *1182:B I *D sky130_fd_sc_hd__and3_4
*I *1176:Y O *D sky130_fd_sc_hd__nand3_4
*CAP
1 *1523:A 0.000251968
2 *1183:C1 0
3 *1524:A 0.00040536
4 *1184:A1 0
5 *1182:B 0.00016822
6 *1176:Y 0.000682968
7 *216:43 0.000456187
8 *216:30 0.000624065
9 *216:24 0.000555694
10 *216:20 0.0013707
11 *216:14 0.00165102
12 *1182:B *1182:C 0.000213534
13 *1182:B *1188:A2 0
14 *1182:B *219:10 0
15 *1182:B *220:8 7.83587e-05
16 *1182:B *271:38 4.59075e-05
17 *1182:B *649:111 0.000154027
18 *1523:A *1231:A1 9.54385e-05
19 *1523:A *1270:A_N 0
20 *1523:A *272:14 0.00022117
21 *1524:A *1181:A 0
22 *1524:A *1181:B 0.00013966
23 *1524:A *1197:B 0
24 *1524:A *220:8 3.34295e-05
25 *1524:A *222:8 0
26 *1524:A *237:10 0
27 *1524:A *237:19 0
28 *1524:A *273:10 9.90431e-05
29 *216:14 *1167:B 0
30 *216:14 *656:47 1.88048e-05
31 *216:14 *665:55 4.03318e-05
32 *216:20 *928:A 0.000267982
33 *216:20 *1136:A1 5.41794e-05
34 *216:20 *1229:B 0
35 *216:20 *1229:C 0.000220434
36 *216:20 *1231:A1 0.00014817
37 *216:20 *267:8 0.000382581
38 *216:20 *267:10 0.00015134
39 *216:20 *269:10 0.00155382
40 *216:20 *272:14 3.17148e-05
41 *216:20 *506:79 0.000200276
42 *216:20 *630:94 0.000338351
43 *216:24 *1231:A3 5.71472e-05
44 *216:24 *1231:B1 1.99877e-05
45 *216:24 *1231:B2 5.59774e-05
46 *216:24 *272:14 5.33005e-05
47 *216:30 *1231:A3 2.14658e-05
48 *216:30 *223:19 0.000271345
49 *216:43 *220:8 7.83659e-05
50 *41:48 *216:14 0.000506022
51 *209:16 *216:14 9.90431e-05
52 *215:12 *216:20 0
53 *215:16 *216:30 6.57914e-05
*RES
1 *1176:Y *216:14 24.4696 
2 *216:14 *216:20 31.0982 
3 *216:20 *216:24 7.08929 
4 *216:24 *216:30 9.98214 
5 *216:30 *1182:B 18.3357 
6 *216:30 *216:43 1.03571 
7 *216:43 *1184:A1 13.8 
8 *216:43 *1524:A 21.7821 
9 *216:24 *1183:C1 9.3 
10 *216:20 *1523:A 18.8357 
*END

*D_NET *217 0.00188151
*CONN
*I *1236:A1 I *D sky130_fd_sc_hd__o22ai_2
*I *1234:A1 I *D sky130_fd_sc_hd__o211ai_2
*I *1196:A I *D sky130_fd_sc_hd__nor2_4
*I *1177:Y O *D sky130_fd_sc_hd__inv_2
*CAP
1 *1236:A1 5.53876e-05
2 *1234:A1 3.19283e-05
3 *1196:A 3.64675e-05
4 *1177:Y 4.45265e-05
5 *217:19 0.000190649
6 *217:6 0.000184327
7 *1196:A *1177:A 0
8 *1196:A *321:35 3.99614e-06
9 *1234:A1 *1234:A2 5.33005e-05
10 *1234:A1 *1236:A2 9.41642e-05
11 *1234:A1 *1542:A 5.33005e-05
12 *1236:A1 *1543:A 0.00014576
13 *1236:A1 *235:10 0.000137224
14 *217:6 *1177:A 7.50473e-05
15 *217:6 *272:22 3.69047e-06
16 *217:6 *321:35 0.000230482
17 *217:19 *1177:A 1.02821e-05
18 *217:19 *1543:A 2.24646e-05
19 *217:19 *222:32 0.000166503
20 *217:19 *235:10 0.000245919
21 *217:19 *321:35 9.60875e-05
*RES
1 *1177:Y *217:6 11.4786 
2 *217:6 *1196:A 10.0321 
3 *217:6 *217:19 8 
4 *217:19 *1234:A1 14.7464 
5 *217:19 *1236:A1 15.7464 
*END

*D_NET *218 0.0010725
*CONN
*I *1180:A I *D sky130_fd_sc_hd__and3_2
*I *1522:A I *D sky130_fd_sc_hd__buf_2
*I *1178:Y O *D sky130_fd_sc_hd__a22oi_2
*CAP
1 *1180:A 0.000135542
2 *1522:A 3.72704e-05
3 *1178:Y 0.000319102
4 *218:8 0.000491915
5 *1180:A *1179:A2 5.52302e-05
6 *1180:A *219:10 3.34366e-05
7 *1133:A1 *218:8 0
8 *1133:A2 *218:8 0
9 *1480:A *218:8 0
10 *99:51 *218:8 0
11 *165:45 *218:8 0
12 *215:12 *1180:A 0
13 *215:12 *218:8 0
*RES
1 *1178:Y *218:8 19.0857 
2 *218:8 *1522:A 14.3357 
3 *218:8 *1180:A 16.2821 
*END

*D_NET *219 0.00148023
*CONN
*I *1181:A I *D sky130_fd_sc_hd__or2_2
*I *1183:A1 I *D sky130_fd_sc_hd__o211ai_2
*I *1179:Y O *D sky130_fd_sc_hd__a21oi_2
*CAP
1 *1181:A 0.000213677
2 *1183:A1 1.16062e-05
3 *1179:Y 0.000260632
4 *219:10 0.000485915
5 *1181:A *1181:B 9.90367e-05
6 *1181:A *1197:B 0.00014209
7 *1183:A1 *1183:A2 5.52302e-05
8 *219:10 *1179:A1 3.30237e-05
9 *219:10 *1179:A2 6.05161e-06
10 *219:10 *1197:B 5.59013e-05
11 *219:10 *237:10 2.84009e-05
12 *1180:A *219:10 3.34366e-05
13 *1182:B *219:10 0
14 *1524:A *1181:A 0
15 *215:12 *219:10 0
16 *215:16 *1183:A1 5.52302e-05
*RES
1 *1179:Y *219:10 18.2107 
2 *219:10 *1183:A1 14.3357 
3 *219:10 *1181:A 17.925 
*END

*D_NET *220 0.00167585
*CONN
*I *1181:B I *D sky130_fd_sc_hd__or2_2
*I *1183:A2 I *D sky130_fd_sc_hd__o211ai_2
*I *1180:X O *D sky130_fd_sc_hd__and3_2
*CAP
1 *1181:B 0.000121336
2 *1183:A2 0.000189305
3 *1180:X 6.16384e-05
4 *220:8 0.00037228
5 *1181:B *1185:B 0
6 *1181:B *221:8 0.000128161
7 *220:8 *1182:C 0.000149911
8 *220:8 *221:8 2.31791e-05
9 *1181:A *1181:B 9.90367e-05
10 *1182:A *1183:A2 4.87854e-05
11 *1182:B *220:8 7.83587e-05
12 *1183:A1 *1183:A2 5.52302e-05
13 *1524:A *1181:B 0.00013966
14 *1524:A *220:8 3.34295e-05
15 *215:16 *1183:A2 9.71755e-05
16 *216:43 *220:8 7.83659e-05
*RES
1 *1180:X *220:8 16.05 
2 *220:8 *1183:A2 17.2286 
3 *220:8 *1181:B 17.1036 
*END

*D_NET *221 0.00148919
*CONN
*I *1184:B1 I *D sky130_fd_sc_hd__a21o_4
*I *1182:C I *D sky130_fd_sc_hd__and3_4
*I *1181:X O *D sky130_fd_sc_hd__or2_2
*CAP
1 *1184:B1 4.62643e-05
2 *1182:C 0.000137602
3 *1181:X 7.84359e-05
4 *221:8 0.000262302
5 *1182:C *1188:A2 0
6 *1182:C *271:38 0.000230482
7 *1182:C *649:111 1.74352e-05
8 *1184:B1 *223:19 2.28598e-05
9 *221:8 *1185:B 0
10 *1181:B *221:8 0.000128161
11 *1182:A *1182:C 0.000125724
12 *1182:A *1184:B1 5.33005e-05
13 *1182:B *1182:C 0.000213534
14 *220:8 *1182:C 0.000149911
15 *220:8 *221:8 2.31791e-05
*RES
1 *1181:X *221:8 15.7464 
2 *221:8 *1182:C 18.9607 
3 *221:8 *1184:B1 14.7464 
*END

*D_NET *222 0.00377556
*CONN
*I *1543:A I *D sky130_fd_sc_hd__buf_2
*I *1542:A I *D sky130_fd_sc_hd__buf_2
*I *1234:A2 I *D sky130_fd_sc_hd__o211ai_2
*I *1196:B I *D sky130_fd_sc_hd__nor2_4
*I *1541:A I *D sky130_fd_sc_hd__buf_2
*I *1182:X O *D sky130_fd_sc_hd__and3_4
*CAP
1 *1543:A 0.000224434
2 *1542:A 3.06478e-05
3 *1234:A2 3.26257e-05
4 *1196:B 0
5 *1541:A 6.68968e-05
6 *1182:X 0.000290556
7 *222:34 6.32735e-05
8 *222:32 0.000363807
9 *222:21 0.000240175
10 *222:8 0.000458255
11 *1234:A2 *1236:A2 1.98839e-05
12 *1234:A2 *315:16 9.41642e-05
13 *1541:A *1189:A1 3.69047e-06
14 *1542:A *1236:A2 1.98839e-05
15 *1542:A *315:16 8.17274e-05
16 *1543:A *1237:C 8.39e-05
17 *1543:A *1238:A2 0
18 *1543:A *1238:C1 0
19 *1543:A *1239:C 0.000382573
20 *1543:A *235:10 0.000124723
21 *222:8 *1185:B 0.000177948
22 *222:8 *1186:B 0
23 *222:8 *1188:A1 0
24 *222:8 *1188:A2 0.000150625
25 *222:8 *1189:A1 6.97972e-05
26 *222:8 *1238:A1 0
27 *222:8 *226:8 0
28 *222:21 *1177:A 0.00010326
29 *222:21 *1238:A1 6.16958e-05
30 *222:21 *272:22 0
31 *222:21 *273:10 0
32 *222:32 *1238:A1 3.48139e-05
33 *222:32 *1239:C 0.000144038
34 *222:32 *235:10 1.08359e-05
35 *222:32 *272:22 0
36 *1185:A *222:8 0
37 *1234:A1 *1234:A2 5.33005e-05
38 *1234:A1 *1542:A 5.33005e-05
39 *1236:A1 *1543:A 0.00014576
40 *1524:A *222:8 0
41 *217:19 *1543:A 2.24646e-05
42 *217:19 *222:32 0.000166503
*RES
1 *1182:X *222:8 20.6036 
2 *222:8 *1541:A 14.7464 
3 *222:8 *222:21 2.78571 
4 *222:21 *1196:B 13.8 
5 *222:21 *222:32 3.39286 
6 *222:32 *222:34 4.5 
7 *222:34 *1234:A2 10.2464 
8 *222:34 *1542:A 10.2464 
9 *222:32 *1543:A 20.9071 
*END

*D_NET *223 0.00261198
*CONN
*I *1186:B I *D sky130_fd_sc_hd__nand3_2
*I *1188:A1 I *D sky130_fd_sc_hd__a21o_2
*I *1197:B I *D sky130_fd_sc_hd__nand2_2
*I *1183:Y O *D sky130_fd_sc_hd__o211ai_2
*CAP
1 *1186:B 9.14171e-05
2 *1188:A1 0.000102736
3 *1197:B 9.27363e-05
4 *1183:Y 0
5 *223:19 0.00058631
6 *223:4 0.000484893
7 *1188:A1 *1188:A2 0
8 *1197:B *237:10 0.000119684
9 *223:19 *1186:C 9.61553e-05
10 *223:19 *224:8 2.59355e-05
11 *1181:A *1197:B 0.00014209
12 *1182:A *223:19 0.000164481
13 *1184:B1 *223:19 2.28598e-05
14 *1185:A *1186:B 2.49484e-05
15 *1186:A *1186:B 6.05161e-06
16 *1524:A *1197:B 0
17 *189:10 *1188:A1 5.80706e-06
18 *189:19 *1186:B 4.46186e-06
19 *189:19 *1188:A1 8.66324e-05
20 *215:16 *223:19 0.000227532
21 *216:30 *223:19 0.000271345
22 *219:10 *1197:B 5.59013e-05
23 *222:8 *1186:B 0
24 *222:8 *1188:A1 0
*RES
1 *1183:Y *223:4 9.3 
2 *223:4 *1197:B 21.1571 
3 *223:4 *223:19 12.8393 
4 *223:19 *1188:A1 16.05 
5 *223:19 *1186:B 15.4786 
*END

*D_NET *224 0.00154459
*CONN
*I *1186:C I *D sky130_fd_sc_hd__nand3_2
*I *1185:B I *D sky130_fd_sc_hd__nand2_2
*I *1188:A2 I *D sky130_fd_sc_hd__a21o_2
*I *1184:X O *D sky130_fd_sc_hd__a21o_4
*CAP
1 *1186:C 7.40822e-05
2 *1185:B 0.000124761
3 *1188:A2 0.00022423
4 *1184:X 0
5 *224:8 0.000382894
6 *224:4 0.000107985
7 *1188:A2 *271:38 0.000126639
8 *1188:A2 *649:111 5.33334e-05
9 *1181:B *1185:B 0
10 *1182:A *1188:A2 0
11 *1182:B *1188:A2 0
12 *1182:C *1188:A2 0
13 *1188:A1 *1188:A2 0
14 *221:8 *1185:B 0
15 *222:8 *1185:B 0.000177948
16 *222:8 *1188:A2 0.000150625
17 *223:19 *1186:C 9.61553e-05
18 *223:19 *224:8 2.59355e-05
*RES
1 *1184:X *224:4 9.3 
2 *224:4 *224:8 5.03571 
3 *224:8 *1188:A2 18.8357 
4 *224:8 *1185:B 16.5857 
5 *224:4 *1186:C 11.0679 
*END

*D_NET *225 0.00174968
*CONN
*I *1189:A2 I *D sky130_fd_sc_hd__o21a_4
*I *1238:A1 I *D sky130_fd_sc_hd__o211ai_2
*I *1185:Y O *D sky130_fd_sc_hd__nand2_2
*CAP
1 *1189:A2 0
2 *1238:A1 0.000412318
3 *1185:Y 4.88412e-05
4 *225:6 0.000461159
5 *1238:A1 *1187:A 0
6 *1238:A1 *1189:A1 6.74815e-05
7 *1238:A1 *1239:B 0.00021559
8 *1238:A1 *1239:C 0.000303012
9 *1238:A1 *226:8 0
10 *1185:A *225:6 0.000144773
11 *222:8 *1238:A1 0
12 *222:21 *1238:A1 6.16958e-05
13 *222:32 *1238:A1 3.48139e-05
*RES
1 *1185:Y *225:6 10.6571 
2 *225:6 *1238:A1 28.1393 
3 *225:6 *1189:A2 9.3 
*END

*D_NET *226 0.00293084
*CONN
*I *1190:B I *D sky130_fd_sc_hd__and3_2
*I *1187:A I *D sky130_fd_sc_hd__inv_2
*I *1192:A1 I *D sky130_fd_sc_hd__a21oi_2
*I *1186:Y O *D sky130_fd_sc_hd__nand3_2
*CAP
1 *1190:B 0.000359586
2 *1187:A 0.000287015
3 *1192:A1 0.000226222
4 *1186:Y 0.000450976
5 *226:8 0.000604627
6 *1187:A *321:35 2.89016e-05
7 *1187:A *364:18 0
8 *1190:B *1190:C 4.00052e-05
9 *1192:A1 *1189:B1 5.33005e-05
10 *1192:A1 *1192:A2 0.000405733
11 *1192:A1 *229:10 3.48705e-05
12 *226:8 *228:8 8.49318e-05
13 *226:8 *228:21 0.000117903
14 *1185:A *226:8 0.00015234
15 *1186:A *1190:B 5.71472e-05
16 *1190:A *1190:B 2.72859e-05
17 *1238:A1 *1187:A 0
18 *1238:A1 *226:8 0
19 *222:8 *226:8 0
*RES
1 *1186:Y *226:8 16.6571 
2 *226:8 *1192:A1 19.2821 
3 *226:8 *1187:A 19.0143 
4 *1186:Y *1190:B 23.2429 
*END

*D_NET *227 0.00167074
*CONN
*I *1239:C I *D sky130_fd_sc_hd__nand3_4
*I *1187:Y O *D sky130_fd_sc_hd__inv_2
*CAP
1 *1239:C 0.000292698
2 *1187:Y 0.000292698
3 *1239:C *1239:B 0.000113887
4 *1239:C *321:35 0.00014183
5 *1238:A1 *1239:C 0.000303012
6 *1543:A *1239:C 0.000382573
7 *222:32 *1239:C 0.000144038
*RES
1 *1187:Y *1239:C 35.7607 
*END

*D_NET *228 0.00249894
*CONN
*I *1192:A2 I *D sky130_fd_sc_hd__a21oi_2
*I *1189:B1 I *D sky130_fd_sc_hd__o21a_4
*I *1190:C I *D sky130_fd_sc_hd__and3_2
*I *1188:X O *D sky130_fd_sc_hd__a21o_2
*CAP
1 *1192:A2 9.07788e-05
2 *1189:B1 5.58807e-05
3 *1190:C 0.000390665
4 *1188:X 0.000107928
5 *228:21 0.000215226
6 *228:8 0.00056716
7 *1192:A2 *229:10 0.000164565
8 *1185:A *1189:B1 1.33343e-05
9 *1185:A *228:8 1.18064e-05
10 *1186:A *1190:C 2.72967e-05
11 *1190:A *1190:C 9.90367e-05
12 *1190:B *1190:C 4.00052e-05
13 *1192:A1 *1189:B1 5.33005e-05
14 *1192:A1 *1192:A2 0.000405733
15 *189:19 *228:8 5.33882e-05
16 *226:8 *228:8 8.49318e-05
17 *226:8 *228:21 0.000117903
*RES
1 *1188:X *228:8 16.3536 
2 *228:8 *1190:C 18.8536 
3 *228:8 *228:21 6.14286 
4 *228:21 *1189:B1 10.2464 
5 *228:21 *1192:A2 13.1214 
*END

*D_NET *229 0.00262621
*CONN
*I *1317:A2 I *D sky130_fd_sc_hd__o211ai_4
*I *1243:A2 I *D sky130_fd_sc_hd__o21ai_2
*I *1191:B I *D sky130_fd_sc_hd__nand2_2
*I *1189:X O *D sky130_fd_sc_hd__o21a_4
*CAP
1 *1317:A2 8.39187e-05
2 *1243:A2 0
3 *1191:B 0.000183986
4 *1189:X 0.000252682
5 *229:27 0.000356358
6 *229:10 0.000709107
7 *1191:B *271:34 0
8 *1317:A2 *1243:B1 0
9 *1317:A2 *1244:B 0.000179656
10 *1317:A2 *1279:A3 0
11 *229:27 *1193:A 0.000225609
12 *229:27 *1243:B1 0
13 *229:27 *284:10 0
14 *1185:A *229:10 0
15 *1192:A1 *229:10 3.48705e-05
16 *1192:A2 *229:10 0.000164565
17 *1317:A1 *1317:A2 6.98669e-05
18 *1317:A1 *229:27 2.8266e-06
19 *1546:A *229:27 2.8266e-06
20 *188:10 *1191:B 1.02504e-05
21 *188:21 *1191:B 0.000239943
22 *188:36 *1191:B 8.98585e-05
23 *188:36 *229:27 1.98839e-05
*RES
1 *1189:X *229:10 13.2643 
2 *229:10 *1191:B 22.675 
3 *229:10 *229:27 8.23214 
4 *229:27 *1243:A2 13.8 
5 *229:27 *1317:A2 16.6571 
*END

*D_NET *230 0.00119912
*CONN
*I *1193:A I *D sky130_fd_sc_hd__nor2_2
*I *1190:X O *D sky130_fd_sc_hd__and3_2
*CAP
1 *1193:A 0.000181917
2 *1190:X 0.000181917
3 *1193:A *1279:A3 0.000100823
4 *1193:A *232:8 0.000169285
5 *1243:A1 *1193:A 4.38128e-05
6 *1546:A *1193:A 9.71197e-05
7 *188:36 *1193:A 0.000155846
8 *188:43 *1193:A 4.27935e-05
9 *229:27 *1193:A 0.000225609
*RES
1 *1190:X *1193:A 33.6 
*END

*D_NET *231 0.00110712
*CONN
*I *1241:C1 I *D sky130_fd_sc_hd__o211a_2
*I *1242:C1 I *D sky130_fd_sc_hd__o211ai_4
*I *1191:Y O *D sky130_fd_sc_hd__nand2_2
*CAP
1 *1241:C1 0.000197813
2 *1242:C1 0.000187603
3 *1191:Y 0
4 *231:4 0.000385416
5 *1241:C1 *1241:A2 8.01893e-05
6 *1241:C1 *1279:A3 5.52302e-05
7 *1242:C1 *1279:A3 0.000177948
8 *1241:A1 *1241:C1 1.28809e-05
9 *1241:A1 *1242:C1 0
10 *188:21 *1242:C1 1.00375e-05
*RES
1 *1191:Y *231:4 9.3 
2 *231:4 *1242:C1 22.2107 
3 *231:4 *1241:C1 13.1393 
*END

*D_NET *232 0.002005
*CONN
*I *1193:B I *D sky130_fd_sc_hd__nor2_2
*I *1279:A1 I *D sky130_fd_sc_hd__o31ai_4
*I *1192:Y O *D sky130_fd_sc_hd__a21oi_2
*CAP
1 *1193:B 0
2 *1279:A1 0.000493409
3 *1192:Y 0.000264211
4 *232:8 0.00075762
5 *1279:A1 *1244:B 0
6 *1279:A1 *284:10 0.000119684
7 *1193:A *232:8 0.000169285
8 *1243:A1 *232:8 5.52302e-05
9 *1546:A *232:8 3.70314e-05
10 *188:36 *232:8 5.52238e-05
11 *188:43 *232:8 5.33005e-05
*RES
1 *1192:Y *232:8 14.7821 
2 *232:8 *1279:A1 27.3714 
3 *232:8 *1193:B 9.3 
*END

*D_NET *233 0.000663142
*CONN
*I *1195:A I *D sky130_fd_sc_hd__xor2_2
*I *1193:Y O *D sky130_fd_sc_hd__nor2_2
*CAP
1 *1195:A 0.000233975
2 *1193:Y 0.000233975
3 *1195:A *284:10 0
4 *1195:A *563:10 0
5 *1242:A1 *1195:A 9.90367e-05
6 *187:23 *1195:A 9.61553e-05
*RES
1 *1193:Y *1195:A 32.1357 
*END

*D_NET *234 0.000285426
*CONN
*I *1195:B I *D sky130_fd_sc_hd__xor2_2
*I *1194:Y O *D sky130_fd_sc_hd__o21ai_2
*CAP
1 *1195:B 9.53404e-05
2 *1194:Y 9.53404e-05
3 *1195:B *563:10 9.47456e-05
4 *187:23 *1195:B 0
*RES
1 *1194:Y *1195:B 20.55 
*END

*D_NET *235 0.00186764
*CONN
*I *1237:C I *D sky130_fd_sc_hd__nand3_2
*I *1235:B1 I *D sky130_fd_sc_hd__o21ai_4
*I *1196:Y O *D sky130_fd_sc_hd__nor2_4
*CAP
1 *1237:C 5.11038e-05
2 *1235:B1 8.12475e-05
3 *1196:Y 0.000331518
4 *235:10 0.000463869
5 *1235:B1 *1239:A 1.24368e-05
6 *1237:C *1237:B 5.38886e-05
7 *235:10 *1177:A 6.05161e-06
8 *235:10 *1234:B1 3.79104e-05
9 *235:10 *1236:A2 0.000123295
10 *235:10 *1237:B 7.58664e-05
11 *235:10 *272:22 0
12 *235:10 *321:35 2.78509e-05
13 *1236:A1 *235:10 0.000137224
14 *1543:A *1237:C 8.39e-05
15 *1543:A *235:10 0.000124723
16 *217:19 *235:10 0.000245919
17 *222:32 *235:10 1.08359e-05
*RES
1 *1196:Y *235:10 22.4607 
2 *235:10 *1235:B1 15.175 
3 *235:10 *1237:C 15.7464 
*END

*D_NET *236 0.00229601
*CONN
*I *1274:B1 I *D sky130_fd_sc_hd__a31oi_2
*I *1275:B1 I *D sky130_fd_sc_hd__a31o_2
*I *1197:Y O *D sky130_fd_sc_hd__nand2_2
*CAP
1 *1274:B1 6.9293e-05
2 *1275:B1 0.000187474
3 *1197:Y 0.000171542
4 *236:10 0.000428308
5 *1274:B1 *272:22 6.25963e-05
6 *1274:B1 *321:35 0.00018077
7 *1275:B1 *1275:A1 4.43142e-05
8 *1275:B1 *268:38 0.000307885
9 *1275:B1 *269:43 6.22145e-05
10 *1275:B1 *272:22 6.62868e-05
11 *1275:B1 *321:35 0.000181796
12 *1275:B1 *544:20 3.17148e-05
13 *236:10 *237:10 0.000202835
14 *236:10 *237:19 0.000166276
15 *236:10 *237:28 4.80729e-05
16 *236:10 *268:25 0
17 *236:10 *268:29 6.26653e-05
18 *236:10 *268:38 2.19684e-05
*RES
1 *1197:Y *236:10 23.5857 
2 *236:10 *1275:B1 24.1393 
3 *236:10 *1274:B1 11.4964 
*END

*D_NET *237 0.00440655
*CONN
*I *1230:B1 I *D sky130_fd_sc_hd__a21oi_4
*I *1233:C I *D sky130_fd_sc_hd__nand3_2
*I *1275:A1 I *D sky130_fd_sc_hd__a31o_2
*I *1274:A1 I *D sky130_fd_sc_hd__a31oi_2
*I *1232:C I *D sky130_fd_sc_hd__and3_4
*I *1198:X O *D sky130_fd_sc_hd__and3_2
*CAP
1 *1230:B1 0.000125593
2 *1233:C 0
3 *1275:A1 0.000143203
4 *1274:A1 0
5 *1232:C 0
6 *1198:X 0.000481915
7 *237:49 0.000213119
8 *237:28 0.000363875
9 *237:19 0.00022066
10 *237:10 0.000569429
11 *1230:B1 *1276:B1 0.000117378
12 *1230:B1 *1318:B1 0.000209437
13 *1230:B1 *320:14 0.000128496
14 *1275:A1 *1275:A3 7.83659e-05
15 *1275:A1 *1276:B2 5.52238e-05
16 *1275:A1 *269:43 3.34295e-05
17 *1275:A1 *269:51 0.000221641
18 *1275:A1 *315:16 9.86516e-05
19 *1275:A1 *320:14 7.37323e-05
20 *1275:A1 *544:20 1.02504e-05
21 *237:10 *1198:C 3.67142e-05
22 *237:10 *268:25 0
23 *237:19 *273:10 0
24 *237:28 *1276:B1 1.08359e-05
25 *237:28 *1276:B2 0.000193118
26 *237:28 *268:38 0
27 *237:28 *273:10 0
28 *237:28 *320:14 9.69119e-06
29 *237:49 *1230:A1 5.80706e-06
30 *237:49 *1276:B1 7.2754e-05
31 *237:49 *1318:B1 5.52302e-05
32 *237:49 *269:51 6.09572e-05
33 *237:49 *320:14 5.92682e-05
34 *1197:B *237:10 0.000119684
35 *1275:B1 *1275:A1 4.43142e-05
36 *1524:A *237:10 0
37 *1524:A *237:19 0
38 *215:12 *237:10 0.000148196
39 *219:10 *237:10 2.84009e-05
40 *236:10 *237:10 0.000202835
41 *236:10 *237:19 0.000166276
42 *236:10 *237:28 4.80729e-05
*RES
1 *1198:X *237:10 22.7821 
2 *237:10 *1232:C 13.8 
3 *237:10 *237:19 2.25 
4 *237:19 *1274:A1 13.8 
5 *237:19 *237:28 3.16071 
6 *237:28 *1275:A1 27.1393 
7 *237:28 *237:49 6.98214 
8 *237:49 *1233:C 9.3 
9 *237:49 *1230:B1 22.5143 
*END

*D_NET *238 0.000526139
*CONN
*I *1201:A I *D sky130_fd_sc_hd__nand2_4
*I *1199:X O *D sky130_fd_sc_hd__o21a_2
*CAP
1 *1201:A 0.000138231
2 *1199:X 0.000138231
3 *1201:A *945:B 0
4 *1201:A *1101:A3 2.39779e-05
5 *1201:A *1199:B1 4.79581e-05
6 *1201:A *461:12 7.6644e-05
7 *1201:A *525:18 9.76123e-05
8 *1201:A *667:44 3.4846e-06
*RES
1 *1199:X *1201:A 30.1893 
*END

*D_NET *239 0.00155628
*CONN
*I *1204:B1 I *D sky130_fd_sc_hd__o22ai_2
*I *1203:B1 I *D sky130_fd_sc_hd__o22a_4
*I *1200:Y O *D sky130_fd_sc_hd__o21ai_2
*CAP
1 *1204:B1 7.42695e-05
2 *1203:B1 0.000350708
3 *1200:Y 0.000276438
4 *1203:B1 *1109:C 0.000137561
5 *1203:B1 *1200:A1 6.05161e-06
6 *1203:B1 *1206:A3 2.20012e-05
7 *1203:B1 *1288:B2 0.000121897
8 *1203:B1 *461:12 4.58402e-05
9 *1203:B1 *662:50 6.89101e-05
10 *1203:B1 *671:70 9.40659e-05
11 *1204:B1 *1203:A1 0.00014034
12 *1204:B1 *1205:B 5.33005e-05
13 *1204:B1 *629:34 0.000164897
*RES
1 *1200:Y *1203:B1 33.7429 
2 *1203:B1 *1204:B1 21.6 
*END

*D_NET *240 0.00192539
*CONN
*I *1206:C1 I *D sky130_fd_sc_hd__o311ai_4
*I *1201:Y O *D sky130_fd_sc_hd__nand2_4
*CAP
1 *1206:C1 0.000332362
2 *1201:Y 0.000332362
3 *1206:C1 *931:A 0.000202344
4 *1206:C1 *1202:A 0
5 *1206:C1 *1469:A 0.000221628
6 *1206:C1 *556:20 1.00887e-05
7 *1206:C1 *556:26 0.000587746
8 *1206:C1 *590:10 0.000223558
9 *1206:C1 *667:10 1.52978e-05
*RES
1 *1201:Y *1206:C1 37.4929 
*END

*D_NET *241 0.00233001
*CONN
*I *1204:A2 I *D sky130_fd_sc_hd__o22ai_2
*I *1203:A1 I *D sky130_fd_sc_hd__o22a_4
*I *1202:Y O *D sky130_fd_sc_hd__nand2_2
*CAP
1 *1204:A2 3.65481e-05
2 *1203:A1 0.000207762
3 *1202:Y 0.000115943
4 *241:12 0.000360253
5 *1203:A1 *1203:A2 5.08831e-05
6 *1203:A1 *1203:B2 2.84026e-05
7 *1203:A1 *1205:B 0.000221065
8 *1203:A1 *475:89 0.000772936
9 *1203:A1 *629:19 1.11817e-05
10 *1203:A1 *629:34 5.74499e-06
11 *1203:A1 *629:51 1.98839e-05
12 *1203:A1 *639:16 1.4796e-05
13 *1204:A2 *475:89 3.08382e-06
14 *1204:A2 *629:34 3.49456e-06
15 *1204:A2 *639:34 0
16 *241:12 *1204:A1 6.05161e-06
17 *241:12 *260:16 2.18782e-05
18 *241:12 *475:89 8.43386e-05
19 *241:12 *510:27 5.05056e-05
20 *241:12 *629:51 8.14159e-06
21 *241:12 *635:41 0.000135789
22 *241:12 *639:16 3.09896e-05
23 *1204:B1 *1203:A1 0.00014034
*RES
1 *1202:Y *241:12 21.1929 
2 *241:12 *1203:A1 17.2464 
3 *241:12 *1204:A2 10.0321 
*END

*D_NET *242 0.00162944
*CONN
*I *1208:A1 I *D sky130_fd_sc_hd__o211ai_4
*I *1207:A2 I *D sky130_fd_sc_hd__o211a_4
*I *1203:X O *D sky130_fd_sc_hd__o22a_4
*CAP
1 *1208:A1 9.76446e-05
2 *1207:A2 5.76476e-05
3 *1203:X 0.000169921
4 *242:8 0.000325214
5 *1207:A2 *1210:A1 9.0145e-05
6 *1207:A2 *1210:A2 0.000178847
7 *1208:A1 *1205:B 0.000173804
8 *1208:A1 *1208:A2 1.02504e-05
9 *1208:A1 *1249:A 5.97931e-05
10 *1208:A1 *578:23 5.33005e-05
11 *242:8 *1205:B 0.000360264
12 *242:8 *1249:A 5.26091e-05
13 *242:8 *1288:B2 0
*RES
1 *1203:X *242:8 18.4786 
2 *242:8 *1207:A2 15.5679 
3 *242:8 *1208:A1 16.5857 
*END

*D_NET *243 0.00359862
*CONN
*I *1205:B I *D sky130_fd_sc_hd__nand2_2
*I *1204:Y O *D sky130_fd_sc_hd__o22ai_2
*CAP
1 *1205:B 0.000564857
2 *1204:Y 0.000564857
3 *1205:B *1208:A2 0.000317396
4 *1205:B *1216:A1 9.07049e-05
5 *1205:B *1250:A1 5.33005e-05
6 *1205:B *1288:A1 0.000173076
7 *1205:B *247:20 0.000146474
8 *1205:B *556:18 0.000324957
9 *1205:B *556:20 0.000382168
10 *1205:B *578:27 2.90164e-05
11 *1205:B *629:34 3.67779e-05
12 *1205:B *629:51 5.33005e-05
13 *1205:B *655:118 5.33005e-05
14 *1203:A1 *1205:B 0.000221065
15 *1204:B1 *1205:B 5.33005e-05
16 *1208:A1 *1205:B 0.000173804
17 *242:8 *1205:B 0.000360264
*RES
1 *1204:Y *1205:B 45.3143 
*END

*D_NET *244 0.00328333
*CONN
*I *1209:A1 I *D sky130_fd_sc_hd__a21oi_4
*I *1210:A2 I *D sky130_fd_sc_hd__a21o_4
*I *1205:Y O *D sky130_fd_sc_hd__nand2_2
*CAP
1 *1209:A1 0.000100138
2 *1210:A2 0.000298658
3 *1205:Y 0.000327863
4 *244:10 0.000726659
5 *1209:A1 *247:20 5.33005e-05
6 *1209:A1 *631:76 6.42095e-05
7 *1210:A2 *1115:A3 0.000173097
8 *1210:A2 *1210:A1 4.16117e-05
9 *1210:A2 *1563:A 0.000308464
10 *1210:A2 *245:12 0.000150632
11 *1210:A2 *247:20 3.17148e-05
12 *1210:A2 *556:18 4.97121e-06
13 *1210:A2 *578:27 1.18064e-05
14 *244:10 *1115:A3 0.000115467
15 *244:10 *1118:A2 0.000260574
16 *244:10 *1216:A1 5.09265e-05
17 *244:10 *1250:B1 7.6644e-05
18 *244:10 *247:20 0.000307743
19 *1207:A2 *1210:A2 0.000178847
*RES
1 *1205:Y *244:10 20.4607 
2 *244:10 *1210:A2 21.4964 
3 *244:10 *1209:A1 15.5679 
*END

*D_NET *245 0.00239002
*CONN
*I *1208:B1 I *D sky130_fd_sc_hd__o211ai_4
*I *1472:A I *D sky130_fd_sc_hd__buf_6
*I *1206:Y O *D sky130_fd_sc_hd__o311ai_4
*CAP
1 *1208:B1 0
2 *1472:A 0.00027194
3 *1206:Y 0.000383133
4 *245:12 0.000655072
5 *1472:A *1115:A3 3.80079e-05
6 *1472:A *1208:C1 5.15855e-05
7 *1472:A *617:16 6.57032e-05
8 *245:12 *931:A 0.000109247
9 *245:12 *1563:A 0.000182905
10 *245:12 *460:66 9.58632e-05
11 *245:12 *556:18 0.000105582
12 *245:12 *556:20 0.000249143
13 *245:12 *639:10 3.1206e-05
14 *1210:A2 *245:12 0.000150632
*RES
1 *1206:Y *245:12 28.175 
2 *245:12 *1472:A 13.5679 
3 *245:12 *1208:B1 9.3 
*END

*D_NET *246 0.0047524
*CONN
*I *1216:A2 I *D sky130_fd_sc_hd__o21bai_4
*I *1207:X O *D sky130_fd_sc_hd__o211a_4
*CAP
1 *1216:A2 0
2 *1207:X 0.000834357
3 *246:14 0.000834357
4 *246:14 *995:B 0.00031213
5 *246:14 *1207:C1 0.000158201
6 *246:14 *1212:A 0.000683732
7 *246:14 *1561:A 0.000581745
8 *246:14 *1563:A 1.46624e-05
9 *246:14 *247:20 0
10 *246:14 *249:12 4.87854e-05
11 *246:14 *254:10 0.000222163
12 *246:14 *254:23 0.000212627
13 *246:14 *336:14 2.11419e-05
14 *246:14 *410:10 0.000236284
15 *246:14 *410:14 8.75507e-05
16 *246:14 *617:16 0.000223599
17 *246:14 *633:26 9.71197e-05
18 *246:14 *652:39 0
19 *246:14 *652:56 0
20 *75:10 *246:14 0.000183941
*RES
1 *1207:X *246:14 44.9071 
2 *246:14 *1216:A2 9.3 
*END

*D_NET *247 0.00474759
*CONN
*I *1555:A I *D sky130_fd_sc_hd__buf_2
*I *1217:B I *D sky130_fd_sc_hd__nand3_4
*I *1208:Y O *D sky130_fd_sc_hd__o211ai_4
*CAP
1 *1555:A 0
2 *1217:B 9.84173e-05
3 *1208:Y 0.000853994
4 *247:22 0.000111397
5 *247:20 0.000866974
6 *1217:B *660:65 0.000109555
7 *247:20 *1208:A2 0.000149904
8 *247:20 *1216:A1 0.000316355
9 *247:20 *1250:B1 2.77476e-05
10 *247:20 *1252:B1 0.000102545
11 *247:20 *1253:B1 1.01912e-05
12 *247:20 *1563:A 0.000196269
13 *247:20 *291:10 0.000402295
14 *247:20 *410:10 0.000243629
15 *247:20 *410:14 6.2153e-05
16 *247:20 *578:23 9.60875e-05
17 *247:20 *631:76 0.000262504
18 *247:22 *660:65 5.52302e-05
19 *1205:B *247:20 0.000146474
20 *1209:A1 *247:20 5.33005e-05
21 *1210:A2 *247:20 3.17148e-05
22 *41:25 *1217:B 0.000221634
23 *41:25 *247:22 2.14757e-05
24 *244:10 *247:20 0.000307743
25 *246:14 *247:20 0
*RES
1 *1208:Y *247:20 49.9071 
2 *247:20 *247:22 0.535714 
3 *247:22 *1217:B 12.3357 
4 *247:22 *1555:A 9.3 
*END

*D_NET *248 0.00392402
*CONN
*I *1247:B1 I *D sky130_fd_sc_hd__a21o_2
*I *1216:A1 I *D sky130_fd_sc_hd__o21bai_4
*I *1209:Y O *D sky130_fd_sc_hd__a21oi_4
*CAP
1 *1247:B1 8.92003e-05
2 *1216:A1 0.000895276
3 *1209:Y 0.000806076
4 *1216:A1 *1115:A3 7.6644e-05
5 *1216:A1 *1208:A2 1.09026e-05
6 *1216:A1 *1247:A1 3.92757e-05
7 *1216:A1 *1250:B1 0.00014101
8 *1216:A1 *1251:B1 8.17632e-05
9 *1216:A1 *1253:B1 2.11419e-05
10 *1216:A1 *1253:B2 0.00011069
11 *1216:A1 *1288:A1 0.00012501
12 *1216:A1 *294:19 0.000195555
13 *1216:A1 *295:10 0
14 *1216:A1 *348:10 0.000101545
15 *1216:A1 *349:10 2.59355e-05
16 *1216:A1 *389:24 0.000112793
17 *1216:A1 *410:10 0
18 *1216:A1 *591:22 0
19 *1216:A1 *660:50 0.000338351
20 *1247:B1 *1247:A1 6.65398e-05
21 *1247:B1 *349:10 0
22 *1247:B1 *410:10 0.000173097
23 *1247:B1 *633:26 5.52238e-05
24 *1205:B *1216:A1 9.07049e-05
25 *244:10 *1216:A1 5.09265e-05
26 *247:20 *1216:A1 0.000316355
*RES
1 *1209:Y *1216:A1 46.7071 
2 *1216:A1 *1247:B1 30.3857 
*END

*D_NET *249 0.00650602
*CONN
*I *1562:A I *D sky130_fd_sc_hd__buf_2
*I *1217:A I *D sky130_fd_sc_hd__nand3_4
*I *1210:X O *D sky130_fd_sc_hd__a21o_4
*CAP
1 *1562:A 0.00012357
2 *1217:A 0
3 *1210:X 0.00164736
4 *249:12 0.00177093
5 *1562:A *1247:A2 4.46186e-06
6 *1562:A *298:10 0.000186537
7 *1562:A *378:112 8.20409e-05
8 *249:12 *1116:A1 0
9 *249:12 *1151:B1 0.000607346
10 *249:12 *1210:A1 0.000392923
11 *249:12 *298:10 9.9784e-05
12 *249:12 *331:10 1.60719e-05
13 *249:12 *378:87 0.000148196
14 *249:12 *378:112 0.00022027
15 *249:12 *591:14 0.000170654
16 *249:12 *617:16 4.88637e-05
17 *249:12 *631:87 0.0001865
18 *249:12 *631:112 4.56594e-05
19 *249:12 *652:39 0.000117628
20 *249:12 *652:56 0.000168579
21 *249:12 *654:29 0
22 *249:12 *654:52 0
23 *1119:B1 *249:12 0.000344925
24 *1120:A2 *249:12 0
25 *1253:A2 *249:12 7.79781e-06
26 *191:20 *249:12 6.71264e-05
27 *246:14 *249:12 4.87854e-05
*RES
1 *1210:X *249:12 46.8 
2 *249:12 *1217:A 13.8 
3 *249:12 *1562:A 17.3179 
*END

*D_NET *250 0.00248906
*CONN
*I *1214:B2 I *D sky130_fd_sc_hd__a221o_2
*I *1213:A1 I *D sky130_fd_sc_hd__a21oi_2
*I *1211:X O *D sky130_fd_sc_hd__o21a_4
*CAP
1 *1214:B2 0.000130379
2 *1213:A1 0.000101406
3 *1211:X 0.000192104
4 *250:10 0.00042389
5 *1213:A1 *1215:A2 0.000171368
6 *1213:A1 *297:33 8.68569e-05
7 *1213:A1 *357:39 1.58163e-05
8 *1214:B2 *1212:A 0.000352951
9 *1214:B2 *1214:A1 0.000116889
10 *1214:B2 *1214:C1 4.974e-05
11 *1214:B2 *1215:A2 5.33005e-05
12 *1214:B2 *1215:B1 4.72917e-05
13 *250:10 *1215:A2 3.17148e-05
14 *250:10 *255:18 9.71197e-05
15 *250:10 *297:33 0.00020387
16 *250:10 *633:26 5.03772e-05
17 *250:10 *654:52 0.000335937
18 *41:48 *1214:B2 2.80433e-05
*RES
1 *1211:X *250:10 20.0321 
2 *250:10 *1213:A1 16.5857 
3 *250:10 *1214:B2 18.2286 
*END

*D_NET *251 0.00118215
*CONN
*I *1213:B1 I *D sky130_fd_sc_hd__a21oi_2
*I *1212:X O *D sky130_fd_sc_hd__and3_2
*CAP
1 *1213:B1 0.000252439
2 *1212:X 0.000252439
3 *1213:B1 *1213:A2 9.60875e-05
4 *1213:B1 *1214:A1 0.00034127
5 *1213:B1 *357:39 4.43256e-05
6 *1213:B1 *641:10 1.02504e-05
7 *1213:B1 *641:12 4.43142e-05
8 *1213:B1 *641:20 1.52978e-05
9 *201:8 *1213:B1 0.000125731
*RES
1 *1212:X *1213:B1 33.475 
*END

*D_NET *252 0.00110797
*CONN
*I *1215:A2 I *D sky130_fd_sc_hd__o21ai_4
*I *1213:Y O *D sky130_fd_sc_hd__a21oi_2
*CAP
1 *1215:A2 0.000236245
2 *1213:Y 0.000236245
3 *1215:A2 *1212:A 3.8274e-05
4 *1215:A2 *1214:A1 4.62539e-05
5 *1215:A2 *1215:B1 9.60875e-05
6 *1215:A2 *254:10 0.000137983
7 *1215:A2 *297:33 1.91418e-05
8 *1215:A2 *640:24 0
9 *1215:A2 *654:52 4.13595e-05
10 *1213:A1 *1215:A2 0.000171368
11 *1214:B2 *1215:A2 5.33005e-05
12 *250:10 *1215:A2 3.17148e-05
*RES
1 *1213:Y *1215:A2 33.7786 
*END

*D_NET *253 0.000441233
*CONN
*I *1215:B1 I *D sky130_fd_sc_hd__o21ai_4
*I *1214:X O *D sky130_fd_sc_hd__a221o_2
*CAP
1 *1215:B1 8.30317e-05
2 *1214:X 8.30317e-05
3 *1215:B1 *654:52 9.80173e-05
4 *1214:A2 *1215:B1 3.37729e-05
5 *1214:B2 *1215:B1 4.72917e-05
6 *1215:A2 *1215:B1 9.60875e-05
*RES
1 *1214:X *1215:B1 21.1 
*END

*D_NET *254 0.0038081
*CONN
*I *1216:B1_N I *D sky130_fd_sc_hd__o21bai_4
*I *1247:A2 I *D sky130_fd_sc_hd__a21o_2
*I *1217:C I *D sky130_fd_sc_hd__nand3_4
*I *1215:Y O *D sky130_fd_sc_hd__o21ai_4
*CAP
1 *1216:B1_N 9.27121e-06
2 *1247:A2 0.000436162
3 *1217:C 0
4 *1215:Y 0.000203565
5 *254:23 0.000591739
6 *254:10 0.000349871
7 *1216:B1_N *255:18 2.44318e-05
8 *1216:B1_N *633:26 5.52302e-05
9 *1247:A2 *1259:A 7.83587e-05
10 *1247:A2 *288:10 2.24787e-05
11 *1247:A2 *298:10 1.18451e-05
12 *1247:A2 *301:16 3.69047e-06
13 *1247:A2 *378:112 0.00012401
14 *254:10 *1212:A 0.000428908
15 *254:10 *591:14 0.000103977
16 *254:10 *591:18 2.59355e-05
17 *254:23 *255:18 2.89114e-05
18 *254:23 *633:26 0.000175892
19 *1215:A2 *254:10 0.000137983
20 *1385:C *1247:A2 0.000113249
21 *1562:A *1247:A2 4.46186e-06
22 *75:10 *254:10 0.000220455
23 *75:10 *254:23 0.000222878
24 *246:14 *254:10 0.000222163
25 *246:14 *254:23 0.000212627
*RES
1 *1215:Y *254:10 20.8893 
2 *254:10 *1217:C 13.8 
3 *254:10 *254:23 9.125 
4 *254:23 *1247:A2 25.1393 
5 *254:23 *1216:B1_N 9.83571 
*END

*D_NET *255 0.00539535
*CONN
*I *1221:A2 I *D sky130_fd_sc_hd__a21oi_4
*I *1222:A1 I *D sky130_fd_sc_hd__a21o_4
*I *1223:B1 I *D sky130_fd_sc_hd__o211a_4
*I *1224:C1 I *D sky130_fd_sc_hd__o211ai_2
*I *1216:Y O *D sky130_fd_sc_hd__o21bai_4
*CAP
1 *1221:A2 3.41062e-05
2 *1222:A1 0.000230486
3 *1223:B1 0.000222387
4 *1224:C1 0
5 *1216:Y 0.000817323
6 *255:24 0.000222387
7 *255:22 0.000376291
8 *255:18 0.000997235
9 *1221:A2 *256:19 9.90431e-05
10 *1222:A1 *1224:B1 6.58195e-05
11 *1222:A1 *257:12 0
12 *1222:A1 *506:58 0
13 *1223:B1 *1223:A2 6.26276e-05
14 *1223:B1 *1223:C1 5.23057e-05
15 *1223:B1 *1229:B 0.000437756
16 *255:18 *1211:B1 9.90367e-05
17 *255:18 *1573:A 0.00035519
18 *255:18 *256:19 0.000307336
19 *255:18 *633:26 0.00028289
20 *255:18 *651:52 0.000173804
21 *255:22 *257:12 0
22 *255:22 *506:58 0
23 *1216:B1_N *255:18 2.44318e-05
24 *1219:A2 *255:18 8.50152e-05
25 *1223:A1 *1223:B1 0.000128496
26 *160:12 *255:18 0
27 *160:24 *1223:B1 0.000142053
28 *204:32 *1223:B1 5.33005e-05
29 *250:10 *255:18 9.71197e-05
30 *254:23 *255:18 2.89114e-05
*RES
1 *1216:Y *255:18 35.2107 
2 *255:18 *255:22 6.75 
3 *255:22 *255:24 4.5 
4 *255:24 *1224:C1 9.3 
5 *255:24 *1223:B1 16.425 
6 *255:22 *1222:A1 18.0143 
7 *255:18 *1221:A2 10.2464 
*END

*D_NET *256 0.00535887
*CONN
*I *1516:A I *D sky130_fd_sc_hd__buf_2
*I *1222:A2 I *D sky130_fd_sc_hd__a21o_4
*I *1223:C1 I *D sky130_fd_sc_hd__o211a_4
*I *1221:A1 I *D sky130_fd_sc_hd__a21oi_4
*I *1259:B I *D sky130_fd_sc_hd__nand3_4
*I *1217:Y O *D sky130_fd_sc_hd__nand3_4
*CAP
1 *1516:A 0.000183862
2 *1222:A2 0.000104116
3 *1223:C1 0.000312599
4 *1221:A1 2.23854e-05
5 *1259:B 0
6 *1217:Y 0.000125775
7 *256:45 0.000352681
8 *256:32 0.000571588
9 *256:19 0.00100592
10 *256:10 0.000915024
11 *1222:A2 *1222:B1 5.52238e-05
12 *1223:C1 *1223:A2 0.00022459
13 *1223:C1 *1229:B 1.32552e-05
14 *1516:A *1222:B1 9.69119e-06
15 *1516:A *1224:B1 0
16 *1516:A *1228:A2 0
17 *256:10 *297:33 0.000366689
18 *256:10 *298:10 0.000191253
19 *256:19 *288:10 0.000140403
20 *256:19 *301:16 0
21 *256:32 *1222:B1 7.78278e-05
22 *256:32 *1224:B1 0
23 *256:45 *1222:B1 3.34672e-05
24 *256:45 *1224:B1 0
25 *1221:A2 *256:19 9.90431e-05
26 *1223:B1 *1223:C1 5.23057e-05
27 *160:24 *1223:C1 0
28 *204:32 *256:32 0.000193833
29 *255:18 *256:19 0.000307336
*RES
1 *1217:Y *256:10 22.9786 
2 *256:10 *1259:B 9.3 
3 *256:10 *256:19 14.1071 
4 *256:19 *1221:A1 9.72857 
5 *256:19 *256:32 8.60714 
6 *256:32 *1223:C1 18.3536 
7 *256:32 *256:45 1.33929 
8 *256:45 *1222:A2 15.5857 
9 *256:45 *1516:A 16.9607 
*END

*D_NET *257 0.00247188
*CONN
*I *1223:A2 I *D sky130_fd_sc_hd__o211a_4
*I *1224:A2 I *D sky130_fd_sc_hd__o211ai_2
*I *1218:X O *D sky130_fd_sc_hd__o21a_2
*CAP
1 *1223:A2 0.000135316
2 *1224:A2 0
3 *1218:X 0.000506737
4 *257:12 0.000642053
5 *257:12 *1224:B1 4.1331e-06
6 *257:12 *506:58 0
7 *1218:B1 *257:12 2.47833e-05
8 *1219:A1 *257:12 9.90367e-05
9 *1220:A *257:12 4.88637e-05
10 *1222:A1 *257:12 0
11 *1223:A1 *1223:A2 0.000140933
12 *1223:B1 *1223:A2 6.26276e-05
13 *1223:C1 *1223:A2 0.00022459
14 *204:32 *1223:A2 5.33005e-05
15 *204:32 *257:12 0.000529507
16 *255:22 *257:12 0
*RES
1 *1218:X *257:12 27.6929 
2 *257:12 *1224:A2 9.3 
3 *257:12 *1223:A2 13.1571 
*END

*D_NET *258 0.000336141
*CONN
*I *1220:B I *D sky130_fd_sc_hd__nand2_2
*I *1219:Y O *D sky130_fd_sc_hd__o21ai_2
*CAP
1 *1220:B 6.90004e-05
2 *1219:Y 6.90004e-05
3 *1220:B *1573:A 0
4 *1220:B *259:10 0.00014183
5 *1219:A2 *1220:B 5.63103e-05
*RES
1 *1219:Y *1220:B 20.6893 
*END

*D_NET *259 0.00238746
*CONN
*I *1222:B1 I *D sky130_fd_sc_hd__a21o_4
*I *1221:B1 I *D sky130_fd_sc_hd__a21oi_4
*I *1220:Y O *D sky130_fd_sc_hd__nand2_2
*CAP
1 *1222:B1 0.000292684
2 *1221:B1 0
3 *1220:Y 0.000553006
4 *259:10 0.000845691
5 *1222:B1 *1228:A2 0.000332764
6 *1219:A2 *259:10 1.32552e-05
7 *1219:B1 *259:10 3.20153e-05
8 *1220:B *259:10 0.00014183
9 *1222:A2 *1222:B1 5.52238e-05
10 *1516:A *1222:B1 9.69119e-06
11 *204:32 *1222:B1 0
12 *204:32 *259:10 0
13 *256:32 *1222:B1 7.78278e-05
14 *256:45 *1222:B1 3.34672e-05
*RES
1 *1220:Y *259:10 21.6036 
2 *259:10 *1221:B1 13.8 
3 *259:10 *1222:B1 20.55 
*END

*D_NET *260 0.0144352
*CONN
*I *1019:A1 I *D sky130_fd_sc_hd__o21ai_2
*I *1021:A1 I *D sky130_fd_sc_hd__o22ai_2
*I *1419:A I *D sky130_fd_sc_hd__buf_8
*I *924:Y O *D sky130_fd_sc_hd__inv_6
*CAP
1 *1019:A1 0
2 *1021:A1 0.000349562
3 *1419:A 0.000131761
4 *924:Y 0.000338603
5 *260:35 0.00180509
6 *260:16 0.00192589
7 *1021:A1 *967:B1 6.87243e-05
8 *1021:A1 *1428:A 6.82745e-05
9 *1021:A1 *1481:A 0.000104315
10 *1021:A1 *282:73 0.000333739
11 *1021:A1 *282:88 0.000217144
12 *1021:A1 *549:63 1.73789e-05
13 *1021:A1 *634:21 2.89114e-05
14 *1021:A1 *646:36 0.000193307
15 *1419:A *1151:B1 9.46907e-05
16 *1419:A *636:32 5.49995e-05
17 *260:16 *931:A 0.000453785
18 *260:16 *1202:A 0.000221425
19 *260:16 *510:27 4.57805e-05
20 *260:16 *629:51 0.000467533
21 *260:16 *635:41 0
22 *260:16 *639:10 0.000193831
23 *260:35 *931:A 0.000814363
24 *260:35 *955:B 6.09762e-05
25 *260:35 *1023:A3 1.06328e-05
26 *260:35 *282:88 0.000109334
27 *260:35 *510:39 0.0031129
28 *260:35 *526:46 0.000538798
29 *260:35 *549:87 1.03904e-05
30 *260:35 *629:51 0.000624776
31 *260:35 *629:70 2.81411e-05
32 *260:35 *641:41 0.00152704
33 *1021:A2 *1021:A1 9.57219e-05
34 *1021:B1 *1021:A1 5.71472e-05
35 *1104:B1 *1419:A 6.09762e-05
36 *1521:A *1419:A 0.000247368
37 *241:12 *260:16 2.18782e-05
*RES
1 *924:Y *260:16 23.0931 
2 *260:16 *1419:A 21.0582 
3 *260:16 *260:35 11.1458 
4 *260:35 *1021:A1 24.4786 
5 *260:35 *1019:A1 13.8 
*END

*D_NET *261 0.00142065
*CONN
*I *1228:A2 I *D sky130_fd_sc_hd__o21bai_4
*I *1221:Y O *D sky130_fd_sc_hd__a21oi_4
*CAP
1 *1228:A2 0.000434558
2 *1221:Y 0.000434558
3 *1228:A2 *1245:A1 0
4 *1228:A2 *1245:B1 3.69697e-05
5 *1228:A2 *263:14 0
6 *1222:B1 *1228:A2 0.000332764
7 *1516:A *1228:A2 0
8 *95:26 *1228:A2 0.000181803
*RES
1 *1221:Y *1228:A2 36.475 
*END

*D_NET *262 0.000815433
*CONN
*I *1229:A I *D sky130_fd_sc_hd__nand3_4
*I *1245:A1 I *D sky130_fd_sc_hd__a21o_2
*I *1222:X O *D sky130_fd_sc_hd__a21o_4
*CAP
1 *1229:A 0
2 *1245:A1 0.000204593
3 *1222:X 0.000113475
4 *262:6 0.000318068
5 *1245:A1 *1245:B1 0.000100009
6 *1245:A1 *263:14 7.92879e-05
7 *1245:A1 *267:10 0
8 *1228:A2 *1245:A1 0
*RES
1 *1222:X *262:6 11.0679 
2 *262:6 *1245:A1 22.675 
3 *262:6 *1229:A 9.3 
*END

*D_NET *263 0.00209307
*CONN
*I *1245:B1 I *D sky130_fd_sc_hd__a21o_2
*I *1228:A1 I *D sky130_fd_sc_hd__o21bai_4
*I *1223:X O *D sky130_fd_sc_hd__o211a_4
*CAP
1 *1245:B1 0.000143706
2 *1228:A1 9.76802e-05
3 *1223:X 0.000382694
4 *263:14 0.00062408
5 *1245:B1 *267:8 0
6 *1245:B1 *267:10 0
7 *263:14 *1229:B 0.000258066
8 *263:14 *1229:C 0
9 *1228:A2 *1245:B1 3.69697e-05
10 *1228:A2 *263:14 0
11 *1245:A1 *1245:B1 0.000100009
12 *1245:A1 *263:14 7.92879e-05
13 *1502:A *1245:B1 0
14 *96:8 *1245:B1 0
15 *96:21 *1245:B1 0
16 *97:57 *1228:A1 0.000139907
17 *97:57 *263:14 0.000181803
18 *160:24 *263:14 4.88637e-05
*RES
1 *1223:X *263:14 25.8 
2 *263:14 *1228:A1 10.6571 
3 *263:14 *1245:B1 21.4607 
*END

*D_NET *264 0.00173687
*CONN
*I *1229:B I *D sky130_fd_sc_hd__nand3_4
*I *1224:Y O *D sky130_fd_sc_hd__o211ai_2
*CAP
1 *1229:B 0.000229302
2 *1224:Y 0.000229302
3 *1229:B *1229:C 0
4 *1223:B1 *1229:B 0.000437756
5 *1223:C1 *1229:B 1.32552e-05
6 *160:24 *1229:B 0.000569194
7 *216:20 *1229:B 0
8 *263:14 *1229:B 0.000258066
*RES
1 *1224:Y *1229:B 35.9214 
*END

*D_NET *265 0.0002254
*CONN
*I *1227:A I *D sky130_fd_sc_hd__xor2_2
*I *1225:Y O *D sky130_fd_sc_hd__nand2_2
*CAP
1 *1227:A 5.68407e-05
2 *1225:Y 5.68407e-05
3 *1227:A *1225:A 0.000111718
*RES
1 *1225:Y *1227:A 19.975 
*END

*D_NET *266 0.000999643
*CONN
*I *1246:C_N I *D sky130_fd_sc_hd__or3b_4
*I *1227:B I *D sky130_fd_sc_hd__xor2_2
*I *1226:Y O *D sky130_fd_sc_hd__a22oi_2
*CAP
1 *1246:C_N 8.79886e-05
2 *1227:B 0
3 *1226:Y 0.000147584
4 *266:12 0.000235572
5 *1246:C_N *1225:A 0
6 *1246:C_N *1226:A1 5.85228e-05
7 *1246:C_N *286:12 0.000102324
8 *266:12 *1226:A1 7.8327e-05
9 *266:12 *286:12 5.07157e-05
10 *1130:A1 *266:12 0.000100625
11 *168:30 *266:12 0.000137983
*RES
1 *1226:Y *266:12 18.05 
2 *266:12 *1227:B 4.5 
3 *266:12 *1246:C_N 16.3536 
*END

*D_NET *267 0.00237414
*CONN
*I *1245:A2 I *D sky130_fd_sc_hd__a21o_2
*I *1228:B1_N I *D sky130_fd_sc_hd__o21bai_4
*I *1229:C I *D sky130_fd_sc_hd__nand3_4
*I *1227:X O *D sky130_fd_sc_hd__xor2_2
*CAP
1 *1245:A2 0.000147149
2 *1228:B1_N 3.04135e-05
3 *1229:C 0.000122912
4 *1227:X 0.000147935
5 *267:10 0.000227377
6 *267:8 0.000369134
7 *1245:A2 *506:66 0.000154027
8 *267:8 *506:66 0.000311021
9 *267:8 *506:79 3.34366e-05
10 *1229:B *1229:C 0
11 *1245:A1 *267:10 0
12 *1245:B1 *267:8 0
13 *1245:B1 *267:10 0
14 *1502:A *267:8 9.10431e-06
15 *95:26 *1228:B1_N 5.33005e-05
16 *101:22 *1245:A2 1.39726e-05
17 *216:20 *1229:C 0.000220434
18 *216:20 *267:8 0.000382581
19 *216:20 *267:10 0.00015134
20 *263:14 *1229:C 0
*RES
1 *1227:X *267:8 18.7821 
2 *267:8 *267:10 1.94643 
3 *267:10 *1229:C 16.6571 
4 *267:10 *1228:B1_N 14.3357 
5 *267:8 *1245:A2 16.8 
*END

*D_NET *268 0.00783
*CONN
*I *1232:B I *D sky130_fd_sc_hd__and3_4
*I *1230:A2 I *D sky130_fd_sc_hd__a21oi_4
*I *1233:A I *D sky130_fd_sc_hd__nand3_2
*I *1275:A2 I *D sky130_fd_sc_hd__a31o_2
*I *1274:A2 I *D sky130_fd_sc_hd__a31oi_2
*I *1231:B2 I *D sky130_fd_sc_hd__a32o_2
*I *1228:Y O *D sky130_fd_sc_hd__o21bai_4
*CAP
1 *1232:B 7.79201e-05
2 *1230:A2 0.00015602
3 *1233:A 0
4 *1275:A2 0.000123854
5 *1274:A2 0
6 *1231:B2 7.92486e-05
7 *1228:Y 0.000581653
8 *268:40 0.000123854
9 *268:38 0.000352913
10 *268:29 0.000297998
11 *268:25 0.000444646
12 *268:10 0.000926521
13 *1230:A2 *1230:A1 8.79776e-05
14 *1230:A2 *1318:A1 0
15 *1230:A2 *269:51 4.46186e-06
16 *1231:B2 *1231:A1 8.55871e-05
17 *1231:B2 *1231:B1 1.99877e-05
18 *1231:B2 *272:14 1.21258e-05
19 *1232:B *1232:A 1.74352e-05
20 *1275:A2 *1318:B1 0.000112534
21 *1275:A2 *544:20 0.000111431
22 *268:10 *928:A 0.000975804
23 *268:10 *1231:A2 0.000125731
24 *268:10 *1231:A3 0
25 *268:10 *1261:A1 0.000114829
26 *268:10 *269:10 0.00154728
27 *268:10 *269:21 3.17148e-05
28 *268:10 *535:10 0
29 *268:25 *1232:A 5.41609e-05
30 *268:25 *269:21 0.000306637
31 *268:25 *269:32 8.32242e-05
32 *268:29 *269:32 0
33 *268:38 *269:51 1.17968e-05
34 *268:38 *320:14 0.00014576
35 *268:38 *544:20 1.08359e-05
36 *1275:B1 *268:38 0.000307885
37 *95:26 *268:10 0.000177815
38 *97:57 *268:10 0.000179745
39 *215:12 *268:10 0
40 *216:24 *1231:B2 5.59774e-05
41 *236:10 *268:25 0
42 *236:10 *268:29 6.26653e-05
43 *236:10 *268:38 2.19684e-05
44 *237:10 *268:25 0
45 *237:28 *268:38 0
*RES
1 *1228:Y *268:10 35.7286 
2 *268:10 *1231:B2 15.5679 
3 *268:10 *268:25 10.8393 
4 *268:25 *268:29 6.75 
5 *268:29 *1274:A2 13.8 
6 *268:29 *268:38 4.98214 
7 *268:38 *268:40 4.5 
8 *268:40 *1275:A2 12.05 
9 *268:40 *1233:A 9.3 
10 *268:38 *1230:A2 17.0143 
11 *268:25 *1232:B 10.6571 
*END

*D_NET *269 0.00848289
*CONN
*I *1275:A3 I *D sky130_fd_sc_hd__a31o_2
*I *1230:A1 I *D sky130_fd_sc_hd__a21oi_4
*I *1233:B I *D sky130_fd_sc_hd__nand3_2
*I *1274:A3 I *D sky130_fd_sc_hd__a31oi_2
*I *1232:A I *D sky130_fd_sc_hd__and3_4
*I *1231:B1 I *D sky130_fd_sc_hd__a32o_2
*I *1229:Y O *D sky130_fd_sc_hd__nand3_4
*CAP
1 *1275:A3 9.38785e-05
2 *1230:A1 0.000126401
3 *1233:B 0
4 *1274:A3 2.01575e-05
5 *1232:A 0.000171351
6 *1231:B1 6.3574e-06
7 *1229:Y 0.000555881
8 *269:51 0.000391903
9 *269:43 0.000489395
10 *269:32 0.00027198
11 *269:21 0.000392082
12 *269:10 0.000661163
13 *1230:A1 *1276:B1 0
14 *1274:A3 *1318:A2 1.24368e-05
15 *1274:A3 *272:14 5.52302e-05
16 *1274:A3 *272:22 2.44318e-05
17 *1274:A3 *321:35 4.72917e-05
18 *1275:A3 *1277:C 3.57844e-05
19 *1275:A3 *1318:A2 0
20 *1275:A3 *544:20 1.17968e-05
21 *269:10 *928:A 4.33438e-05
22 *269:10 *272:14 5.59013e-05
23 *269:21 *272:14 0.000331538
24 *269:32 *1277:C 4.46186e-06
25 *269:32 *272:14 0.000242372
26 *269:32 *317:21 0
27 *269:43 *1277:C 0.000123762
28 *269:51 *315:16 1.39841e-05
29 *269:51 *320:14 9.91086e-05
30 *1230:A2 *1230:A1 8.79776e-05
31 *1230:A2 *269:51 4.46186e-06
32 *1231:B2 *1231:B1 1.99877e-05
33 *1232:B *1232:A 1.74352e-05
34 *1275:A1 *1275:A3 7.83659e-05
35 *1275:A1 *269:43 3.34295e-05
36 *1275:A1 *269:51 0.000221641
37 *1275:B1 *269:43 6.22145e-05
38 *216:20 *269:10 0.00155382
39 *216:24 *1231:B1 1.99877e-05
40 *237:49 *1230:A1 5.80706e-06
41 *237:49 *269:51 6.09572e-05
42 *268:10 *269:10 0.00154728
43 *268:10 *269:21 3.17148e-05
44 *268:25 *1232:A 5.41609e-05
45 *268:25 *269:21 0.000306637
46 *268:25 *269:32 8.32242e-05
47 *268:29 *269:32 0
48 *268:38 *269:51 1.17968e-05
*RES
1 *1229:Y *269:10 35.4071 
2 *269:10 *1231:B1 14.0009 
3 *269:10 *269:21 4.375 
4 *269:21 *1232:A 15.9786 
5 *269:21 *269:32 3.46429 
6 *269:32 *1274:A3 14.7464 
7 *269:32 *269:43 3.16071 
8 *269:43 *269:51 13.2321 
9 *269:51 *1233:B 13.8 
10 *269:51 *1230:A1 16.6571 
11 *269:43 *1275:A3 15.675 
*END

*D_NET *270 0.00140069
*CONN
*I *1506:A I *D sky130_fd_sc_hd__buf_2
*I *1236:B2 I *D sky130_fd_sc_hd__o22ai_2
*I *1235:A1 I *D sky130_fd_sc_hd__o21ai_4
*I *1230:Y O *D sky130_fd_sc_hd__a21oi_4
*CAP
1 *1506:A 0.000118021
2 *1236:B2 0.000239994
3 *1235:A1 0
4 *1230:Y 0.000264666
5 *270:8 0.000386639
6 *1236:B2 *1234:B1 5.83233e-05
7 *1236:B2 *1237:A 0.000106542
8 *1236:B2 *1237:B 0.00014209
9 *1506:A *1276:B1 8.44104e-05
10 *1506:A *1318:B1 0
*RES
1 *1230:Y *270:8 11.4964 
2 *270:8 *1235:A1 9.3 
3 *270:8 *1236:B2 23.4429 
4 *1230:Y *1506:A 29.7786 
*END

*D_NET *271 0.0147527
*CONN
*I *1180:B I *D sky130_fd_sc_hd__and3_2
*I *1179:A1 I *D sky130_fd_sc_hd__a21oi_2
*I *1417:A I *D sky130_fd_sc_hd__clkbuf_2
*I *925:Y O *D sky130_fd_sc_hd__inv_2
*CAP
1 *1180:B 2.23854e-05
2 *1179:A1 0.000147543
3 *1417:A 0.000291201
4 *925:Y 0.00138843
5 *271:38 0.000778477
6 *271:34 0.00240388
7 *271:26 0.00289256
8 *1179:A1 *1179:A2 0.000186669
9 *1417:A *975:A1 0.000117621
10 *1417:A *975:B1 5.71472e-05
11 *1417:A *634:6 8.18783e-05
12 *271:26 *948:A2 0.000148196
13 *271:26 *955:C 5.21697e-05
14 *271:26 *965:A1 0.000146853
15 *271:26 *975:A3 2.82057e-05
16 *271:26 *462:8 0.000119618
17 *271:26 *632:75 0.000126446
18 *271:26 *632:77 0.000216154
19 *271:26 *632:83 0.000262292
20 *271:26 *634:21 5.71472e-05
21 *271:26 *678:62 3.02892e-05
22 *271:26 *678:73 0.000176655
23 *271:26 *678:86 0.000147669
24 *271:26 *678:120 6.42242e-05
25 *271:34 *1083:A1 0
26 *271:34 *1089:A1 0
27 *271:34 *1091:C 0.000453762
28 *271:34 *1137:A1 0.000387075
29 *271:34 *1148:A 0
30 *271:34 *634:99 1.90936e-05
31 *271:38 *649:111 1.84421e-05
32 *1003:B2 *271:26 2.16719e-05
33 *1006:A1 *271:34 0.000100831
34 *1029:B1 *271:34 0
35 *1083:A2 *271:34 0
36 *1084:A_N *271:34 8.51647e-05
37 *1085:A3 *271:34 0.000223592
38 *1087:B *271:34 9.56968e-05
39 *1087:C *271:34 0.000297559
40 *1089:C1 *271:34 0.000507057
41 *1133:B1 *271:34 0
42 *1141:A_N *271:34 0
43 *1182:A *271:38 5.71472e-05
44 *1182:B *271:38 4.59075e-05
45 *1182:C *271:38 0.000230482
46 *1188:A2 *271:38 0.000126639
47 *1191:B *271:34 0
48 *1511:A *271:34 0
49 *38:25 *271:26 0.000123912
50 *38:42 *271:26 0.000132894
51 *43:24 *271:26 0.000265453
52 *65:10 *271:26 0.000303391
53 *66:10 *271:26 0.00075974
54 *69:12 *271:34 0.000511901
55 *122:10 *271:34 0
56 *172:14 *271:34 8.50971e-06
57 *172:23 *271:34 0
58 *188:10 *271:34 0
59 *189:10 *271:34 0
60 *189:19 *271:34 0
61 *219:10 *1179:A1 3.30237e-05
*RES
1 *925:Y *1417:A 24.0643 
2 *925:Y *271:26 48.2643 
3 *271:26 *271:34 46.2679 
4 *271:34 *271:38 15.3036 
5 *271:38 *1179:A1 12.7464 
6 *271:38 *1180:B 9.72857 
*END

*D_NET *272 0.00457684
*CONN
*I *1277:A I *D sky130_fd_sc_hd__nand3_2
*I *1237:A I *D sky130_fd_sc_hd__nand3_2
*I *1234:C1 I *D sky130_fd_sc_hd__o211ai_2
*I *1231:X O *D sky130_fd_sc_hd__a32o_2
*CAP
1 *1277:A 0
2 *1237:A 0.00022209
3 *1234:C1 0
4 *1231:X 0.00039658
5 *272:22 0.000811578
6 *272:14 0.000986068
7 *1237:A *1234:B1 5.75803e-05
8 *1237:A *1235:A2 0.000224599
9 *1237:A *1237:B 7.30398e-05
10 *1237:A *1318:B1 0
11 *1237:A *273:10 0.000164547
12 *272:14 *1318:A2 1.98839e-05
13 *272:14 *312:8 0
14 *272:14 *317:8 0
15 *272:14 *317:21 0
16 *272:22 *1234:B1 4.1331e-06
17 *272:22 *1277:B 0
18 *272:22 *273:10 0.000245349
19 *272:22 *321:35 0.000104494
20 *1231:B2 *272:14 1.21258e-05
21 *1236:B2 *1237:A 0.000106542
22 *1274:A3 *272:14 5.52302e-05
23 *1274:A3 *272:22 2.44318e-05
24 *1274:B1 *272:22 6.25963e-05
25 *1275:B1 *272:22 6.62868e-05
26 *1523:A *272:14 0.00022117
27 *216:20 *272:14 3.17148e-05
28 *216:24 *272:14 5.33005e-05
29 *217:6 *272:22 3.69047e-06
30 *222:21 *272:22 0
31 *222:32 *272:22 0
32 *235:10 *272:22 0
33 *269:10 *272:14 5.59013e-05
34 *269:21 *272:14 0.000331538
35 *269:32 *272:14 0.000242372
*RES
1 *1231:X *272:14 28.2107 
2 *272:14 *272:22 15.6071 
3 *272:22 *1234:C1 13.8 
4 *272:22 *1237:A 20.9071 
5 *272:14 *1277:A 9.3 
*END

*D_NET *273 0.00187464
*CONN
*I *1235:A2 I *D sky130_fd_sc_hd__o21ai_4
*I *1236:B1 I *D sky130_fd_sc_hd__o22ai_2
*I *1232:X O *D sky130_fd_sc_hd__and3_4
*CAP
1 *1235:A2 8.64977e-05
2 *1236:B1 0
3 *1232:X 0.000450873
4 *273:10 0.00053737
5 *1235:A2 *1318:B1 6.63569e-05
6 *273:10 *1177:A 0
7 *273:10 *1276:B1 0
8 *273:10 *1276:B2 0
9 *1237:A *1235:A2 0.000224599
10 *1237:A *273:10 0.000164547
11 *1524:A *273:10 9.90431e-05
12 *222:21 *273:10 0
13 *237:19 *273:10 0
14 *237:28 *273:10 0
15 *272:22 *273:10 0.000245349
*RES
1 *1232:X *273:10 22.7821 
2 *273:10 *1236:B1 13.8 
3 *273:10 *1235:A2 16.6571 
*END

*D_NET *274 0.00231213
*CONN
*I *1237:B I *D sky130_fd_sc_hd__nand3_2
*I *1234:B1 I *D sky130_fd_sc_hd__o211ai_2
*I *1233:Y O *D sky130_fd_sc_hd__nand3_2
*CAP
1 *1237:B 0.000118795
2 *1234:B1 9.1663e-05
3 *1233:Y 0.000385563
4 *274:8 0.00059602
5 *1234:B1 *1236:A2 6.32633e-05
6 *274:8 *1316:B1 9.58478e-05
7 *274:8 *1318:B1 0.000440711
8 *274:8 *320:14 1.74352e-05
9 *1236:B2 *1234:B1 5.83233e-05
10 *1236:B2 *1237:B 0.00014209
11 *1237:A *1234:B1 5.75803e-05
12 *1237:A *1237:B 7.30398e-05
13 *1237:C *1237:B 5.38886e-05
14 *235:10 *1234:B1 3.79104e-05
15 *235:10 *1237:B 7.58664e-05
16 *272:22 *1234:B1 4.1331e-06
*RES
1 *1233:Y *274:8 20.9071 
2 *274:8 *1234:B1 16.6571 
3 *274:8 *1237:B 18.175 
*END

*D_NET *275 0.00151645
*CONN
*I *1239:B I *D sky130_fd_sc_hd__nand3_4
*I *1234:Y O *D sky130_fd_sc_hd__o211ai_2
*CAP
1 *1239:B 0.000263465
2 *1234:Y 0.000263465
3 *1239:B *1238:A2 0.000224599
4 *1239:B *1316:A1 0
5 *1239:B *1316:A2 0
6 *1239:B *315:16 0.000216755
7 *1239:B *364:18 0.000218685
8 *1238:A1 *1239:B 0.00021559
9 *1239:C *1239:B 0.000113887
*RES
1 *1234:Y *1239:B 35.3679 
*END

*D_NET *276 0.000583348
*CONN
*I *1239:A I *D sky130_fd_sc_hd__nand3_4
*I *1235:Y O *D sky130_fd_sc_hd__o21ai_4
*CAP
1 *1239:A 0.000285455
2 *1235:Y 0.000285455
3 *1235:B1 *1239:A 1.24368e-05
*RES
1 *1235:Y *1239:A 22.85 
*END

*D_NET *277 0.00077875
*CONN
*I *1238:B1 I *D sky130_fd_sc_hd__o211ai_2
*I *1236:Y O *D sky130_fd_sc_hd__o22ai_2
*CAP
1 *1238:B1 0.000267195
2 *1236:Y 0.000267195
3 *1238:B1 *1316:B1 0.00024436
4 *1238:B1 *279:10 0
*RES
1 *1236:Y *1238:B1 23.6714 
*END

*D_NET *278 0.00154356
*CONN
*I *1238:C1 I *D sky130_fd_sc_hd__o211ai_2
*I *1237:Y O *D sky130_fd_sc_hd__nand3_2
*CAP
1 *1238:C1 0.000483876
2 *1237:Y 0.000483876
3 *1238:C1 *1238:A2 3.67142e-05
4 *1238:C1 *1316:C1 0
5 *1238:C1 *1318:B1 0.000539088
6 *1238:C1 *1528:A 0
7 *1238:C1 *515:10 0
8 *1543:A *1238:C1 0
*RES
1 *1237:Y *1238:C1 38.0464 
*END

*D_NET *279 0.00147122
*CONN
*I *1556:A I *D sky130_fd_sc_hd__buf_2
*I *1316:D1 I *D sky130_fd_sc_hd__o2111a_2
*I *1238:Y O *D sky130_fd_sc_hd__o211ai_2
*CAP
1 *1556:A 0.000213926
2 *1316:D1 0
3 *1238:Y 0.000221516
4 *279:10 0.000435442
5 *1556:A *1240:A 0.000344244
6 *1556:A *1280:A 0.000109809
7 *1556:A *1317:C1 3.69047e-06
8 *1556:A *1528:A 2.58997e-05
9 *279:10 *1316:A1 5.62995e-05
10 *279:10 *1316:B1 6.03919e-05
11 *1238:B1 *279:10 0
*RES
1 *1238:Y *279:10 13.2643 
2 *279:10 *1316:D1 9.3 
3 *279:10 *1556:A 24.05 
*END

*D_NET *280 0.00141757
*CONN
*I *1528:A I *D sky130_fd_sc_hd__buf_2
*I *1316:C1 I *D sky130_fd_sc_hd__o2111a_2
*I *1504:A I *D sky130_fd_sc_hd__buf_2
*I *1239:Y O *D sky130_fd_sc_hd__nand3_4
*CAP
1 *1528:A 0.000219461
2 *1316:C1 8.05046e-05
3 *1504:A 0
4 *1239:Y 8.20716e-05
5 *280:15 0.000330132
6 *280:6 0.000112238
7 *1316:C1 *1240:A 0.000247771
8 *1316:C1 *515:10 0.000175512
9 *1528:A *1240:A 0.000128161
10 *280:6 *515:10 3.69047e-06
11 *280:15 *515:10 1.21258e-05
12 *1238:C1 *1316:C1 0
13 *1238:C1 *1528:A 0
14 *1556:A *1528:A 2.58997e-05
*RES
1 *1239:Y *280:6 10.6571 
2 *280:6 *1504:A 9.3 
3 *280:6 *280:15 5.03571 
4 *280:15 *1316:C1 16.9607 
5 *280:15 *1528:A 18.2286 
*END

*D_NET *281 0.000890737
*CONN
*I *1244:A I *D sky130_fd_sc_hd__xor2_2
*I *1279:A2 I *D sky130_fd_sc_hd__o31ai_4
*I *1240:Y O *D sky130_fd_sc_hd__nand2_2
*CAP
1 *1244:A 8.70636e-05
2 *1279:A2 0
3 *1240:Y 0.000210786
4 *281:10 0.00029785
5 *1244:A *1244:B 0
6 *1244:A *1280:B 9.21958e-05
7 *281:10 *1244:B 0
8 *281:10 *1279:A3 0.000202842
*RES
1 *1240:Y *281:10 18.1214 
2 *281:10 *1279:A2 13.8 
3 *281:10 *1244:A 16.05 
*END

*D_NET *282 0.0168778
*CONN
*I *1107:A1 I *D sky130_fd_sc_hd__a21oi_2
*I *989:A1 I *D sky130_fd_sc_hd__a21oi_2
*I *1026:A1 I *D sky130_fd_sc_hd__a211o_2
*I *953:A1 I *D sky130_fd_sc_hd__o2111a_2
*I *950:A1 I *D sky130_fd_sc_hd__a211o_2
*I *951:A2 I *D sky130_fd_sc_hd__o31a_2
*I *969:A1 I *D sky130_fd_sc_hd__a211o_2
*I *939:B I *D sky130_fd_sc_hd__nor2_2
*I *940:B1 I *D sky130_fd_sc_hd__o22a_2
*I *1064:A2 I *D sky130_fd_sc_hd__o31a_2
*I *926:Y O *D sky130_fd_sc_hd__inv_2
*CAP
1 *1107:A1 7.38778e-05
2 *989:A1 0.000107063
3 *1026:A1 0.00025377
4 *953:A1 0.000191892
5 *950:A1 5.50852e-05
6 *951:A2 0
7 *969:A1 3.78169e-05
8 *939:B 0
9 *940:B1 3.58421e-05
10 *1064:A2 4.74034e-05
11 *926:Y 0.000268987
12 *282:125 0.000942381
13 *282:97 0.000317094
14 *282:88 0.000285518
15 *282:73 0.000440979
16 *282:58 0.000536252
17 *282:39 0.00110932
18 *282:33 0.00212727
19 *282:18 0.000978522
20 *282:12 0.00045324
21 *940:B1 *940:B2 1.04232e-05
22 *950:A1 *950:B1 5.46383e-06
23 *950:A1 *966:B1 0.000147381
24 *950:A1 *546:60 2.38501e-05
25 *950:A1 *561:38 0
26 *950:A1 *647:58 9.41642e-05
27 *953:A1 *953:C1 0.000178847
28 *953:A1 *953:D1 9.0145e-05
29 *953:A1 *292:61 0.000327394
30 *953:A1 *647:62 7.25104e-05
31 *969:A1 *956:C 3.23206e-05
32 *969:A1 *589:79 2.12733e-05
33 *969:A1 *646:24 1.32293e-05
34 *989:A1 *989:A2 9.60939e-05
35 *989:A1 *632:75 6.27058e-05
36 *1026:A1 *1025:B 8.07951e-05
37 *1026:A1 *548:22 2.61408e-05
38 *1026:A1 *632:75 0.000143566
39 *1026:A1 *637:134 0.000174797
40 *1026:A1 *672:59 0.00034008
41 *1064:A2 *599:22 4.33308e-05
42 *1107:A1 *962:A 5.33005e-05
43 *1107:A1 *962:B 5.33005e-05
44 *1107:A1 *1107:B1 9.25014e-06
45 *1107:A1 *378:56 5.41794e-05
46 *1107:A1 *583:16 2.70899e-05
47 *282:12 *1154:B1 5.52238e-05
48 *282:12 *378:56 2.90068e-05
49 *282:12 *583:16 4.98055e-06
50 *282:12 *637:58 0.000121573
51 *282:18 *583:16 9.87983e-06
52 *282:18 *599:22 8.43535e-06
53 *282:33 *549:36 1.57414e-05
54 *282:33 *549:53 1.21289e-05
55 *282:33 *675:10 9.60939e-05
56 *282:39 *940:B2 6.09658e-05
57 *282:39 *1070:A1 0.000218636
58 *282:39 *1073:A1 0.00018372
59 *282:39 *668:34 0.000217057
60 *282:58 *940:A2 0.000136951
61 *282:58 *940:B2 1.15281e-05
62 *282:58 *1018:B1 1.00073e-05
63 *282:58 *1022:A 2.59355e-05
64 *282:58 *602:18 0.000143188
65 *282:58 *634:21 5.52302e-05
66 *282:58 *634:32 0.00014491
67 *282:58 *634:49 1.02504e-05
68 *282:58 *678:32 5.33005e-05
69 *282:73 *956:C 1.02301e-05
70 *282:73 *1018:A2 7.98557e-05
71 *282:73 *1022:A 6.57032e-05
72 *282:73 *1481:A 3.34366e-05
73 *282:73 *549:63 0.000170085
74 *282:73 *678:32 0.000124521
75 *282:88 *955:B 4.22135e-06
76 *282:88 *956:C 4.23643e-05
77 *282:88 *967:B1 5.36422e-05
78 *282:88 *1019:A2 2.53357e-05
79 *282:88 *292:61 5.82781e-05
80 *282:88 *510:41 0
81 *282:88 *646:24 9.58632e-05
82 *282:97 *292:61 0.000182529
83 *282:125 *983:A1 0.00020823
84 *282:125 *987:B 0.000104854
85 *282:125 *1070:A1 0.000256016
86 *282:125 *1160:A2 1.80645e-05
87 *282:125 *549:53 9.00881e-05
88 *282:125 *641:43 4.24209e-05
89 *282:125 *641:49 1.24912e-05
90 *282:125 *641:84 0.000126262
91 *282:125 *668:34 0.00030975
92 *1021:A1 *282:73 0.000333739
93 *1021:A1 *282:88 0.000217144
94 *1023:C1 *953:A1 0.000197991
95 *1023:C1 *282:88 0.000169769
96 *1023:C1 *282:97 0.000190903
97 *1026:B1 *1026:A1 7.18002e-05
98 *1064:B1 *282:12 0.000139922
99 *1070:C1 *282:125 6.5215e-05
100 *1072:A1_N *282:33 0.000533359
101 *1073:C1 *282:39 7.77652e-05
102 *1155:B1 *282:12 0.000296008
103 *1159:A1 *1107:A1 4.42999e-05
104 *1159:A1 *282:12 2.04825e-05
105 *1458:A *1064:A2 0
106 *1458:A *282:12 3.68826e-05
107 *1458:A *282:18 5.52238e-05
108 *1584:A *282:33 0.000135028
109 *260:35 *282:88 0.000109334
*RES
1 *926:Y *282:12 20.0054 
2 *282:12 *282:18 6.13393 
3 *282:18 *1064:A2 10.6929 
4 *282:18 *282:33 15.3036 
5 *282:33 *282:39 17.3393 
6 *282:39 *940:B1 10.0321 
7 *282:39 *282:58 14.9107 
8 *282:58 *939:B 9.3 
9 *282:58 *282:73 15.1607 
10 *282:73 *969:A1 10.2643 
11 *282:73 *282:88 10.7321 
12 *282:88 *951:A2 13.8 
13 *282:88 *282:97 2.55357 
14 *282:97 *950:A1 15.5857 
15 *282:97 *953:A1 20.3714 
16 *282:33 *282:125 18.5893 
17 *282:125 *1026:A1 25.8714 
18 *282:125 *989:A1 11.4786 
19 *282:12 *1107:A1 15.8268 
*END

*D_NET *283 0.00200957
*CONN
*I *1279:A3 I *D sky130_fd_sc_hd__o31ai_4
*I *1241:X O *D sky130_fd_sc_hd__o211a_2
*CAP
1 *1279:A3 0.000551885
2 *1241:X 0.000551885
3 *1279:A3 *1244:B 0
4 *1279:A3 *1280:B 3.51442e-05
5 *1279:A3 *1317:C1 0
6 *1279:A3 *364:18 0
7 *1193:A *1279:A3 0.000100823
8 *1241:C1 *1279:A3 5.52302e-05
9 *1242:C1 *1279:A3 0.000177948
10 *1317:A1 *1279:A3 0.000200413
11 *1317:A2 *1279:A3 0
12 *1546:A *1279:A3 0
13 *188:21 *1279:A3 0.0001098
14 *188:36 *1279:A3 2.36032e-05
15 *281:10 *1279:A3 0.000202842
*RES
1 *1241:X *1279:A3 40.5107 
*END

*D_NET *284 0.00150051
*CONN
*I *1317:B1 I *D sky130_fd_sc_hd__o211ai_4
*I *1510:A I *D sky130_fd_sc_hd__buf_2
*I *1242:Y O *D sky130_fd_sc_hd__o211ai_4
*CAP
1 *1317:B1 0.000318122
2 *1510:A 0
3 *1242:Y 0.000242475
4 *284:10 0.000560597
5 *1317:B1 *1243:B1 1.07719e-05
6 *284:10 *1243:B1 0.000150618
7 *284:10 *1244:B 0
8 *1195:A *284:10 0
9 *1242:A1 *284:10 0
10 *1279:A1 *284:10 0.000119684
11 *1546:A *284:10 7.8327e-05
12 *184:21 *284:10 1.99099e-05
13 *229:27 *284:10 0
*RES
1 *1242:Y *284:10 23.8893 
2 *284:10 *1510:A 9.3 
3 *284:10 *1317:B1 13.9786 
*END

*D_NET *285 0.00113173
*CONN
*I *1244:B I *D sky130_fd_sc_hd__xor2_2
*I *1243:Y O *D sky130_fd_sc_hd__o21ai_2
*CAP
1 *1244:B 0.000457062
2 *1243:Y 0.000457062
3 *1244:B *1243:B1 3.79467e-05
4 *1244:A *1244:B 0
5 *1279:A1 *1244:B 0
6 *1279:A3 *1244:B 0
7 *1317:A2 *1244:B 0.000179656
8 *281:10 *1244:B 0
9 *284:10 *1244:B 0
*RES
1 *1243:Y *1244:B 27.5321 
*END

*D_NET *286 0.00471337
*CONN
*I *1273:A I *D sky130_fd_sc_hd__nand3_4
*I *1271:B1 I *D sky130_fd_sc_hd__a21oi_2
*I *1272:B1 I *D sky130_fd_sc_hd__a21o_2
*I *1245:X O *D sky130_fd_sc_hd__a21o_2
*CAP
1 *1273:A 5.92109e-05
2 *1271:B1 8.23237e-05
3 *1272:B1 0.000368289
4 *1245:X 0.00105107
5 *286:29 0.000250465
6 *286:12 0.00152829
7 *1271:B1 *312:8 1.02504e-05
8 *1271:B1 *312:23 0.000177941
9 *1271:B1 *317:8 0.000153054
10 *1271:B1 *317:21 2.31791e-05
11 *1271:B1 *317:33 5.33005e-05
12 *1272:B1 *1354:A 0
13 *1272:B1 *313:10 0
14 *1272:B1 *313:21 0
15 *286:12 *1225:B 0
16 *286:12 *1226:A1 0
17 *286:12 *1226:A2 0
18 *286:12 *1269:B 0.000200413
19 *286:12 *1270:A_N 5.90443e-06
20 *286:12 *287:10 0.00026723
21 *286:12 *312:8 0.000184635
22 *286:12 *313:10 0
23 *286:12 *506:79 0
24 *286:12 *573:62 0
25 *1246:C_N *286:12 0.000102324
26 *1502:A *286:12 0
27 *101:22 *286:12 0.000144773
28 *266:12 *286:12 5.07157e-05
*RES
1 *1245:X *286:12 40.7286 
2 *286:12 *1272:B1 24.2643 
3 *286:12 *286:29 1.78571 
4 *286:29 *1271:B1 21.0857 
5 *286:29 *1273:A 10.2464 
*END

*D_NET *287 0.0020297
*CONN
*I *1270:A_N I *D sky130_fd_sc_hd__nand3b_4
*I *1269:A I *D sky130_fd_sc_hd__nand3_2
*I *1246:X O *D sky130_fd_sc_hd__or3b_4
*CAP
1 *1270:A_N 0.000318122
2 *1269:A 0
3 *1246:X 0.000454905
4 *287:10 0.000773026
5 *1270:A_N *1231:A1 0
6 *1270:A_N *312:8 0.000153047
7 *1270:A_N *313:10 4.01768e-05
8 *287:10 *1226:A1 1.72894e-05
9 *287:10 *1231:A1 0
10 *287:10 *506:79 0
11 *1523:A *1270:A_N 0
12 *286:12 *1270:A_N 5.90443e-06
13 *286:12 *287:10 0.00026723
*RES
1 *1246:X *287:10 23.5679 
2 *287:10 *1269:A 13.8 
3 *287:10 *1270:A_N 19.8714 
*END

*D_NET *288 0.00512547
*CONN
*I *1307:A1 I *D sky130_fd_sc_hd__a311o_2
*I *1258:A I *D sky130_fd_sc_hd__nand3_2
*I *1247:X O *D sky130_fd_sc_hd__a21o_2
*CAP
1 *1307:A1 0.000131758
2 *1258:A 0
3 *1247:X 0.00122465
4 *288:10 0.00135641
5 *1307:A1 *1283:C 0
6 *1307:A1 *1305:B1 0.000198448
7 *1307:A1 *1307:A2 1.18403e-05
8 *288:10 *1282:B2 4.02462e-05
9 *288:10 *1305:B1 0.00037646
10 *288:10 *1307:A2 4.1331e-06
11 *288:10 *297:50 0.000121775
12 *288:10 *301:16 3.18676e-05
13 *288:10 *630:36 0.000225307
14 *288:10 *630:45 0.000424525
15 *288:10 *630:56 0.000325958
16 *288:10 *640:22 2.74584e-05
17 *288:10 *645:48 0.00023731
18 *288:10 *654:52 9.77024e-05
19 *1247:A2 *288:10 2.24787e-05
20 *1358:B1 *288:10 4.16114e-05
21 *1385:C *288:10 6.05161e-06
22 *98:12 *288:10 7.90803e-05
23 *256:19 *288:10 0.000140403
*RES
1 *1247:X *288:10 39.55 
2 *288:10 *1258:A 13.8 
3 *288:10 *1307:A1 16.6571 
*END

*D_NET *289 0.00177193
*CONN
*I *1249:A I *D sky130_fd_sc_hd__nand2_2
*I *1248:Y O *D sky130_fd_sc_hd__o21ai_2
*CAP
1 *1249:A 0.000593659
2 *1248:Y 0.000593659
3 *1249:A *1208:A2 0.000116417
4 *1249:A *1288:B2 0.000281133
5 *1249:A *1560:A 1.96467e-05
6 *1249:A *578:10 7.31195e-06
7 *1249:A *662:50 4.77058e-05
8 *1208:A1 *1249:A 5.97931e-05
9 *242:8 *1249:A 5.26091e-05
*RES
1 *1248:Y *1249:A 38.6357 
*END

*D_NET *290 0.0030967
*CONN
*I *1255:B1 I *D sky130_fd_sc_hd__a21o_2
*I *1256:A I *D sky130_fd_sc_hd__nand3_2
*I *1254:B1 I *D sky130_fd_sc_hd__a21oi_2
*I *1249:Y O *D sky130_fd_sc_hd__nand2_2
*CAP
1 *1255:B1 0
2 *1256:A 9.00908e-05
3 *1254:B1 4.31073e-05
4 *1249:Y 0.00039412
5 *290:23 0.000167636
6 *290:10 0.000514773
7 *1254:B1 *296:6 1.92789e-05
8 *1254:B1 *591:30 4.87854e-05
9 *1256:A *1255:A2 4.90969e-05
10 *1256:A *1256:C 9.60939e-05
11 *1256:A *297:12 5.90666e-05
12 *1256:A *660:50 4.70078e-05
13 *290:10 *997:B 0.000192983
14 *290:10 *1208:A2 4.71964e-05
15 *290:10 *1288:B2 0.000145753
16 *290:10 *1288:C1 0.00053624
17 *290:10 *331:10 4.87694e-05
18 *290:10 *631:76 4.78779e-05
19 *290:10 *655:89 0.000192776
20 *290:23 *997:B 0.000188734
21 *290:23 *1288:C1 8.32242e-05
22 *290:23 *297:12 6.81083e-05
23 *290:23 *591:22 1.59782e-05
*RES
1 *1249:Y *290:10 24.3893 
2 *290:10 *1254:B1 14.7464 
3 *290:10 *290:23 7.05357 
4 *290:23 *1256:A 11.925 
5 *290:23 *1255:B1 9.3 
*END

*D_NET *291 0.00242189
*CONN
*I *1252:A1 I *D sky130_fd_sc_hd__o221ai_2
*I *1251:B1 I *D sky130_fd_sc_hd__a21oi_2
*I *1250:Y O *D sky130_fd_sc_hd__o21ai_2
*CAP
1 *1252:A1 0.000115442
2 *1251:B1 0.000268894
3 *1250:Y 0.000164458
4 *291:10 0.000548794
5 *1251:B1 *1251:A1 2.8266e-06
6 *1251:B1 *1252:B1 5.33005e-05
7 *1251:B1 *1254:A2 5.52302e-05
8 *1251:B1 *1288:C1 0
9 *1251:B1 *294:6 0.000128496
10 *1251:B1 *295:10 3.2534e-05
11 *1251:B1 *297:33 7.48301e-06
12 *1251:B1 *591:30 0
13 *1252:A1 *995:B 5.33005e-05
14 *1252:A1 *1252:B1 1.24368e-05
15 *1252:A1 *297:33 2.05612e-05
16 *291:10 *410:10 0.00023595
17 *291:10 *410:14 0.000167862
18 *1216:A1 *1251:B1 8.17632e-05
19 *1252:B2 *1252:A1 7.02611e-05
20 *247:20 *291:10 0.000402295
*RES
1 *1250:Y *291:10 23.5857 
2 *291:10 *1251:B1 23.6929 
3 *291:10 *1252:A1 11.4786 
*END

*D_NET *292 0.0218758
*CONN
*I *1246:A I *D sky130_fd_sc_hd__or3b_4
*I *1225:A I *D sky130_fd_sc_hd__nand2_2
*I *1130:B1 I *D sky130_fd_sc_hd__o221a_2
*I *953:B1 I *D sky130_fd_sc_hd__o2111a_2
*I *955:B I *D sky130_fd_sc_hd__nor3_2
*I *984:A2 I *D sky130_fd_sc_hd__o311ai_4
*I *940:B2 I *D sky130_fd_sc_hd__o22a_2
*I *927:Y O *D sky130_fd_sc_hd__inv_2
*CAP
1 *1246:A 0
2 *1225:A 0.000342691
3 *1130:B1 7.99061e-05
4 *953:B1 0
5 *955:B 0.000729584
6 *984:A2 0.000337373
7 *940:B2 0.000329548
8 *927:Y 0
9 *292:113 0.00209003
10 *292:82 0.00294144
11 *292:61 0.00137963
12 *292:42 0.0014718
13 *292:25 0.00109431
14 *292:6 0.000609713
15 *940:B2 *941:C 2.29869e-05
16 *940:B2 *941:D 0.000172233
17 *940:B2 *942:A 9.71197e-05
18 *940:B2 *1017:A1 8.05766e-05
19 *940:B2 *1448:A 0.000114359
20 *940:B2 *647:14 0.000222885
21 *955:B *955:A 3.2033e-05
22 *955:B *1019:A2 1.84776e-05
23 *955:B *1023:A3 7.29646e-05
24 *955:B *632:83 4.00276e-06
25 *955:B *646:36 6.05161e-06
26 *984:A2 *990:A2 7.48901e-06
27 *984:A2 *314:46 0.000490953
28 *984:A2 *668:71 7.56533e-05
29 *1130:B1 *1130:C1 1.34576e-05
30 *1130:B1 *1138:B1 1.28809e-05
31 *1130:B1 *602:29 6.66527e-05
32 *1225:A *1225:B 1.3701e-05
33 *1225:A *506:79 0.000150632
34 *292:25 *982:A1 0.000279123
35 *292:25 *987:A 0
36 *292:25 *1017:A1 5.4031e-05
37 *292:42 *314:46 0.00063583
38 *292:61 *951:B1 0.000124012
39 *292:61 *1023:A3 8.48842e-05
40 *292:61 *561:10 0.00017309
41 *292:61 *561:14 0.000173812
42 *292:61 *647:62 9.11365e-06
43 *292:82 *953:A2 9.71197e-05
44 *292:82 *953:C1 3.06878e-06
45 *292:82 *953:D1 3.97677e-05
46 *292:82 *1081:A1 9.80029e-05
47 *292:82 *561:10 6.81083e-05
48 *292:82 *602:29 0.00102463
49 *292:82 *634:64 0.000532389
50 *292:82 *647:62 2.88424e-05
51 *292:113 *1130:C1 4.6152e-05
52 *292:113 *1136:A1 5.53703e-05
53 *292:113 *1178:B2 0.000528337
54 *292:113 *1246:B 5.33005e-05
55 *292:113 *554:56 5.03772e-05
56 *292:113 *649:111 0
57 *940:B1 *940:B2 1.04232e-05
58 *953:A1 *292:61 0.000327394
59 *1079:A2 *292:82 0.000218019
60 *1083:B1 *292:82 0.000227729
61 *1122:A2 *292:82 0.000160403
62 *1130:B2 *1130:B1 6.26774e-06
63 *1136:A2 *292:113 2.93262e-05
64 *1136:B1 *292:113 0
65 *1137:C1 *292:113 3.9745e-05
66 *1137:D1 *292:113 0.00014576
67 *1139:A1 *292:113 6.8646e-06
68 *1139:B1_N *292:113 0.000229737
69 *1149:A2 *292:113 5.22483e-05
70 *1178:A1 *292:113 2.59355e-05
71 *1178:B1 *1225:A 0.000126446
72 *1178:B1 *292:113 0.000135921
73 *1227:A *1225:A 0.000111718
74 *1246:C_N *1225:A 0
75 *101:22 *292:113 5.91696e-05
76 *116:18 *292:82 0.00123789
77 *116:39 *292:82 0.000244087
78 *119:10 *292:82 0.000121573
79 *121:12 *292:82 0.000126439
80 *121:23 *292:82 0.000250915
81 *121:36 *292:82 0.000148196
82 *131:8 *292:82 0
83 *131:8 *292:113 6.66527e-05
84 *165:22 *292:113 1.90936e-05
85 *189:10 *292:113 0.000128868
86 *260:35 *955:B 6.09762e-05
87 *282:39 *940:B2 6.09658e-05
88 *282:58 *940:B2 1.15281e-05
89 *282:88 *955:B 4.22135e-06
90 *282:88 *292:61 5.82781e-05
91 *282:97 *292:61 0.000182529
*RES
1 *927:Y *292:6 13.8 
2 *292:6 *940:B2 22.7286 
3 *292:6 *292:25 10.3929 
4 *292:25 *984:A2 23.5679 
5 *292:25 *292:42 10.7857 
6 *292:42 *955:B 22.9786 
7 *292:42 *292:61 8.67857 
8 *292:61 *953:B1 13.8 
9 *292:61 *292:82 45.3304 
10 *292:82 *1130:B1 15.3491 
11 *292:82 *292:113 31.7946 
12 *292:113 *1225:A 24.8 
13 *292:113 *1246:A 9.3 
*END

*D_NET *293 0.000539243
*CONN
*I *1253:B1 I *D sky130_fd_sc_hd__a22oi_2
*I *1251:Y O *D sky130_fd_sc_hd__a21oi_2
*CAP
1 *1253:B1 0.000113943
2 *1251:Y 0.000113943
3 *1253:B1 *1251:A1 1.21859e-05
4 *1253:B1 *1253:B2 1.01912e-05
5 *1253:B1 *336:14 4.92986e-05
6 *1253:B1 *529:22 0.000208349
7 *1216:A1 *1253:B1 2.11419e-05
8 *247:20 *1253:B1 1.01912e-05
*RES
1 *1251:Y *1253:B1 35.3088 
*END

*D_NET *294 0.00128166
*CONN
*I *1255:A2 I *D sky130_fd_sc_hd__a21o_2
*I *1256:B I *D sky130_fd_sc_hd__nand3_2
*I *1254:A2 I *D sky130_fd_sc_hd__a21oi_2
*I *1252:Y O *D sky130_fd_sc_hd__o221ai_2
*CAP
1 *1255:A2 5.61181e-05
2 *1256:B 0
3 *1254:A2 2.83204e-05
4 *1252:Y 2.78451e-05
5 *294:19 0.00014691
6 *294:6 0.000146957
7 *1254:A2 *1252:C1 9.90367e-05
8 *1255:A2 *1256:C 3.54039e-05
9 *1255:A2 *660:50 0.000142856
10 *294:6 *1252:C1 9.60939e-05
11 *294:6 *297:33 1.74352e-05
12 *294:19 *295:10 0
13 *294:19 *591:22 5.63101e-05
14 *1216:A1 *294:19 0.000195555
15 *1251:B1 *1254:A2 5.52302e-05
16 *1251:B1 *294:6 0.000128496
17 *1256:A *1255:A2 4.90969e-05
*RES
1 *1252:Y *294:6 10.6571 
2 *294:6 *1254:A2 10.2464 
3 *294:6 *294:19 11.5536 
4 *294:19 *1256:B 9.3 
5 *294:19 *1255:A2 11.5143 
*END

*D_NET *295 0.00182147
*CONN
*I *1256:C I *D sky130_fd_sc_hd__nand3_2
*I *1255:A1 I *D sky130_fd_sc_hd__a21o_2
*I *1254:A1 I *D sky130_fd_sc_hd__a21oi_2
*I *1253:Y O *D sky130_fd_sc_hd__a22oi_2
*CAP
1 *1256:C 0.000276102
2 *1255:A1 0
3 *1254:A1 0
4 *1253:Y 0.000195254
5 *295:21 0.000319788
6 *295:10 0.00023894
7 *1256:C *298:10 2.27416e-05
8 *1256:C *357:39 5.94896e-06
9 *295:10 *1288:C1 0.000152333
10 *295:10 *591:22 1.02504e-05
11 *295:21 *1288:C1 4.80729e-05
12 *295:21 *297:12 7.6644e-05
13 *295:21 *591:22 0.000125717
14 *1216:A1 *295:10 0
15 *1251:B1 *295:10 3.2534e-05
16 *1255:A2 *1256:C 3.54039e-05
17 *1256:A *1256:C 9.60939e-05
18 *42:22 *295:10 0.000185643
19 *294:19 *295:10 0
*RES
1 *1253:Y *295:10 17.5143 
2 *295:10 *1254:A1 13.8 
3 *295:10 *295:21 6.14286 
4 *295:21 *1255:A1 9.3 
5 *295:21 *1256:C 13.0321 
*END

*D_NET *296 0.00146376
*CONN
*I *1299:A2 I *D sky130_fd_sc_hd__o211ai_2
*I *1298:A2 I *D sky130_fd_sc_hd__o211a_2
*I *1254:Y O *D sky130_fd_sc_hd__a21oi_2
*CAP
1 *1299:A2 7.22262e-05
2 *1298:A2 0.000113959
3 *1254:Y 0.000319886
4 *296:6 0.000506071
5 *1298:A2 *1298:A1 2.10625e-05
6 *1298:A2 *1298:B1 3.50166e-05
7 *1298:A2 *1411:A 1.13105e-05
8 *1299:A2 *998:A 0.000101545
9 *1299:A2 *332:12 1.31516e-05
10 *296:6 *1298:A1 0.000105643
11 *296:6 *1302:A1 0.000141729
12 *296:6 *591:30 2.88018e-06
13 *1254:B1 *296:6 1.92789e-05
*RES
1 *1254:Y *296:6 13.5321 
2 *296:6 *1298:A2 10.9786 
3 *296:6 *1299:A2 19.9429 
*END

*D_NET *297 0.0109961
*CONN
*I *1307:A2 I *D sky130_fd_sc_hd__a311o_2
*I *1258:B I *D sky130_fd_sc_hd__nand3_2
*I *1257:A I *D sky130_fd_sc_hd__nand2_2
*I *1288:C1 I *D sky130_fd_sc_hd__o221ai_2
*I *1255:X O *D sky130_fd_sc_hd__a21o_2
*CAP
1 *1307:A2 0.000184983
2 *1258:B 0
3 *1257:A 4.55731e-05
4 *1288:C1 0.000354741
5 *1255:X 0.000165587
6 *297:50 0.000955751
7 *297:33 0.00206679
8 *297:12 0.00177078
9 *1288:C1 *1115:A3 4.16984e-05
10 *1288:C1 *1208:A2 1.02392e-05
11 *1288:C1 *1251:A1 0.000148189
12 *1288:C1 *1288:B1 4.97059e-05
13 *1288:C1 *1288:B2 5.33005e-05
14 *1288:C1 *581:16 0.000183963
15 *1288:C1 *632:44 7.90699e-05
16 *1307:A2 *1305:B1 0.000105637
17 *1307:A2 *1307:A3 0.000121157
18 *1307:A2 *301:16 0
19 *297:12 *660:50 1.97756e-05
20 *297:33 *1252:B1 2.89114e-05
21 *297:33 *1252:C1 0.000117553
22 *297:33 *1259:C 9.6732e-05
23 *297:33 *298:10 0.000123806
24 *297:33 *298:21 5.80706e-06
25 *297:33 *591:30 6.88294e-06
26 *297:33 *640:24 0
27 *297:33 *654:29 0.000126439
28 *297:33 *654:52 0.000310979
29 *297:50 *1282:B2 7.22594e-05
30 *297:50 *1307:A3 4.1331e-06
31 *297:50 *1361:A1_N 0
32 *297:50 *1361:A2_N 2.3896e-05
33 *297:50 *1362:B1 0.000145753
34 *297:50 *1364:B 3.69697e-05
35 *297:50 *298:21 6.25608e-05
36 *297:50 *406:10 0.000191403
37 *297:50 *638:102 2.61337e-05
38 *297:50 *645:48 0.00054712
39 *297:50 *654:52 1.18064e-05
40 *1213:A1 *297:33 8.68569e-05
41 *1215:A2 *297:33 1.91418e-05
42 *1251:B1 *1288:C1 0
43 *1251:B1 *297:33 7.48301e-06
44 *1252:A1 *297:33 2.05612e-05
45 *1252:B2 *297:33 0.000519496
46 *1256:A *297:12 5.90666e-05
47 *1307:A1 *1307:A2 1.18403e-05
48 *1358:B1 *297:50 0.000153047
49 *97:14 *297:50 0.000144038
50 *250:10 *297:33 0.00020387
51 *256:10 *297:33 0.000366689
52 *288:10 *1307:A2 4.1331e-06
53 *288:10 *297:50 0.000121775
54 *290:10 *1288:C1 0.00053624
55 *290:23 *1288:C1 8.32242e-05
56 *290:23 *297:12 6.81083e-05
57 *294:6 *297:33 1.74352e-05
58 *295:10 *1288:C1 0.000152333
59 *295:21 *1288:C1 4.80729e-05
60 *295:21 *297:12 7.6644e-05
*RES
1 *1255:X *297:12 16.6214 
2 *297:12 *1288:C1 24.8357 
3 *297:12 *297:33 33.0714 
4 *297:33 *1257:A 14.3357 
5 *297:33 *297:50 18.0179 
6 *297:50 *1258:B 13.8 
7 *297:50 *1307:A2 17.9071 
*END

*D_NET *298 0.00642767
*CONN
*I *1307:A3 I *D sky130_fd_sc_hd__a311o_2
*I *1258:C I *D sky130_fd_sc_hd__nand3_2
*I *1257:B I *D sky130_fd_sc_hd__nand2_2
*I *1256:Y O *D sky130_fd_sc_hd__nand3_2
*CAP
1 *1307:A3 0.000196809
2 *1258:C 0
3 *1257:B 0
4 *1256:Y 0.000697265
5 *298:21 0.000925709
6 *298:10 0.00142616
7 *1307:A3 *1305:B1 0.000183726
8 *1307:A3 *1305:B2 0.000108026
9 *298:10 *1252:B1 9.38921e-05
10 *298:10 *1259:A 6.74911e-05
11 *298:10 *301:16 8.82021e-05
12 *298:10 *357:39 0.00028127
13 *298:10 *378:112 0
14 *298:10 *591:14 0.000224163
15 *298:10 *654:52 0.000107568
16 *298:21 *1305:B2 0.000129868
17 *298:21 *1361:A2_N 0.000164554
18 *298:21 *1362:B1 1.69115e-05
19 *298:21 *1364:B 3.34687e-05
20 *298:21 *1364:D 0.000147186
21 *298:21 *301:16 0.000198826
22 *298:21 *406:10 5.8099e-05
23 *298:21 *407:17 0.00014576
24 *298:21 *638:102 2.84494e-05
25 *298:21 *645:46 0.000101545
26 *1247:A2 *298:10 1.18451e-05
27 *1256:C *298:10 2.27416e-05
28 *1307:A2 *1307:A3 0.000121157
29 *1364:C *298:21 0.000173097
30 *1562:A *298:10 0.000186537
31 *249:12 *298:10 9.9784e-05
32 *256:10 *298:10 0.000191253
33 *297:33 *298:10 0.000123806
34 *297:33 *298:21 5.80706e-06
35 *297:50 *1307:A3 4.1331e-06
36 *297:50 *298:21 6.25608e-05
*RES
1 *1256:Y *298:10 31.9429 
2 *298:10 *1257:B 13.8 
3 *298:10 *298:21 17.3571 
4 *298:21 *1258:C 13.8 
5 *298:21 *1307:A3 18.9607 
*END

*D_NET *299 0.000695641
*CONN
*I *1259:C I *D sky130_fd_sc_hd__nand3_4
*I *1257:Y O *D sky130_fd_sc_hd__nand2_2
*CAP
1 *1259:C 0.000105776
2 *1257:Y 0.000105776
3 *1259:C *1126:B1 9.71197e-05
4 *1259:C *630:36 9.71197e-05
5 *1259:C *654:52 0.000193118
6 *297:33 *1259:C 9.6732e-05
*RES
1 *1257:Y *1259:C 31.1 
*END

*D_NET *300 0.00339772
*CONN
*I *1266:B1 I *D sky130_fd_sc_hd__o211ai_2
*I *1267:A1_N I *D sky130_fd_sc_hd__o2bb2ai_2
*I *1268:B1 I *D sky130_fd_sc_hd__o211ai_2
*I *1265:A1_N I *D sky130_fd_sc_hd__o2bb2ai_2
*I *1258:Y O *D sky130_fd_sc_hd__nand3_2
*CAP
1 *1266:B1 0.000226662
2 *1267:A1_N 0
3 *1268:B1 0.000116361
4 *1265:A1_N 0
5 *1258:Y 0.000812987
6 *300:23 0.000129215
7 *300:16 5.70132e-05
8 *300:14 0.00108381
9 *1266:B1 *1267:A2_N 6.58811e-05
10 *1266:B1 *1267:B2 0
11 *1266:B1 *1269:B 2.42547e-05
12 *1266:B1 *305:8 0
13 *1268:B1 *1267:A2_N 9.25014e-06
14 *1268:B1 *1268:A2 0.00022117
15 *1268:B1 *1269:C 0
16 *1268:B1 *1270:B 0
17 *300:14 *1263:B1 0.000100674
18 *300:14 *1265:B2 0.000139913
19 *300:14 *1269:B 1.02821e-05
20 *300:14 *1305:B1 4.58194e-05
21 *300:14 *301:50 3.92757e-05
22 *300:14 *303:12 1.33343e-05
23 *300:14 *303:18 0.000111442
24 *300:14 *306:8 6.02554e-05
25 *300:14 *306:21 2.56694e-05
26 *300:14 *307:8 0
27 *300:14 *307:23 0
28 *300:14 *649:24 4.70162e-05
29 *300:23 *1269:B 5.33005e-05
30 *1503:A *1266:B1 4.1331e-06
*RES
1 *1258:Y *300:14 30.2286 
2 *300:14 *300:16 0.732143 
3 *300:16 *1265:A1_N 9.3 
4 *300:16 *300:23 0.535714 
5 *300:23 *1268:B1 21.1571 
6 *300:23 *1267:A1_N 9.3 
7 *300:14 *1266:B1 21.7107 
*END

*D_NET *301 0.0088144
*CONN
*I *1345:A1 I *D sky130_fd_sc_hd__a31o_2
*I *1268:C1 I *D sky130_fd_sc_hd__o211ai_2
*I *1265:A2_N I *D sky130_fd_sc_hd__o2bb2ai_2
*I *1267:A2_N I *D sky130_fd_sc_hd__o2bb2ai_2
*I *1266:C1 I *D sky130_fd_sc_hd__o211ai_2
*I *1308:A I *D sky130_fd_sc_hd__nand2_2
*I *1309:A I *D sky130_fd_sc_hd__nand3_2
*I *1259:Y O *D sky130_fd_sc_hd__nand3_4
*CAP
1 *1345:A1 0.00018354
2 *1268:C1 0.000168449
3 *1265:A2_N 0
4 *1267:A2_N 9.15833e-05
5 *1266:C1 3.62004e-05
6 *1308:A 1.24159e-05
7 *1309:A 0
8 *1259:Y 0.00116646
9 *301:50 0.000335849
10 *301:44 0.000307589
11 *301:42 0.000757431
12 *301:29 0.000577448
13 *301:20 0.000124219
14 *301:16 0.00139865
15 *1266:C1 *573:39 5.7661e-06
16 *1267:A2_N *1267:B2 0
17 *1267:A2_N *1268:A2 1.3142e-05
18 *1267:A2_N *1269:B 5.52302e-05
19 *1267:A2_N *307:23 5.01213e-05
20 *1268:C1 *1268:A2 2.89016e-05
21 *1268:C1 *1270:C 2.27416e-05
22 *1308:A *1308:B 5.7661e-06
23 *1345:A1 *1311:A1 1.38323e-05
24 *1345:A1 *1345:A2 5.52302e-05
25 *1345:A1 *352:16 2.14658e-05
26 *1345:A1 *355:8 0.000101545
27 *1345:A1 *356:12 0.000154845
28 *301:16 *1282:A2 0
29 *301:16 *1304:B1 3.32538e-05
30 *301:16 *1305:B2 0.000177823
31 *301:16 *1310:A1 0.000153047
32 *301:16 *1345:A3 0.000129531
33 *301:16 *1364:A_N 5.53499e-05
34 *301:16 *1364:D 0.000568871
35 *301:16 *327:10 0.000118339
36 *301:16 *351:10 4.84947e-05
37 *301:16 *352:12 0.000250193
38 *301:16 *353:14 5.67737e-05
39 *301:16 *378:112 0.000293004
40 *301:16 *627:37 0
41 *301:16 *638:91 0.000238769
42 *301:20 *1308:B 5.52302e-05
43 *301:20 *353:14 5.922e-05
44 *301:29 *1308:B 3.4855e-05
45 *301:29 *1310:B1 1.32552e-05
46 *301:42 *1268:A1 9.90431e-05
47 *301:42 *1268:A2 3.17163e-05
48 *301:42 *1270:B 0
49 *301:44 *1268:A1 0
50 *301:44 *1268:A2 9.24395e-05
51 *301:44 *306:21 0
52 *301:50 *1268:A2 1.31516e-05
53 *301:50 *1307:C1 9.90367e-05
54 *301:50 *306:21 0
55 *301:50 *307:23 4.78056e-05
56 *301:50 *573:39 1.97865e-05
57 *1247:A2 *301:16 3.69047e-06
58 *1266:B1 *1267:A2_N 6.58811e-05
59 *1268:B1 *1267:A2_N 9.25014e-06
60 *1307:A2 *301:16 0
61 *75:10 *301:16 0
62 *256:19 *301:16 0
63 *288:10 *301:16 3.18676e-05
64 *298:10 *301:16 8.82021e-05
65 *298:21 *301:16 0.000198826
66 *300:14 *301:50 3.92757e-05
*RES
1 *1259:Y *301:16 48.2821 
2 *301:16 *301:20 1.375 
3 *301:20 *1309:A 9.3 
4 *301:20 *301:29 1.78571 
5 *301:29 *1308:A 9.72857 
6 *301:29 *301:42 12.6429 
7 *301:42 *301:44 2.25 
8 *301:44 *301:50 7.91071 
9 *301:50 *1266:C1 10.0321 
10 *301:50 *1267:A2_N 20.4786 
11 *301:44 *1265:A2_N 13.8 
12 *301:42 *1268:C1 16.3893 
13 *301:16 *1345:A1 21.4071 
*END

*D_NET *302 0.00397837
*CONN
*I *1262:C I *D sky130_fd_sc_hd__nor3_2
*I *1261:B1 I *D sky130_fd_sc_hd__o21a_2
*I *1264:A I *D sky130_fd_sc_hd__and3_2
*I *1283:C I *D sky130_fd_sc_hd__and3_2
*I *1263:B1 I *D sky130_fd_sc_hd__a21oi_2
*I *1260:Y O *D sky130_fd_sc_hd__a22oi_2
*CAP
1 *1262:C 0
2 *1261:B1 0.000157865
3 *1264:A 0
4 *1283:C 0.000162233
5 *1263:B1 3.37552e-05
6 *1260:Y 0.000407587
7 *302:56 0.000289639
8 *302:45 0.000276317
9 *302:14 0.000459032
10 *1261:B1 *1225:B 0.000146474
11 *1261:B1 *304:6 7.61932e-05
12 *1261:B1 *305:8 8.59056e-05
13 *1261:B1 *573:39 5.33005e-05
14 *1261:B1 *573:62 1.66503e-05
15 *1261:B1 *630:81 0.000120587
16 *1263:B1 *303:18 0.000185824
17 *1283:C *1283:A 8.04877e-05
18 *1283:C *306:8 0
19 *302:14 *1260:A1 0.000264261
20 *302:14 *1260:B1 9.84968e-05
21 *302:14 *1260:B2 1.3701e-05
22 *302:14 *1305:B1 0
23 *302:14 *303:18 6.04162e-05
24 *302:14 *303:28 2.8266e-06
25 *302:14 *626:8 0.000504854
26 *302:14 *645:54 6.09143e-05
27 *302:14 *649:24 0
28 *302:45 *303:6 4.32236e-07
29 *302:45 *305:8 1.19309e-05
30 *302:45 *627:10 0
31 *302:45 *627:12 0
32 *302:45 *630:81 8.91726e-05
33 *302:56 *1262:B 5.33005e-05
34 *302:56 *303:6 0.00013663
35 *302:56 *627:10 2.89114e-05
36 *302:56 *649:28 0
37 *1307:A1 *1283:C 0
38 *300:14 *1263:B1 0.000100674
*RES
1 *1260:Y *302:14 22.7821 
2 *302:14 *1263:B1 15.5679 
3 *302:14 *1283:C 16.6571 
4 *1260:Y *302:45 21.0857 
5 *302:45 *1264:A 9.3 
6 *302:45 *302:56 3.30804 
7 *302:56 *1261:B1 23.1393 
8 *302:56 *1262:C 9.3 
*END

*D_NET *303 0.0221453
*CONN
*I *1264:B I *D sky130_fd_sc_hd__and3_2
*I *1263:A1 I *D sky130_fd_sc_hd__a21oi_2
*I *1282:C1 I *D sky130_fd_sc_hd__a221o_2
*I *1118:A1 I *D sky130_fd_sc_hd__o311a_2
*I *1115:A1 I *D sky130_fd_sc_hd__o311a_2
*I *953:A2 I *D sky130_fd_sc_hd__o2111a_2
*I *1023:A2 I *D sky130_fd_sc_hd__o311ai_2
*I *951:A3 I *D sky130_fd_sc_hd__o31a_2
*I *928:Y O *D sky130_fd_sc_hd__inv_2
*CAP
1 *1264:B 0
2 *1263:A1 0
3 *1282:C1 5.7143e-05
4 *1118:A1 0.000272442
5 *1115:A1 0
6 *953:A2 0.000117353
7 *1023:A2 0
8 *951:A3 0.000156377
9 *928:Y 0.000907299
10 *303:51 0.000138211
11 *303:38 0.00232175
12 *303:30 0.00225691
13 *303:28 0.00177644
14 *303:18 0.00172918
15 *303:12 0.000493747
16 *303:6 0.00112061
17 *951:A3 *951:A1 6.57032e-05
18 *951:A3 *1023:A3 0.000333054
19 *951:A3 *314:46 0.000138432
20 *951:A3 *634:49 0.000334715
21 *953:A2 *953:D1 9.71197e-05
22 *953:A2 *1023:A3 1.02504e-05
23 *953:A2 *561:10 0.000108295
24 *953:A2 *634:49 0.000190155
25 *953:A2 *634:64 3.34366e-05
26 *1118:A1 *1118:B1 0.00018942
27 *1282:C1 *1260:A1 0.000117543
28 *1282:C1 *626:8 0.000224583
29 *303:6 *627:10 0.000213645
30 *303:12 *649:28 6.67434e-05
31 *303:18 *1305:B1 5.98293e-05
32 *303:28 *1030:A 8.24047e-05
33 *303:28 *1056:A 0
34 *303:28 *1114:C 2.26327e-05
35 *303:28 *1126:A2 0.000364953
36 *303:28 *1211:A2 0.000222892
37 *303:28 *1214:C1 0.000567758
38 *303:28 *1305:B1 7.41454e-05
39 *303:28 *1360:D1 1.59782e-05
40 *303:28 *1466:A 0.000239878
41 *303:28 *562:22 6.81083e-05
42 *303:28 *562:24 0.000239236
43 *303:28 *613:20 0.00014402
44 *303:28 *628:35 4.33438e-05
45 *303:28 *630:45 0.000122025
46 *303:28 *630:56 0.000111651
47 *303:28 *640:22 0.000455564
48 *303:28 *640:24 6.09057e-06
49 *303:28 *651:52 0
50 *303:28 *653:10 9.15804e-05
51 *303:28 *656:12 0.000174812
52 *303:30 *653:10 5.15925e-05
53 *303:38 *632:67 2.24834e-05
54 *303:38 *632:75 0.00230534
55 *303:38 *640:34 0.000222878
56 *303:38 *641:20 1.08359e-05
57 *303:51 *1023:A3 8.07951e-05
58 *303:51 *634:49 7.15449e-05
59 *1116:A2 *1118:A1 4.70078e-05
60 *1117:A1 *303:30 1.17968e-05
61 *1117:A1 *303:38 1.31516e-05
62 *1159:A1 *303:38 9.46929e-05
63 *1263:B1 *303:18 0.000185824
64 *1534:A *303:38 8.43535e-06
65 *153:23 *303:38 2.14658e-05
66 *155:12 *303:30 9.33506e-05
67 *160:12 *303:28 0.00136397
68 *160:12 *303:30 0.000262343
69 *160:12 *303:38 0.000278115
70 *292:82 *953:A2 9.71197e-05
71 *300:14 *303:12 1.33343e-05
72 *300:14 *303:18 0.000111442
73 *302:14 *303:18 6.04162e-05
74 *302:14 *303:28 2.8266e-06
75 *302:45 *303:6 4.32236e-07
76 *302:56 *303:6 0.00013663
*RES
1 *928:Y *303:6 20.5143 
2 *303:6 *303:12 3.75 
3 *303:12 *303:18 11.3929 
4 *303:18 *303:28 40.1071 
5 *303:28 *303:30 3.46429 
6 *303:30 *303:38 39.8036 
7 *303:38 *951:A3 19.5321 
8 *303:38 *303:51 1.03571 
9 *303:51 *1023:A2 13.8 
10 *303:51 *953:A2 17.6036 
11 *303:30 *1115:A1 13.8 
12 *303:28 *1118:A1 17.5321 
13 *303:18 *1282:C1 15.9786 
14 *303:12 *1263:A1 9.3 
15 *303:6 *1264:B 9.3 
*END

*D_NET *304 0.00055737
*CONN
*I *1266:A1 I *D sky130_fd_sc_hd__o211ai_2
*I *1267:B1 I *D sky130_fd_sc_hd__o2bb2ai_2
*I *1261:X O *D sky130_fd_sc_hd__o21a_2
*CAP
1 *1266:A1 0
2 *1267:B1 4.97711e-05
3 *1261:X 7.46413e-05
4 *304:6 0.000124412
5 *1267:B1 *1269:C 7.92975e-05
6 *1267:B1 *573:62 0.000153054
7 *1261:B1 *304:6 7.61932e-05
*RES
1 *1261:X *304:6 10.6571 
2 *304:6 *1267:B1 20.2464 
3 *304:6 *1266:A1 9.3 
*END

*D_NET *305 0.0010527
*CONN
*I *1267:B2 I *D sky130_fd_sc_hd__o2bb2ai_2
*I *1266:A2 I *D sky130_fd_sc_hd__o211ai_2
*I *1262:Y O *D sky130_fd_sc_hd__nor3_2
*CAP
1 *1267:B2 0.000146146
2 *1266:A2 0
3 *1262:Y 0.000153808
4 *305:8 0.000299954
5 *1267:B2 *1269:B 9.60939e-05
6 *1267:B2 *1269:C 0.00015134
7 *1267:B2 *573:62 0
8 *305:8 *1225:B 1.18358e-05
9 *305:8 *1262:A 1.90243e-05
10 *305:8 *1262:B 4.15183e-05
11 *305:8 *573:62 0
12 *305:8 *627:10 3.51442e-05
13 *305:8 *630:81 0
14 *1261:B1 *305:8 8.59056e-05
15 *1266:B1 *1267:B2 0
16 *1266:B1 *305:8 0
17 *1267:A2_N *1267:B2 0
18 *1503:A *305:8 0
19 *302:45 *305:8 1.19309e-05
*RES
1 *1262:Y *305:8 17.2643 
2 *305:8 *1266:A2 13.8 
3 *305:8 *1267:B2 16.9964 
*END

*D_NET *306 0.00226437
*CONN
*I *1268:A1 I *D sky130_fd_sc_hd__o211ai_2
*I *1265:B1 I *D sky130_fd_sc_hd__o2bb2ai_2
*I *1307:B1 I *D sky130_fd_sc_hd__a311o_2
*I *1263:Y O *D sky130_fd_sc_hd__a21oi_2
*CAP
1 *1268:A1 0.000184471
2 *1265:B1 2.76557e-05
3 *1307:B1 0.000368484
4 *1263:Y 0.000163842
5 *306:21 0.000324095
6 *306:8 0.000644295
7 *1265:B1 *1265:B2 2.89016e-05
8 *1307:B1 *1307:C1 0.000260983
9 *1307:B1 *327:10 2.65105e-05
10 *306:8 *1283:A 5.01657e-05
11 *1283:C *306:8 0
12 *300:14 *306:8 6.02554e-05
13 *300:14 *306:21 2.56694e-05
14 *301:42 *1268:A1 9.90431e-05
15 *301:44 *1268:A1 0
16 *301:44 *306:21 0
17 *301:50 *306:21 0
*RES
1 *1263:Y *306:8 16.6571 
2 *306:8 *1307:B1 19.175 
3 *306:8 *306:21 1.94643 
4 *306:21 *1265:B1 14.3357 
5 *306:21 *1268:A1 17.3 
*END

*D_NET *307 0.00345158
*CONN
*I *1268:A2 I *D sky130_fd_sc_hd__o211ai_2
*I *1265:B2 I *D sky130_fd_sc_hd__o2bb2ai_2
*I *1307:C1 I *D sky130_fd_sc_hd__a311o_2
*I *1264:X O *D sky130_fd_sc_hd__and3_2
*CAP
1 *1268:A2 0.000119636
2 *1265:B2 0.000216196
3 *1307:C1 0.000222136
4 *1264:X 0.000118415
5 *307:23 0.000419054
6 *307:8 0.000423773
7 *1265:B2 *1269:B 0.000125057
8 *1307:C1 *327:10 5.62995e-05
9 *1307:C1 *573:26 0.000130768
10 *1307:C1 *573:39 0.000356028
11 *307:8 *1260:B1 7.72966e-05
12 *307:8 *649:24 1.17968e-05
13 *1265:B1 *1265:B2 2.89016e-05
14 *1267:A2_N *1268:A2 1.3142e-05
15 *1267:A2_N *307:23 5.01213e-05
16 *1268:B1 *1268:A2 0.00022117
17 *1268:C1 *1268:A2 2.89016e-05
18 *1307:B1 *1307:C1 0.000260983
19 *1503:A *307:8 0.000147841
20 *300:14 *1265:B2 0.000139913
21 *300:14 *307:8 0
22 *300:14 *307:23 0
23 *301:42 *1268:A2 3.17163e-05
24 *301:44 *1268:A2 9.24395e-05
25 *301:50 *1268:A2 1.31516e-05
26 *301:50 *1307:C1 9.90367e-05
27 *301:50 *307:23 4.78056e-05
*RES
1 *1264:X *307:8 16.05 
2 *307:8 *1307:C1 21.05 
3 *307:8 *307:23 1.64286 
4 *307:23 *1265:B2 18.175 
5 *307:23 *1268:A2 17.4964 
*END

*D_NET *308 0.0018513
*CONN
*I *1269:B I *D sky130_fd_sc_hd__nand3_2
*I *1265:Y O *D sky130_fd_sc_hd__o2bb2ai_2
*CAP
1 *1269:B 0.000543232
2 *1265:Y 0.000543232
3 *1269:B *1269:C 0
4 *1269:B *1270:B 0.00010096
5 *1269:B *573:62 9.92409e-05
6 *1265:B2 *1269:B 0.000125057
7 *1266:B1 *1269:B 2.42547e-05
8 *1267:A2_N *1269:B 5.52302e-05
9 *1267:B2 *1269:B 9.60939e-05
10 *286:12 *1269:B 0.000200413
11 *300:14 *1269:B 1.02821e-05
12 *300:23 *1269:B 5.33005e-05
*RES
1 *1265:Y *1269:B 39.3143 
*END

*D_NET *309 0.00126415
*CONN
*I *1269:C I *D sky130_fd_sc_hd__nand3_2
*I *1266:Y O *D sky130_fd_sc_hd__o211ai_2
*CAP
1 *1269:C 0.000451439
2 *1266:Y 0.000451439
3 *1269:C *1270:B 0
4 *1269:C *573:39 0.00010462
5 *1269:C *573:62 2.60158e-05
6 *1267:B1 *1269:C 7.92975e-05
7 *1267:B2 *1269:C 0.00015134
8 *1268:B1 *1269:C 0
9 *1269:B *1269:C 0
*RES
1 *1266:Y *1269:C 36.6357 
*END

*D_NET *310 0.000691736
*CONN
*I *1270:B I *D sky130_fd_sc_hd__nand3b_4
*I *1267:Y O *D sky130_fd_sc_hd__o2bb2ai_2
*CAP
1 *1270:B 0.000267492
2 *1267:Y 0.000267492
3 *1270:B *1270:C 5.57914e-05
4 *1268:B1 *1270:B 0
5 *1269:B *1270:B 0.00010096
6 *1269:C *1270:B 0
7 *301:42 *1270:B 0
*RES
1 *1267:Y *1270:B 32.9214 
*END

*D_NET *311 0.000310343
*CONN
*I *1270:C I *D sky130_fd_sc_hd__nand3b_4
*I *1268:Y O *D sky130_fd_sc_hd__o211ai_2
*CAP
1 *1270:C 0.000115905
2 *1268:Y 0.000115905
3 *1268:C1 *1270:C 2.27416e-05
4 *1270:B *1270:C 5.57914e-05
*RES
1 *1268:Y *1270:C 30.0821 
*END

*D_NET *312 0.00195416
*CONN
*I *1271:A1 I *D sky130_fd_sc_hd__a21oi_2
*I *1272:A1 I *D sky130_fd_sc_hd__a21o_2
*I *1273:B I *D sky130_fd_sc_hd__nand3_4
*I *1269:Y O *D sky130_fd_sc_hd__nand3_2
*CAP
1 *1271:A1 0
2 *1272:A1 0.000200158
3 *1273:B 0
4 *1269:Y 0.000161249
5 *312:23 0.000383981
6 *312:8 0.000345072
7 *1272:A1 *313:25 0.000146523
8 *1272:A1 *317:33 3.47255e-05
9 *312:8 *313:10 0
10 *312:8 *313:21 0
11 *312:8 *317:8 1.18064e-05
12 *312:23 *313:21 0
13 *312:23 *317:33 0.000144773
14 *1270:A_N *312:8 0.000153047
15 *1271:B1 *312:8 1.02504e-05
16 *1271:B1 *312:23 0.000177941
17 *272:14 *312:8 0
18 *286:12 *312:8 0.000184635
*RES
1 *1269:Y *312:8 18.4786 
2 *312:8 *1273:B 13.8 
3 *312:8 *312:23 8.64286 
4 *312:23 *1272:A1 13.1393 
5 *312:23 *1271:A1 9.3 
*END

*D_NET *313 0.00279237
*CONN
*I *1271:A2 I *D sky130_fd_sc_hd__a21oi_2
*I *1272:A2 I *D sky130_fd_sc_hd__a21o_2
*I *1312:A I *D sky130_fd_sc_hd__and3_2
*I *1281:A I *D sky130_fd_sc_hd__nand2_2
*I *1273:C I *D sky130_fd_sc_hd__nand3_4
*I *1270:Y O *D sky130_fd_sc_hd__nand3b_4
*CAP
1 *1271:A2 0
2 *1272:A2 0
3 *1312:A 0
4 *1281:A 0.000126229
5 *1273:C 0
6 *1270:Y 0.000256656
7 *313:27 0.000351236
8 *313:25 0.000323869
9 *313:21 0.000242317
10 *313:10 0.000400111
11 *1281:A *1281:B 0.000188586
12 *1281:A *1313:C1 0
13 *1281:A *359:8 0.000188586
14 *1281:A *403:10 6.97409e-05
15 *313:21 *1354:A 0
16 *313:21 *317:21 0
17 *313:25 *317:33 0.00029872
18 *313:27 *317:33 0.000102008
19 *313:27 *403:10 5.76121e-05
20 *1270:A_N *313:10 4.01768e-05
21 *1272:A1 *313:25 0.000146523
22 *1272:B1 *313:10 0
23 *1272:B1 *313:21 0
24 *286:12 *313:10 0
25 *312:8 *313:10 0
26 *312:8 *313:21 0
27 *312:23 *313:21 0
*RES
1 *1270:Y *313:10 17.5143 
2 *313:10 *1273:C 13.8 
3 *313:10 *313:21 7.05357 
4 *313:21 *313:25 3.73214 
5 *313:25 *313:27 4.64286 
6 *313:27 *1281:A 13.1393 
7 *313:27 *1312:A 9.3 
8 *313:25 *1272:A2 9.3 
9 *313:21 *1271:A2 9.3 
*END

*D_NET *314 0.00760962
*CONN
*I *965:A3 I *D sky130_fd_sc_hd__a311o_2
*I *1019:A2 I *D sky130_fd_sc_hd__o21ai_2
*I *983:A2 I *D sky130_fd_sc_hd__o21ai_4
*I *1156:A2 I *D sky130_fd_sc_hd__o21ai_4
*I *929:Y O *D sky130_fd_sc_hd__inv_2
*CAP
1 *965:A3 0.000273163
2 *1019:A2 0.000164586
3 *983:A2 0
4 *1156:A2 0.000325078
5 *929:Y 0
6 *314:46 0.00102234
7 *314:29 0.000731453
8 *314:4 0.00047194
9 *965:A3 *965:B1 5.33005e-05
10 *965:A3 *965:C1 8.86974e-05
11 *965:A3 *467:10 0.000349179
12 *1019:A2 *510:39 0
13 *1156:A2 *983:A1 0.000225922
14 *1156:A2 *986:A2_N 3.81722e-05
15 *1156:A2 *987:B 1.55584e-05
16 *1156:A2 *1160:A2 0.000196449
17 *1156:A2 *526:25 5.52302e-05
18 *1156:A2 *672:59 0.00021735
19 *314:29 *929:A 0.000154187
20 *314:29 *983:A1 9.58689e-05
21 *314:29 *1532:A 0.000181107
22 *314:29 *526:25 0.000285539
23 *314:46 *929:A 1.38323e-05
24 *314:46 *951:A1 5.54301e-05
25 *314:46 *985:B 2.59599e-05
26 *314:46 *986:A2_N 0.000120368
27 *314:46 *986:B1 0.000645263
28 *314:46 *986:B2 0.000119461
29 *314:46 *990:A2 3.35006e-05
30 *314:46 *1532:A 9.41642e-05
31 *314:46 *546:8 5.33005e-05
32 *314:46 *546:23 3.14003e-05
33 *314:46 *668:80 1.75296e-05
34 *951:A3 *314:46 0.000138432
35 *955:B *1019:A2 1.84776e-05
36 *984:A2 *314:46 0.000490953
37 *1023:C1 *1019:A2 0.000145267
38 *65:10 *1019:A2 0
39 *282:88 *1019:A2 2.53357e-05
40 *292:42 *314:46 0.00063583
*RES
1 *929:Y *314:4 9.3 
2 *314:4 *1156:A2 26.4786 
3 *314:4 *314:29 5.19643 
4 *314:29 *983:A2 9.3 
5 *314:29 *314:46 25.6786 
6 *314:46 *1019:A2 21.3893 
7 *314:46 *965:A3 16.425 
*END

*D_NET *315 0.00518962
*CONN
*I *1318:A1 I *D sky130_fd_sc_hd__o21ai_2
*I *1316:A1 I *D sky130_fd_sc_hd__o2111a_2
*I *1278:A1 I *D sky130_fd_sc_hd__o21a_2
*I *1271:Y O *D sky130_fd_sc_hd__a21oi_2
*CAP
1 *1318:A1 0.000109952
2 *1316:A1 0.000187765
3 *1278:A1 0
4 *1271:Y 8.85874e-05
5 *315:16 0.000767325
6 *315:10 0.000778099
7 *1316:A1 *1238:A2 0
8 *1316:A1 *1278:A2 3.18676e-05
9 *1316:A1 *1278:B1 0.000126439
10 *1316:A1 *1316:B1 0.000142856
11 *1316:A1 *364:18 1.21289e-05
12 *1318:A1 *1276:A2_N 2.48938e-05
13 *1318:A1 *1318:A2 0.000198698
14 *1318:A1 *1353:A2 0
15 *315:10 *1276:A1_N 0.000183713
16 *315:10 *1276:A2_N 0.000148196
17 *315:10 *1277:B 1.56e-05
18 *315:10 *1318:A2 0.000146474
19 *315:10 *317:33 0.00014285
20 *315:16 *1236:A2 4.33143e-05
21 *315:16 *1276:B2 9.60875e-05
22 *315:16 *1278:A2 0
23 *315:16 *320:14 7.56621e-05
24 *315:16 *364:18 0.00130753
25 *1230:A2 *1318:A1 0
26 *1234:A2 *315:16 9.41642e-05
27 *1239:B *1316:A1 0
28 *1239:B *315:16 0.000216755
29 *1275:A1 *315:16 9.86516e-05
30 *1542:A *315:16 8.17274e-05
31 *269:51 *315:16 1.39841e-05
32 *279:10 *1316:A1 5.62995e-05
*RES
1 *1271:Y *315:10 17.5143 
2 *315:10 *315:16 21.0714 
3 *315:16 *1278:A1 9.3 
4 *315:16 *1316:A1 22.8536 
5 *315:10 *1318:A1 16.6571 
*END

*D_NET *316 0.00158917
*CONN
*I *1276:A1_N I *D sky130_fd_sc_hd__o2bb2ai_4
*I *1272:X O *D sky130_fd_sc_hd__a21o_2
*CAP
1 *1276:A1_N 0.000441337
2 *1272:X 0.000441337
3 *1276:A1_N *1277:B 9.22103e-06
4 *1276:A1_N *1277:C 7.50697e-05
5 *1276:A1_N *1318:A2 0.000203426
6 *1276:A1_N *317:33 0.000235064
7 *315:10 *1276:A1_N 0.000183713
*RES
1 *1272:X *1276:A1_N 35.0107 
*END

*D_NET *317 0.00411173
*CONN
*I *1276:A2_N I *D sky130_fd_sc_hd__o2bb2ai_4
*I *1312:B I *D sky130_fd_sc_hd__and3_2
*I *1281:B I *D sky130_fd_sc_hd__nand2_2
*I *1277:B I *D sky130_fd_sc_hd__nand3_2
*I *1273:Y O *D sky130_fd_sc_hd__nand3_4
*CAP
1 *1276:A2_N 0.000116331
2 *1312:B 0
3 *1281:B 9.2951e-05
4 *1277:B 0.000109743
5 *1273:Y 0.000102989
6 *317:33 0.000701477
7 *317:21 0.000760994
8 *317:8 0.000248868
9 *1277:B *1277:C 4.22908e-05
10 *1277:B *1318:A2 1.74352e-05
11 *1281:B *1354:B 0
12 *1281:B *360:12 0
13 *1281:B *403:10 0.000102197
14 *317:33 *403:10 0.000230482
15 *1271:B1 *317:8 0.000153054
16 *1271:B1 *317:21 2.31791e-05
17 *1271:B1 *317:33 5.33005e-05
18 *1272:A1 *317:33 3.47255e-05
19 *1276:A1_N *1277:B 9.22103e-06
20 *1276:A1_N *317:33 0.000235064
21 *1281:A *1281:B 0.000188586
22 *1318:A1 *1276:A2_N 2.48938e-05
23 *269:32 *317:21 0
24 *272:14 *317:8 0
25 *272:14 *317:21 0
26 *272:22 *1277:B 0
27 *312:8 *317:8 1.18064e-05
28 *312:23 *317:33 0.000144773
29 *313:21 *317:21 0
30 *313:25 *317:33 0.00029872
31 *313:27 *317:33 0.000102008
32 *315:10 *1276:A2_N 0.000148196
33 *315:10 *1277:B 1.56e-05
34 *315:10 *317:33 0.00014285
*RES
1 *1273:Y *317:8 16.05 
2 *317:8 *1277:B 15.9964 
3 *317:8 *317:21 0.732143 
4 *317:21 *317:33 17.2321 
5 *317:33 *1281:B 21.1036 
6 *317:33 *1312:B 9.3 
7 *317:21 *1276:A2_N 16.3536 
*END

*D_NET *318 0.000658669
*CONN
*I *1276:B2 I *D sky130_fd_sc_hd__o2bb2ai_4
*I *1274:Y O *D sky130_fd_sc_hd__a31oi_2
*CAP
1 *1276:B2 0.000152494
2 *1274:Y 0.000152494
3 *1276:B2 *1276:B1 9.25014e-06
4 *1275:A1 *1276:B2 5.52238e-05
5 *237:28 *1276:B2 0.000193118
6 *273:10 *1276:B2 0
7 *315:16 *1276:B2 9.60875e-05
*RES
1 *1274:Y *1276:B2 31.1 
*END

*D_NET *319 0.000815237
*CONN
*I *1277:C I *D sky130_fd_sc_hd__nand3_2
*I *1275:X O *D sky130_fd_sc_hd__a31o_2
*CAP
1 *1277:C 0.000192058
2 *1275:X 0.000192058
3 *1277:C *1318:A2 0.000149752
4 *1275:A3 *1277:C 3.57844e-05
5 *1276:A1_N *1277:C 7.50697e-05
6 *1277:B *1277:C 4.22908e-05
7 *269:32 *1277:C 4.46186e-06
8 *269:43 *1277:C 0.000123762
*RES
1 *1275:X *1277:C 33.0464 
*END

*D_NET *320 0.00378146
*CONN
*I *1316:B1 I *D sky130_fd_sc_hd__o2111a_2
*I *1530:A I *D sky130_fd_sc_hd__buf_2
*I *1276:Y O *D sky130_fd_sc_hd__o2bb2ai_4
*CAP
1 *1316:B1 0.000370471
2 *1530:A 2.23854e-05
3 *1276:Y 0.00018293
4 *320:14 0.000575786
5 *1316:B1 *1278:B1 0.000841912
6 *320:14 *1278:B1 0.00010096
7 *320:14 *1318:B1 0.000137505
8 *320:14 *544:20 0.000396898
9 *1230:B1 *320:14 0.000128496
10 *1238:B1 *1316:B1 0.00024436
11 *1275:A1 *320:14 7.37323e-05
12 *1316:A1 *1316:B1 0.000142856
13 *237:28 *320:14 9.69119e-06
14 *237:49 *320:14 5.92682e-05
15 *268:38 *320:14 0.00014576
16 *269:51 *320:14 9.91086e-05
17 *274:8 *1316:B1 9.58478e-05
18 *274:8 *320:14 1.74352e-05
19 *279:10 *1316:B1 6.03919e-05
20 *315:16 *320:14 7.56621e-05
*RES
1 *1276:Y *320:14 25.6304 
2 *320:14 *1530:A 9.72857 
3 *320:14 *1316:B1 20.1214 
*END

*D_NET *321 0.0062459
*CONN
*I *1316:A2 I *D sky130_fd_sc_hd__o2111a_2
*I *1278:A2 I *D sky130_fd_sc_hd__o21a_2
*I *1318:A2 I *D sky130_fd_sc_hd__o21ai_2
*I *1277:Y O *D sky130_fd_sc_hd__nand3_2
*CAP
1 *1316:A2 0.000115554
2 *1278:A2 9.12734e-05
3 *1318:A2 0.000317173
4 *1277:Y 0
5 *321:35 0.00149782
6 *321:4 0.00160817
7 *1278:A2 *1280:A 3.04442e-05
8 *1278:A2 *364:18 0.000263798
9 *1316:A2 *1240:B 1.76135e-05
10 *1316:A2 *1278:B1 0
11 *1316:A2 *515:10 8.56716e-05
12 *1318:A2 *365:8 7.43578e-06
13 *1318:A2 *544:20 0.0001399
14 *321:35 *1240:B 0.000146026
15 *321:35 *364:18 0.000101545
16 *1187:A *321:35 2.89016e-05
17 *1196:A *321:35 3.99614e-06
18 *1239:B *1316:A2 0
19 *1239:C *321:35 0.00014183
20 *1274:A3 *1318:A2 1.24368e-05
21 *1274:A3 *321:35 4.72917e-05
22 *1274:B1 *321:35 0.00018077
23 *1275:A3 *1318:A2 0
24 *1275:B1 *321:35 0.000181796
25 *1276:A1_N *1318:A2 0.000203426
26 *1277:B *1318:A2 1.74352e-05
27 *1277:C *1318:A2 0.000149752
28 *1316:A1 *1278:A2 3.18676e-05
29 *1318:A1 *1318:A2 0.000198698
30 *217:6 *321:35 0.000230482
31 *217:19 *321:35 9.60875e-05
32 *235:10 *321:35 2.78509e-05
33 *272:14 *1318:A2 1.98839e-05
34 *272:22 *321:35 0.000104494
35 *315:10 *1318:A2 0.000146474
36 *315:16 *1278:A2 0
*RES
1 *1277:Y *321:4 9.3 
2 *321:4 *1318:A2 26.6393 
3 *321:4 *321:35 24.625 
4 *321:35 *1278:A2 16.9429 
5 *321:35 *1316:A2 16.3536 
*END

*D_NET *322 0.00145701
*CONN
*I *1280:A I *D sky130_fd_sc_hd__xor2_2
*I *1278:X O *D sky130_fd_sc_hd__o21a_2
*CAP
1 *1280:A 0.000453695
2 *1278:X 0.000453695
3 *1280:A *1240:A 2.50463e-05
4 *1280:A *1280:B 0.000347347
5 *1280:A *1317:C1 3.69697e-05
6 *1278:A2 *1280:A 3.04442e-05
7 *1556:A *1280:A 0.000109809
*RES
1 *1278:X *1280:A 35.7964 
*END

*D_NET *323 0.000808731
*CONN
*I *1280:B I *D sky130_fd_sc_hd__xor2_2
*I *1279:Y O *D sky130_fd_sc_hd__o31ai_4
*CAP
1 *1280:B 0.000152432
2 *1279:Y 0.000152432
3 *1280:B *1317:C1 2.91794e-05
4 *1244:A *1280:B 9.21958e-05
5 *1279:A3 *1280:B 3.51442e-05
6 *1280:A *1280:B 0.000347347
*RES
1 *1279:Y *1280:B 23.5857 
*END

*D_NET *324 0.0220475
*CONN
*I *1071:A I *D sky130_fd_sc_hd__nand2_2
*I *987:A I *D sky130_fd_sc_hd__nand2_2
*I *1022:A I *D sky130_fd_sc_hd__nand2_2
*I *1416:A I *D sky130_fd_sc_hd__buf_6
*I *930:Y O *D sky130_fd_sc_hd__inv_2
*CAP
1 *1071:A 7.3836e-05
2 *987:A 0.00106083
3 *1022:A 0.00125562
4 *1416:A 0.00180253
5 *930:Y 0.000759765
6 *324:47 0.00308275
7 *324:39 0.00337121
8 *324:14 0.00509338
9 *987:A *941:C 9.15842e-06
10 *987:A *992:A1 0.000101545
11 *987:A *992:A2 0.000108917
12 *987:A *346:8 0.000183711
13 *987:A *499:22 0.00013161
14 *987:A *502:12 5.71472e-05
15 *987:A *549:61 2.13481e-06
16 *987:A *644:70 9.58689e-05
17 *987:A *646:36 0.000160011
18 *987:A *646:57 0.000287609
19 *987:A *646:72 2.16719e-05
20 *987:A *647:45 5.99861e-05
21 *987:A *647:58 1.13265e-05
22 *1022:A *941:B 1.92905e-05
23 *1022:A *941:C 0.000198541
24 *1022:A *947:A2 7.53073e-05
25 *1022:A *947:B1 2.89016e-05
26 *1022:A *976:A3 3.99614e-06
27 *1022:A *619:8 5.30637e-06
28 *1022:A *678:32 0.000201114
29 *1022:A *678:34 3.99614e-06
30 *1022:A *678:116 3.82242e-05
31 *1071:A *1514:A 0
32 *1071:A *637:134 0.000135843
33 *1416:A *933:A 5.41201e-05
34 *1416:A *1292:A1 0.000200567
35 *1416:A *1292:A2 0.000187683
36 *1416:A *1292:C1 5.99759e-06
37 *1416:A *1328:A1 2.61189e-05
38 *1416:A *389:24 0.000964516
39 *1416:A *632:6 5.33005e-05
40 *1416:A *632:29 4.08637e-05
41 *324:14 *960:A 7.11447e-05
42 *324:14 *1106:B 9.60939e-05
43 *324:14 *1513:A 7.69776e-06
44 *324:14 *461:12 2.02794e-05
45 *324:14 *671:8 0.000157286
46 *324:14 *671:10 1.74352e-05
47 *324:14 *671:12 0.000147415
48 *324:39 *1064:A3 0
49 *324:39 *1151:A1 8.6123e-06
50 *324:39 *1428:A 0
51 *324:39 *389:45 0
52 *324:39 *613:14 0
53 *324:39 *629:51 0
54 *324:39 *629:70 0
55 *324:39 *672:16 0
56 *324:39 *672:41 0
57 *324:47 *1579:A 2.89114e-05
58 *324:47 *637:134 1.90936e-05
59 *324:47 *672:47 9.22103e-06
60 *324:47 *672:115 0.00093759
61 *114:14 *987:A 0.000184799
62 *114:14 *1022:A 0.000106228
63 *116:16 *987:A 0.000169759
64 *282:58 *1022:A 2.59355e-05
65 *282:73 *1022:A 6.57032e-05
66 *292:25 *987:A 0
*RES
1 *930:Y *324:14 26.7305 
2 *324:14 *1416:A 31.3744 
3 *324:14 *324:39 8.17737 
4 *324:39 *324:47 19.2589 
5 *324:47 *1022:A 30.7643 
6 *324:47 *987:A 44.4429 
7 *324:39 *1071:A 15.5946 
*END

*D_NET *325 0.00091943
*CONN
*I *1314:C1 I *D sky130_fd_sc_hd__o211ai_2
*I *1313:C1 I *D sky130_fd_sc_hd__o211a_2
*I *1281:Y O *D sky130_fd_sc_hd__nand2_2
*CAP
1 *1314:C1 0
2 *1313:C1 0.000128087
3 *1281:Y 2.23703e-05
4 *325:6 0.000150458
5 *1313:C1 *1314:A2 0.000152333
6 *1313:C1 *1314:B1 7.25104e-05
7 *1313:C1 *356:23 5.80706e-06
8 *1313:C1 *359:8 0.000188777
9 *1313:C1 *403:10 9.98562e-05
10 *325:6 *359:8 4.58976e-05
11 *325:6 *403:10 5.33334e-05
12 *1281:A *1313:C1 0
*RES
1 *1281:Y *325:6 10.2464 
2 *325:6 *1313:C1 22.9786 
3 *325:6 *1314:C1 9.3 
*END

*D_NET *326 0.000668588
*CONN
*I *1305:B2 I *D sky130_fd_sc_hd__o2bb2ai_2
*I *1282:X O *D sky130_fd_sc_hd__a221o_2
*CAP
1 *1305:B2 0.000126436
2 *1282:X 0.000126436
3 *1307:A3 *1305:B2 0.000108026
4 *298:21 *1305:B2 0.000129868
5 *301:16 *1305:B2 0.000177823
*RES
1 *1282:X *1305:B2 31.975 
*END

*D_NET *327 0.00287298
*CONN
*I *1304:B1 I *D sky130_fd_sc_hd__a21oi_2
*I *1306:C I *D sky130_fd_sc_hd__and3_4
*I *1283:X O *D sky130_fd_sc_hd__and3_2
*CAP
1 *1304:B1 0.000105425
2 *1306:C 0.00019603
3 *1283:X 0.000309795
4 *327:10 0.00061125
5 *1304:B1 *1304:A1 0
6 *1304:B1 *1310:A1 0.000153047
7 *1304:B1 *1345:A3 1.02504e-05
8 *1306:C *352:8 0.000184745
9 *327:10 *1304:A1 0
10 *327:10 *1305:B1 0.000268403
11 *327:10 *351:10 5.91452e-05
12 *327:10 *573:26 0.00074049
13 *1307:B1 *327:10 2.65105e-05
14 *1307:C1 *327:10 5.62995e-05
15 *301:16 *1304:B1 3.32538e-05
16 *301:16 *327:10 0.000118339
*RES
1 *1283:X *327:10 23.7643 
2 *327:10 *1306:C 17.6214 
3 *327:10 *1304:B1 16.6571 
*END

*D_NET *328 0.000408712
*CONN
*I *1286:A I *D sky130_fd_sc_hd__xor2_2
*I *1284:Y O *D sky130_fd_sc_hd__nor2_2
*CAP
1 *1286:A 8.39277e-05
2 *1284:Y 8.39277e-05
3 *1286:A *1284:A 9.80029e-05
4 *1286:A *1325:C 2.59355e-05
5 *1286:A *1427:A 4.58764e-05
6 *1286:A *390:10 7.10415e-05
*RES
1 *1284:Y *1286:A 30.3857 
*END

*D_NET *329 0.00104709
*CONN
*I *1325:C I *D sky130_fd_sc_hd__and3_2
*I *1286:B I *D sky130_fd_sc_hd__xor2_2
*I *1285:Y O *D sky130_fd_sc_hd__a22oi_2
*CAP
1 *1325:C 0.000219299
2 *1286:B 0.000270439
3 *1285:Y 5.11399e-05
4 *1286:B *390:10 3.90513e-05
5 *1286:B *391:14 0.00020455
6 *1286:B *630:10 0.000128146
7 *1325:C *1325:A 5.52302e-05
8 *1325:C *645:12 5.33005e-05
9 *1286:A *1325:C 2.59355e-05
*RES
1 *1285:Y *1286:B 20.8536 
2 *1286:B *1325:C 12.1482 
*END

*D_NET *330 0.00234542
*CONN
*I *1302:B1 I *D sky130_fd_sc_hd__o21ai_2
*I *1303:A_N I *D sky130_fd_sc_hd__nand3b_4
*I *1342:A1 I *D sky130_fd_sc_hd__o21a_2
*I *1286:X O *D sky130_fd_sc_hd__xor2_2
*CAP
1 *1302:B1 0.000218574
2 *1303:A_N 0.000132974
3 *1342:A1 0
4 *1286:X 0.000285846
5 *330:19 0.000451898
6 *330:10 0.000386195
7 *1302:B1 *997:B 0
8 *1302:B1 *1302:A1 3.27461e-05
9 *1302:B1 *373:22 0
10 *1303:A_N *1303:B 1.02132e-05
11 *1303:A_N *349:10 9.90431e-05
12 *1303:A_N *633:26 0.000166263
13 *330:10 *1303:C 5.80706e-06
14 *330:10 *390:10 0
15 *330:10 *391:14 0
16 *330:19 *1303:B 0.000114541
17 *330:19 *1303:C 5.49544e-05
18 *330:19 *1342:B1 2.89016e-05
19 *330:19 *633:26 0.00035746
*RES
1 *1286:X *330:10 22.9786 
2 *330:10 *1342:A1 9.3 
3 *330:10 *330:19 3.83929 
4 *330:19 *1303:A_N 12.7286 
5 *330:19 *1302:B1 21.4607 
*END

*D_NET *331 0.00410705
*CONN
*I *1299:A1 I *D sky130_fd_sc_hd__o211ai_2
*I *1298:A1 I *D sky130_fd_sc_hd__o211a_2
*I *1287:X O *D sky130_fd_sc_hd__a31o_2
*CAP
1 *1299:A1 0.000191199
2 *1298:A1 0.000101018
3 *1287:X 0.000709109
4 *331:10 0.00100133
5 *1298:A1 *1302:A1 0.000143375
6 *1298:A1 *1411:A 1.85871e-05
7 *1298:A1 *591:30 0.000121388
8 *1299:A1 *997:B 7.60306e-05
9 *1299:A1 *357:39 0.00013966
10 *1299:A1 *660:50 7.59411e-05
11 *331:10 *997:B 0.000105276
12 *331:10 *1288:B2 0.000142894
13 *331:10 *1436:A 0
14 *331:10 *1540:A 0
15 *331:10 *357:39 0.000719918
16 *331:10 *556:18 7.75022e-05
17 *331:10 *578:23 0.000177948
18 *331:10 *655:89 9.60298e-05
19 *331:10 *662:39 1.83053e-05
20 *1298:A2 *1298:A1 2.10625e-05
21 *249:12 *331:10 1.60719e-05
22 *290:10 *331:10 4.87694e-05
23 *296:6 *1298:A1 0.000105643
*RES
1 *1287:X *331:10 30.7821 
2 *331:10 *1298:A1 17.4696 
3 *331:10 *1299:A1 17.925 
*END

*D_NET *332 0.00325753
*CONN
*I *1301:B1 I *D sky130_fd_sc_hd__a21o_2
*I *1300:B1 I *D sky130_fd_sc_hd__a21oi_2
*I *1288:Y O *D sky130_fd_sc_hd__o221ai_2
*CAP
1 *1301:B1 0
2 *1300:B1 0.000128453
3 *1288:Y 0.000851383
4 *332:12 0.000979836
5 *1300:B1 *1301:A1 2.36643e-05
6 *1300:B1 *1301:A2 5.65955e-05
7 *1300:B1 *342:92 0
8 *332:12 *998:A 0.000361546
9 *332:12 *1302:A1 0
10 *332:12 *1328:A1 1.89507e-06
11 *332:12 *1328:B1 4.62179e-05
12 *332:12 *1411:A 7.89037e-05
13 *332:12 *1436:A 0.000143439
14 *332:12 *341:10 0
15 *332:12 *344:12 0.000177234
16 *332:12 *552:14 0
17 *332:12 *581:16 0.000395208
18 *1299:A2 *332:12 1.31516e-05
*RES
1 *1288:Y *332:12 33.7821 
2 *332:12 *1300:B1 11.4964 
3 *332:12 *1301:B1 9.3 
*END

*D_NET *333 0.00038607
*CONN
*I *1290:B1 I *D sky130_fd_sc_hd__a21oi_2
*I *1289:Y O *D sky130_fd_sc_hd__o21ai_2
*CAP
1 *1290:B1 0.000125448
2 *1289:Y 0.000125448
3 *1290:B1 *1289:A2 0
4 *1290:B1 *1289:B1 5.30637e-06
5 *1290:B1 *662:16 0.000129868
*RES
1 *1289:Y *1290:B1 29.7786 
*END

*D_NET *334 0.00406144
*CONN
*I *1292:C1 I *D sky130_fd_sc_hd__a311o_2
*I *1295:A1 I *D sky130_fd_sc_hd__o21ai_2
*I *1294:B1 I *D sky130_fd_sc_hd__a311o_2
*I *1293:A1 I *D sky130_fd_sc_hd__o21ai_2
*I *1290:Y O *D sky130_fd_sc_hd__a21oi_2
*CAP
1 *1292:C1 0.000653024
2 *1295:A1 0.000175111
3 *1294:B1 0
4 *1293:A1 0.000697592
5 *1290:Y 0.000464216
6 *334:21 0.00019903
7 *334:10 0.000532704
8 *1292:C1 *933:A 0
9 *1292:C1 *1292:A1 4.2855e-05
10 *1292:C1 *1292:A3 8.23597e-06
11 *1292:C1 *1293:B1 0
12 *1292:C1 *1296:A2 2.09897e-05
13 *1292:C1 *565:22 5.52302e-05
14 *1293:A1 *963:A 3.34295e-05
15 *1293:A1 *1296:A1 9.22948e-05
16 *1293:A1 *478:10 0.00012401
17 *1295:A1 *1293:A2 0.000161449
18 *1295:A1 *1295:A2 6.05161e-06
19 *1295:A1 *1296:A1 3.51442e-05
20 *1295:A1 *1297:B 0.000125724
21 *1295:A1 *1332:A1 9.21958e-05
22 *1295:A1 *478:10 4.80729e-05
23 *1295:A1 *552:22 1.03037e-05
24 *334:10 *1290:A1 0.000173921
25 *334:10 *1294:A1 1.69961e-05
26 *334:10 *1294:A3 0.000136951
27 *334:21 *1296:A1 8.07951e-05
28 *334:21 *478:10 6.91157e-05
29 *1416:A *1292:C1 5.99759e-06
*RES
1 *1290:Y *334:10 20.1036 
2 *334:10 *1293:A1 15.4429 
3 *334:10 *334:21 1.03571 
4 *334:21 *1294:B1 13.8 
5 *334:21 *1295:A1 19.1393 
6 *1293:A1 *1292:C1 36.6526 
*END

*D_NET *335 0.00231832
*CONN
*I *1101:A3 I *D sky130_fd_sc_hd__o311ai_4
*I *931:Y O *D sky130_fd_sc_hd__inv_2
*CAP
1 *1101:A3 0.000507371
2 *931:Y 0.000507371
3 *1101:A3 *931:A 1.24368e-05
4 *1101:A3 *1101:A2 5.33005e-05
5 *1101:A3 *1101:B1 0
6 *1101:A3 *1470:A 0.000308191
7 *1101:A3 *460:8 0.00015224
8 *1101:A3 *461:12 7.6644e-05
9 *1101:A3 *556:26 0.000398815
10 *1101:A3 *667:38 0.000265846
11 *1101:A3 *667:44 0
12 *1101:A3 *671:8 1.21258e-05
13 *1201:A *1101:A3 2.39779e-05
*RES
1 *931:Y *1101:A3 40.1536 
*END

*D_NET *336 0.00544114
*CONN
*I *1293:A2 I *D sky130_fd_sc_hd__o21ai_2
*I *1295:A2 I *D sky130_fd_sc_hd__o21ai_2
*I *1291:X O *D sky130_fd_sc_hd__o21a_2
*CAP
1 *1293:A2 0.000286751
2 *1295:A2 4.52283e-05
3 *1291:X 0.00133879
4 *336:14 0.00167077
5 *1293:A2 *963:A 3.17148e-05
6 *1293:A2 *1294:C1 9.77156e-05
7 *1293:A2 *1296:A1 0.000196269
8 *1293:A2 *1296:A2 0.000150625
9 *1293:A2 *1297:A 0.000154762
10 *1293:A2 *1332:A1 0
11 *1293:A2 *474:8 1.24368e-05
12 *1293:A2 *565:22 6.50027e-05
13 *1293:A2 *581:16 0
14 *1295:A2 *1294:C1 8.6918e-06
15 *1295:A2 *1332:A1 1.69604e-05
16 *1295:A2 *552:22 2.89016e-05
17 *336:14 *933:A 0.000459785
18 *336:14 *1327:A3 0.000465855
19 *336:14 *529:22 0.000166669
20 *336:14 *652:39 6.27272e-06
21 *1253:B1 *336:14 4.92986e-05
22 *1295:A1 *1293:A2 0.000161449
23 *1295:A1 *1295:A2 6.05161e-06
24 *246:14 *336:14 2.11419e-05
*RES
1 *1291:X *336:14 24.0427 
2 *336:14 *1295:A2 14.9161 
3 *336:14 *1293:A2 22.2554 
*END

*D_NET *337 0.000658982
*CONN
*I *1296:B1 I *D sky130_fd_sc_hd__o211ai_2
*I *1292:X O *D sky130_fd_sc_hd__a311o_2
*CAP
1 *1296:B1 0.000130941
2 *1292:X 0.000130941
3 *1296:B1 *1249:B 3.65794e-05
4 *1296:B1 *1292:A3 7.83587e-05
5 *1296:B1 *1296:C1 3.65794e-05
6 *1296:B1 *565:22 0.000167216
7 *1296:B1 *581:16 7.83659e-05
*RES
1 *1292:X *1296:B1 30.8232 
*END

*D_NET *338 0.000926318
*CONN
*I *1296:C1 I *D sky130_fd_sc_hd__o211ai_2
*I *1293:Y O *D sky130_fd_sc_hd__o21ai_2
*CAP
1 *1296:C1 0.000212321
2 *1293:Y 0.000212321
3 *1296:C1 *1249:B 1.98556e-05
4 *1296:C1 *1292:A2 9.83442e-05
5 *1296:C1 *1292:A3 3.92757e-05
6 *1296:C1 *1294:A3 9.71197e-05
7 *1296:C1 *1296:A2 0.000199665
8 *1296:C1 *581:16 1.08359e-05
9 *1296:B1 *1296:C1 3.65794e-05
*RES
1 *1293:Y *1296:C1 32.35 
*END

*D_NET *339 0.000268929
*CONN
*I *1297:C I *D sky130_fd_sc_hd__nand3_4
*I *1294:X O *D sky130_fd_sc_hd__a311o_2
*CAP
1 *1297:C 6.85106e-05
2 *1294:X 6.85106e-05
3 *1297:C *1434:A 4.46186e-06
4 *1297:C *552:22 0.000127446
*RES
1 *1294:X *1297:C 29.2429 
*END

*D_NET *340 0.000380746
*CONN
*I *1297:A I *D sky130_fd_sc_hd__nand3_4
*I *1295:Y O *D sky130_fd_sc_hd__o21ai_2
*CAP
1 *1297:A 3.56108e-05
2 *1295:Y 3.56108e-05
3 *1297:A *1294:C1 0.000154762
4 *1293:A2 *1297:A 0.000154762
*RES
1 *1295:Y *1297:A 29.5464 
*END

*D_NET *341 0.00384736
*CONN
*I *1298:C1 I *D sky130_fd_sc_hd__o211a_2
*I *1301:A1 I *D sky130_fd_sc_hd__a21o_2
*I *1300:A1 I *D sky130_fd_sc_hd__a21oi_2
*I *1299:C1 I *D sky130_fd_sc_hd__o211ai_2
*I *1296:Y O *D sky130_fd_sc_hd__o211ai_2
*CAP
1 *1298:C1 5.49344e-05
2 *1301:A1 0.000148754
3 *1300:A1 0
4 *1299:C1 8.12795e-05
5 *1296:Y 0.000429954
6 *341:31 0.000262619
7 *341:14 0.000299247
8 *341:10 0.000588991
9 *1298:C1 *1298:B1 0.000140856
10 *1298:C1 *1411:A 7.57394e-05
11 *1298:C1 *1468:A 0
12 *1299:C1 *1299:B1 9.83442e-05
13 *1299:C1 *565:22 2.51343e-06
14 *1301:A1 *1301:A2 0.000141734
15 *1301:A1 *342:92 8.71227e-05
16 *341:10 *933:A 4.50033e-05
17 *341:10 *1249:B 5.33005e-05
18 *341:10 *1292:A2 2.84109e-05
19 *341:10 *1327:A3 1.90936e-05
20 *341:10 *1328:A1 0.000336697
21 *341:10 *1328:B1 3.42707e-05
22 *341:10 *357:16 9.76123e-05
23 *341:10 *552:14 3.25862e-05
24 *341:10 *565:22 0.000169678
25 *341:10 *660:10 1.00332e-05
26 *341:14 *1298:B1 0.000177227
27 *341:14 *342:96 2.31791e-05
28 *341:14 *532:18 4.01501e-05
29 *341:14 *565:22 0.00015304
30 *341:14 *660:10 2.23987e-05
31 *341:31 *1519:A 0
32 *341:31 *342:96 0.00011384
33 *341:31 *532:18 4.31475e-05
34 *341:31 *540:43 1.19402e-05
35 *1300:B1 *1301:A1 2.36643e-05
36 *332:12 *341:10 0
*RES
1 *1296:Y *341:10 23.5679 
2 *341:10 *341:14 3.69643 
3 *341:14 *1299:C1 15.1571 
4 *341:14 *341:31 7.41071 
5 *341:31 *1300:A1 9.3 
6 *341:31 *1301:A1 12.3179 
7 *341:10 *1298:C1 15.5857 
*END

*D_NET *342 0.00843002
*CONN
*I *1301:A2 I *D sky130_fd_sc_hd__a21o_2
*I *1299:B1 I *D sky130_fd_sc_hd__o211ai_2
*I *1298:B1 I *D sky130_fd_sc_hd__o211a_2
*I *1300:A2 I *D sky130_fd_sc_hd__a21oi_2
*I *1330:A2 I *D sky130_fd_sc_hd__a21o_2
*I *1329:A2 I *D sky130_fd_sc_hd__a21oi_2
*I *1369:A2 I *D sky130_fd_sc_hd__a31o_2
*I *1331:B I *D sky130_fd_sc_hd__and3_2
*I *1332:C1 I *D sky130_fd_sc_hd__o211ai_2
*I *1297:Y O *D sky130_fd_sc_hd__nand3_4
*CAP
1 *1301:A2 4.24601e-05
2 *1299:B1 7.88436e-05
3 *1298:B1 0.0001829
4 *1300:A2 0
5 *1330:A2 8.738e-05
6 *1329:A2 0.000398035
7 *1369:A2 0
8 *1331:B 0.000215954
9 *1332:C1 7.59248e-05
10 *1297:Y 0.000248646
11 *342:96 0.000386191
12 *342:92 0.000284873
13 *342:81 0.000424553
14 *342:60 0.000468082
15 *342:45 0.000501309
16 *342:36 8.21971e-05
17 *342:25 0.000351433
18 *342:12 0.000407012
19 *1298:B1 *1411:A 3.18747e-05
20 *1298:B1 *660:10 0.000149966
21 *1299:B1 *660:21 0.000132222
22 *1299:B1 *660:50 1.17091e-05
23 *1329:A2 *1338:A1 3.4879e-05
24 *1329:A2 *1338:B1 9.41642e-05
25 *1330:A2 *1330:A1 2.23055e-05
26 *1330:A2 *1330:B1 5.33005e-05
27 *1330:A2 *383:24 4.34472e-05
28 *1331:B *419:14 0.0001399
29 *1331:B *475:30 9.47712e-05
30 *1332:C1 *1332:B1 3.99614e-06
31 *1332:C1 *375:14 2.89016e-05
32 *342:12 *1332:A1 0.000341511
33 *342:12 *1332:A2 9.90367e-05
34 *342:12 *1434:A 0
35 *342:12 *375:6 6.13217e-05
36 *342:12 *375:14 2.89114e-05
37 *342:12 *552:22 0.000249216
38 *342:25 *1434:A 9.01334e-05
39 *342:25 *375:14 0.000126439
40 *342:25 *662:14 0
41 *342:36 *1338:A2 9.25014e-06
42 *342:36 *1369:B1 1.08359e-05
43 *342:36 *1434:A 2.16719e-05
44 *342:36 *375:14 6.73939e-05
45 *342:36 *375:29 0
46 *342:36 *475:30 4.53834e-05
47 *342:36 *475:50 3.54188e-05
48 *342:45 *1330:A1 6.81083e-05
49 *342:45 *1338:A2 6.73939e-05
50 *342:45 *475:50 1.02504e-05
51 *342:60 *1330:A1 0.000232388
52 *342:60 *1338:A2 4.66511e-05
53 *342:60 *383:24 9.01733e-05
54 *342:81 *1330:B1 5.33005e-05
55 *342:81 *377:10 8.43535e-06
56 *342:81 *532:18 9.90367e-05
57 *342:81 *540:8 9.41642e-05
58 *342:81 *540:43 0.000522451
59 *1298:A2 *1298:B1 3.50166e-05
60 *1298:C1 *1298:B1 0.000140856
61 *1299:C1 *1299:B1 9.83442e-05
62 *1300:B1 *1301:A2 5.65955e-05
63 *1300:B1 *342:92 0
64 *1301:A1 *1301:A2 0.000141734
65 *1301:A1 *342:92 8.71227e-05
66 *341:14 *1298:B1 0.000177227
67 *341:14 *342:96 2.31791e-05
68 *341:31 *342:96 0.00011384
*RES
1 *1297:Y *342:12 25.2643 
2 *342:12 *1332:C1 10.675 
3 *342:12 *342:25 6.75 
4 *342:25 *1331:B 16.8 
5 *342:25 *342:36 1.64286 
6 *342:36 *1369:A2 13.8 
7 *342:36 *342:45 1.03571 
8 *342:45 *1329:A2 18.8893 
9 *342:45 *342:60 3.00893 
10 *342:60 *1330:A2 15.4518 
11 *342:60 *342:81 11.2143 
12 *342:81 *1300:A2 9.3 
13 *342:81 *342:92 2.32143 
14 *342:92 *342:96 7.05357 
15 *342:96 *1298:B1 18.6571 
16 *342:96 *1299:B1 15.9964 
17 *342:92 *1301:A2 10.6571 
*END

*D_NET *343 0.00134695
*CONN
*I *1302:A1 I *D sky130_fd_sc_hd__o21ai_2
*I *1298:X O *D sky130_fd_sc_hd__o211a_2
*CAP
1 *1302:A1 0.000423435
2 *1298:X 0.000423435
3 *1302:A1 *998:A 0
4 *1302:A1 *344:12 0
5 *1302:A1 *348:10 5.49489e-05
6 *1302:A1 *357:39 9.88812e-05
7 *1302:A1 *540:43 2.84026e-05
8 *1298:A1 *1302:A1 0.000143375
9 *1302:B1 *1302:A1 3.27461e-05
10 *296:6 *1302:A1 0.000141729
11 *332:12 *1302:A1 0
*RES
1 *1298:X *1302:A1 36.6 
*END

*D_NET *344 0.00201597
*CONN
*I *1303:B I *D sky130_fd_sc_hd__nand3b_4
*I *1342:B1 I *D sky130_fd_sc_hd__o21a_2
*I *1299:Y O *D sky130_fd_sc_hd__o211ai_2
*CAP
1 *1303:B 0.000134749
2 *1342:B1 7.95892e-05
3 *1299:Y 0.000261283
4 *344:12 0.000475621
5 *1303:B *1303:C 5.49544e-05
6 *1342:B1 *1342:A2 5.49489e-05
7 *1342:B1 *633:26 4.83363e-05
8 *344:12 *1303:C 0.000342495
9 *344:12 *1342:A2 0.000176234
10 *344:12 *660:50 5.68713e-05
11 *1302:A1 *344:12 0
12 *1303:A_N *1303:B 1.02132e-05
13 *330:19 *1303:B 0.000114541
14 *330:19 *1342:B1 2.89016e-05
15 *332:12 *344:12 0.000177234
*RES
1 *1299:Y *344:12 25.6393 
2 *344:12 *1342:B1 11.0679 
3 *344:12 *1303:B 12.3179 
*END

*D_NET *345 0.00140058
*CONN
*I *1302:A2 I *D sky130_fd_sc_hd__o21ai_2
*I *1342:A2 I *D sky130_fd_sc_hd__o21a_2
*I *1300:Y O *D sky130_fd_sc_hd__a21oi_2
*CAP
1 *1302:A2 7.97395e-05
2 *1342:A2 0.000118844
3 *1300:Y 0.000187387
4 *345:12 0.000385971
5 *1302:A2 *540:43 0.000168661
6 *345:12 *540:43 0.000228791
7 *1342:B1 *1342:A2 5.49489e-05
8 *344:12 *1342:A2 0.000176234
*RES
1 *1300:Y *345:12 22.1214 
2 *345:12 *1342:A2 21.0857 
3 *345:12 *1302:A2 11.0679 
*END

*D_NET *346 0.00312805
*CONN
*I *990:A2 I *D sky130_fd_sc_hd__o211a_2
*I *1070:A3 I *D sky130_fd_sc_hd__o311ai_4
*I *932:Y O *D sky130_fd_sc_hd__inv_2
*CAP
1 *990:A2 0.000393568
2 *1070:A3 0.000163865
3 *932:Y 0.000180904
4 *346:8 0.000738338
5 *990:A2 *984:A1 2.06112e-05
6 *990:A2 *986:B2 0.000120991
7 *990:A2 *990:B1 1.02504e-05
8 *990:A2 *991:A 0.000166983
9 *990:A2 *526:29 5.62135e-05
10 *990:A2 *526:83 5.12344e-05
11 *990:A2 *546:23 0.000233975
12 *990:A2 *641:84 0
13 *990:A2 *644:102 8.98994e-05
14 *1070:A3 *1072:B2 6.82706e-05
15 *1070:A3 *561:85 5.74242e-05
16 *1070:A3 *629:70 6.94761e-05
17 *346:8 *986:A1_N 0.000308913
18 *346:8 *1551:A 6.96806e-05
19 *346:8 *549:61 0.000102752
20 *984:A2 *990:A2 7.48901e-06
21 *987:A *346:8 0.000183711
22 *314:46 *990:A2 3.35006e-05
*RES
1 *932:Y *346:8 19.2643 
2 *346:8 *1070:A3 16.6571 
3 *346:8 *990:A2 23.0321 
*END

*D_NET *347 0.000875964
*CONN
*I *1303:C I *D sky130_fd_sc_hd__nand3b_4
*I *1301:X O *D sky130_fd_sc_hd__a21o_2
*CAP
1 *1303:C 0.000208877
2 *1301:X 0.000208877
3 *1303:B *1303:C 5.49544e-05
4 *330:10 *1303:C 5.80706e-06
5 *330:19 *1303:C 5.49544e-05
6 *344:12 *1303:C 0.000342495
*RES
1 *1301:X *1303:C 32.8143 
*END

*D_NET *348 0.0079739
*CONN
*I *1306:A I *D sky130_fd_sc_hd__and3_4
*I *1304:A1 I *D sky130_fd_sc_hd__a21oi_2
*I *1305:A1_N I *D sky130_fd_sc_hd__o2bb2ai_2
*I *1302:Y O *D sky130_fd_sc_hd__o21ai_2
*CAP
1 *1306:A 9.26557e-05
2 *1304:A1 0.000327573
3 *1305:A1_N 0
4 *1302:Y 0.00111124
5 *348:14 0.000396105
6 *348:10 0.00127243
7 *1304:A1 *1304:A2 0
8 *1304:A1 *1305:A2_N 5.52238e-05
9 *1304:A1 *349:21 0
10 *1304:A1 *392:10 0
11 *1304:A1 *573:26 2.44318e-05
12 *1306:A *1304:A2 2.48938e-05
13 *1306:A *1406:A 0
14 *1306:A *1407:C 0
15 *1306:A *349:10 3.34366e-05
16 *1306:A *349:21 0.000144512
17 *348:10 *1247:A1 1.40849e-05
18 *348:10 *1326:B 0
19 *348:10 *1382:A 0.000159473
20 *348:10 *1388:C1 0.000385003
21 *348:10 *1402:C 0.000576609
22 *348:10 *349:10 0.0018906
23 *348:10 *373:22 5.68713e-05
24 *348:10 *389:10 0
25 *348:10 *435:10 0.000312736
26 *348:10 *540:43 0.000494284
27 *348:10 *638:34 0
28 *348:10 *638:36 0
29 *348:14 *1305:A2_N 0.000274294
30 *348:14 *573:26 0.000170955
31 *1216:A1 *348:10 0.000101545
32 *1302:A1 *348:10 5.49489e-05
33 *1304:B1 *1304:A1 0
34 *327:10 *1304:A1 0
*RES
1 *1302:Y *348:10 45.9071 
2 *348:10 *348:14 7.5 
3 *348:14 *1305:A1_N 9.3 
4 *348:14 *1304:A1 24.1214 
5 *348:10 *1306:A 16.3536 
*END

*D_NET *349 0.00627751
*CONN
*I *1304:A2 I *D sky130_fd_sc_hd__a21oi_2
*I *1306:B I *D sky130_fd_sc_hd__and3_4
*I *1305:A2_N I *D sky130_fd_sc_hd__o2bb2ai_2
*I *1303:Y O *D sky130_fd_sc_hd__nand3b_4
*CAP
1 *1304:A2 0.000293287
2 *1306:B 4.00275e-05
3 *1305:A2_N 0.00014179
4 *1303:Y 0.0010021
5 *349:21 0.000408962
6 *349:10 0.00121954
7 *1304:A2 *392:10 5.52302e-05
8 *1305:A2_N *573:26 1.74352e-05
9 *349:10 *1126:B1 0
10 *349:10 *1247:A1 7.83462e-05
11 *349:10 *1282:A2 5.0725e-05
12 *349:10 *1359:A1 0
13 *349:10 *410:10 0
14 *349:10 *627:37 0.000180039
15 *349:10 *633:26 0.000114645
16 *1216:A1 *349:10 2.59355e-05
17 *1247:B1 *349:10 0
18 *1303:A_N *349:10 9.90431e-05
19 *1304:A1 *1304:A2 0
20 *1304:A1 *1305:A2_N 5.52238e-05
21 *1304:A1 *349:21 0
22 *1306:A *1304:A2 2.48938e-05
23 *1306:A *349:10 3.34366e-05
24 *1306:A *349:21 0.000144512
25 *1402:A *349:10 0.000127439
26 *75:10 *349:10 0
27 *348:10 *349:10 0.0018906
28 *348:14 *1305:A2_N 0.000274294
*RES
1 *1303:Y *349:10 41.5143 
2 *349:10 *1305:A2_N 17.2107 
3 *349:10 *349:21 1.94643 
4 *349:21 *1306:B 14.3357 
5 *349:21 *1304:A2 18.9607 
*END

*D_NET *350 0.000537727
*CONN
*I *1310:A1 I *D sky130_fd_sc_hd__o21ai_2
*I *1304:Y O *D sky130_fd_sc_hd__a21oi_2
*CAP
1 *1310:A1 0.00011279
2 *1304:Y 0.00011279
3 *1310:A1 *1345:A3 6.05161e-06
4 *1304:B1 *1310:A1 0.000153047
5 *301:16 *1310:A1 0.000153047
*RES
1 *1304:Y *1310:A1 30.4929 
*END

*D_NET *351 0.0016407
*CONN
*I *1345:A2 I *D sky130_fd_sc_hd__a31o_2
*I *1309:B I *D sky130_fd_sc_hd__nand3_2
*I *1305:Y O *D sky130_fd_sc_hd__o2bb2ai_2
*CAP
1 *1345:A2 0.000166846
2 *1309:B 0
3 *1305:Y 0.000250434
4 *351:10 0.00041728
5 *1345:A2 *352:12 6.82922e-05
6 *1345:A2 *352:16 5.52302e-05
7 *1345:A2 *356:12 0.000149911
8 *351:10 *1305:B1 7.43578e-06
9 *351:10 *1310:B1 4.23086e-05
10 *351:10 *352:12 0.000123903
11 *351:10 *353:10 4.38511e-05
12 *351:10 *356:12 0.00015234
13 *1345:A1 *1345:A2 5.52302e-05
14 *301:16 *351:10 4.84947e-05
15 *327:10 *351:10 5.91452e-05
*RES
1 *1305:Y *351:10 20.2464 
2 *351:10 *1309:B 13.8 
3 *351:10 *1345:A2 17.6571 
*END

*D_NET *352 0.00311626
*CONN
*I *1313:A1 I *D sky130_fd_sc_hd__o211a_2
*I *1310:A2 I *D sky130_fd_sc_hd__o21ai_2
*I *1314:A1 I *D sky130_fd_sc_hd__o211ai_2
*I *1311:A1 I *D sky130_fd_sc_hd__o21ai_2
*I *1345:B1 I *D sky130_fd_sc_hd__a31o_2
*I *1306:X O *D sky130_fd_sc_hd__and3_4
*CAP
1 *1313:A1 0.000141283
2 *1310:A2 0
3 *1314:A1 0.000252568
4 *1311:A1 0.000211001
5 *1345:B1 0
6 *1306:X 0.000200894
7 *352:16 0.000112074
8 *352:12 0.000442248
9 *352:8 0.000348218
10 *1311:A1 *1311:A2 9.90431e-05
11 *1311:A1 *356:12 9.71197e-05
12 *1311:A1 *356:23 9.90431e-05
13 *1313:A1 *1314:B1 5.80706e-06
14 *1313:A1 *356:23 0.000106552
15 *1314:A1 *1314:A2 0
16 *1314:A1 *1347:A 0
17 *1314:A1 *1355:A2 9.90431e-05
18 *1314:A1 *355:8 0
19 *1314:A1 *355:21 0
20 *1314:A1 *395:10 0.000119718
21 *352:12 *1345:A3 6.39901e-05
22 *1306:C *352:8 0.000184745
23 *1345:A1 *1311:A1 1.38323e-05
24 *1345:A1 *352:16 2.14658e-05
25 *1345:A2 *352:12 6.82922e-05
26 *1345:A2 *352:16 5.52302e-05
27 *301:16 *352:12 0.000250193
28 *351:10 *352:12 0.000123903
*RES
1 *1306:X *352:8 12.7286 
2 *352:8 *352:12 9.48214 
3 *352:12 *352:16 5.44643 
4 *352:16 *1345:B1 9.3 
5 *352:16 *1311:A1 11.4786 
6 *352:12 *1314:A1 19.425 
7 *352:8 *1310:A2 9.3 
8 *1311:A1 *1313:A1 30.283 
*END

*D_NET *353 0.00163498
*CONN
*I *1308:B I *D sky130_fd_sc_hd__nand2_2
*I *1309:C I *D sky130_fd_sc_hd__nand3_2
*I *1345:A3 I *D sky130_fd_sc_hd__a31o_2
*I *1307:X O *D sky130_fd_sc_hd__a311o_2
*CAP
1 *1308:B 2.81959e-05
2 *1309:C 0
3 *1345:A3 0.000151265
4 *1307:X 0.000171384
5 *353:14 0.000259065
6 *353:10 0.00030738
7 *1308:B *1310:B1 4.72917e-05
8 *353:10 *1310:B1 0.00015304
9 *353:10 *356:12 2.58997e-05
10 *353:14 *1310:B1 2.59355e-05
11 *1304:B1 *1345:A3 1.02504e-05
12 *1308:A *1308:B 5.7661e-06
13 *1310:A1 *1345:A3 6.05161e-06
14 *301:16 *1345:A3 0.000129531
15 *301:16 *353:14 5.67737e-05
16 *301:20 *1308:B 5.52302e-05
17 *301:20 *353:14 5.922e-05
18 *301:29 *1308:B 3.4855e-05
19 *351:10 *353:10 4.38511e-05
20 *352:12 *1345:A3 6.39901e-05
*RES
1 *1307:X *353:10 22.3714 
2 *353:10 *353:14 2.19643 
3 *353:14 *1345:A3 21.6036 
4 *353:14 *1309:C 9.3 
5 *353:10 *1308:B 10.675 
*END

*D_NET *354 0.000710993
*CONN
*I *1310:B1 I *D sky130_fd_sc_hd__o21ai_2
*I *1308:Y O *D sky130_fd_sc_hd__nand2_2
*CAP
1 *1310:B1 0.000174541
2 *1308:Y 0.000174541
3 *1310:B1 *356:12 8.00806e-05
4 *1308:B *1310:B1 4.72917e-05
5 *301:29 *1310:B1 1.32552e-05
6 *351:10 *1310:B1 4.23086e-05
7 *353:10 *1310:B1 0.00015304
8 *353:14 *1310:B1 2.59355e-05
*RES
1 *1308:Y *1310:B1 31.3143 
*END

*D_NET *355 0.00166207
*CONN
*I *1314:A2 I *D sky130_fd_sc_hd__o211ai_2
*I *1313:A2 I *D sky130_fd_sc_hd__o211a_2
*I *1311:A2 I *D sky130_fd_sc_hd__o21ai_2
*I *1309:Y O *D sky130_fd_sc_hd__nand3_2
*CAP
1 *1314:A2 0.000119495
2 *1313:A2 0.000141253
3 *1311:A2 0.000108183
4 *1309:Y 0.000113225
5 *355:21 0.000356729
6 *355:8 0.000317388
7 *1311:A2 *1312:C 1.33343e-05
8 *1311:A2 *356:23 2.14658e-05
9 *1314:A2 *1314:B1 1.00375e-05
10 *1314:A2 *356:23 7.80714e-06
11 *1314:A2 *359:23 9.25014e-06
12 *1314:A2 *395:10 0
13 *355:8 *356:12 1.08359e-05
14 *355:8 *356:23 1.65558e-05
15 *355:21 *356:23 6.35892e-05
16 *1311:A1 *1311:A2 9.90431e-05
17 *1313:C1 *1314:A2 0.000152333
18 *1314:A1 *1314:A2 0
19 *1314:A1 *355:8 0
20 *1314:A1 *355:21 0
21 *1345:A1 *355:8 0.000101545
*RES
1 *1309:Y *355:8 16.05 
2 *355:8 *1311:A2 15.9964 
3 *355:8 *355:21 2.25 
4 *355:21 *1313:A2 15.9964 
5 *355:21 *1314:A2 16.3536 
*END

*D_NET *356 0.00196511
*CONN
*I *1314:B1 I *D sky130_fd_sc_hd__o211ai_2
*I *1313:B1 I *D sky130_fd_sc_hd__o211a_2
*I *1311:B1 I *D sky130_fd_sc_hd__o21ai_2
*I *1310:Y O *D sky130_fd_sc_hd__o21ai_2
*CAP
1 *1314:B1 9.88971e-05
2 *1313:B1 0
3 *1311:B1 0
4 *1310:Y 0.000152307
5 *356:23 0.000290145
6 *356:12 0.000343556
7 *1314:B1 *360:12 0
8 *1310:B1 *356:12 8.00806e-05
9 *1311:A1 *356:12 9.71197e-05
10 *1311:A1 *356:23 9.90431e-05
11 *1311:A2 *356:23 2.14658e-05
12 *1313:A1 *1314:B1 5.80706e-06
13 *1313:A1 *356:23 0.000106552
14 *1313:C1 *1314:B1 7.25104e-05
15 *1313:C1 *356:23 5.80706e-06
16 *1314:A2 *1314:B1 1.00375e-05
17 *1314:A2 *356:23 7.80714e-06
18 *1345:A1 *356:12 0.000154845
19 *1345:A2 *356:12 0.000149911
20 *351:10 *356:12 0.00015234
21 *353:10 *356:12 2.58997e-05
22 *355:8 *356:12 1.08359e-05
23 *355:8 *356:23 1.65558e-05
24 *355:21 *356:23 6.35892e-05
*RES
1 *1310:Y *356:12 23.0143 
2 *356:12 *1311:B1 9.3 
3 *356:12 *356:23 9.01786 
4 *356:23 *1313:B1 13.8 
5 *356:23 *1314:B1 16.05 
*END

*D_NET *357 0.0150849
*CONN
*I *1078:C1 I *D sky130_fd_sc_hd__a221o_2
*I *1035:A I *D sky130_fd_sc_hd__nand3_2
*I *1036:B1 I *D sky130_fd_sc_hd__a21o_2
*I *1169:C1 I *D sky130_fd_sc_hd__a221o_2
*I *1415:A I *D sky130_fd_sc_hd__clkbuf_4
*I *933:Y O *D sky130_fd_sc_hd__inv_2
*CAP
1 *1078:C1 0.000131702
2 *1035:A 8.2778e-05
3 *1036:B1 0
4 *1169:C1 2.23854e-05
5 *1415:A 0
6 *933:Y 0.000327512
7 *357:72 0.000445153
8 *357:66 0.000648528
9 *357:53 0.00115559
10 *357:39 0.00327661
11 *357:16 0.00262537
12 *1078:C1 *996:B 9.91086e-05
13 *1078:C1 *1076:C 1.38323e-05
14 *1078:C1 *1078:B2 9.60939e-05
15 *1078:C1 *1128:A1 9.80173e-05
16 *1078:C1 *656:56 5.33005e-05
17 *1078:C1 *656:58 4.49293e-05
18 *1078:C1 *665:59 9.41642e-05
19 *357:16 *1249:B 0.000304311
20 *357:16 *1292:A2 2.36643e-05
21 *357:16 *1328:A1 0.000138427
22 *357:16 *581:16 3.22964e-05
23 *357:16 *631:34 1.58163e-05
24 *357:16 *631:76 1.83136e-05
25 *357:39 *934:A 8.63596e-05
26 *357:39 *997:B 4.14252e-05
27 *357:39 *998:A 0
28 *357:39 *1213:A2 2.61528e-05
29 *357:39 *1214:A1 0.000383166
30 *357:39 *1249:B 0.000230432
31 *357:39 *1411:A 0
32 *357:39 *1436:A 0
33 *357:39 *1572:A 1.58163e-05
34 *357:39 *591:14 9.60939e-05
35 *357:39 *631:76 7.68701e-05
36 *357:39 *632:29 0
37 *357:39 *660:50 0.000397502
38 *357:53 *1170:A1 0.000157409
39 *357:53 *506:58 7.6644e-05
40 *357:53 *639:73 4.58194e-05
41 *357:53 *651:52 7.83659e-05
42 *357:66 *996:B 5.66157e-05
43 *357:72 *1077:A2 1.39841e-05
44 *357:72 *593:27 6.70489e-05
45 *1035:B *1035:A 9.60939e-05
46 *1035:B *357:72 0
47 *1035:C *1035:A 5.52302e-05
48 *1077:A1 *357:72 5.52302e-05
49 *1169:B1 *357:53 6.24016e-05
50 *1169:B1 *357:66 7.02611e-05
51 *1169:B2 *357:53 6.61814e-05
52 *1169:B2 *357:66 4.08637e-05
53 *1170:B1 *357:53 2.79509e-06
54 *1213:A1 *357:39 1.58163e-05
55 *1213:B1 *357:39 4.43256e-05
56 *1256:C *357:39 5.94896e-06
57 *1299:A1 *357:39 0.00013966
58 *1302:A1 *357:39 9.88812e-05
59 *41:48 *357:53 0.000210054
60 *41:67 *1169:C1 0
61 *41:67 *357:53 2.66473e-05
62 *41:67 *357:66 3.2687e-05
63 *41:67 *357:72 0.000426985
64 *76:14 *357:39 9.33978e-07
65 *79:6 *1035:A 3.97677e-05
66 *79:6 *357:72 2.77143e-05
67 *114:14 *1078:C1 0.00013966
68 *114:14 *357:66 5.83304e-05
69 *119:10 *357:72 0.000179745
70 *209:16 *357:53 8.36572e-05
71 *209:26 *357:53 0.000353439
72 *210:8 *357:53 5.52238e-05
73 *298:10 *357:39 0.00028127
74 *331:10 *357:39 0.000719918
75 *341:10 *357:16 9.76123e-05
*RES
1 *933:Y *357:16 24.5321 
2 *357:16 *1415:A 9.3 
3 *357:16 *357:39 49.6964 
4 *357:39 *357:53 20.7321 
5 *357:53 *1169:C1 9.72857 
6 *357:53 *357:66 7.82143 
7 *357:66 *357:72 12.4464 
8 *357:72 *1036:B1 9.3 
9 *357:72 *1035:A 11.0679 
10 *357:66 *1078:C1 17.925 
*END

*D_NET *358 0.00110817
*CONN
*I *1312:C I *D sky130_fd_sc_hd__and3_2
*I *1311:Y O *D sky130_fd_sc_hd__o21ai_2
*CAP
1 *1312:C 0.000547416
2 *1311:Y 0.000547416
3 *1312:C *360:12 0
4 *1311:A2 *1312:C 1.33343e-05
*RES
1 *1311:Y *1312:C 36.4214 
*END

*D_NET *359 0.00360258
*CONN
*I *1315:A I *D sky130_fd_sc_hd__nor2_2
*I *1323:A1 I *D sky130_fd_sc_hd__o211a_4
*I *1355:A2 I *D sky130_fd_sc_hd__a21oi_4
*I *1312:X O *D sky130_fd_sc_hd__and3_2
*CAP
1 *1315:A 0
2 *1323:A1 0.000114144
3 *1355:A2 0.000165818
4 *1312:X 0.000494468
5 *359:23 0.000373085
6 *359:8 0.000919227
7 *1323:A1 *1353:B1 3.9846e-05
8 *1323:A1 *360:12 5.52302e-05
9 *1323:A1 *360:19 8.76257e-05
10 *1355:A2 *361:10 7.77652e-05
11 *1355:A2 *396:23 0.000317082
12 *1355:A2 *403:10 1.21289e-05
13 *359:8 *361:10 9.99644e-06
14 *359:8 *403:10 2.28839e-05
15 *359:23 *1350:A 4.1331e-06
16 *359:23 *1353:B1 0.000318107
17 *359:23 *360:12 0
18 *359:23 *361:10 5.9483e-05
19 *359:23 *396:23 0
20 *1281:A *359:8 0.000188586
21 *1313:C1 *359:8 0.000188777
22 *1314:A1 *1355:A2 9.90431e-05
23 *1314:A2 *359:23 9.25014e-06
24 *325:6 *359:8 4.58976e-05
*RES
1 *1312:X *359:8 16.3179 
2 *359:8 *1355:A2 13.9429 
3 *359:8 *359:23 14.8571 
4 *359:23 *1323:A1 11.9071 
5 *359:23 *1315:A 9.3 
*END

*D_NET *360 0.00185412
*CONN
*I *1349:A1 I *D sky130_fd_sc_hd__o21bai_2
*I *1323:A2 I *D sky130_fd_sc_hd__o211a_4
*I *1315:B I *D sky130_fd_sc_hd__nor2_2
*I *1313:X O *D sky130_fd_sc_hd__o211a_2
*CAP
1 *1349:A1 0.00025135
2 *1323:A2 0
3 *1315:B 0
4 *1313:X 0.000295314
5 *360:19 0.000289552
6 *360:12 0.000333517
7 *1349:A1 *1320:A 0
8 *1349:A1 *1322:A 7.80714e-06
9 *1349:A1 *1323:B1 5.26184e-05
10 *1349:A1 *1323:C1 0
11 *1349:A1 *1324:A 1.31516e-05
12 *1349:A1 *1349:B1_N 0
13 *1349:A1 *1353:B1 9.90367e-05
14 *1349:A1 *362:12 4.35048e-05
15 *1349:A1 *369:8 8.15939e-05
16 *360:12 *1353:B1 5.52302e-05
17 *360:19 *1353:B1 0.000188586
18 *1281:B *360:12 0
19 *1312:C *360:12 0
20 *1314:B1 *360:12 0
21 *1323:A1 *360:12 5.52302e-05
22 *1323:A1 *360:19 8.76257e-05
23 *359:23 *360:12 0
*RES
1 *1313:X *360:12 23.5143 
2 *360:12 *1315:B 9.3 
3 *360:12 *360:19 1.76786 
4 *360:19 *1323:A2 9.3 
5 *360:19 *1349:A1 24.2286 
*END

*D_NET *361 0.00130437
*CONN
*I *1350:A I *D sky130_fd_sc_hd__nand3_2
*I *1352:A1 I *D sky130_fd_sc_hd__a21oi_2
*I *1314:Y O *D sky130_fd_sc_hd__o211ai_2
*CAP
1 *1350:A 0.000166947
2 *1352:A1 0
3 *1314:Y 0.000112806
4 *361:10 0.000279753
5 *1350:A *1348:B 0.000169405
6 *1350:A *397:10 5.62995e-05
7 *361:10 *1348:B 3.34366e-05
8 *361:10 *396:23 0.000150618
9 *361:10 *403:10 0.000183726
10 *1355:A2 *361:10 7.77652e-05
11 *359:8 *361:10 9.99644e-06
12 *359:23 *1350:A 4.1331e-06
13 *359:23 *361:10 5.9483e-05
*RES
1 *1314:Y *361:10 17.8179 
2 *361:10 *1352:A1 13.8 
3 *361:10 *1350:A 17.4071 
*END

*D_NET *362 0.000733764
*CONN
*I *1321:B1_N I *D sky130_fd_sc_hd__a21boi_2
*I *1322:B I *D sky130_fd_sc_hd__nand2_2
*I *1315:Y O *D sky130_fd_sc_hd__nor2_2
*CAP
1 *1321:B1_N 4.05636e-05
2 *1322:B 0
3 *1315:Y 0.000182658
4 *362:12 0.000223221
5 *1321:B1_N *1322:A 9.90431e-05
6 *362:12 *1353:B1 0.000144773
7 *1349:A1 *362:12 4.35048e-05
*RES
1 *1315:Y *362:12 21.3 
2 *362:12 *1322:B 9.3 
3 *362:12 *1321:B1_N 10.2464 
*END

*D_NET *363 0.00102853
*CONN
*I *1317:C1 I *D sky130_fd_sc_hd__o211ai_4
*I *1316:X O *D sky130_fd_sc_hd__o2111a_2
*CAP
1 *1317:C1 0.000306032
2 *1316:X 0.000306032
3 *1317:C1 *1240:A 0.000346632
4 *1317:C1 *364:18 0
5 *1279:A3 *1317:C1 0
6 *1280:A *1317:C1 3.69697e-05
7 *1280:B *1317:C1 2.91794e-05
8 *1556:A *1317:C1 3.69047e-06
*RES
1 *1316:X *1317:C1 34.6357 
*END

*D_NET *364 0.00788676
*CONN
*I *1582:A I *D sky130_fd_sc_hd__buf_6
*I *1354:B I *D sky130_fd_sc_hd__nand2_4
*I *1321:A2 I *D sky130_fd_sc_hd__a21boi_2
*I *1527:A I *D sky130_fd_sc_hd__buf_6
*I *1317:Y O *D sky130_fd_sc_hd__o211ai_4
*CAP
1 *1582:A 0.000122166
2 *1354:B 0.000265823
3 *1321:A2 6.76454e-05
4 *1527:A 2.80869e-05
5 *1317:Y 0.00183598
6 *364:39 0.000473467
7 *364:35 0.000333235
8 *364:22 0.000168287
9 *364:18 0.00190511
10 *1321:A2 *366:10 9.00789e-05
11 *1354:B *1324:B 8.64413e-05
12 *1354:B *1354:A 0
13 *1527:A *1353:A1 6.05161e-06
14 *1527:A *366:10 5.33005e-05
15 *1582:A *1324:B 0
16 *364:18 *1240:B 2.72449e-05
17 *364:18 *1353:A2 8.07313e-05
18 *364:22 *1353:A1 0.000129868
19 *364:22 *1353:A2 0
20 *364:22 *1354:A 5.80706e-06
21 *364:39 *366:10 0.000303747
22 *1187:A *364:18 0
23 *1239:B *364:18 0.000218685
24 *1278:A2 *364:18 0.000263798
25 *1279:A3 *364:18 0
26 *1281:B *1354:B 0
27 *1316:A1 *364:18 1.21289e-05
28 *1317:C1 *364:18 0
29 *315:16 *364:18 0.00130753
30 *321:35 *364:18 0.000101545
*RES
1 *1317:Y *364:18 49.3536 
2 *364:18 *364:22 7.35714 
3 *364:22 *1527:A 14.3357 
4 *364:22 *364:35 1.26786 
5 *364:35 *364:39 7.5 
6 *364:39 *1321:A2 10.675 
7 *364:39 *1354:B 23.8893 
8 *364:35 *1582:A 16.05 
*END

*D_NET *365 0.00106024
*CONN
*I *1319:B I *D sky130_fd_sc_hd__nand2_2
*I *1353:A2 I *D sky130_fd_sc_hd__a21oi_2
*I *1318:Y O *D sky130_fd_sc_hd__o21ai_2
*CAP
1 *1319:B 0
2 *1353:A2 0.000207604
3 *1318:Y 0.000205206
4 *365:8 0.00041281
5 *1353:A2 *1353:A1 0
6 *365:8 *1319:A 1.04232e-05
7 *365:8 *544:20 0.000136031
8 *1318:A1 *1353:A2 0
9 *1318:A2 *365:8 7.43578e-06
10 *364:18 *1353:A2 8.07313e-05
11 *364:22 *1353:A2 0
*RES
1 *1318:Y *365:8 13.4429 
2 *365:8 *1353:A2 21.9071 
3 *365:8 *1319:B 9.3 
*END

*D_NET *366 0.0022457
*CONN
*I *1321:A1 I *D sky130_fd_sc_hd__a21boi_2
*I *1320:A I *D sky130_fd_sc_hd__nand2_2
*I *1323:C1 I *D sky130_fd_sc_hd__o211a_4
*I *1319:Y O *D sky130_fd_sc_hd__nand2_2
*CAP
1 *1321:A1 0
2 *1320:A 5.62035e-05
3 *1323:C1 0.000101469
4 *1319:Y 0.000186137
5 *366:14 0.000186911
6 *366:10 0.000215375
7 *1320:A *1322:A 0.000177948
8 *1320:A *1324:A 1.31516e-05
9 *1320:A *1324:B 0.000227736
10 *1323:C1 *1323:B1 0.000148911
11 *1323:C1 *1324:B 0.000171375
12 *1323:C1 *1353:B1 9.60875e-05
13 *366:10 *1323:B1 0.000130932
14 *366:10 *1353:A1 3.30352e-05
15 *366:14 *1323:B1 5.33005e-05
16 *1321:A2 *366:10 9.00789e-05
17 *1349:A1 *1320:A 0
18 *1349:A1 *1323:C1 0
19 *1527:A *366:10 5.33005e-05
20 *364:39 *366:10 0.000303747
*RES
1 *1319:Y *366:10 14.9071 
2 *366:10 *366:14 5.03571 
3 *366:14 *1323:C1 16.9964 
4 *366:14 *1320:A 16.6571 
5 *366:10 *1321:A1 9.3 
*END

*D_NET *367 0.000944596
*CONN
*I *1322:A I *D sky130_fd_sc_hd__nand2_2
*I *1320:Y O *D sky130_fd_sc_hd__nand2_2
*CAP
1 *1322:A 0.000245724
2 *1320:Y 0.000245724
3 *1322:A *1323:B1 6.05161e-06
4 *1322:A *1324:A 9.25014e-06
5 *1322:A *369:8 0.000153047
6 *1320:A *1322:A 0.000177948
7 *1321:B1_N *1322:A 9.90431e-05
8 *1349:A1 *1322:A 7.80714e-06
*RES
1 *1320:Y *1322:A 33.2786 
*END

*D_NET *368 0.00641357
*CONN
*I *1115:A3 I *D sky130_fd_sc_hd__o311a_2
*I *1292:A2 I *D sky130_fd_sc_hd__a311o_2
*I *934:Y O *D sky130_fd_sc_hd__inv_2
*CAP
1 *1115:A3 0.00140381
2 *1292:A2 0.00056016
3 *934:Y 0
4 *368:4 0.00196397
5 *1115:A3 *1208:C1 9.60875e-05
6 *1115:A3 *1288:A1 2.23987e-05
7 *1115:A3 *1288:B1 0.000431857
8 *1115:A3 *578:27 0.000174805
9 *1115:A3 *581:16 2.30071e-05
10 *1115:A3 *617:6 9.41642e-05
11 *1115:A3 *617:16 0.000175892
12 *1115:A3 *640:30 2.95726e-05
13 *1292:A2 *1249:B 1.10868e-05
14 *1292:A2 *1292:A1 0
15 *1292:A2 *1292:A3 1.74153e-05
16 *1292:A2 *1292:B1 1.31145e-05
17 *1292:A2 *1293:B1 6.30968e-05
18 *1292:A2 *1328:A1 0.000176203
19 *1292:A2 *1467:A 1.46231e-05
20 *1292:A2 *565:22 5.97719e-05
21 *1292:A2 *581:16 3.08734e-05
22 *1292:A2 *632:6 1.21258e-05
23 *1292:A2 *632:29 2.96219e-05
24 *1115:B1 *1115:A3 0.000178847
25 *1119:B2 *1115:A3 4.80487e-05
26 *1210:A2 *1115:A3 0.000173097
27 *1216:A1 *1115:A3 7.6644e-05
28 *1288:C1 *1115:A3 4.16984e-05
29 *1296:C1 *1292:A2 9.83442e-05
30 *1416:A *1292:A2 0.000187683
31 *1472:A *1115:A3 3.80079e-05
32 *244:10 *1115:A3 0.000115467
33 *341:10 *1292:A2 2.84109e-05
34 *357:16 *1292:A2 2.36643e-05
*RES
1 *934:Y *368:4 9.3 
2 *368:4 *1292:A2 37.7643 
3 *368:4 *1115:A3 41.2107 
*END

*D_NET *369 0.000861753
*CONN
*I *1324:A I *D sky130_fd_sc_hd__nor2_2
*I *1349:A2 I *D sky130_fd_sc_hd__o21bai_2
*I *1321:Y O *D sky130_fd_sc_hd__a21boi_2
*CAP
1 *1324:A 0.000100049
2 *1349:A2 0.000116831
3 *1321:Y 4.69356e-05
4 *369:8 0.000263816
5 *1324:A *1324:B 6.39262e-05
6 *1324:A *1484:A 0
7 *1349:A2 *1351:B 0
8 *1320:A *1324:A 1.31516e-05
9 *1322:A *1324:A 9.25014e-06
10 *1322:A *369:8 0.000153047
11 *1349:A1 *1324:A 1.31516e-05
12 *1349:A1 *369:8 8.15939e-05
*RES
1 *1321:Y *369:8 15.7464 
2 *369:8 *1349:A2 15.5857 
3 *369:8 *1324:A 16.3536 
*END

*D_NET *370 0.000545211
*CONN
*I *1350:B I *D sky130_fd_sc_hd__nand3_2
*I *1322:Y O *D sky130_fd_sc_hd__nand2_2
*CAP
1 *1350:B 9.9205e-05
2 *1322:Y 9.9205e-05
3 *1350:B *1350:C 9.90367e-05
4 *1350:B *1351:A 1.72894e-05
5 *1350:B *397:10 0.000230475
*RES
1 *1322:Y *1350:B 21.6179 
*END

*D_NET *371 0.0011675
*CONN
*I *1324:B I *D sky130_fd_sc_hd__nor2_2
*I *1323:X O *D sky130_fd_sc_hd__o211a_4
*CAP
1 *1324:B 0.000287984
2 *1323:X 0.000287984
3 *1324:B *1323:B1 1.3142e-05
4 *1324:B *1353:B1 2.89114e-05
5 *1320:A *1324:B 0.000227736
6 *1323:C1 *1324:B 0.000171375
7 *1324:A *1324:B 6.39262e-05
8 *1354:B *1324:B 8.64413e-05
9 *1582:A *1324:B 0
*RES
1 *1323:X *1324:B 35.5464 
*END

*D_NET *372 0.00102539
*CONN
*I *1340:A_N I *D sky130_fd_sc_hd__nand3b_2
*I *1341:C I *D sky130_fd_sc_hd__nand3_2
*I *1325:X O *D sky130_fd_sc_hd__and3_2
*CAP
1 *1340:A_N 0
2 *1341:C 0.000154166
3 *1325:X 8.28114e-05
4 *372:8 0.000236977
5 *1341:C *1340:B 0
6 *1341:C *1341:B 3.28977e-05
7 *1341:C *390:10 3.18676e-05
8 *1341:C *419:14 0.000150618
9 *1341:C *633:26 0.00018372
10 *372:8 *419:14 0.000152333
11 *372:8 *633:26 0
*RES
1 *1325:X *372:8 15.7464 
2 *372:8 *1341:C 17.9429 
3 *372:8 *1340:A_N 13.8 
*END

*D_NET *373 0.00535817
*CONN
*I *1390:A I *D sky130_fd_sc_hd__or4b_4
*I *1389:A1_N I *D sky130_fd_sc_hd__a2bb2o_2
*I *1326:X O *D sky130_fd_sc_hd__and3_2
*CAP
1 *1390:A 2.2253e-05
2 *1389:A1_N 0.000151598
3 *1326:X 0.000867047
4 *373:22 0.0010409
5 *1389:A1_N *1383:A 6.05161e-06
6 *1389:A1_N *1383:B 1.21258e-05
7 *1389:A1_N *1383:C 5.33005e-05
8 *1389:A1_N *1387:A 7.43578e-06
9 *1389:A1_N *1390:C 9.91086e-05
10 *1389:A1_N *391:14 0
11 *1389:A1_N *416:20 1.96517e-05
12 *1389:A1_N *436:24 4.09341e-05
13 *1389:A1_N *436:43 0.000121573
14 *1390:A *1383:A 3.37729e-05
15 *373:22 *1326:B 0.000266092
16 *373:22 *1382:A 8.45492e-06
17 *373:22 *1383:B 8.50588e-05
18 *373:22 *1383:C 0.000378322
19 *373:22 *1384:A2_N 0.000140076
20 *373:22 *1385:A 0.000383281
21 *373:22 *1386:B1 1.721e-05
22 *373:22 *1390:B 0.000269168
23 *373:22 *1403:A2 5.52238e-05
24 *373:22 *432:10 6.42242e-05
25 *373:22 *436:14 0.000352281
26 *373:22 *438:10 0
27 *373:22 *626:16 2.24646e-05
28 *373:22 *626:18 0.000506745
29 *373:22 *638:42 1.5942e-05
30 *373:22 *638:48 0.000261007
31 *1302:B1 *373:22 0
32 *348:10 *373:22 5.68713e-05
*RES
1 *1326:X *373:22 43.3357 
2 *373:22 *1389:A1_N 21.9518 
3 *373:22 *1390:A 10.0321 
*END

*D_NET *374 0.000268921
*CONN
*I *1328:B1 I *D sky130_fd_sc_hd__o31a_2
*I *1327:X O *D sky130_fd_sc_hd__a31o_2
*CAP
1 *1328:B1 7.85984e-05
2 *1327:X 7.85984e-05
3 *1328:B1 *552:14 3.12359e-05
4 *332:12 *1328:B1 4.62179e-05
5 *341:10 *1328:B1 3.42707e-05
*RES
1 *1327:X *1328:B1 29.5464 
*END

*D_NET *375 0.00329973
*CONN
*I *1332:B1 I *D sky130_fd_sc_hd__o211ai_2
*I *1369:A3 I *D sky130_fd_sc_hd__a31o_2
*I *1330:B1 I *D sky130_fd_sc_hd__a21o_2
*I *1329:B1 I *D sky130_fd_sc_hd__a21oi_2
*I *1331:C I *D sky130_fd_sc_hd__and3_2
*I *1328:X O *D sky130_fd_sc_hd__o31a_2
*CAP
1 *1332:B1 2.06112e-05
2 *1369:A3 0
3 *1330:B1 0.000182731
4 *1329:B1 0
5 *1331:C 6.26682e-05
6 *1328:X 0.00035911
7 *375:29 0.000260667
8 *375:16 0.000166965
9 *375:14 0.000188799
10 *375:6 0.00054216
11 *1330:B1 *1330:A1 1.02936e-05
12 *1330:B1 *377:10 2.89016e-05
13 *1330:B1 *383:24 0.000106542
14 *1330:B1 *540:8 6.71755e-05
15 *1330:B1 *662:14 7.39637e-05
16 *1331:C *1338:A2 2.89016e-05
17 *1331:C *475:30 0.000162625
18 *375:6 *1332:A2 0.00018624
19 *375:6 *380:10 5.71472e-05
20 *375:14 *662:14 0
21 *375:16 *1338:A2 4.59075e-05
22 *375:16 *1369:B1 5.52238e-05
23 *375:16 *475:30 0.000129515
24 *375:29 *1369:B1 6.32633e-05
25 *375:29 *383:24 1.41029e-05
26 *375:29 *662:14 6.26559e-05
27 *1330:A2 *1330:B1 5.33005e-05
28 *1332:C1 *1332:B1 3.99614e-06
29 *1332:C1 *375:14 2.89016e-05
30 *342:12 *375:6 6.13217e-05
31 *342:12 *375:14 2.89114e-05
32 *342:25 *375:14 0.000126439
33 *342:36 *375:14 6.73939e-05
34 *342:36 *375:29 0
35 *342:81 *1330:B1 5.33005e-05
*RES
1 *1328:X *375:6 15.9964 
2 *375:6 *375:14 12.5 
3 *375:14 *375:16 1.35714 
4 *375:16 *1331:C 11.0857 
5 *375:16 *375:29 6.75 
6 *375:29 *1329:B1 13.8 
7 *375:29 *1330:B1 18.9607 
8 *375:14 *1369:A3 9.3 
9 *375:6 *1332:B1 9.72857 
*END

*D_NET *376 0.000134779
*CONN
*I *1338:A1 I *D sky130_fd_sc_hd__o21ai_2
*I *1329:Y O *D sky130_fd_sc_hd__a21oi_2
*CAP
1 *1338:A1 4.99499e-05
2 *1329:Y 4.99499e-05
3 *1329:A2 *1338:A1 3.4879e-05
*RES
1 *1329:Y *1338:A1 19.5464 
*END

*D_NET *377 0.00527707
*CONN
*I *1371:A I *D sky130_fd_sc_hd__and3_2
*I *1370:A1 I *D sky130_fd_sc_hd__a21oi_2
*I *1337:A1 I *D sky130_fd_sc_hd__a21o_2
*I *1339:C I *D sky130_fd_sc_hd__nand3b_2
*I *1336:A I *D sky130_fd_sc_hd__nand3_2
*I *1330:X O *D sky130_fd_sc_hd__a21o_2
*CAP
1 *1371:A 0.000333873
2 *1370:A1 0
3 *1337:A1 2.62605e-05
4 *1339:C 0
5 *1336:A 0.000196213
6 *1330:X 0.000156713
7 *377:51 0.000720181
8 *377:36 0.00059598
9 *377:23 0.000250654
10 *377:10 0.000420168
11 *1336:A *529:10 8.02709e-05
12 *1337:A1 *1337:B1 5.52302e-05
13 *1371:A *1371:C 5.33005e-05
14 *1371:A *1392:A1 5.33005e-05
15 *1371:A *1392:A2 5.33005e-05
16 *1371:A *1392:C1 5.33005e-05
17 *1371:A *1425:A 1.98839e-05
18 *1371:A *416:20 1.00073e-05
19 *1371:A *439:10 9.63338e-05
20 *1371:A *642:14 0.000220429
21 *1371:A *643:8 0.000467849
22 *1371:A *648:10 0.00025263
23 *1371:A *648:14 0.000165269
24 *377:10 *1330:A1 8.50152e-05
25 *377:10 *380:10 3.97543e-05
26 *377:10 *380:19 1.78353e-05
27 *377:10 *383:22 3.17163e-05
28 *377:10 *383:24 7.8327e-05
29 *377:10 *540:43 2.59355e-05
30 *377:23 *380:19 6.58289e-05
31 *377:23 *383:22 8.98897e-05
32 *377:36 *1337:A2 4.97121e-06
33 *377:36 *380:19 4.1331e-06
34 *377:36 *383:16 0.000103637
35 *377:36 *662:14 0
36 *377:51 *1335:A 0.000153054
37 *377:51 *383:8 8.99419e-05
38 *377:51 *383:16 9.69119e-06
39 *377:51 *633:26 0
40 *377:51 *642:14 5.80706e-06
41 *377:51 *648:14 0.000153047
42 *377:51 *662:14 0
43 *1330:B1 *377:10 2.89016e-05
44 *342:81 *377:10 8.43535e-06
*RES
1 *1330:X *377:10 17.7107 
2 *377:10 *1336:A 17.1214 
3 *377:10 *377:23 2.25 
4 *377:23 *1339:C 13.8 
5 *377:23 *377:36 3.01786 
6 *377:36 *1337:A1 14.3357 
7 *377:36 *377:51 8.67857 
8 *377:51 *1370:A1 13.8 
9 *377:51 *1371:A 24.55 
*END

*D_NET *378 0.019502
*CONN
*I *1360:C1 I *D sky130_fd_sc_hd__o2111a_2
*I *1362:A1 I *D sky130_fd_sc_hd__a22o_2
*I *1252:B1 I *D sky130_fd_sc_hd__o221ai_2
*I *1160:A3 I *D sky130_fd_sc_hd__o311ai_4
*I *1061:A2 I *D sky130_fd_sc_hd__o211a_2
*I *1062:A2 I *D sky130_fd_sc_hd__o211ai_2
*I *935:Y O *D sky130_fd_sc_hd__inv_2
*CAP
1 *1360:C1 0.000521778
2 *1362:A1 0
3 *1252:B1 0.000340514
4 *1160:A3 0.000129104
5 *1061:A2 0
6 *1062:A2 0.000434635
7 *935:Y 0.000257422
8 *378:112 0.00117058
9 *378:87 0.00198925
10 *378:56 0.00199693
11 *378:31 0.00101589
12 *378:10 0.000840046
13 *1062:A2 *1102:A 0.000412316
14 *1062:A2 *506:18 0.000233007
15 *1062:A2 *669:10 5.33005e-05
16 *1160:A3 *636:32 0.000177044
17 *1252:B1 *410:10 0.000100823
18 *1360:C1 *1360:A1 0
19 *1360:C1 *1362:B2 4.16984e-05
20 *1360:C1 *562:24 2.56694e-05
21 *378:10 *1535:A 7.6644e-05
22 *378:10 *549:8 3.92854e-05
23 *378:31 *1154:A1 0.000167574
24 *378:31 *1442:A 0.000158576
25 *378:31 *1535:A 3.06466e-05
26 *378:31 *549:8 2.4296e-05
27 *378:31 *599:33 4.46186e-06
28 *378:56 *962:B 0.000178847
29 *378:56 *1107:B1 1.96862e-05
30 *378:56 *1117:B1 5.80706e-06
31 *378:56 *479:12 2.06112e-05
32 *378:56 *583:8 0.000481191
33 *378:56 *583:16 5.57571e-05
34 *378:56 *599:33 8.91439e-05
35 *378:56 *635:58 4.18412e-05
36 *378:56 *640:42 0
37 *378:87 *995:B 0.000861151
38 *378:87 *1031:A 8.32083e-05
39 *378:87 *1117:B1 2.14378e-05
40 *378:87 *506:45 1.0945e-05
41 *378:87 *592:22 0.000149797
42 *378:87 *639:73 0.000935802
43 *378:87 *641:20 0.000120724
44 *378:87 *652:56 0.000114207
45 *378:112 *1259:A 2.72545e-05
46 *378:112 *1362:A2 0.000240433
47 *378:112 *1362:B2 2.89114e-05
48 *378:112 *645:46 0.000180777
49 *378:112 *652:56 0.00113621
50 *1103:B1 *1062:A2 0.000235437
51 *1103:B1 *378:10 0.000169373
52 *1107:A1 *378:56 5.41794e-05
53 *1120:A1 *378:56 4.26814e-05
54 *1155:B1 *378:31 3.49572e-05
55 *1155:B1 *378:56 0.000185392
56 *1159:A1 *378:56 7.6644e-05
57 *1159:A2 *378:56 0.000242638
58 *1159:A2 *378:87 0.000197984
59 *1247:A2 *378:112 0.00012401
60 *1251:B1 *1252:B1 5.33005e-05
61 *1252:A1 *1252:B1 1.24368e-05
62 *1252:B2 *1252:B1 1.97695e-05
63 *1252:B2 *378:87 0.000236746
64 *1359:A2 *378:112 0.000150336
65 *1562:A *378:112 8.20409e-05
66 *75:10 *378:112 7.36407e-05
67 *97:14 *1360:C1 0.000112587
68 *160:12 *378:87 0.000122439
69 *190:14 *378:87 0.00112647
70 *200:10 *1160:A3 0.000187872
71 *247:20 *1252:B1 0.000102545
72 *249:12 *378:87 0.000148196
73 *249:12 *378:112 0.00022027
74 *282:12 *378:56 2.90068e-05
75 *297:33 *1252:B1 2.89114e-05
76 *298:10 *1252:B1 9.38921e-05
77 *298:10 *378:112 0
78 *301:16 *378:112 0.000293004
*RES
1 *935:Y *378:10 17.8357 
2 *378:10 *1062:A2 30.6036 
3 *378:10 *378:31 3.82143 
4 *378:31 *1061:A2 13.8 
5 *378:31 *378:56 27.2143 
6 *378:56 *1160:A3 17.6393 
7 *378:56 *378:87 48.3571 
8 *378:87 *1252:B1 28.1036 
9 *378:87 *378:112 25.8393 
10 *378:112 *1362:A1 9.3 
11 *378:112 *1360:C1 25.2286 
*END

*D_NET *379 0.000759546
*CONN
*I *1338:A2 I *D sky130_fd_sc_hd__o21ai_2
*I *1331:X O *D sky130_fd_sc_hd__and3_2
*CAP
1 *1338:A2 0.000186833
2 *1331:X 0.000186833
3 *1338:A2 *1369:B1 0.000154339
4 *1338:A2 *383:24 3.34366e-05
5 *1331:C *1338:A2 2.89016e-05
6 *342:36 *1338:A2 9.25014e-06
7 *342:45 *1338:A2 6.73939e-05
8 *342:60 *1338:A2 4.66511e-05
9 *375:16 *1338:A2 4.59075e-05
*RES
1 *1331:X *1338:A2 31.0107 
*END

*D_NET *380 0.00272445
*CONN
*I *1337:A2 I *D sky130_fd_sc_hd__a21o_2
*I *1339:B I *D sky130_fd_sc_hd__nand3b_2
*I *1336:B I *D sky130_fd_sc_hd__nand3_2
*I *1332:Y O *D sky130_fd_sc_hd__o211ai_2
*CAP
1 *1337:A2 0.000137265
2 *1339:B 0
3 *1336:B 0
4 *1332:Y 0.000310468
5 *380:19 0.000213999
6 *380:10 0.000387202
7 *1337:A2 *1337:B1 5.52238e-05
8 *1337:A2 *1340:B 0.000150618
9 *1337:A2 *1340:C 3.97677e-05
10 *1337:A2 *383:16 1.18064e-05
11 *1337:A2 *633:26 0.000101545
12 *380:10 *1330:A1 3.57844e-05
13 *380:10 *1341:A 0
14 *380:10 *1434:A 0.000478863
15 *380:10 *529:10 0.000265542
16 *380:10 *529:22 9.03841e-05
17 *380:10 *540:43 5.41794e-05
18 *380:19 *1340:B 0.000202128
19 *380:19 *1341:A 0
20 *375:6 *380:10 5.71472e-05
21 *377:10 *380:10 3.97543e-05
22 *377:10 *380:19 1.78353e-05
23 *377:23 *380:19 6.58289e-05
24 *377:36 *1337:A2 4.97121e-06
25 *377:36 *380:19 4.1331e-06
*RES
1 *1332:Y *380:10 23.5679 
2 *380:10 *1336:B 13.8 
3 *380:10 *380:19 2.85714 
4 *380:19 *1339:B 13.8 
5 *380:19 *1337:A2 17.1036 
*END

*D_NET *381 0.00042401
*CONN
*I *1335:A I *D sky130_fd_sc_hd__xor2_2
*I *1333:Y O *D sky130_fd_sc_hd__nor2_2
*CAP
1 *1335:A 0.000135478
2 *1333:Y 0.000135478
3 *1335:A *1356:C 0
4 *1335:A *662:14 0
5 *377:51 *1335:A 0.000153054
*RES
1 *1333:Y *1335:A 30.4929 
*END

*D_NET *382 0.00263167
*CONN
*I *1356:C I *D sky130_fd_sc_hd__and3_2
*I *1367:B I *D sky130_fd_sc_hd__and4_2
*I *1335:B I *D sky130_fd_sc_hd__xor2_2
*I *1334:Y O *D sky130_fd_sc_hd__a22oi_2
*CAP
1 *1356:C 9.55499e-05
2 *1367:B 7.6118e-05
3 *1335:B 0.000297952
4 *1334:Y 0.000262439
5 *382:8 0.000540959
6 *1335:B *1325:B 0.000243627
7 *1335:B *1414:A 3.25078e-05
8 *1335:B *633:26 0.000315172
9 *1356:C *662:14 0.000129868
10 *1367:B *1414:A 5.74562e-05
11 *1367:B *420:10 7.83659e-05
12 *1367:B *633:26 0.000184583
13 *382:8 *1370:B1 0.000317076
14 *1335:A *1356:C 0
*RES
1 *1334:Y *382:8 17.2107 
2 *382:8 *1335:B 9.86607 
3 *382:8 *1367:B 16.3536 
4 *1335:B *1356:C 20.4161 
*END

*D_NET *383 0.00381293
*CONN
*I *1337:B1 I *D sky130_fd_sc_hd__a21o_2
*I *1339:A_N I *D sky130_fd_sc_hd__nand3b_2
*I *1336:C I *D sky130_fd_sc_hd__nand3_2
*I *1338:B1 I *D sky130_fd_sc_hd__o21ai_2
*I *1369:B1 I *D sky130_fd_sc_hd__a31o_2
*I *1335:X O *D sky130_fd_sc_hd__xor2_2
*CAP
1 *1337:B1 5.20404e-05
2 *1339:A_N 0
3 *1336:C 2.3671e-05
4 *1338:B1 0.0001504
5 *1369:B1 0.000182276
6 *1335:X 7.81686e-05
7 *383:24 0.000514406
8 *383:22 0.000350056
9 *383:16 0.000295649
10 *383:8 0.000281203
11 *1336:C *529:10 5.52302e-05
12 *1337:B1 *1340:C 0.00018372
13 *1338:B1 *1341:A 1.07719e-05
14 *1369:B1 *419:14 2.60984e-05
15 *1369:B1 *475:30 3.97677e-05
16 *383:8 *633:26 0.000247778
17 *383:16 *633:26 0.000125724
18 *383:22 *662:14 0
19 *383:24 *1330:A1 4.98055e-06
20 *383:24 *662:14 0
21 *1329:A2 *1338:B1 9.41642e-05
22 *1330:A2 *383:24 4.34472e-05
23 *1330:B1 *383:24 0.000106542
24 *1337:A1 *1337:B1 5.52302e-05
25 *1337:A2 *1337:B1 5.52238e-05
26 *1337:A2 *383:16 1.18064e-05
27 *1338:A2 *1369:B1 0.000154339
28 *1338:A2 *383:24 3.34366e-05
29 *342:36 *1369:B1 1.08359e-05
30 *342:60 *383:24 9.01733e-05
31 *375:16 *1369:B1 5.52238e-05
32 *375:29 *1369:B1 6.32633e-05
33 *375:29 *383:24 1.41029e-05
34 *377:10 *383:22 3.17163e-05
35 *377:10 *383:24 7.8327e-05
36 *377:23 *383:22 8.98897e-05
37 *377:36 *383:16 0.000103637
38 *377:51 *383:8 8.99419e-05
39 *377:51 *383:16 9.69119e-06
*RES
1 *1335:X *383:8 16.9607 
2 *383:8 *383:16 7.82143 
3 *383:16 *383:22 7.89286 
4 *383:22 *383:24 5.28571 
5 *383:24 *1369:B1 17.6214 
6 *383:24 *1338:B1 15.9786 
7 *383:22 *1336:C 14.3357 
8 *383:16 *1339:A_N 9.3 
9 *383:8 *1337:B1 15.5679 
*END

*D_NET *384 0.000743965
*CONN
*I *1340:B I *D sky130_fd_sc_hd__nand3b_2
*I *1336:Y O *D sky130_fd_sc_hd__nand3_2
*CAP
1 *1340:B 0.000151567
2 *1336:Y 0.000151567
3 *1340:B *1341:A 7.49332e-05
4 *1340:B *419:14 0
5 *1340:B *633:26 1.31516e-05
6 *1337:A2 *1340:B 0.000150618
7 *1341:C *1340:B 0
8 *380:19 *1340:B 0.000202128
*RES
1 *1336:Y *1340:B 32.2786 
*END

*D_NET *385 0.000781938
*CONN
*I *1340:C I *D sky130_fd_sc_hd__nand3b_2
*I *1337:X O *D sky130_fd_sc_hd__a21o_2
*CAP
1 *1340:C 0.000279225
2 *1337:X 0.000279225
3 *1337:A2 *1340:C 3.97677e-05
4 *1337:B1 *1340:C 0.00018372
*RES
1 *1337:X *1340:C 23.6714 
*END

*D_NET *386 0.00139955
*CONN
*I *1341:A I *D sky130_fd_sc_hd__nand3_2
*I *1338:Y O *D sky130_fd_sc_hd__o21ai_2
*CAP
1 *1341:A 0.00043727
2 *1338:Y 0.00043727
3 *1341:A *419:14 0.00028441
4 *1341:A *529:10 0.000150857
5 *1341:A *659:10 4.0342e-06
6 *1338:B1 *1341:A 1.07719e-05
7 *1340:B *1341:A 7.49332e-05
8 *380:10 *1341:A 0
9 *380:19 *1341:A 0
*RES
1 *1338:Y *1341:A 36.5821 
*END

*D_NET *387 0.000248451
*CONN
*I *1341:B I *D sky130_fd_sc_hd__nand3_2
*I *1339:Y O *D sky130_fd_sc_hd__nand3b_2
*CAP
1 *1341:B 9.29904e-05
2 *1339:Y 9.29904e-05
3 *1341:B *633:26 2.95726e-05
4 *1341:C *1341:B 3.28977e-05
*RES
1 *1339:Y *1341:B 20.3857 
*END

*D_NET *388 0.00842247
*CONN
*I *1344:A1 I *D sky130_fd_sc_hd__a21bo_2
*I *1343:C I *D sky130_fd_sc_hd__nand3b_2
*I *1375:C I *D sky130_fd_sc_hd__nand3_2
*I *1374:A I *D sky130_fd_sc_hd__nand2_2
*I *1340:Y O *D sky130_fd_sc_hd__nand3b_2
*CAP
1 *1344:A1 0.000311128
2 *1343:C 0.000250626
3 *1375:C 0.00013287
4 *1374:A 0
5 *1340:Y 0.00100641
6 *388:21 0.000383496
7 *388:19 0.000374298
8 *388:10 0.00106958
9 *1343:C *1343:A_N 0.000446733
10 *1343:C *1343:B 0.000593267
11 *1343:C *1375:B 3.97677e-05
12 *1343:C *423:6 5.33433e-05
13 *1344:A1 *1344:A2 0.000269561
14 *1344:A1 *1344:B1_N 2.36643e-05
15 *1344:A1 *1377:A 0.000179746
16 *1344:A1 *1377:B 0.000141382
17 *1375:C *1375:B 3.63587e-05
18 *1375:C *1396:A 9.90367e-05
19 *1375:C *425:8 5.71472e-05
20 *388:10 *1284:A 0.000173804
21 *388:10 *1334:B2 0.000218734
22 *388:10 *1370:B1 6.50156e-05
23 *388:10 *1371:C 0.00040576
24 *388:10 *1372:B 0
25 *388:10 *1395:A 0.000116179
26 *388:10 *1427:A 0
27 *388:10 *390:10 0
28 *388:10 *418:10 9.32406e-05
29 *388:10 *419:14 0.000545406
30 *388:10 *422:8 0.000717277
31 *388:10 *443:10 0
32 *388:10 *640:22 0
33 *388:10 *643:64 0.000143128
34 *388:19 *1377:A 2.31791e-05
35 *388:19 *1377:B 0.000225307
36 *388:19 *1401:A1 0
37 *388:19 *422:8 0.000227021
*RES
1 *1340:Y *388:10 38.6571 
2 *388:10 *1374:A 13.8 
3 *388:10 *388:19 3.16071 
4 *388:19 *388:21 4.5 
5 *388:21 *1375:C 12.0321 
6 *388:21 *1343:C 17.2464 
7 *388:19 *1344:A1 21.3536 
*END

*D_NET *389 0.0230098
*CONN
*I *1360:A1 I *D sky130_fd_sc_hd__o2111a_2
*I *1385:D I *D sky130_fd_sc_hd__and4_2
*I *1382:A I *D sky130_fd_sc_hd__nand2_2
*I *1064:A3 I *D sky130_fd_sc_hd__o31a_2
*I *1108:A2 I *D sky130_fd_sc_hd__o211a_2
*I *1206:A3 I *D sky130_fd_sc_hd__o311ai_4
*I *936:Y O *D sky130_fd_sc_hd__inv_2
*CAP
1 *1360:A1 0.000327327
2 *1385:D 0
3 *1382:A 0.00149964
4 *1064:A3 0.000495507
5 *1108:A2 7.01394e-05
6 *1206:A3 2.49603e-05
7 *936:Y 0.00169218
8 *389:45 0.00240107
9 *389:24 0.0048676
10 *389:18 0.00461275
11 *389:10 0.00147074
12 *1064:A3 *1155:A1 2.89016e-05
13 *1064:A3 *1155:A2 0.000104626
14 *1064:A3 *1529:A 2.30116e-06
15 *1064:A3 *549:36 0.000301438
16 *1064:A3 *599:22 0.000172206
17 *1064:A3 *613:14 0.000337644
18 *1064:A3 *672:41 5.91832e-05
19 *1108:A2 *543:21 2.34423e-05
20 *1108:A2 *613:14 1.32552e-05
21 *1206:A3 *460:51 1.18494e-05
22 *1360:A1 *1056:A 0.000153047
23 *1360:A1 *1125:A1 0.000186397
24 *1360:A1 *1126:A2 0
25 *1360:A1 *1360:B1 5.33005e-05
26 *1360:A1 *562:24 0
27 *1360:A1 *651:52 9.10431e-06
28 *1382:A *1385:A 0.000101444
29 *1382:A *436:14 1.90936e-05
30 *1382:A *438:10 2.30314e-05
31 *389:10 *1125:A1 1.61526e-05
32 *389:10 *1126:A2 3.55552e-05
33 *389:10 *435:10 0
34 *389:10 *630:36 0.00128457
35 *389:10 *638:48 0.000188297
36 *389:18 *1326:B 1.90936e-05
37 *389:18 *638:48 8.6229e-06
38 *389:24 *1288:B2 0.00012384
39 *389:45 *931:A 2.34205e-05
40 *389:45 *613:20 0
41 *389:45 *629:51 0.000388184
42 *389:45 *672:41 5.23109e-05
43 *1108:B1 *1064:A3 1.59312e-05
44 *1108:B1 *1108:A2 4.97479e-05
45 *1112:B1 *1064:A3 4.38243e-05
46 *1203:B1 *1206:A3 2.20012e-05
47 *1216:A1 *389:24 0.000112793
48 *1360:C1 *1360:A1 0
49 *1416:A *389:24 0.000964516
50 *1458:A *1064:A3 0.000102187
51 *1458:A *1108:A2 9.90367e-05
52 *142:12 *1108:A2 4.38243e-05
53 *160:24 *389:10 0.000185824
54 *324:39 *1064:A3 0
55 *324:39 *389:45 0
56 *348:10 *1382:A 0.000159473
57 *348:10 *389:10 0
58 *373:22 *1382:A 8.45492e-06
*RES
1 *936:Y *389:10 33.3179 
2 *389:10 *389:18 7.25189 
3 *389:18 *389:24 9.29283 
4 *389:24 *1206:A3 17.7904 
5 *389:24 *389:45 9.85933 
6 *389:45 *1108:A2 19.5939 
7 *389:45 *1064:A3 24.4687 
8 *389:18 *1382:A 23.7117 
9 *389:10 *1385:D 13.8 
10 *936:Y *1360:A1 34.9393 
*END

*D_NET *390 0.0071459
*CONN
*I *1344:A2 I *D sky130_fd_sc_hd__a21bo_2
*I *1343:B I *D sky130_fd_sc_hd__nand3b_2
*I *1373:A I *D sky130_fd_sc_hd__nand2_2
*I *1341:Y O *D sky130_fd_sc_hd__nand3_2
*CAP
1 *1344:A2 0.000151477
2 *1343:B 0.000475382
3 *1373:A 0
4 *1341:Y 0.00123472
5 *390:19 0.000657858
6 *390:10 0.00126572
7 *1344:A2 *1344:B1_N 0.000236629
8 *1344:A2 *1377:A 0
9 *390:10 *1284:A 0
10 *390:10 *1284:B 0.000176744
11 *390:10 *1370:B1 4.75428e-05
12 *390:10 *1372:B 0.000128154
13 *390:10 *1374:B 7.58571e-05
14 *390:10 *1377:A 0
15 *390:10 *1427:A 0.000207664
16 *390:10 *1552:A 0.000193125
17 *390:10 *391:14 0.000818722
18 *390:10 *400:12 3.69178e-05
19 *390:10 *418:10 4.29179e-05
20 *390:10 *419:14 0
21 *390:10 *422:8 0
22 *390:10 *630:10 0.000163052
23 *390:10 *633:26 4.8843e-05
24 *390:10 *640:22 0.00015134
25 *390:19 *1344:B1_N 2.26327e-05
26 *390:19 *1377:A 0
27 *390:19 *391:14 5.80706e-06
28 *1286:A *390:10 7.10415e-05
29 *1286:B *390:10 3.90513e-05
30 *1341:C *390:10 3.18676e-05
31 *1343:C *1343:B 0.000593267
32 *1344:A1 *1344:A2 0.000269561
33 *330:10 *390:10 0
34 *388:10 *390:10 0
*RES
1 *1341:Y *390:10 45.1393 
2 *390:10 *1373:A 13.8 
3 *390:10 *390:19 0.732143 
4 *390:19 *1343:B 20.8179 
5 *390:19 *1344:A2 18.2821 
*END

*D_NET *391 0.0063009
*CONN
*I *1344:B1_N I *D sky130_fd_sc_hd__a21bo_2
*I *1343:A_N I *D sky130_fd_sc_hd__nand3b_2
*I *1373:B I *D sky130_fd_sc_hd__nand2_2
*I *1342:X O *D sky130_fd_sc_hd__o21a_2
*CAP
1 *1344:B1_N 0.000318866
2 *1343:A_N 0.000173812
3 *1373:B 0
4 *1342:X 0.00110212
5 *391:16 0.000173812
6 *391:14 0.00142099
7 *391:14 *1284:B 9.1711e-05
8 *391:14 *1285:A1 0.000429939
9 *391:14 *1408:A1 0.00015234
10 *391:14 *1408:A2 0.000102683
11 *391:14 *1408:A3 0
12 *391:14 *1408:B1 0
13 *391:14 *1487:A 0.000456277
14 *391:14 *436:43 0
15 *391:14 *630:10 2.12687e-05
16 *391:14 *633:26 9.83442e-05
17 *1286:B *391:14 0.00020455
18 *1343:C *1343:A_N 0.000446733
19 *1344:A1 *1344:B1_N 2.36643e-05
20 *1344:A2 *1344:B1_N 0.000236629
21 *1389:A1_N *391:14 0
22 *330:10 *391:14 0
23 *390:10 *391:14 0.000818722
24 *390:19 *1344:B1_N 2.26327e-05
25 *390:19 *391:14 5.80706e-06
*RES
1 *1342:X *391:14 44.3714 
2 *391:14 *391:16 4.5 
3 *391:16 *1373:B 9.3 
4 *391:16 *1343:A_N 13.5321 
5 *391:14 *1344:B1_N 19.8625 
*END

*D_NET *392 0.0013598
*CONN
*I *1347:C I *D sky130_fd_sc_hd__nand3_2
*I *1346:A1 I *D sky130_fd_sc_hd__a21oi_4
*I *1343:Y O *D sky130_fd_sc_hd__nand3b_2
*CAP
1 *1347:C 0.000109259
2 *1346:A1 0
3 *1343:Y 0.000441604
4 *392:10 0.000550863
5 *1347:C *1347:A 0
6 *1347:C *1347:B 0.000202842
7 *1347:C *1381:A2 0
8 *392:10 *1347:A 0
9 *1304:A1 *392:10 0
10 *1304:A2 *392:10 5.52302e-05
*RES
1 *1343:Y *392:10 21.4071 
2 *392:10 *1346:A1 13.8 
3 *392:10 *1347:C 16.6571 
*END

*D_NET *393 0.00146222
*CONN
*I *1347:B I *D sky130_fd_sc_hd__nand3_2
*I *1346:A2 I *D sky130_fd_sc_hd__a21oi_4
*I *1344:X O *D sky130_fd_sc_hd__a21bo_2
*CAP
1 *1347:B 0.000154951
2 *1346:A2 0.000559473
3 *1344:X 0.000404522
4 *1346:A2 *1381:B1 5.65955e-05
5 *1346:A2 *1485:A 6.39253e-05
6 *1347:B *1347:A 0
7 *1347:B *396:10 1.99099e-05
8 *1347:C *1347:B 0.000202842
*RES
1 *1344:X *1346:A2 25.3143 
2 *1346:A2 *1347:B 31.1 
*END

*D_NET *394 0.000589782
*CONN
*I *1346:B1 I *D sky130_fd_sc_hd__a21oi_4
*I *1347:A I *D sky130_fd_sc_hd__nand3_2
*I *1345:X O *D sky130_fd_sc_hd__a31o_2
*CAP
1 *1346:B1 0
2 *1347:A 0.00019452
3 *1345:X 6.5136e-05
4 *394:6 0.000259656
5 *1347:A *395:10 0
6 *1347:A *396:10 1.41706e-05
7 *394:6 *395:10 5.62995e-05
8 *1314:A1 *1347:A 0
9 *1347:B *1347:A 0
10 *1347:C *1347:A 0
11 *392:10 *1347:A 0
*RES
1 *1345:X *394:6 10.6571 
2 *394:6 *1347:A 21.6929 
3 *394:6 *1346:B1 9.3 
*END

*D_NET *395 0.00252006
*CONN
*I *1348:A_N I *D sky130_fd_sc_hd__and2b_2
*I *1352:B1 I *D sky130_fd_sc_hd__a21oi_2
*I *1355:B1 I *D sky130_fd_sc_hd__a21oi_4
*I *1346:Y O *D sky130_fd_sc_hd__a21oi_4
*CAP
1 *1348:A_N 8.22804e-05
2 *1352:B1 0
3 *1355:B1 0.000155923
4 *1346:Y 0.000304381
5 *395:23 0.00018815
6 *395:10 0.000566174
7 *1348:A_N *1348:B 5.80217e-05
8 *1355:B1 *396:23 0.000318101
9 *1355:B1 *403:10 0.000580978
10 *1355:B1 *404:10 3.99614e-06
11 *1355:B1 *404:21 1.3701e-05
12 *395:10 *396:10 0
13 *395:10 *396:23 9.69119e-06
14 *395:23 *1348:B 1.00375e-05
15 *395:23 *396:23 5.26091e-05
16 *1314:A1 *395:10 0.000119718
17 *1314:A2 *395:10 0
18 *1347:A *395:10 0
19 *394:6 *395:10 5.62995e-05
*RES
1 *1346:Y *395:10 20.1393 
2 *395:10 *1355:B1 19.9964 
3 *395:10 *395:23 2.25 
4 *395:23 *1352:B1 13.8 
5 *395:23 *1348:A_N 15.7464 
*END

*D_NET *396 0.00226139
*CONN
*I *1348:B I *D sky130_fd_sc_hd__and2b_2
*I *1352:A2 I *D sky130_fd_sc_hd__a21oi_2
*I *1355:A1 I *D sky130_fd_sc_hd__a21oi_4
*I *1347:Y O *D sky130_fd_sc_hd__nand3_2
*CAP
1 *1348:B 9.19687e-05
2 *1352:A2 7.67834e-05
3 *1355:A1 0
4 *1347:Y 0.000127327
5 *396:23 0.000365777
6 *396:10 0.000324353
7 *1352:A2 *1353:B1 5.33433e-05
8 *396:23 *403:10 6.87574e-05
9 *1347:A *396:10 1.41706e-05
10 *1347:B *396:10 1.99099e-05
11 *1348:A_N *1348:B 5.80217e-05
12 *1350:A *1348:B 0.000169405
13 *1355:A2 *396:23 0.000317082
14 *1355:B1 *396:23 0.000318101
15 *359:23 *396:23 0
16 *361:10 *1348:B 3.34366e-05
17 *361:10 *396:23 0.000150618
18 *395:10 *396:10 0
19 *395:10 *396:23 9.69119e-06
20 *395:23 *1348:B 1.00375e-05
21 *395:23 *396:23 5.26091e-05
*RES
1 *1347:Y *396:10 20.8536 
2 *396:10 *1355:A1 9.3 
3 *396:10 *396:23 11.4107 
4 *396:23 *1352:A2 15.1571 
5 *396:23 *1348:B 16.9607 
*END

*D_NET *397 0.0015966
*CONN
*I *1349:B1_N I *D sky130_fd_sc_hd__o21bai_2
*I *1350:C I *D sky130_fd_sc_hd__nand3_2
*I *1348:X O *D sky130_fd_sc_hd__and2b_2
*CAP
1 *1349:B1_N 0.000177817
2 *1350:C 3.75977e-05
3 *1348:X 0.000382182
4 *397:10 0.000597597
5 *1349:B1_N *1351:A 0
6 *397:10 *1351:A 1.55953e-05
7 *1349:A1 *1349:B1_N 0
8 *1350:A *397:10 5.62995e-05
9 *1350:B *1350:C 9.90367e-05
10 *1350:B *397:10 0.000230475
*RES
1 *1348:X *397:10 19.175 
2 *397:10 *1350:C 14.7464 
3 *397:10 *1349:B1_N 16.6571 
*END

*D_NET *398 0.000240172
*CONN
*I *1351:B I *D sky130_fd_sc_hd__nand2_2
*I *1349:Y O *D sky130_fd_sc_hd__o21bai_2
*CAP
1 *1351:B 9.42054e-05
2 *1349:Y 9.42054e-05
3 *1351:B *1484:A 5.17614e-05
4 *1349:A2 *1351:B 0
*RES
1 *1349:Y *1351:B 20.3857 
*END

*D_NET *399 0.000533625
*CONN
*I *1351:A I *D sky130_fd_sc_hd__nand2_2
*I *1350:Y O *D sky130_fd_sc_hd__nand3_2
*CAP
1 *1351:A 0.00025037
2 *1350:Y 0.00025037
3 *1349:B1_N *1351:A 0
4 *1350:B *1351:A 1.72894e-05
5 *397:10 *1351:A 1.55953e-05
*RES
1 *1350:Y *1351:A 31.3143 
*END

*D_NET *400 0.010546
*CONN
*I *1262:B I *D sky130_fd_sc_hd__nor3_2
*I *1414:A I *D sky130_fd_sc_hd__buf_2
*I *937:Y O *D sky130_fd_sc_hd__inv_2
*CAP
1 *1262:B 0.00298519
2 *1414:A 0.000772725
3 *937:Y 9.41614e-05
4 *400:12 0.00385207
5 *1262:B *1262:A 0.000749032
6 *1262:B *1283:A 4.98422e-05
7 *1414:A *1325:B 8.07951e-05
8 *1414:A *1392:A1 4.66203e-05
9 *1414:A *1394:B1 2.39876e-05
10 *1414:A *1394:C1 0.000173804
11 *1414:A *420:10 0.0003335
12 *1414:A *420:21 0.000171368
13 *1414:A *440:36 0
14 *1414:A *443:10 0.000629055
15 *1414:A *643:10 2.1892e-05
16 *1414:A *643:14 3.84385e-05
17 *1414:A *645:12 4.48583e-05
18 *1414:A *645:46 8.99641e-05
19 *1414:A *648:10 0
20 *400:12 *422:8 0.000113647
21 *400:12 *573:16 5.33005e-05
22 *1335:B *1414:A 3.25078e-05
23 *1367:B *1414:A 5.74562e-05
24 *302:56 *1262:B 5.33005e-05
25 *305:8 *1262:B 4.15183e-05
26 *390:10 *400:12 3.69178e-05
*RES
1 *937:Y *400:12 19.2368 
2 *400:12 *1414:A 32.9133 
3 *400:12 *1262:B 24.2825 
*END

*D_NET *401 0.00237421
*CONN
*I *1353:B1 I *D sky130_fd_sc_hd__a21oi_2
*I *1352:Y O *D sky130_fd_sc_hd__a21oi_2
*CAP
1 *1353:B1 0.000675144
2 *1352:Y 0.000675144
3 *1323:A1 *1353:B1 3.9846e-05
4 *1323:C1 *1353:B1 9.60875e-05
5 *1324:B *1353:B1 2.89114e-05
6 *1349:A1 *1353:B1 9.90367e-05
7 *1352:A2 *1353:B1 5.33433e-05
8 *359:23 *1353:B1 0.000318107
9 *360:12 *1353:B1 5.52302e-05
10 *360:19 *1353:B1 0.000188586
11 *362:12 *1353:B1 0.000144773
*RES
1 *1352:Y *1353:B1 31.9036 
*END

*D_NET *402 0.000260557
*CONN
*I *1354:A I *D sky130_fd_sc_hd__nand2_4
*I *1353:Y O *D sky130_fd_sc_hd__a21oi_2
*CAP
1 *1354:A 0.000127375
2 *1353:Y 0.000127375
3 *1272:B1 *1354:A 0
4 *1354:B *1354:A 0
5 *313:21 *1354:A 0
6 *364:22 *1354:A 5.80706e-06
*RES
1 *1353:Y *1354:A 29.85 
*END

*D_NET *403 0.00570718
*CONN
*I *1380:A1 I *D sky130_fd_sc_hd__a21oi_2
*I *1400:A I *D sky130_fd_sc_hd__nand4_4
*I *1378:A I *D sky130_fd_sc_hd__and2_4
*I *1379:A I *D sky130_fd_sc_hd__nand3_4
*I *1354:Y O *D sky130_fd_sc_hd__nand2_4
*CAP
1 *1380:A1 0
2 *1400:A 6.13315e-05
3 *1378:A 0.000120228
4 *1379:A 4.30861e-05
5 *1354:Y 0.0012878
6 *403:38 8.91963e-05
7 *403:14 0.000381251
8 *403:10 0.0015336
9 *1378:A *1378:B 5.49544e-05
10 *1400:A *1381:A1 0.000179656
11 *1400:A *1381:B1 6.24469e-05
12 *403:10 *404:10 2.65105e-05
13 *403:10 *404:21 0.000135923
14 *403:14 *404:21 0.0001687
15 *403:38 *1381:A1 8.07951e-05
16 *1281:A *403:10 6.97409e-05
17 *1281:B *403:10 0.000102197
18 *1313:C1 *403:10 9.98562e-05
19 *1355:A2 *403:10 1.21289e-05
20 *1355:B1 *403:10 0.000580978
21 *313:27 *403:10 5.76121e-05
22 *317:33 *403:10 0.000230482
23 *325:6 *403:10 5.33334e-05
24 *359:8 *403:10 2.28839e-05
25 *361:10 *403:10 0.000183726
26 *396:23 *403:10 6.87574e-05
*RES
1 *1354:Y *403:10 30.925 
2 *403:10 *403:14 7.5 
3 *403:14 *1379:A 14.8357 
4 *403:14 *1378:A 15.9786 
5 *403:10 *403:38 5.53571 
6 *403:38 *1400:A 16.05 
7 *403:38 *1380:A1 13.8 
*END

*D_NET *404 0.00185958
*CONN
*I *1379:B I *D sky130_fd_sc_hd__nand3_4
*I *1400:D I *D sky130_fd_sc_hd__nand4_4
*I *1577:A I *D sky130_fd_sc_hd__buf_2
*I *1355:Y O *D sky130_fd_sc_hd__a21oi_4
*CAP
1 *1379:B 0
2 *1400:D 0.000144991
3 *1577:A 0
4 *1355:Y 7.76237e-05
5 *404:21 0.000436661
6 *404:10 0.000369294
7 *1400:D *1379:C 0
8 *1400:D *1380:B1 5.49544e-05
9 *1400:D *429:14 0.000123359
10 *404:10 *1380:A2 1.97695e-05
11 *404:21 *1380:A2 9.90431e-05
12 *404:21 *1380:B1 0.000167187
13 *404:21 *1381:B1 1.78649e-05
14 *1355:B1 *404:10 3.99614e-06
15 *1355:B1 *404:21 1.3701e-05
16 *403:10 *404:10 2.65105e-05
17 *403:10 *404:21 0.000135923
18 *403:14 *404:21 0.0001687
*RES
1 *1355:Y *404:10 11.1036 
2 *404:10 *1577:A 9.3 
3 *404:10 *404:21 7.96429 
4 *404:21 *1400:D 21.0857 
5 *404:21 *1379:B 9.3 
*END

*D_NET *405 0.00290763
*CONN
*I *1368:A I *D sky130_fd_sc_hd__xnor2_2
*I *1394:A1 I *D sky130_fd_sc_hd__a221o_2
*I *1356:X O *D sky130_fd_sc_hd__and3_2
*CAP
1 *1368:A 0
2 *1394:A1 0.000244205
3 *1356:X 0.000454491
4 *405:12 0.000698696
5 *1394:A1 *1394:A2 4.87953e-05
6 *1394:A1 *1394:B2 1.28809e-05
7 *1394:A1 *1394:C1 2.04294e-05
8 *1394:A1 *633:12 2.49484e-05
9 *1394:A1 *642:14 0.000227063
10 *1394:A1 *648:10 0.000134758
11 *405:12 *662:14 0.000711051
12 *1455:A *405:12 0.000165157
13 *1461:A *405:12 0.000165157
*RES
1 *1356:X *405:12 30.2286 
2 *405:12 *1394:A1 24.05 
3 *405:12 *1368:A 9.3 
*END

*D_NET *406 0.00207633
*CONN
*I *1360:D1 I *D sky130_fd_sc_hd__o2111a_2
*I *1362:B1 I *D sky130_fd_sc_hd__a22o_2
*I *1361:A1_N I *D sky130_fd_sc_hd__o2bb2a_2
*I *1357:Y O *D sky130_fd_sc_hd__nand3_2
*CAP
1 *1360:D1 0.000142362
2 *1362:B1 8.10798e-05
3 *1361:A1_N 9.33902e-05
4 *1357:Y 0.000325284
5 *406:10 0.000357392
6 *1360:D1 *1056:A 0
7 *1360:D1 *562:22 3.92757e-05
8 *1360:D1 *562:24 2.84494e-05
9 *1361:A1_N *409:6 6.7143e-05
10 *1361:A1_N *645:46 7.29191e-05
11 *1362:B1 *1361:A2_N 5.10822e-05
12 *406:10 *1357:B 2.08721e-05
13 *406:10 *562:22 6.12434e-05
14 *1357:A *406:10 1.98839e-05
15 *1357:C *1360:D1 2.89016e-05
16 *1402:A *406:10 6.57032e-05
17 *98:12 *1360:D1 9.90367e-05
18 *98:12 *406:10 9.41642e-05
19 *297:50 *1361:A1_N 0
20 *297:50 *1362:B1 0.000145753
21 *297:50 *406:10 0.000191403
22 *298:21 *1362:B1 1.69115e-05
23 *298:21 *406:10 5.8099e-05
24 *303:28 *1360:D1 1.59782e-05
*RES
1 *1357:Y *406:10 18.5321 
2 *406:10 *1361:A1_N 15.4429 
3 *406:10 *1362:B1 15.7464 
4 *1357:Y *1360:D1 30.7964 
*END

*D_NET *407 0.00195646
*CONN
*I *1361:A2_N I *D sky130_fd_sc_hd__o2bb2a_2
*I *1362:B2 I *D sky130_fd_sc_hd__a22o_2
*I *1359:B1 I *D sky130_fd_sc_hd__o31a_2
*I *1358:Y O *D sky130_fd_sc_hd__o211ai_2
*CAP
1 *1361:A2_N 0.000150015
2 *1362:B2 9.93515e-05
3 *1359:B1 8.8003e-05
4 *1358:Y 0
5 *407:17 0.00031038
6 *407:4 0.000149016
7 *1359:B1 *1358:C1 6.62868e-05
8 *1361:A2_N *645:46 9.71197e-05
9 *1359:A2 *1362:B2 1.98839e-05
10 *1360:C1 *1362:B2 4.16984e-05
11 *1362:B1 *1361:A2_N 5.10822e-05
12 *97:14 *1361:A2_N 1.02504e-05
13 *97:14 *1362:B2 0.000139907
14 *97:14 *407:17 0.00014576
15 *97:18 *1359:B1 0.000224583
16 *297:50 *1361:A2_N 2.3896e-05
17 *298:21 *1361:A2_N 0.000164554
18 *298:21 *407:17 0.00014576
19 *378:112 *1362:B2 2.89114e-05
*RES
1 *1358:Y *407:4 9.3 
2 *407:4 *1359:B1 11.9071 
3 *407:4 *407:17 6.44643 
4 *407:17 *1362:B2 16.425 
5 *407:17 *1361:A2_N 16.9964 
*END

*D_NET *408 0.00278037
*CONN
*I *1386:D1 I *D sky130_fd_sc_hd__o2111ai_4
*I *1388:A3 I *D sky130_fd_sc_hd__a311o_2
*I *1359:X O *D sky130_fd_sc_hd__o31a_2
*CAP
1 *1386:D1 0
2 *1388:A3 0.000180893
3 *1359:X 0.000265191
4 *408:8 0.000446084
5 *1388:A3 *1285:A2 0
6 *1388:A3 *1334:A1 0.000190682
7 *1388:A3 *1382:B 3.27526e-05
8 *1388:A3 *1386:B1 2.16719e-05
9 *1388:A3 *1388:A1 5.74562e-05
10 *1388:A3 *436:14 9.11365e-06
11 *1388:A3 *648:50 0.000210344
12 *1388:A3 *648:56 0.000119738
13 *408:8 *1359:A1 9.60939e-05
14 *408:8 *1385:A 1.5424e-05
15 *408:8 *1386:A1 0.000137437
16 *408:8 *1386:B1 0.000138605
17 *408:8 *1386:C1 1.04232e-05
18 *408:8 *640:22 5.23512e-05
19 *408:8 *648:56 2.89016e-05
20 *408:8 *652:60 0.000767211
*RES
1 *1359:X *408:8 17.6571 
2 *408:8 *1388:A3 23.2821 
3 *408:8 *1386:D1 9.3 
*END

*D_NET *409 0.00277444
*CONN
*I *1365:B1 I *D sky130_fd_sc_hd__o2bb2a_2
*I *1364:A_N I *D sky130_fd_sc_hd__and4b_2
*I *1363:B1 I *D sky130_fd_sc_hd__a211oi_2
*I *1360:X O *D sky130_fd_sc_hd__o2111a_2
*CAP
1 *1365:B1 0
2 *1364:A_N 0.000262043
3 *1363:B1 0
4 *1360:X 0.000275645
5 *409:12 0.000374619
6 *409:6 0.000388221
7 *1364:A_N *1364:B 5.03772e-05
8 *1364:A_N *1366:A 9.27326e-05
9 *1364:A_N *1366:B 0
10 *1364:A_N *627:31 0.000148177
11 *1364:A_N *627:37 0
12 *1364:A_N *638:91 1.99099e-05
13 *409:6 *1361:B1 4.08637e-05
14 *409:6 *1361:B2 0.000390994
15 *409:6 *411:6 4.13595e-05
16 *409:6 *562:48 1.24368e-05
17 *409:6 *645:46 9.8643e-05
18 *409:12 *1361:B1 0.0001399
19 *409:12 *1363:C1 6.44801e-05
20 *409:12 *411:6 1.98839e-05
21 *409:12 *638:91 8.59056e-05
22 *1361:A1_N *409:6 6.7143e-05
23 *75:25 *409:12 0.000145753
24 *301:16 *1364:A_N 5.53499e-05
*RES
1 *1360:X *409:6 15.5857 
2 *409:6 *409:12 8.10714 
3 *409:12 *1363:B1 13.8 
4 *409:12 *1364:A_N 20.175 
5 *409:6 *1365:B1 9.3 
*END

*D_NET *410 0.0105954
*CONN
*I *1359:A1 I *D sky130_fd_sc_hd__o31a_2
*I *1328:A2 I *D sky130_fd_sc_hd__o31a_2
*I *1151:A2 I *D sky130_fd_sc_hd__o21ai_2
*I *1288:B1 I *D sky130_fd_sc_hd__o221ai_2
*I *938:Y O *D sky130_fd_sc_hd__inv_2
*CAP
1 *1359:A1 0.000206982
2 *1328:A2 0.00106033
3 *1151:A2 0.000119225
4 *1288:B1 0.000277312
5 *938:Y 0.000358729
6 *410:14 0.000548788
7 *410:10 0.00177383
8 *410:8 0.00112696
9 *1151:A2 *1207:C1 1.56e-05
10 *1151:A2 *632:59 0.000269428
11 *1288:B1 *1207:C1 1.24368e-05
12 *1288:B1 *1288:A2 5.52238e-05
13 *1288:B1 *1288:B2 5.33005e-05
14 *1288:B1 *1563:A 0.000136951
15 *1288:B1 *581:16 2.07382e-05
16 *1288:B1 *632:44 1.39841e-05
17 *1288:B1 *632:59 4.48389e-05
18 *1328:A2 *998:A 5.07076e-05
19 *1328:A2 *998:B 0.000163196
20 *1328:A2 *1251:A1 2.59355e-05
21 *1328:A2 *1253:A1 3.69047e-06
22 *1328:A2 *1253:B2 1.59935e-05
23 *1359:A1 *1126:B1 0.000148196
24 *1359:A1 *640:22 1.21258e-05
25 *1359:A1 *652:60 4.58976e-05
26 *410:8 *938:A 9.42624e-05
27 *410:8 *1385:A 5.52238e-05
28 *410:8 *1385:B 5.74499e-06
29 *410:8 *435:10 0.00010096
30 *410:10 *1212:A 0.000571416
31 *410:10 *1247:A1 5.38886e-05
32 *410:14 *1212:A 0.000123288
33 *1115:A3 *1288:B1 0.000431857
34 *1216:A1 *410:10 0
35 *1247:B1 *410:10 0.000173097
36 *1252:B1 *410:10 0.000100823
37 *1288:C1 *1288:B1 4.97059e-05
38 *1328:A3 *1328:A2 4.88658e-05
39 *1385:C *1359:A1 0.000408302
40 *1385:C *410:8 0.000526407
41 *1385:C *410:10 3.17148e-05
42 *42:22 *1328:A2 0.000129888
43 *75:10 *410:10 0
44 *246:14 *410:10 0.000236284
45 *246:14 *410:14 8.75507e-05
46 *247:20 *410:10 0.000243629
47 *247:20 *410:14 6.2153e-05
48 *291:10 *410:10 0.00023595
49 *291:10 *410:14 0.000167862
50 *349:10 *1359:A1 0
51 *349:10 *410:10 0
52 *408:8 *1359:A1 9.60939e-05
*RES
1 *938:Y *410:8 21.3179 
2 *410:8 *410:10 15.9107 
3 *410:10 *410:14 8.57143 
4 *410:14 *1288:B1 16.3357 
5 *410:14 *1151:A2 12.3179 
6 *410:10 *1328:A2 26.9786 
7 *410:8 *1359:A1 19.9429 
*END

*D_NET *411 0.00159535
*CONN
*I *1365:B2 I *D sky130_fd_sc_hd__o2bb2a_2
*I *1363:C1 I *D sky130_fd_sc_hd__a211oi_2
*I *1361:X O *D sky130_fd_sc_hd__o2bb2a_2
*CAP
1 *1365:B2 0
2 *1363:C1 0.000187272
3 *1361:X 0.000298376
4 *411:6 0.000485649
5 *1363:C1 *1361:B1 6.55175e-05
6 *1363:C1 *1366:B 6.65302e-05
7 *411:6 *1361:B2 0.000265447
8 *75:25 *1363:C1 0.000100831
9 *409:6 *411:6 4.13595e-05
10 *409:12 *1363:C1 6.44801e-05
11 *409:12 *411:6 1.98839e-05
*RES
1 *1361:X *411:6 13.1214 
2 *411:6 *1363:C1 21.7107 
3 *411:6 *1365:B2 9.3 
*END

*D_NET *412 0.00151468
*CONN
*I *1364:D I *D sky130_fd_sc_hd__and4b_2
*I *1362:X O *D sky130_fd_sc_hd__a22o_2
*CAP
1 *1364:D 0.000218103
2 *1362:X 0.000218103
3 *1364:D *1362:A2 2.89114e-05
4 *1364:D *645:46 0.00010326
5 *1359:A2 *1364:D 5.71472e-05
6 *1364:C *1364:D 0.000173097
7 *298:21 *1364:D 0.000147186
8 *301:16 *1364:D 0.000568871
*RES
1 *1362:X *1364:D 35.5464 
*END

*D_NET *413 0.00348391
*CONN
*I *1390:B I *D sky130_fd_sc_hd__or4b_4
*I *1389:A2_N I *D sky130_fd_sc_hd__a2bb2o_2
*I *1363:Y O *D sky130_fd_sc_hd__a211oi_2
*CAP
1 *1390:B 0.000184552
2 *1389:A2_N 0.000255902
3 *1363:Y 0.00062135
4 *413:6 0.0010618
5 *1389:A2_N *1389:B2 0.000141729
6 *1389:A2_N *416:20 2.36643e-05
7 *1389:A2_N *436:14 2.95726e-05
8 *1389:A2_N *436:24 0.00012099
9 *1390:B *1383:B 0.000146989
10 *1390:B *1390:D_N 6.09572e-05
11 *1390:B *432:10 9.91086e-05
12 *413:6 *416:20 9.99658e-05
13 *413:6 *436:14 1.21258e-05
14 *1402:A *413:6 0.000356035
15 *373:22 *1390:B 0.000269168
*RES
1 *1363:Y *413:6 17.2286 
2 *413:6 *1389:A2_N 13.5679 
3 *413:6 *1390:B 23.5946 
*END

*D_NET *414 0.000645856
*CONN
*I *1366:A I *D sky130_fd_sc_hd__nor2_2
*I *1364:X O *D sky130_fd_sc_hd__and4b_2
*CAP
1 *1366:A 0.000265201
2 *1364:X 0.000265201
3 *1366:A *1366:B 9.25014e-06
4 *1366:A *627:31 1.34703e-05
5 *1366:A *627:37 0
6 *1364:A_N *1366:A 9.27326e-05
*RES
1 *1364:X *1366:A 31.4214 
*END

*D_NET *415 0.000373521
*CONN
*I *1366:B I *D sky130_fd_sc_hd__nor2_2
*I *1365:X O *D sky130_fd_sc_hd__o2bb2a_2
*CAP
1 *1366:B 8.5781e-05
2 *1365:X 8.5781e-05
3 *1366:B *562:22 1.92789e-05
4 *1366:B *627:37 5.16759e-05
5 *1363:C1 *1366:B 6.65302e-05
6 *1364:A_N *1366:B 0
7 *1366:A *1366:B 9.25014e-06
8 *1402:A *1366:B 5.52238e-05
*RES
1 *1365:X *1366:B 30.0821 
*END

*D_NET *416 0.00603035
*CONN
*I *1394:A2 I *D sky130_fd_sc_hd__a221o_2
*I *1368:B I *D sky130_fd_sc_hd__xnor2_2
*I *1367:A I *D sky130_fd_sc_hd__and4_2
*I *1366:Y O *D sky130_fd_sc_hd__nor2_2
*CAP
1 *1394:A2 0.000161878
2 *1368:B 0
3 *1367:A 6.68464e-05
4 *1366:Y 0.00101994
5 *416:33 0.000241017
6 *416:20 0.00116592
7 *1367:A *420:10 6.19181e-05
8 *1367:A *562:16 5.33005e-05
9 *1367:A *633:26 0.000125731
10 *1367:A *648:42 5.52302e-05
11 *1394:A2 *1392:C1 2.31791e-05
12 *1394:A2 *1394:B1 0.000197984
13 *1394:A2 *1394:C1 9.41642e-05
14 *1394:A2 *440:21 0.000175526
15 *416:20 *1387:A 8.57572e-06
16 *416:20 *436:14 0.000211103
17 *416:20 *436:24 0.000158574
18 *416:20 *439:10 0.000707598
19 *416:20 *562:22 0.000816507
20 *416:33 *1392:C1 0.000173083
21 *416:33 *1394:B1 0.000174797
22 *416:33 *420:10 4.00121e-05
23 *416:33 *633:12 1.81709e-05
24 *416:33 *633:26 2.48938e-05
25 *1371:A *416:20 1.00073e-05
26 *1389:A1_N *416:20 1.96517e-05
27 *1389:A2_N *416:20 2.36643e-05
28 *1394:A1 *1394:A2 4.87953e-05
29 *1402:A *416:20 5.23142e-05
30 *413:6 *416:20 9.99658e-05
*RES
1 *1366:Y *416:20 34.8893 
2 *416:20 *1367:A 15.9786 
3 *416:20 *416:33 3.16071 
4 *416:33 *1368:B 13.8 
5 *416:33 *1394:A2 18.4607 
*END

*D_NET *417 0.000504268
*CONN
*I *1392:A1 I *D sky130_fd_sc_hd__o211ai_2
*I *1367:X O *D sky130_fd_sc_hd__and4_2
*CAP
1 *1392:A1 7.26209e-05
2 *1367:X 7.26209e-05
3 *1392:A1 *439:10 5.33005e-05
4 *1392:A1 *443:10 5.7616e-05
5 *1392:A1 *643:10 0.000148189
6 *1371:A *1392:A1 5.33005e-05
7 *1414:A *1392:A1 4.66203e-05
*RES
1 *1367:X *1392:A1 30.0821 
*END

*D_NET *418 0.00266704
*CONN
*I *1371:B I *D sky130_fd_sc_hd__and3_2
*I *1370:B1 I *D sky130_fd_sc_hd__a21oi_2
*I *1368:Y O *D sky130_fd_sc_hd__xnor2_2
*CAP
1 *1371:B 0
2 *1370:B1 0.000349306
3 *1368:Y 0.000275191
4 *418:10 0.000624498
5 *1370:B1 *1334:B2 0.000220448
6 *1370:B1 *1552:A 9.55563e-05
7 *1370:B1 *640:8 0.000137983
8 *1370:B1 *640:22 1.52978e-05
9 *1370:B1 *642:14 9.60875e-05
10 *1370:B1 *642:27 0.000152235
11 *418:10 *1372:A 2.89016e-05
12 *418:10 *1372:B 6.58712e-05
13 *418:10 *440:8 3.98662e-05
14 *382:8 *1370:B1 0.000317076
15 *388:10 *1370:B1 6.50156e-05
16 *388:10 *418:10 9.32406e-05
17 *390:10 *1370:B1 4.75428e-05
18 *390:10 *418:10 4.29179e-05
*RES
1 *1368:Y *418:10 18.5321 
2 *418:10 *1370:B1 23.675 
3 *418:10 *1371:B 13.8 
*END

*D_NET *419 0.0071501
*CONN
*I *1371:C I *D sky130_fd_sc_hd__and3_2
*I *1370:A2 I *D sky130_fd_sc_hd__a21oi_2
*I *1369:X O *D sky130_fd_sc_hd__a31o_2
*CAP
1 *1371:C 0.000251237
2 *1370:A2 0.000297276
3 *1369:X 0.00106219
4 *419:14 0.00161071
5 *1370:A2 *420:10 0.000182694
6 *1370:A2 *642:14 0.000181796
7 *1370:A2 *642:27 0.00026353
8 *1370:A2 *645:46 9.41642e-05
9 *1371:C *439:10 2.95726e-05
10 *1371:C *643:10 0.00026367
11 *1371:C *643:14 0.000137224
12 *1371:C *643:64 9.25014e-06
13 *419:14 *1284:A 4.13477e-05
14 *419:14 *1325:B 0
15 *419:14 *1332:A2 3.17148e-05
16 *419:14 *1519:A 0.000113877
17 *419:14 *475:30 0.000182694
18 *419:14 *529:10 0
19 *419:14 *532:18 0
20 *419:14 *540:43 0
21 *419:14 *633:26 0
22 *419:14 *643:14 0.000218734
23 *419:14 *645:12 8.56716e-05
24 *419:14 *659:10 0.000197721
25 *419:14 *659:25 5.33005e-05
26 *419:14 *661:8 8.39e-05
27 *1331:B *419:14 0.0001399
28 *1340:B *419:14 0
29 *1341:A *419:14 0.00028441
30 *1341:C *419:14 0.000150618
31 *1369:B1 *419:14 2.60984e-05
32 *1371:A *1371:C 5.33005e-05
33 *372:8 *419:14 0.000152333
34 *388:10 *1371:C 0.00040576
35 *388:10 *419:14 0.000545406
36 *390:10 *419:14 0
*RES
1 *1369:X *419:14 40.175 
2 *419:14 *1370:A2 20.1036 
3 *419:14 *1371:C 20.4429 
*END

*D_NET *420 0.00313049
*CONN
*I *1394:C1 I *D sky130_fd_sc_hd__a221o_2
*I *1372:A I *D sky130_fd_sc_hd__nor2_2
*I *1392:A2 I *D sky130_fd_sc_hd__o211ai_2
*I *1370:Y O *D sky130_fd_sc_hd__a21oi_2
*CAP
1 *1394:C1 0.000207604
2 *1372:A 8.12221e-05
3 *1392:A2 1.69531e-05
4 *1370:Y 0.000281945
5 *420:21 0.0003439
6 *420:10 0.000353971
7 *1372:A *440:8 0.000178847
8 *1392:A2 *439:10 5.33005e-05
9 *1394:C1 *1394:B1 0.000165269
10 *1394:C1 *1394:B2 6.26774e-06
11 *420:10 *1394:B1 1.02504e-05
12 *420:10 *633:26 2.7952e-05
13 *420:21 *1394:B1 0.000164547
14 *1367:A *420:10 6.19181e-05
15 *1367:B *420:10 7.83659e-05
16 *1370:A2 *420:10 0.000182694
17 *1371:A *1392:A2 5.33005e-05
18 *1394:A1 *1394:C1 2.04294e-05
19 *1394:A2 *1394:C1 9.41642e-05
20 *1414:A *1394:C1 0.000173804
21 *1414:A *420:10 0.0003335
22 *1414:A *420:21 0.000171368
23 *416:33 *420:10 4.00121e-05
24 *418:10 *1372:A 2.89016e-05
*RES
1 *1370:Y *420:10 19.9429 
2 *420:10 *1392:A2 14.3357 
3 *420:10 *420:21 2.25 
4 *420:21 *1372:A 15.5679 
5 *420:21 *1394:C1 18.55 
*END

*D_NET *421 0.000546691
*CONN
*I *1372:B I *D sky130_fd_sc_hd__nor2_2
*I *1371:X O *D sky130_fd_sc_hd__and3_2
*CAP
1 *1372:B 0.000104909
2 *1371:X 0.000104909
3 *1372:B *440:8 0.00014285
4 *388:10 *1372:B 0
5 *390:10 *1372:B 0.000128154
6 *418:10 *1372:B 6.58712e-05
*RES
1 *1371:X *1372:B 30.6 
*END

*D_NET *422 0.00283278
*CONN
*I *1377:A I *D sky130_fd_sc_hd__xnor2_2
*I *1375:A I *D sky130_fd_sc_hd__nand3_2
*I *1372:Y O *D sky130_fd_sc_hd__nor2_2
*CAP
1 *1377:A 0.000256143
2 *1375:A 0
3 *1372:Y 0.000413945
4 *422:8 0.000670087
5 *1377:A *1397:B1 2.89016e-05
6 *422:8 *1374:B 0.000202835
7 *1344:A1 *1377:A 0.000179746
8 *1344:A2 *1377:A 0
9 *388:10 *422:8 0.000717277
10 *388:19 *1377:A 2.31791e-05
11 *388:19 *422:8 0.000227021
12 *390:10 *1377:A 0
13 *390:10 *422:8 0
14 *390:19 *1377:A 0
15 *400:12 *422:8 0.000113647
*RES
1 *1372:Y *422:8 25.7643 
2 *422:8 *1375:A 13.8 
3 *422:8 *1377:A 18.3536 
*END

*D_NET *423 0.000819803
*CONN
*I *1374:B I *D sky130_fd_sc_hd__nand2_2
*I *1375:B I *D sky130_fd_sc_hd__nand3_2
*I *1373:Y O *D sky130_fd_sc_hd__nand2_2
*CAP
1 *1374:B 6.10182e-05
2 *1375:B 0.000105873
3 *1373:Y 3.89294e-05
4 *423:6 0.000205821
5 *1343:C *1375:B 3.97677e-05
6 *1343:C *423:6 5.33433e-05
7 *1375:C *1375:B 3.63587e-05
8 *390:10 *1374:B 7.58571e-05
9 *422:8 *1374:B 0.000202835
*RES
1 *1373:Y *423:6 10.2464 
2 *423:6 *1375:B 11.0857 
3 *423:6 *1374:B 20.8536 
*END

*D_NET *424 0.000837676
*CONN
*I *1377:B I *D sky130_fd_sc_hd__xnor2_2
*I *1374:Y O *D sky130_fd_sc_hd__nand2_2
*CAP
1 *1377:B 0.000150106
2 *1374:Y 0.000150106
3 *1377:B *1397:B1 7.83462e-05
4 *1377:B *1401:A1 0
5 *1377:B *444:8 9.24299e-05
6 *1344:A1 *1377:B 0.000141382
7 *388:19 *1377:B 0.000225307
*RES
1 *1374:Y *1377:B 32.2786 
*END

*D_NET *425 0.00225105
*CONN
*I *1376:A I *D sky130_fd_sc_hd__inv_2
*I *1397:A1_N I *D sky130_fd_sc_hd__o2bb2ai_2
*I *1401:A1 I *D sky130_fd_sc_hd__a21o_2
*I *1375:Y O *D sky130_fd_sc_hd__nand3_2
*CAP
1 *1376:A 0.000187773
2 *1397:A1_N 0.000102269
3 *1401:A1 7.87896e-05
4 *1375:Y 4.26718e-05
5 *425:23 0.000590037
6 *425:8 0.000421457
7 *1376:A *1397:B2 0
8 *1376:A *1399:B1 0
9 *1397:A1_N *1397:A2_N 3.46677e-05
10 *1401:A1 *443:10 5.80706e-06
11 *1401:A1 *444:8 4.57445e-05
12 *1401:A1 *446:10 5.80706e-06
13 *1401:A1 *446:19 0.000112106
14 *425:8 *1396:A 2.14757e-05
15 *425:23 *1397:A2_N 0.000143635
16 *425:23 *1397:B1 4.83636e-05
17 *425:23 *1397:B2 0.00021791
18 *425:23 *444:8 1.97381e-05
19 *425:23 *446:19 1.41029e-05
20 *425:23 *447:12 0.000101545
21 *1375:C *425:8 5.71472e-05
22 *1377:B *1401:A1 0
23 *388:19 *1401:A1 0
*RES
1 *1375:Y *425:8 14.7464 
2 *425:8 *1401:A1 16.3536 
3 *425:8 *425:23 11.3929 
4 *425:23 *1397:A1_N 11.0857 
5 *425:23 *1376:A 21.4607 
*END

*D_NET *426 0.000286056
*CONN
*I *1399:A1 I *D sky130_fd_sc_hd__o21ai_2
*I *1376:Y O *D sky130_fd_sc_hd__inv_2
*CAP
1 *1399:A1 9.25478e-05
2 *1376:Y 9.25478e-05
3 *1399:A1 *1399:B1 0.00010096
*RES
1 *1376:Y *1399:A1 20.3679 
*END

*D_NET *427 0.00328896
*CONN
*I *1378:B I *D sky130_fd_sc_hd__and2_4
*I *1380:B1 I *D sky130_fd_sc_hd__a21oi_2
*I *1379:C I *D sky130_fd_sc_hd__nand3_4
*I *1400:B I *D sky130_fd_sc_hd__nand4_4
*I *1377:Y O *D sky130_fd_sc_hd__xnor2_2
*CAP
1 *1378:B 0.000428974
2 *1380:B1 0.000314574
3 *1379:C 0.000213975
4 *1400:B 0.000301294
5 *1377:Y 0.000127499
6 *427:35 0.000743548
7 *427:8 0.000642767
8 *1378:B *429:14 1.84368e-05
9 *1379:C *429:14 0
10 *1379:C *447:12 0
11 *1400:B *1400:C 0.000220795
12 *427:8 *447:12 0
13 *1378:A *1378:B 5.49544e-05
14 *1400:D *1379:C 0
15 *1400:D *1380:B1 5.49544e-05
16 *404:21 *1380:B1 0.000167187
*RES
1 *1377:Y *427:8 16.05 
2 *427:8 *1400:B 19.6929 
3 *427:8 *1379:C 17.3 
4 *1379:C *427:35 9.3 
5 *427:35 *1380:B1 14.8 
6 *427:35 *1378:B 25.3893 
*END

*D_NET *428 0.00143649
*CONN
*I *1381:A1 I *D sky130_fd_sc_hd__a21oi_4
*I *1378:X O *D sky130_fd_sc_hd__and2_4
*CAP
1 *1381:A1 0.000228804
2 *1378:X 0.000228804
3 *1381:A1 *1381:A2 9.10431e-06
4 *1381:A1 *1381:B1 2.19032e-05
5 *1381:A1 *1407:B 0.00015234
6 *1381:A1 *1485:A 0.000535087
7 *1400:A *1381:A1 0.000179656
8 *403:38 *1381:A1 8.07951e-05
*RES
1 *1378:X *1381:A1 35.5464 
*END

*D_NET *429 0.00325089
*CONN
*I *1398:A I *D sky130_fd_sc_hd__nand2_2
*I *1397:A2_N I *D sky130_fd_sc_hd__o2bb2ai_2
*I *1379:Y O *D sky130_fd_sc_hd__nand3_4
*CAP
1 *1398:A 0
2 *1397:A2_N 0.000334309
3 *1379:Y 0.000670541
4 *429:14 0.00100485
5 *1397:A2_N *1397:B1 5.71472e-05
6 *1397:A2_N *1397:B2 7.41433e-05
7 *1397:A2_N *1399:B1 0
8 *1397:A2_N *447:12 6.58289e-05
9 *429:14 *1400:C 0.000723976
10 *1378:B *429:14 1.84368e-05
11 *1379:C *429:14 0
12 *1397:A1_N *1397:A2_N 3.46677e-05
13 *1400:D *429:14 0.000123359
14 *425:23 *1397:A2_N 0.000143635
*RES
1 *1379:Y *429:14 28.9071 
2 *429:14 *1397:A2_N 25.7643 
3 *429:14 *1398:A 9.3 
*END

*D_NET *430 0.000779196
*CONN
*I *1381:B1 I *D sky130_fd_sc_hd__a21oi_4
*I *1380:Y O *D sky130_fd_sc_hd__a21oi_2
*CAP
1 *1381:B1 0.00027099
2 *1380:Y 0.00027099
3 *1381:B1 *1407:B 7.23529e-05
4 *1381:B1 *1485:A 6.05161e-06
5 *1346:A2 *1381:B1 5.65955e-05
6 *1381:A1 *1381:B1 2.19032e-05
7 *1400:A *1381:B1 6.24469e-05
8 *404:21 *1381:B1 1.78649e-05
*RES
1 *1380:Y *1381:B1 33.0464 
*END

*D_NET *431 0.000524532
*CONN
*I *942:A I *D sky130_fd_sc_hd__nor2_2
*I *940:X O *D sky130_fd_sc_hd__o22a_2
*CAP
1 *942:A 0.000117871
2 *940:X 0.000117871
3 *942:A *941:D 0.000127446
4 *942:A *1448:A 6.42242e-05
5 *940:B2 *942:A 9.71197e-05
*RES
1 *940:X *942:A 30.1893 
*END

*D_NET *432 0.00194956
*CONN
*I *1403:A3 I *D sky130_fd_sc_hd__a31o_2
*I *1383:C I *D sky130_fd_sc_hd__and3_2
*I *1382:Y O *D sky130_fd_sc_hd__nand2_2
*CAP
1 *1403:A3 0
2 *1383:C 0.000512143
3 *1382:Y 6.0647e-05
4 *432:10 0.00057279
5 *1383:C *1383:A 0.000150164
6 *1383:C *1403:A2 1.97695e-05
7 *1383:C *440:8 2.94004e-05
8 *432:10 *1390:D_N 6.8646e-06
9 *432:10 *438:10 2.8266e-06
10 *1389:A1_N *1383:C 5.33005e-05
11 *1390:B *432:10 9.91086e-05
12 *373:22 *1383:C 0.000378322
13 *373:22 *432:10 6.42242e-05
*RES
1 *1382:Y *432:10 19.9429 
2 *432:10 *1383:C 16.55 
3 *432:10 *1403:A3 9.3 
*END

*D_NET *433 0.000360928
*CONN
*I *1408:A1 I *D sky130_fd_sc_hd__o41a_4
*I *1383:X O *D sky130_fd_sc_hd__and3_2
*CAP
1 *1408:A1 4.47281e-05
2 *1383:X 4.47281e-05
3 *1408:A1 *1408:A2 0.000119132
4 *391:14 *1408:A1 0.00015234
*RES
1 *1383:X *1408:A1 29.5464 
*END

*D_NET *434 0.00207083
*CONN
*I *1388:B1 I *D sky130_fd_sc_hd__a311o_2
*I *1386:A1 I *D sky130_fd_sc_hd__o2111ai_4
*I *1384:X O *D sky130_fd_sc_hd__o2bb2a_2
*CAP
1 *1388:B1 0.000287247
2 *1386:A1 0.000107742
3 *1384:X 5.89902e-05
4 *434:8 0.000453979
5 *1386:A1 *640:22 0.000137437
6 *1388:B1 *1361:B1 2.8078e-05
7 *1388:B1 *1388:C1 0.000307566
8 *1388:B1 *638:42 0.000327387
9 *434:8 *1388:C1 1.17968e-05
10 *434:8 *435:10 6.32633e-05
11 *434:8 *638:42 0.000149904
12 *408:8 *1386:A1 0.000137437
*RES
1 *1384:X *434:8 15.7464 
2 *434:8 *1386:A1 16.8179 
3 *434:8 *1388:B1 20.7821 
*END

*D_NET *435 0.00226693
*CONN
*I *1388:C1 I *D sky130_fd_sc_hd__a311o_2
*I *1386:A2 I *D sky130_fd_sc_hd__o2111ai_4
*I *1385:X O *D sky130_fd_sc_hd__and4_2
*CAP
1 *1388:C1 0.000229397
2 *1386:A2 0
3 *1385:X 0.000210702
4 *435:10 0.000440099
5 *1388:C1 *1361:B1 3.97677e-05
6 *1388:C1 *638:42 6.8646e-06
7 *1388:C1 *638:79 0.000140933
8 *435:10 *638:42 1.78447e-05
9 *435:10 *638:48 0
10 *1388:B1 *1388:C1 0.000307566
11 *348:10 *1388:C1 0.000385003
12 *348:10 *435:10 0.000312736
13 *389:10 *435:10 0
14 *410:8 *435:10 0.00010096
15 *434:8 *1388:C1 1.17968e-05
16 *434:8 *435:10 6.32633e-05
*RES
1 *1385:X *435:10 18.8179 
2 *435:10 *1386:A2 13.8 
3 *435:10 *1388:C1 20.9607 
*END

*D_NET *436 0.00686767
*CONN
*I *1389:B1 I *D sky130_fd_sc_hd__a2bb2o_2
*I *1405:A I *D sky130_fd_sc_hd__and3_2
*I *1404:A1 I *D sky130_fd_sc_hd__a21oi_2
*I *1387:A I *D sky130_fd_sc_hd__inv_2
*I *1386:Y O *D sky130_fd_sc_hd__o2111ai_4
*CAP
1 *1389:B1 0
2 *1405:A 0.00046631
3 *1404:A1 0
4 *1387:A 4.82258e-05
5 *1386:Y 0.000512821
6 *436:43 0.000874645
7 *436:24 0.000564292
8 *436:14 0.000620552
9 *1387:A *1390:C 0.000141729
10 *1387:A *439:10 5.45307e-05
11 *1405:A *1402:C 0
12 *1405:A *1405:B 5.52302e-05
13 *1405:A *1406:A 0.000389464
14 *1405:A *1406:B 5.65955e-05
15 *1405:A *1407:C 2.89016e-05
16 *1405:A *453:12 0.00027068
17 *1405:A *573:16 0.000439624
18 *1405:A *662:132 0.000203391
19 *436:14 *1386:B1 0.000168939
20 *436:14 *1388:A1 0.000125724
21 *436:14 *1389:B2 4.82865e-05
22 *436:14 *438:10 3.08907e-05
23 *436:14 *640:22 0.000263723
24 *436:24 *1389:B2 3.08664e-05
25 *436:24 *1390:C 9.58181e-05
26 *436:43 *1383:A 0.000125731
27 *436:43 *1390:C 2.04866e-05
28 *436:43 *1408:A3 5.94205e-05
29 *436:43 *1408:B1 7.94185e-05
30 *436:43 *1487:A 0
31 *436:43 *453:12 0
32 *1382:A *436:14 1.90936e-05
33 *1388:A3 *436:14 9.11365e-06
34 *1389:A1_N *1387:A 7.43578e-06
35 *1389:A1_N *436:24 4.09341e-05
36 *1389:A1_N *436:43 0.000121573
37 *1389:A2_N *436:14 2.95726e-05
38 *1389:A2_N *436:24 0.00012099
39 *373:22 *436:14 0.000352281
40 *391:14 *436:43 0
41 *413:6 *436:14 1.21258e-05
42 *416:20 *1387:A 8.57572e-06
43 *416:20 *436:14 0.000211103
44 *416:20 *436:24 0.000158574
*RES
1 *1386:Y *436:14 29.5679 
2 *436:14 *436:24 12.4464 
3 *436:24 *1387:A 11.0857 
4 *436:24 *436:43 16.4643 
5 *436:43 *1404:A1 9.3 
6 *436:43 *1405:A 31.1214 
7 *436:14 *1389:B1 9.3 
*END

*D_NET *437 0.00212231
*CONN
*I *1390:C I *D sky130_fd_sc_hd__or4b_4
*I *1408:A2 I *D sky130_fd_sc_hd__o41a_4
*I *1387:Y O *D sky130_fd_sc_hd__inv_2
*CAP
1 *1390:C 0.000394366
2 *1408:A2 0.000281562
3 *1387:Y 0
4 *437:4 0.000675928
5 *1390:C *1383:A 5.59013e-05
6 *1390:C *1383:B 9.83442e-05
7 *1390:C *439:10 1.10868e-05
8 *1408:A2 *1408:A3 5.37741e-06
9 *1408:A2 *439:10 2.07878e-05
10 *1387:A *1390:C 0.000141729
11 *1389:A1_N *1390:C 9.91086e-05
12 *1408:A1 *1408:A2 0.000119132
13 *391:14 *1408:A2 0.000102683
14 *436:24 *1390:C 9.58181e-05
15 *436:43 *1390:C 2.04866e-05
*RES
1 *1387:Y *437:4 9.3 
2 *437:4 *1408:A2 24.5321 
3 *437:4 *1390:C 24.3893 
*END

*D_NET *438 0.00119651
*CONN
*I *1390:D_N I *D sky130_fd_sc_hd__or4b_4
*I *1389:B2 I *D sky130_fd_sc_hd__a2bb2o_2
*I *1388:X O *D sky130_fd_sc_hd__a311o_2
*CAP
1 *1390:D_N 0.000105168
2 *1389:B2 3.49093e-05
3 *1388:X 0.00016489
4 *438:10 0.000304967
5 *438:10 *1361:B1 9.77423e-05
6 *438:10 *1382:B 0.00014338
7 *1382:A *438:10 2.30314e-05
8 *1389:A2_N *1389:B2 0.000141729
9 *1390:B *1390:D_N 6.09572e-05
10 *373:22 *438:10 0
11 *432:10 *1390:D_N 6.8646e-06
12 *432:10 *438:10 2.8266e-06
13 *436:14 *1389:B2 4.82865e-05
14 *436:14 *438:10 3.08907e-05
15 *436:24 *1389:B2 3.08664e-05
*RES
1 *1388:X *438:10 16.9964 
2 *438:10 *1389:B2 15.1571 
3 *438:10 *1390:D_N 15.7464 
*END

*D_NET *439 0.00272112
*CONN
*I *1392:B1 I *D sky130_fd_sc_hd__o211ai_2
*I *1394:B1 I *D sky130_fd_sc_hd__a221o_2
*I *1389:X O *D sky130_fd_sc_hd__a2bb2o_2
*CAP
1 *1392:B1 0
2 *1394:B1 0.000126312
3 *1389:X 0.000341561
4 *439:10 0.000467874
5 *1394:B1 *440:21 1.17968e-05
6 *1394:B1 *440:36 4.46186e-06
7 *439:10 *1425:A 5.7661e-06
8 *1371:A *439:10 9.63338e-05
9 *1371:C *439:10 2.95726e-05
10 *1387:A *439:10 5.45307e-05
11 *1390:C *439:10 1.10868e-05
12 *1392:A1 *439:10 5.33005e-05
13 *1392:A2 *439:10 5.33005e-05
14 *1394:A2 *1394:B1 0.000197984
15 *1394:C1 *1394:B1 0.000165269
16 *1408:A2 *439:10 2.07878e-05
17 *1414:A *1394:B1 2.39876e-05
18 *416:20 *439:10 0.000707598
19 *416:33 *1394:B1 0.000174797
20 *420:10 *1394:B1 1.02504e-05
21 *420:21 *1394:B1 0.000164547
*RES
1 *1389:X *439:10 18.9071 
2 *439:10 *1394:B1 23.2821 
3 *439:10 *1392:B1 9.3 
*END

*D_NET *440 0.00559183
*CONN
*I *1405:B I *D sky130_fd_sc_hd__and3_2
*I *1404:A2 I *D sky130_fd_sc_hd__a21oi_2
*I *1391:A I *D sky130_fd_sc_hd__inv_2
*I *1394:B2 I *D sky130_fd_sc_hd__a221o_2
*I *1392:C1 I *D sky130_fd_sc_hd__o211ai_2
*I *1390:X O *D sky130_fd_sc_hd__or4b_4
*CAP
1 *1405:B 0.000261495
2 *1404:A2 0
3 *1391:A 0
4 *1394:B2 4.94028e-06
5 *1392:C1 7.59116e-05
6 *1390:X 0.000495375
7 *440:43 0.000304973
8 *440:36 0.000481155
9 *440:21 0.000496561
10 *440:8 0.00062523
11 *1392:C1 *1425:A 5.52302e-05
12 *1392:C1 *633:12 0.000197977
13 *1405:B *1408:B1 0.000123594
14 *1405:B *1487:A 0
15 *1405:B *573:16 0.000137561
16 *1405:B *662:132 3.88131e-05
17 *440:8 *1383:A 3.08664e-05
18 *440:8 *1383:B 0.000141734
19 *440:21 *633:12 0.000191877
20 *440:36 *633:12 0.000115474
21 *440:36 *648:10 0
22 *440:36 *662:132 0.000776205
23 *440:43 *662:132 0.00013017
24 *1371:A *1392:C1 5.33005e-05
25 *1372:A *440:8 0.000178847
26 *1372:B *440:8 0.00014285
27 *1383:C *440:8 2.94004e-05
28 *1394:A1 *1394:B2 1.28809e-05
29 *1394:A2 *1392:C1 2.31791e-05
30 *1394:A2 *440:21 0.000175526
31 *1394:B1 *440:21 1.17968e-05
32 *1394:B1 *440:36 4.46186e-06
33 *1394:C1 *1394:B2 6.26774e-06
34 *1405:A *1405:B 5.52302e-05
35 *1414:A *440:36 0
36 *416:33 *1392:C1 0.000173083
37 *418:10 *440:8 3.98662e-05
*RES
1 *1390:X *440:8 22.9607 
2 *440:8 *1392:C1 16.8893 
3 *440:8 *440:21 2.55357 
4 *440:21 *1394:B2 13.9295 
5 *440:21 *440:36 14.2679 
6 *440:36 *1391:A 9.3 
7 *440:36 *440:43 1.35714 
8 *440:43 *1404:A2 9.3 
9 *440:43 *1405:B 23.0857 
*END

*D_NET *441 0.000606927
*CONN
*I *942:B I *D sky130_fd_sc_hd__nor2_2
*I *941:X O *D sky130_fd_sc_hd__and4_2
*CAP
1 *942:B 0.000131565
2 *941:X 0.000131565
3 *942:B *941:C 0.000146876
4 *942:B *941:D 0.000145161
5 *942:B *629:87 5.17614e-05
*RES
1 *941:X *942:B 30.4929 
*END

*D_NET *442 0.000456105
*CONN
*I *1408:A3 I *D sky130_fd_sc_hd__o41a_4
*I *1391:Y O *D sky130_fd_sc_hd__inv_2
*CAP
1 *1408:A3 0.000146484
2 *1391:Y 0.000146484
3 *1408:A3 *1487:A 0
4 *1408:A3 *662:132 9.83388e-05
5 *1408:A2 *1408:A3 5.37741e-06
6 *391:14 *1408:A3 0
7 *436:43 *1408:A3 5.94205e-05
*RES
1 *1391:Y *1408:A3 30.1893 
*END

*D_NET *443 0.00221992
*CONN
*I *1393:A I *D sky130_fd_sc_hd__inv_2
*I *1401:A2 I *D sky130_fd_sc_hd__a21o_2
*I *1392:Y O *D sky130_fd_sc_hd__o211ai_2
*CAP
1 *1393:A 0
2 *1401:A2 2.36895e-05
3 *1392:Y 0.00045756
4 *443:10 0.00048125
5 *1401:A2 *1407:A 5.52238e-05
6 *443:10 *1395:A 0.000338381
7 *443:10 *446:10 0
8 *443:10 *573:12 0
9 *443:10 *643:10 2.26327e-05
10 *443:10 *643:64 0.000148701
11 *443:10 *648:10 0
12 *1392:A1 *443:10 5.7616e-05
13 *1401:A1 *443:10 5.80706e-06
14 *1414:A *443:10 0.000629055
15 *388:10 *443:10 0
*RES
1 *1392:Y *443:10 30.8714 
2 *443:10 *1401:A2 9.83571 
3 *443:10 *1393:A 9.3 
*END

*D_NET *444 0.00165673
*CONN
*I *1397:B1 I *D sky130_fd_sc_hd__o2bb2ai_2
*I *1396:A I *D sky130_fd_sc_hd__nor2_2
*I *1393:Y O *D sky130_fd_sc_hd__inv_2
*CAP
1 *1397:B1 0.00020132
2 *1396:A 0.00016876
3 *1393:Y 7.54825e-05
4 *444:8 0.000445563
5 *1396:A *447:12 0.000139913
6 *1397:B1 *1397:B2 5.52238e-05
7 *1397:B1 *447:12 7.92879e-05
8 *1375:C *1396:A 9.90367e-05
9 *1377:A *1397:B1 2.89016e-05
10 *1377:B *1397:B1 7.83462e-05
11 *1377:B *444:8 9.24299e-05
12 *1397:A2_N *1397:B1 5.71472e-05
13 *1401:A1 *444:8 4.57445e-05
14 *425:8 *1396:A 2.14757e-05
15 *425:23 *1397:B1 4.83636e-05
16 *425:23 *444:8 1.97381e-05
*RES
1 *1393:Y *444:8 16.05 
2 *444:8 *1396:A 17.2286 
3 *444:8 *1397:B1 18.6393 
*END

*D_NET *445 0.000720543
*CONN
*I *1395:A I *D sky130_fd_sc_hd__inv_2
*I *1394:X O *D sky130_fd_sc_hd__a221o_2
*CAP
1 *1395:A 0.000132991
2 *1394:X 0.000132991
3 *388:10 *1395:A 0.000116179
4 *443:10 *1395:A 0.000338381
*RES
1 *1394:X *1395:A 31.975 
*END

*D_NET *446 0.00177182
*CONN
*I *1397:B2 I *D sky130_fd_sc_hd__o2bb2ai_2
*I *1396:B I *D sky130_fd_sc_hd__nor2_2
*I *1401:B1 I *D sky130_fd_sc_hd__a21o_2
*I *1395:Y O *D sky130_fd_sc_hd__inv_2
*CAP
1 *1397:B2 0.000135704
2 *1396:B 0
3 *1401:B1 0
4 *1395:Y 0.000264104
5 *446:19 0.000219773
6 *446:10 0.000348173
7 *1397:B2 *447:12 6.8646e-06
8 *446:10 *937:A 0.00014183
9 *446:10 *573:12 4.48113e-05
10 *446:10 *573:16 2.24763e-05
11 *446:10 *648:10 5.71472e-05
12 *446:19 *573:12 5.16396e-05
13 *1376:A *1397:B2 0
14 *1397:A2_N *1397:B2 7.41433e-05
15 *1397:B1 *1397:B2 5.52238e-05
16 *1401:A1 *446:10 5.80706e-06
17 *1401:A1 *446:19 0.000112106
18 *425:23 *1397:B2 0.00021791
19 *425:23 *446:19 1.41029e-05
20 *443:10 *446:10 0
*RES
1 *1395:Y *446:10 18.0321 
2 *446:10 *1401:B1 13.8 
3 *446:10 *446:19 2.85714 
4 *446:19 *1396:B 13.8 
5 *446:19 *1397:B2 17.4071 
*END

*D_NET *447 0.00240989
*CONN
*I *1400:C I *D sky130_fd_sc_hd__nand4_4
*I *1398:B I *D sky130_fd_sc_hd__nand2_2
*I *1396:Y O *D sky130_fd_sc_hd__nor2_2
*CAP
1 *1400:C 0.000260066
2 *1398:B 0
3 *1396:Y 0.000275775
4 *447:12 0.000535841
5 *1379:C *447:12 0
6 *1396:A *447:12 0.000139913
7 *1397:A2_N *447:12 6.58289e-05
8 *1397:B1 *447:12 7.92879e-05
9 *1397:B2 *447:12 6.8646e-06
10 *1400:B *1400:C 0.000220795
11 *425:23 *447:12 0.000101545
12 *427:8 *447:12 0
13 *429:14 *1400:C 0.000723976
*RES
1 *1396:Y *447:12 24.0321 
2 *447:12 *1398:B 9.3 
3 *447:12 *1400:C 17.675 
*END

*D_NET *448 0.000520879
*CONN
*I *1399:B1 I *D sky130_fd_sc_hd__o21ai_2
*I *1397:Y O *D sky130_fd_sc_hd__o2bb2ai_2
*CAP
1 *1399:B1 0.000181386
2 *1397:Y 0.000181386
3 *1399:B1 *1486:A 5.71472e-05
4 *1376:A *1399:B1 0
5 *1397:A2_N *1399:B1 0
6 *1399:A1 *1399:B1 0.00010096
*RES
1 *1397:Y *1399:B1 31.2071 
*END

*D_NET *449 0.000161517
*CONN
*I *1399:A2 I *D sky130_fd_sc_hd__o21ai_2
*I *1398:Y O *D sky130_fd_sc_hd__nand2_2
*CAP
1 *1399:A2 8.07586e-05
2 *1398:Y 8.07586e-05
*RES
1 *1398:Y *1399:A2 19.9571 
*END

*D_NET *450 0.00106665
*CONN
*I *1407:B I *D sky130_fd_sc_hd__nand3_4
*I *1400:Y O *D sky130_fd_sc_hd__nand4_4
*CAP
1 *1407:B 0.000416355
2 *1400:Y 0.000416355
3 *1407:B *1407:C 9.25014e-06
4 *1407:B *1408:B1 0
5 *1381:A1 *1407:B 0.00015234
6 *1381:B1 *1407:B 7.23529e-05
*RES
1 *1400:Y *1407:B 35.7607 
*END

*D_NET *451 0.00169581
*CONN
*I *1407:A I *D sky130_fd_sc_hd__nand3_4
*I *1401:X O *D sky130_fd_sc_hd__a21o_2
*CAP
1 *1407:A 0.000469988
2 *1401:X 0.000469988
3 *1407:A *1487:A 0.000700612
4 *1401:A2 *1407:A 5.52238e-05
*RES
1 *1401:X *1407:A 29.1357 
*END

*D_NET *452 0.00188718
*CONN
*I *1408:A4 I *D sky130_fd_sc_hd__o41a_4
*I *1403:B1 I *D sky130_fd_sc_hd__a31o_2
*I *1402:X O *D sky130_fd_sc_hd__and3_2
*CAP
1 *1408:A4 0.000413116
2 *1403:B1 3.11047e-05
3 *1402:X 0
4 *452:4 0.000444221
5 *1403:B1 *1402:B 1.58163e-05
6 *1403:B1 *1403:A1 6.05161e-06
7 *1408:A4 *1402:B 0
8 *1408:A4 *1402:C 0.000125908
9 *1408:A4 *1487:A 0.000313197
10 *1408:A4 *626:14 2.49484e-05
11 *1408:A4 *638:34 0.000148903
12 *1408:A4 *643:64 0.000363912
13 *1408:A4 *662:132 0
*RES
1 *1402:X *452:4 9.3 
2 *452:4 *1403:B1 9.83571 
3 *452:4 *1408:A4 28.9964 
*END

*D_NET *453 0.00166143
*CONN
*I *1404:B1 I *D sky130_fd_sc_hd__a21oi_2
*I *1405:C I *D sky130_fd_sc_hd__and3_2
*I *1403:X O *D sky130_fd_sc_hd__a31o_2
*CAP
1 *1404:B1 0
2 *1405:C 0.000167876
3 *1403:X 0.000281191
4 *453:12 0.000449067
5 *1405:C *1406:A 0
6 *1405:C *1408:B1 0.000122372
7 *453:12 *1383:A 0
8 *453:12 *1402:B 4.94362e-05
9 *453:12 *1408:B1 0
10 *453:12 *626:14 0
11 *453:12 *626:16 0
12 *453:12 *662:132 0.000320806
13 *1405:A *453:12 0.00027068
14 *436:43 *453:12 0
*RES
1 *1403:X *453:12 25.2643 
2 *453:12 *1405:C 21.4607 
3 *453:12 *1404:B1 9.3 
*END

*D_NET *454 0.000920022
*CONN
*I *1406:A I *D sky130_fd_sc_hd__or2_2
*I *1404:Y O *D sky130_fd_sc_hd__a21oi_2
*CAP
1 *1406:A 0.000265279
2 *1404:Y 0.000265279
3 *1306:A *1406:A 0
4 *1405:A *1406:A 0.000389464
5 *1405:C *1406:A 0
*RES
1 *1404:Y *1406:A 32.85 
*END

*D_NET *455 9.79068e-05
*CONN
*I *1406:B I *D sky130_fd_sc_hd__or2_2
*I *1405:X O *D sky130_fd_sc_hd__and3_2
*CAP
1 *1406:B 2.06557e-05
2 *1405:X 2.06557e-05
3 *1405:A *1406:B 5.65955e-05
*RES
1 *1405:X *1406:B 19.1357 
*END

*D_NET *456 0.000318821
*CONN
*I *1407:C I *D sky130_fd_sc_hd__nand3_4
*I *1406:X O *D sky130_fd_sc_hd__or2_2
*CAP
1 *1407:C 0.000140334
2 *1406:X 0.000140334
3 *1407:C *1408:B1 0
4 *1306:A *1407:C 0
5 *1405:A *1407:C 2.89016e-05
6 *1407:B *1407:C 9.25014e-06
*RES
1 *1406:X *1407:C 30.0821 
*END

*D_NET *457 0.00110142
*CONN
*I *1408:B1 I *D sky130_fd_sc_hd__o41a_4
*I *1407:Y O *D sky130_fd_sc_hd__nand3_4
*CAP
1 *1408:B1 0.000388017
2 *1407:Y 0.000388017
3 *1408:B1 *1487:A 0
4 *1405:B *1408:B1 0.000123594
5 *1405:C *1408:B1 0.000122372
6 *1407:B *1408:B1 0
7 *1407:C *1408:B1 0
8 *391:14 *1408:B1 0
9 *436:43 *1408:B1 7.94185e-05
10 *453:12 *1408:B1 0
*RES
1 *1407:Y *1408:B1 35.0107 
*END

*D_NET *458 0.00286923
*CONN
*I *1410:B I *D sky130_fd_sc_hd__and2_2
*I *1409:Y O *D sky130_fd_sc_hd__nand2_2
*CAP
1 *1410:B 0.000830724
2 *1409:Y 0.000830724
3 *1410:B *981:B 0
4 *1410:B *1013:A_N 0.000100165
5 *1410:B *1410:A 0.000423114
6 *1410:B *1490:A 2.33087e-05
7 *1410:B *496:29 0.000206893
8 *1410:B *551:10 0
9 *1145:B2 *1410:B 0.000103267
10 *1508:A *1410:B 0.000154762
11 *1512:A *1410:B 0.000196269
*RES
1 *1409:Y *1410:B 47.1 
*END

*D_NET *459 0.00434597
*CONN
*I *1413:A I *D sky130_fd_sc_hd__buf_8
*I *1568:A I *D sky130_fd_sc_hd__buf_2
*I *943:X O *D sky130_fd_sc_hd__and2_4
*CAP
1 *1413:A 0.000514747
2 *1568:A 0
3 *943:X 0.000755516
4 *459:10 0.00127026
5 *1413:A *930:A 0.000599462
6 *1413:A *944:A 0
7 *1413:A *960:A 0.000197879
8 *1413:A *960:B 0.00013926
9 *1413:A *1427:A 0.000157074
10 *1413:A *475:89 4.65529e-05
11 *1413:A *672:16 0
12 *459:10 *1069:A2 5.92267e-05
13 *459:10 *1575:A 0
14 *459:10 *507:14 0.000462095
15 *459:10 *672:16 0
16 *1450:A *459:10 0
17 *1451:A *459:10 0
18 *1459:A *459:10 8.86669e-05
19 *1462:A *459:10 5.52302e-05
*RES
1 *943:X *459:10 28.2464 
2 *459:10 *1568:A 13.8 
3 *459:10 *1413:A 27.7286 
*END

*D_NET *460 0.0128548
*CONN
*I *1551:A I *D sky130_fd_sc_hd__buf_2
*I *1066:C I *D sky130_fd_sc_hd__nand3b_4
*I *1158:A1 I *D sky130_fd_sc_hd__a21oi_4
*I *1550:A I *D sky130_fd_sc_hd__buf_2
*I *1201:B I *D sky130_fd_sc_hd__nand2_4
*I *1100:B I *D sky130_fd_sc_hd__nand2_2
*I *1103:A2 I *D sky130_fd_sc_hd__a21oi_4
*I *944:Y O *D sky130_fd_sc_hd__nand2_8
*CAP
1 *1551:A 4.9571e-05
2 *1066:C 0.000403602
3 *1158:A1 2.37855e-05
4 *1550:A 0.000271772
5 *1201:B 0
6 *1100:B 0
7 *1103:A2 0.000281373
8 *944:Y 0.000398317
9 *460:66 0.00117202
10 *460:51 0.0014466
11 *460:40 0.000507239
12 *460:14 0.00042496
13 *460:8 0.000668525
14 *1066:C *986:A1_N 0.000345224
15 *1066:C *1066:A_N 0.000459652
16 *1066:C *1072:B2 0.000172384
17 *1066:C *1514:A 0.000100165
18 *1066:C *506:39 2.24804e-05
19 *1066:C *549:61 1.4796e-05
20 *1103:A2 *943:A 0.000170957
21 *1103:A2 *943:B 1.33343e-05
22 *1103:A2 *1099:A1 0.00019958
23 *1103:A2 *1099:B1 4.88637e-05
24 *1103:A2 *1202:A 0.000146881
25 *1103:A2 *1500:A 0
26 *1103:A2 *667:16 0.000139907
27 *1550:A *1288:B2 0.000697439
28 *1550:A *510:27 0.000694307
29 *1551:A *549:61 6.96806e-05
30 *460:8 *667:38 6.13288e-05
31 *460:14 *943:A 0.000234177
32 *460:14 *1447:A 4.32258e-05
33 *460:14 *1586:A 9.41642e-05
34 *460:14 *507:14 0.000168074
35 *460:14 *652:16 0
36 *460:40 *943:A 0.000143173
37 *460:40 *652:16 0
38 *460:51 *943:A 9.65171e-05
39 *460:51 *556:20 1.04777e-05
40 *460:51 *556:26 4.77408e-05
41 *460:51 *652:16 0.000100387
42 *460:51 *671:64 8.95908e-05
43 *460:66 *964:D1 0.000239846
44 *460:66 *1066:A_N 0.000464403
45 *460:66 *1202:A 4.51148e-05
46 *460:66 *506:39 7.36469e-05
47 *460:66 *510:27 0.00111661
48 *1101:A3 *460:8 0.00015224
49 *1103:A1 *1103:A2 0.000144773
50 *1110:A1 *460:66 5.49995e-05
51 *1206:A3 *460:51 1.18494e-05
52 *11:17 *460:14 3.14048e-05
53 *198:10 *1066:C 0.000180207
54 *198:10 *460:66 0.000141935
55 *245:12 *460:66 9.58632e-05
56 *346:8 *1551:A 6.96806e-05
*RES
1 *944:Y *460:8 18.8536 
2 *460:8 *460:14 8.60714 
3 *460:14 *1103:A2 26.1571 
4 *460:14 *1100:B 9.3 
5 *460:8 *460:40 2.48214 
6 *460:40 *1201:B 13.8 
7 *460:40 *460:51 12.2143 
8 *460:51 *1550:A 18.3714 
9 *460:51 *460:66 20.3929 
10 *460:66 *1158:A1 9.72857 
11 *460:66 *1066:C 20.5321 
12 *1066:C *1551:A 19.9571 
*END

*D_NET *461 0.00842962
*CONN
*I *1066:A_N I *D sky130_fd_sc_hd__nand3b_4
*I *1499:A I *D sky130_fd_sc_hd__buf_4
*I *945:Y O *D sky130_fd_sc_hd__nor2_4
*CAP
1 *1066:A_N 0.00203246
2 *1499:A 0.00026854
3 *945:Y 0.000307257
4 *461:12 0.00260825
5 *1066:A_N *964:C1 0.000140166
6 *1066:A_N *964:D1 0.000231054
7 *1066:A_N *1072:B2 0.000100165
8 *1066:A_N *1202:A 7.36469e-05
9 *1066:A_N *1514:A 5.4959e-05
10 *1066:A_N *506:39 0.000170375
11 *1066:A_N *510:27 0.000226419
12 *1499:A *1206:A1 0
13 *1499:A *1206:A2 0.000247413
14 *1499:A *1287:A2 2.69483e-05
15 *1499:A *510:27 7.92005e-05
16 *461:12 *1199:B1 5.41794e-05
17 *461:12 *1422:A 7.89362e-05
18 *461:12 *1469:A 1.59373e-05
19 *461:12 *1470:A 2.72545e-05
20 *461:12 *1513:A 3.21325e-05
21 *461:12 *525:18 0.000114987
22 *461:12 *662:50 7.58841e-05
23 *461:12 *662:52 5.51649e-05
24 *461:12 *662:54 0.000168667
25 *1066:C *1066:A_N 0.000459652
26 *1101:A3 *461:12 7.6644e-05
27 *1110:A1 *1066:A_N 5.49995e-05
28 *1201:A *461:12 7.6644e-05
29 *1203:B1 *461:12 4.58402e-05
30 *1474:A *1066:A_N 4.11572e-05
31 *324:14 *461:12 2.02794e-05
32 *460:66 *1066:A_N 0.000464403
*RES
1 *945:Y *461:12 25.55 
2 *461:12 *1499:A 22.1571 
3 *461:12 *1066:A_N 40.9607 
*END

*D_NET *462 0.00178952
*CONN
*I *976:A2 I *D sky130_fd_sc_hd__a31oi_4
*I *948:A2 I *D sky130_fd_sc_hd__a22o_2
*I *946:Y O *D sky130_fd_sc_hd__nor2_4
*CAP
1 *976:A2 8.72026e-05
2 *948:A2 0.00032506
3 *946:Y 3.33646e-05
4 *462:8 0.000445627
5 *948:A2 *948:A1 0.00015206
6 *948:A2 *952:A 8.52844e-05
7 *948:A2 *952:B 0
8 *948:A2 *975:A3 0.000171375
9 *948:A2 *975:B1 2.39779e-05
10 *948:A2 *678:120 2.37761e-05
11 *976:A2 *629:106 4.58194e-05
12 *462:8 *975:A3 0.000128161
13 *271:26 *948:A2 0.000148196
14 *271:26 *462:8 0.000119618
*RES
1 *946:Y *462:8 15.4429 
2 *462:8 *948:A2 22.2286 
3 *462:8 *976:A2 15.1571 
*END

*D_NET *463 0.00148319
*CONN
*I *948:B1 I *D sky130_fd_sc_hd__a22o_2
*I *947:Y O *D sky130_fd_sc_hd__a21oi_2
*CAP
1 *948:B1 0.00055024
2 *947:Y 0.00055024
3 *948:B1 *948:A1 0
4 *948:B1 *948:B2 0.000101755
5 *948:B1 *629:87 0
6 *948:B1 *646:12 0.000198822
7 *948:B1 *678:47 1.99099e-05
8 *948:B1 *678:120 0
9 *1022:B *948:B1 6.22238e-05
*RES
1 *947:Y *948:B1 38.1 
*END

*D_NET *464 0.000420211
*CONN
*I *952:A I *D sky130_fd_sc_hd__xnor2_2
*I *948:X O *D sky130_fd_sc_hd__a22o_2
*CAP
1 *952:A 0.000167463
2 *948:X 0.000167463
3 *952:A *952:B 0
4 *952:A *1489:A 0
5 *948:A2 *952:A 8.52844e-05
*RES
1 *948:X *952:A 30.4929 
*END

*D_NET *465 0.00127625
*CONN
*I *954:D I *D sky130_fd_sc_hd__or4_2
*I *950:C1 I *D sky130_fd_sc_hd__a211o_2
*I *949:X O *D sky130_fd_sc_hd__and2_2
*CAP
1 *954:D 1.35825e-05
2 *950:C1 0.000244604
3 *949:X 0.000126268
4 *465:12 0.000384454
5 *950:C1 *954:C 0.000136362
6 *950:C1 *647:62 0
7 *954:D *954:B 1.92905e-05
8 *954:D *981:C 4.27935e-05
9 *465:12 *954:B 5.06983e-05
10 *465:12 *981:C 9.90367e-05
11 *465:12 *999:C 0
12 *465:12 *647:62 8.07951e-05
13 *465:12 *647:77 7.83659e-05
*RES
1 *949:X *465:12 21.6036 
2 *465:12 *950:C1 23.2821 
3 *465:12 *954:D 9.83571 
*END

*D_NET *466 0.00058054
*CONN
*I *951:B1 I *D sky130_fd_sc_hd__o31a_2
*I *950:X O *D sky130_fd_sc_hd__a211o_2
*CAP
1 *951:B1 0.000118411
2 *950:X 0.000118411
3 *951:B1 *1023:A3 0.000125542
4 *951:B1 *546:60 9.41642e-05
5 *292:61 *951:B1 0.000124012
*RES
1 *950:X *951:B1 30.1893 
*END

*D_NET *467 0.00366062
*CONN
*I *976:A1 I *D sky130_fd_sc_hd__a31oi_4
*I *952:B I *D sky130_fd_sc_hd__xnor2_2
*I *951:X O *D sky130_fd_sc_hd__o31a_2
*CAP
1 *976:A1 0
2 *952:B 0.000259119
3 *951:X 0.000972873
4 *467:10 0.00123199
5 *952:B *975:B1 1.00375e-05
6 *952:B *976:B1 0.000128154
7 *467:10 *955:C 0
8 *467:10 *957:A2 6.14605e-05
9 *467:10 *958:A1 1.70057e-05
10 *467:10 *958:A2 0.000151973
11 *467:10 *965:C1 1.8584e-05
12 *467:10 *966:A2 4.60215e-05
13 *467:10 *970:A3 1.94945e-05
14 *467:10 *972:A1 7.36469e-05
15 *467:10 *975:B1 5.16489e-05
16 *467:10 *470:12 0.000100248
17 *467:10 *470:42 1.94275e-05
18 *467:10 *484:10 5.83768e-05
19 *467:10 *484:23 1.73698e-05
20 *467:10 *632:87 7.40115e-05
21 *948:A2 *952:B 0
22 *952:A *952:B 0
23 *965:A3 *467:10 0.000349179
*RES
1 *951:X *467:10 31.0679 
2 *467:10 *952:B 18.7821 
3 *467:10 *976:A1 13.8 
*END

*D_NET *468 0.0027445
*CONN
*I *981:C I *D sky130_fd_sc_hd__nand3b_2
*I *953:X O *D sky130_fd_sc_hd__o2111a_2
*CAP
1 *981:C 0.000940137
2 *953:X 0.000940137
3 *981:C *1566:A 0.000268682
4 *981:C *469:16 7.70425e-05
5 *981:C *488:10 3.18676e-05
6 *981:C *492:8 3.55443e-05
7 *981:C *678:86 0.00030926
8 *954:D *981:C 4.27935e-05
9 *465:12 *981:C 9.90367e-05
*RES
1 *953:X *981:C 35.1714 
*END

*D_NET *469 0.00568548
*CONN
*I *1015:A I *D sky130_fd_sc_hd__or3_4
*I *1016:A1 I *D sky130_fd_sc_hd__o31a_2
*I *1014:A1 I *D sky130_fd_sc_hd__o21ai_2
*I *1409:A I *D sky130_fd_sc_hd__nand2_2
*I *954:X O *D sky130_fd_sc_hd__or4_2
*CAP
1 *1015:A 0.000127558
2 *1016:A1 9.9184e-05
3 *1014:A1 0.00045133
4 *1409:A 2.23854e-05
5 *954:X 0.00128663
6 *469:41 0.000566097
7 *469:16 0.00142099
8 *1014:A1 *1409:B 5.52238e-05
9 *1015:A *1015:B 7.49997e-05
10 *1016:A1 *520:19 6.65398e-05
11 *1016:A1 *524:6 2.89114e-05
12 *1016:A1 *524:8 6.05161e-06
13 *469:16 *973:B 0.000487721
14 *469:16 *1008:A2 0
15 *469:16 *1010:B1 9.7659e-05
16 *469:16 *1566:A 0.000227322
17 *469:16 *678:86 7.49499e-05
18 *469:41 *520:19 2.99773e-05
19 p[5] *469:41 1.76039e-05
20 *981:C *469:16 7.70425e-05
21 *1007:B *469:16 0
22 *1008:C1 *469:16 0.000118784
23 *1016:B1 *469:41 2.89016e-05
24 *1051:A1 *1015:A 3.48705e-05
25 *1051:A1 *469:41 0.000176234
26 *1512:A *1016:A1 5.52238e-05
27 *54:10 *469:16 5.33005e-05
*RES
1 *954:X *469:16 39.55 
2 *469:16 *1409:A 9.72857 
3 *469:16 *1014:A1 11.0679 
4 *1014:A1 *469:41 19.55 
5 *469:41 *1016:A1 15.9786 
6 *469:41 *1015:A 15.8893 
*END

*D_NET *470 0.00366688
*CONN
*I *970:A2 I *D sky130_fd_sc_hd__o311a_2
*I *957:B1 I *D sky130_fd_sc_hd__a21oi_2
*I *958:A1 I *D sky130_fd_sc_hd__o21ai_2
*I *966:A1 I *D sky130_fd_sc_hd__o21a_2
*I *965:C1 I *D sky130_fd_sc_hd__a311o_2
*I *955:Y O *D sky130_fd_sc_hd__nor3_2
*CAP
1 *970:A2 3.14324e-05
2 *957:B1 2.91677e-05
3 *958:A1 7.85708e-05
4 *966:A1 0.000266435
5 *965:C1 0.000284014
6 *955:Y 0.000155897
7 *470:42 0.000221065
8 *470:38 0.000200423
9 *470:12 0.000636915
10 *470:8 0.000298027
11 *957:B1 *971:A1 1.84865e-05
12 *958:A1 *958:A2 6.56077e-05
13 *958:A1 *473:12 4.0698e-05
14 *965:C1 *965:B1 5.33005e-05
15 *965:C1 *972:A1 9.7497e-05
16 *966:A1 *966:B1 4.4545e-05
17 *966:A1 *971:A1 2.98475e-05
18 *966:A1 *1008:A1 9.84673e-05
19 *970:A2 *970:C1 4.08637e-05
20 *470:8 *970:A1 2.11048e-05
21 *470:8 *970:A3 1.21258e-05
22 *470:8 *970:C1 5.50052e-05
23 *470:8 *632:83 1.29901e-05
24 *470:12 *971:A1 6.93626e-06
25 *470:12 *484:23 0.000172884
26 *470:38 *970:C1 8.26339e-05
27 *470:42 *971:A1 0.000166973
28 *470:42 *473:12 2.3942e-05
29 *470:42 *484:10 0.000121897
30 *470:42 *484:23 5.51649e-05
31 *965:A3 *965:C1 8.86974e-05
32 *467:10 *958:A1 1.70057e-05
33 *467:10 *965:C1 1.8584e-05
34 *467:10 *470:12 0.000100248
35 *467:10 *470:42 1.94275e-05
*RES
1 *955:Y *470:8 11.9071 
2 *470:8 *470:12 7.05357 
3 *470:12 *965:C1 18.8714 
4 *470:12 *966:A1 18.05 
5 *470:8 *470:38 0.946429 
6 *470:38 *470:42 7.66071 
7 *470:42 *958:A1 16.05 
8 *470:42 *957:B1 14.3357 
9 *470:38 *970:A2 9.83571 
*END

*D_NET *471 0.00194423
*CONN
*I *958:A2 I *D sky130_fd_sc_hd__o21ai_2
*I *956:X O *D sky130_fd_sc_hd__and3_2
*CAP
1 *958:A2 0.000601857
2 *956:X 0.000601857
3 *958:A2 *956:B 9.84673e-05
4 *958:A2 *957:A1 8.23573e-05
5 *958:A2 *484:10 3.06878e-06
6 *958:A2 *678:62 0.000339045
7 *958:A1 *958:A2 6.56077e-05
8 *467:10 *958:A2 0.000151973
*RES
1 *956:X *958:A2 36.6536 
*END

*D_NET *472 0.00101523
*CONN
*I *971:A1 I *D sky130_fd_sc_hd__a21o_2
*I *957:Y O *D sky130_fd_sc_hd__a21oi_2
*CAP
1 *971:A1 0.000266361
2 *957:Y 0.000266361
3 *971:A1 *971:B1 6.13903e-05
4 *971:A1 *473:12 7.27183e-05
5 *971:A1 *484:23 8.18438e-05
6 *971:A1 *485:8 4.43139e-05
7 *957:B1 *971:A1 1.84865e-05
8 *966:A1 *971:A1 2.98475e-05
9 *470:12 *971:A1 6.93626e-06
10 *470:42 *971:A1 0.000166973
*RES
1 *957:Y *971:A1 34.0286 
*END

*D_NET *473 0.00185022
*CONN
*I *972:A2 I *D sky130_fd_sc_hd__a21oi_4
*I *970:C1 I *D sky130_fd_sc_hd__o311a_2
*I *958:Y O *D sky130_fd_sc_hd__o21ai_2
*CAP
1 *972:A2 0.000256523
2 *970:C1 0.000129742
3 *958:Y 0.000292949
4 *473:12 0.000679214
5 *970:C1 *970:A1 2.69219e-05
6 *970:C1 *970:A3 7.31752e-05
7 *972:A2 *491:10 5.85455e-05
8 *473:12 *958:B1 1.72894e-05
9 *958:A1 *473:12 4.0698e-05
10 *970:A2 *970:C1 4.08637e-05
11 *971:A1 *473:12 7.27183e-05
12 *470:8 *970:C1 5.50052e-05
13 *470:38 *970:C1 8.26339e-05
14 *470:42 *473:12 2.3942e-05
*RES
1 *958:Y *473:12 23.6214 
2 *473:12 *970:C1 12.3179 
3 *473:12 *972:A2 23.1393 
*END

*D_NET *474 0.00174654
*CONN
*I *1296:A1 I *D sky130_fd_sc_hd__o211ai_2
*I *963:A I *D sky130_fd_sc_hd__nor2_2
*I *959:Y O *D sky130_fd_sc_hd__nor2_2
*CAP
1 *1296:A1 0.000110616
2 *963:A 0.000107091
3 *959:Y 0.000142221
4 *474:8 0.000359928
5 *963:A *959:B 0
6 *963:A *1296:A2 8.97396e-05
7 *963:A *476:10 5.80706e-06
8 *963:A *478:10 7.15687e-05
9 *963:A *525:95 7.80714e-06
10 *1296:A1 *1249:B 9.60939e-05
11 *1296:A1 *1294:A3 9.43546e-06
12 *1296:A1 *1294:C1 5.45512e-05
13 *474:8 *565:22 0.000209595
14 *1293:A1 *963:A 3.34295e-05
15 *1293:A1 *1296:A1 9.22948e-05
16 *1293:A2 *963:A 3.17148e-05
17 *1293:A2 *1296:A1 0.000196269
18 *1293:A2 *474:8 1.24368e-05
19 *1295:A1 *1296:A1 3.51442e-05
20 *334:21 *1296:A1 8.07951e-05
*RES
1 *959:Y *474:8 16.3893 
2 *474:8 *963:A 16.6571 
3 *474:8 *1296:A1 17.3 
*END

*D_NET *475 0.0131385
*CONN
*I *964:B1 I *D sky130_fd_sc_hd__o2111a_2
*I *1330:A1 I *D sky130_fd_sc_hd__a21o_2
*I *1369:A1 I *D sky130_fd_sc_hd__a31o_2
*I *1329:A1 I *D sky130_fd_sc_hd__a21oi_2
*I *1331:A I *D sky130_fd_sc_hd__and3_2
*I *960:X O *D sky130_fd_sc_hd__or2_2
*CAP
1 *964:B1 0
2 *1330:A1 0.000228748
3 *1369:A1 0
4 *1329:A1 0.000135522
5 *1331:A 0
6 *960:X 0.00416112
7 *475:89 0.00224817
8 *475:50 0.000243479
9 *475:30 0.000297983
10 *475:22 0.00209014
11 *1329:A1 *662:14 0.000150625
12 *1330:A1 *1434:A 0.000270236
13 *1330:A1 *540:43 4.49293e-05
14 *475:22 *930:A 0
15 *475:22 *1327:A3 0
16 *475:22 *1427:A 0.000172388
17 *475:22 *529:22 3.54439e-05
18 *475:30 *1434:A 4.32957e-05
19 *475:50 *1434:A 4.32309e-05
20 *475:89 *960:B 3.02302e-05
21 *475:89 *1203:A2 1.59373e-05
22 *475:89 *1204:A1 1.4487e-05
23 *475:89 *510:39 1.90936e-05
24 *475:89 *629:6 1.28239e-05
25 *475:89 *629:19 4.20872e-05
26 *475:89 *639:16 4.5585e-05
27 *475:89 *639:34 0.000467767
28 *475:89 *640:34 5.48374e-05
29 *1159:A1 *475:89 6.30979e-05
30 *1203:A1 *475:89 0.000772936
31 *1204:A2 *475:89 3.08382e-06
32 *1330:A2 *1330:A1 2.23055e-05
33 *1330:B1 *1330:A1 1.02936e-05
34 *1331:B *475:30 9.47712e-05
35 *1331:C *475:30 0.000162625
36 *1369:B1 *475:30 3.97677e-05
37 *1413:A *475:89 4.65529e-05
38 *161:10 *475:89 0.000141036
39 *241:12 *475:89 8.43386e-05
40 *342:36 *475:30 4.53834e-05
41 *342:36 *475:50 3.54188e-05
42 *342:45 *1330:A1 6.81083e-05
43 *342:45 *475:50 1.02504e-05
44 *342:60 *1330:A1 0.000232388
45 *375:16 *475:30 0.000129515
46 *377:10 *1330:A1 8.50152e-05
47 *380:10 *1330:A1 3.57844e-05
48 *383:24 *1330:A1 4.98055e-06
49 *419:14 *475:30 0.000182694
*RES
1 *960:X *475:22 33.5423 
2 *475:22 *475:30 10.0446 
3 *475:30 *1331:A 9.3 
4 *475:30 *1329:A1 20.7821 
5 *475:22 *475:50 0.580357 
6 *475:50 *1369:A1 13.8 
7 *475:50 *1330:A1 19.7286 
8 *960:X *475:89 48.5857 
9 *475:89 *964:B1 9.3 
*END

*D_NET *476 0.00281148
*CONN
*I *1296:A2 I *D sky130_fd_sc_hd__o211ai_2
*I *1287:B1 I *D sky130_fd_sc_hd__a31o_2
*I *963:B I *D sky130_fd_sc_hd__nor2_2
*I *961:X O *D sky130_fd_sc_hd__and2_2
*CAP
1 *1296:A2 0.00026955
2 *1287:B1 0.000119823
3 *963:B 0
4 *961:X 0.000291752
5 *476:12 0.000119823
6 *476:10 0.000561301
7 *1287:B1 *959:B 7.72745e-05
8 *1287:B1 *1287:A1 0.000213551
9 *1287:B1 *1436:A 9.99853e-05
10 *1287:B1 *525:95 0.000281949
11 *1287:B1 *657:26 2.59355e-05
12 *1287:B1 *662:22 6.88469e-05
13 *1296:A2 *1249:B 3.14078e-05
14 *1296:A2 *1292:A3 2.68921e-05
15 *1296:A2 *1293:B1 0
16 *1296:A2 *1294:A1 0
17 *1296:A2 *1294:A3 2.565e-05
18 *1296:A2 *1294:C1 6.17156e-05
19 *1296:A2 *1467:A 0
20 *1296:A2 *525:85 0
21 *476:10 *930:A 2.56694e-05
22 *476:10 *959:B 0
23 *476:10 *1560:A 3.48664e-05
24 *476:10 *525:85 0
25 *476:10 *578:10 8.6608e-06
26 *963:A *1296:A2 8.97396e-05
27 *963:A *476:10 5.80706e-06
28 *1292:C1 *1296:A2 2.09897e-05
29 *1293:A2 *1296:A2 0.000150625
30 *1296:C1 *1296:A2 0.000199665
*RES
1 *961:X *476:10 17.925 
2 *476:10 *476:12 4.5 
3 *476:12 *963:B 9.3 
4 *476:12 *1287:B1 14.3714 
5 *476:10 *1296:A2 20.3893 
*END

*D_NET *477 0.000849266
*CONN
*I *964:C1 I *D sky130_fd_sc_hd__o2111a_2
*I *962:Y O *D sky130_fd_sc_hd__nand2_2
*CAP
1 *964:C1 0.000222933
2 *962:Y 0.000222933
3 *964:C1 *640:34 0.000101777
4 *964:C1 *640:42 8.1382e-05
5 *1066:A_N *964:C1 0.000140166
6 *1159:A1 *964:C1 8.00741e-05
*RES
1 *962:Y *964:C1 32.4214 
*END

*D_NET *478 0.00448019
*CONN
*I *1297:B I *D sky130_fd_sc_hd__nand3_4
*I *1249:B I *D sky130_fd_sc_hd__nand2_2
*I *963:Y O *D sky130_fd_sc_hd__nor2_2
*CAP
1 *1297:B 3.94959e-05
2 *1249:B 0.000979442
3 *963:Y 0.000252423
4 *478:10 0.00127136
5 *1249:B *1294:A1 3.69047e-06
6 *1249:B *1294:A3 1.40034e-05
7 *1249:B *1294:C1 2.14658e-05
8 *1249:B *556:18 4.87854e-05
9 *1249:B *631:76 1.74795e-05
10 *1297:B *1332:A1 0.000117189
11 *478:10 *1332:A1 0.00026467
12 *478:10 *525:95 0.00022863
13 *963:A *478:10 7.15687e-05
14 *1292:A2 *1249:B 1.10868e-05
15 *1293:A1 *478:10 0.00012401
16 *1295:A1 *1297:B 0.000125724
17 *1295:A1 *478:10 4.80729e-05
18 *1296:A1 *1249:B 9.60939e-05
19 *1296:A2 *1249:B 3.14078e-05
20 *1296:B1 *1249:B 3.65794e-05
21 *1296:C1 *1249:B 1.98556e-05
22 *334:21 *478:10 6.91157e-05
23 *341:10 *1249:B 5.33005e-05
24 *357:16 *1249:B 0.000304311
25 *357:39 *1249:B 0.000230432
*RES
1 *963:Y *478:10 19.7286 
2 *478:10 *1249:B 26.5679 
3 *478:10 *1297:B 15.4429 
*END

*D_NET *479 0.00922062
*CONN
*I *970:A3 I *D sky130_fd_sc_hd__o311a_2
*I *966:A2 I *D sky130_fd_sc_hd__o21a_2
*I *964:X O *D sky130_fd_sc_hd__o2111a_2
*CAP
1 *970:A3 0.000183515
2 *966:A2 0.000254811
3 *964:X 0.00265231
4 *479:12 0.00309064
5 *966:A2 *955:C 8.22793e-06
6 *966:A2 *1008:A1 1.90223e-05
7 *966:A2 *678:73 6.78438e-05
8 *966:A2 *678:86 5.77037e-05
9 *970:A3 *970:A1 0.000198935
10 *479:12 *510:39 0.000845905
11 *479:12 *629:70 0.00166412
12 *970:C1 *970:A3 7.31752e-05
13 *1159:A1 *479:12 6.15739e-06
14 *378:56 *479:12 2.06112e-05
15 *467:10 *966:A2 4.60215e-05
16 *467:10 *970:A3 1.94945e-05
17 *470:8 *970:A3 1.21258e-05
*RES
1 *964:X *479:12 23.6595 
2 *479:12 *966:A2 22.3439 
3 *479:12 *970:A3 19.8743 
*END

*D_NET *480 0.000885965
*CONN
*I *972:A1 I *D sky130_fd_sc_hd__a21oi_4
*I *965:X O *D sky130_fd_sc_hd__a311o_2
*CAP
1 *972:A1 0.000243732
2 *965:X 0.000243732
3 *972:A1 *971:B1 0.000127806
4 *972:A1 *484:23 5.50052e-05
5 *972:A1 *487:10 4.4545e-05
6 *965:C1 *972:A1 9.7497e-05
7 *467:10 *972:A1 7.36469e-05
*RES
1 *965:X *972:A1 24.0821 
*END

*D_NET *481 0.00130571
*CONN
*I *1008:A2 I *D sky130_fd_sc_hd__o211ai_4
*I *966:X O *D sky130_fd_sc_hd__o21a_2
*CAP
1 *1008:A2 0.000304852
2 *966:X 0.000304852
3 *1008:A2 *971:A2 5.52302e-05
4 *1008:A2 *973:A 0
5 *1008:A2 *979:A2 4.79842e-05
6 *1008:A2 *1008:A1 0.00058866
7 *1008:A2 *485:8 0
8 *1008:B1 *1008:A2 4.1331e-06
9 *66:10 *1008:A2 0
10 *469:16 *1008:A2 0
*RES
1 *966:X *1008:A2 35.5464 
*END

*D_NET *482 0.000701472
*CONN
*I *969:B1 I *D sky130_fd_sc_hd__a211o_2
*I *967:Y O *D sky130_fd_sc_hd__a21oi_2
*CAP
1 *969:B1 0.00018116
2 *967:Y 0.00018116
3 *969:B1 *947:A1 1.39841e-05
4 *969:B1 *1020:B 4.58194e-05
5 *969:B1 *549:63 8.8623e-05
6 *969:B1 *634:49 0.000171447
7 *969:B1 *672:140 1.92789e-05
*RES
1 *967:Y *969:B1 31.6179 
*END

*D_NET *483 0.000120121
*CONN
*I *969:C1 I *D sky130_fd_sc_hd__a211o_2
*I *968:X O *D sky130_fd_sc_hd__and3_2
*CAP
1 *969:C1 2.04426e-05
2 *968:X 2.04426e-05
3 *969:C1 *956:C 2.59355e-05
4 *969:C1 *589:79 5.33005e-05
*RES
1 *968:X *969:C1 19.1357 
*END

*D_NET *484 0.00366259
*CONN
*I *971:B1 I *D sky130_fd_sc_hd__a21o_2
*I *972:B1 I *D sky130_fd_sc_hd__a21oi_4
*I *970:B1 I *D sky130_fd_sc_hd__o311a_2
*I *969:X O *D sky130_fd_sc_hd__a211o_2
*CAP
1 *971:B1 0.000118484
2 *972:B1 0
3 *970:B1 0
4 *969:X 0.000883448
5 *484:23 0.000224022
6 *484:10 0.000988986
7 *971:B1 *485:8 0.000170625
8 *971:B1 *487:10 4.97967e-05
9 *484:10 *956:A 9.84729e-05
10 *484:10 *956:B 4.44061e-05
11 *484:10 *956:C 5.92753e-05
12 *484:10 *957:A1 0.000137276
13 *484:10 *589:79 5.33005e-05
14 *484:10 *678:62 7.96941e-05
15 *958:A2 *484:10 3.06878e-06
16 *971:A1 *971:B1 6.13903e-05
17 *971:A1 *484:23 8.18438e-05
18 *972:A1 *971:B1 0.000127806
19 *972:A1 *484:23 5.50052e-05
20 *467:10 *484:10 5.83768e-05
21 *467:10 *484:23 1.73698e-05
22 *470:12 *484:23 0.000172884
23 *470:42 *484:10 0.000121897
24 *470:42 *484:23 5.51649e-05
*RES
1 *969:X *484:10 25.8357 
2 *484:10 *970:B1 13.8 
3 *484:10 *484:23 7.89286 
4 *484:23 *972:B1 9.3 
5 *484:23 *971:B1 21.9071 
*END

*D_NET *485 0.00143438
*CONN
*I *978:A I *D sky130_fd_sc_hd__nor3_2
*I *973:A I *D sky130_fd_sc_hd__nor2_4
*I *979:A1 I *D sky130_fd_sc_hd__o21ai_2
*I *970:X O *D sky130_fd_sc_hd__o311a_2
*CAP
1 *978:A 5.41727e-05
2 *973:A 0.000146657
3 *979:A1 5.41727e-05
4 *970:X 0.000332266
5 *485:8 0.000478924
6 *973:A *973:B 0
7 *973:A *979:A2 0
8 *973:A *487:10 0
9 *973:A *487:12 0
10 *978:A *979:B1 5.52302e-05
11 *978:A *494:6 9.80173e-05
12 *485:8 *1008:A1 0
13 *485:8 *487:10 0
14 *971:A1 *485:8 4.43139e-05
15 *971:B1 *485:8 0.000170625
16 *1008:A2 *973:A 0
17 *1008:A2 *485:8 0
*RES
1 *970:X *485:8 20.3 
2 *485:8 *979:A1 13.8 
3 *485:8 *973:A 16.3536 
4 *979:A1 *978:A 19.9571 
*END

*D_NET *486 0.00192518
*CONN
*I *1008:A1 I *D sky130_fd_sc_hd__o211ai_4
*I *971:X O *D sky130_fd_sc_hd__a21o_2
*CAP
1 *1008:A1 0.000585353
2 *971:X 0.000585353
3 *1008:A1 *966:B1 6.05161e-06
4 *1008:A1 *971:A2 4.22698e-05
5 *1008:A1 *678:86 0
6 *966:A1 *1008:A1 9.84673e-05
7 *966:A2 *1008:A1 1.90223e-05
8 *1008:A2 *1008:A1 0.00058866
9 *66:10 *1008:A1 0
10 *485:8 *1008:A1 0
*RES
1 *971:X *1008:A1 40.0821 
*END

*D_NET *487 0.00459537
*CONN
*I *978:B I *D sky130_fd_sc_hd__nor3_2
*I *1567:A I *D sky130_fd_sc_hd__buf_2
*I *1007:C I *D sky130_fd_sc_hd__nand3_4
*I *1566:A I *D sky130_fd_sc_hd__buf_2
*I *972:Y O *D sky130_fd_sc_hd__a21oi_4
*CAP
1 *978:B 0.000107201
2 *1567:A 0.000199274
3 *1007:C 0
4 *1566:A 0.000135563
5 *972:Y 0.000488338
6 *487:29 0.000332083
7 *487:12 0.000371626
8 *487:10 0.000698793
9 *978:B *979:B1 9.60939e-05
10 *978:B *491:10 2.04825e-05
11 *978:B *494:6 9.80173e-05
12 *1567:A *974:A 0.000385717
13 *1567:A *551:26 4.58194e-05
14 *487:10 *491:10 0.000116187
15 *487:12 *973:B 3.34295e-05
16 *487:12 *1012:B 4.97121e-06
17 *487:12 *488:10 4.46186e-06
18 *487:12 *491:10 5.32334e-05
19 *487:29 *973:B 0.000360575
20 *487:29 *974:A 7.33494e-06
21 *487:29 *488:10 8.16036e-05
22 *487:29 *551:26 2.59355e-05
23 *971:B1 *487:10 4.97967e-05
24 *972:A1 *487:10 4.4545e-05
25 *973:A *487:10 0
26 *973:A *487:12 0
27 *981:C *1566:A 0.000268682
28 *1145:C1 *1567:A 0.000137157
29 *52:10 *487:29 0.000201127
30 *469:16 *1566:A 0.000227322
31 *485:8 *487:10 0
*RES
1 *972:Y *487:10 21.7375 
2 *487:10 *487:12 2.40179 
3 *487:12 *1566:A 18.8714 
4 *487:12 *487:29 9.71429 
5 *487:29 *1007:C 9.3 
6 *487:29 *1567:A 24.2286 
7 *487:10 *978:B 15.9696 
*END

*D_NET *488 0.00292846
*CONN
*I *974:A I *D sky130_fd_sc_hd__inv_2
*I *1012:C I *D sky130_fd_sc_hd__nand4_4
*I *973:Y O *D sky130_fd_sc_hd__nor2_4
*CAP
1 *974:A 0.000265192
2 *1012:C 0.000253745
3 *973:Y 7.57058e-05
4 *488:10 0.000594642
5 *974:A *973:B 1.98839e-05
6 *974:A *1011:A1_N 9.41642e-05
7 *974:A *1011:A2_N 0
8 *974:A *1012:B 3.34366e-05
9 *1012:C *1012:B 0.000184745
10 *488:10 *1012:B 0.00015134
11 *981:C *488:10 3.18676e-05
12 *1012:A *1012:C 6.26078e-05
13 *1145:C1 *974:A 0
14 *1567:A *974:A 0.000385717
15 *1583:A *974:A 9.41642e-05
16 *52:10 *974:A 0.000414769
17 *52:19 *974:A 0.000173076
18 *487:12 *488:10 4.46186e-06
19 *487:29 *974:A 7.33494e-06
20 *487:29 *488:10 8.16036e-05
*RES
1 *973:Y *488:10 16.2821 
2 *488:10 *1012:C 18.3536 
3 *488:10 *974:A 22.8714 
*END

*D_NET *489 0.00172897
*CONN
*I *1011:A1_N I *D sky130_fd_sc_hd__a2bb2oi_4
*I *974:Y O *D sky130_fd_sc_hd__inv_2
*CAP
1 *1011:A1_N 0.000302801
2 *974:Y 0.000302801
3 *1011:A1_N *973:B 0.000221634
4 *1011:A1_N *551:10 5.83233e-05
5 *1011:A1_N *551:114 0.000173812
6 *1011:A1_N *551:127 0.00015134
7 *1011:A1_N *681:10 2.32517e-05
8 *974:A *1011:A1_N 9.41642e-05
9 *1012:A *1011:A1_N 3.51442e-05
10 *1583:A *1011:A1_N 0.000111501
11 *53:46 *1011:A1_N 8.89385e-05
12 *54:10 *1011:A1_N 0.000165262
*RES
1 *974:Y *1011:A1_N 36.5107 
*END

*D_NET *490 0.00056094
*CONN
*I *976:B1 I *D sky130_fd_sc_hd__a31oi_4
*I *975:X O *D sky130_fd_sc_hd__o31a_2
*CAP
1 *976:B1 0.000196193
2 *975:X 0.000196193
3 *976:B1 *975:B1 4.04012e-05
4 *952:B *976:B1 0.000128154
*RES
1 *975:X *976:B1 31.4214 
*END

*D_NET *491 0.00316639
*CONN
*I *1012:B I *D sky130_fd_sc_hd__nand4_4
*I *977:A I *D sky130_fd_sc_hd__inv_2
*I *976:Y O *D sky130_fd_sc_hd__a31oi_4
*CAP
1 *1012:B 0.000153736
2 *977:A 0
3 *976:Y 0.0010176
4 *491:10 0.00117133
5 *1012:B *1011:A2_N 0
6 *1012:B *492:14 3.42457e-05
7 *491:10 *492:14 5.94923e-05
8 *972:A2 *491:10 5.85455e-05
9 *974:A *1012:B 3.34366e-05
10 *978:B *491:10 2.04825e-05
11 *1012:A *1012:B 4.98938e-05
12 *1012:C *1012:B 0.000184745
13 *1145:C1 *1012:B 5.71472e-05
14 *487:10 *491:10 0.000116187
15 *487:12 *1012:B 4.97121e-06
16 *487:12 *491:10 5.32334e-05
17 *488:10 *1012:B 0.00015134
*RES
1 *976:Y *491:10 33.7286 
2 *491:10 *977:A 13.8 
3 *491:10 *1012:B 18.55 
*END

*D_NET *492 0.00200298
*CONN
*I *1011:A2_N I *D sky130_fd_sc_hd__a2bb2oi_4
*I *979:B1 I *D sky130_fd_sc_hd__o21ai_2
*I *978:C I *D sky130_fd_sc_hd__nor3_2
*I *977:Y O *D sky130_fd_sc_hd__inv_2
*CAP
1 *1011:A2_N 0.000159847
2 *979:B1 0.000160042
3 *978:C 0
4 *977:Y 0.000112191
5 *492:14 0.000306307
6 *492:8 0.000418304
7 *979:B1 *494:6 6.58597e-05
8 *1011:A2_N *551:10 0.000164008
9 *492:14 *981:A_N 0.000127446
10 *492:14 *981:B 0
11 *492:14 *551:10 3.28534e-05
12 *974:A *1011:A2_N 0
13 *978:A *979:B1 5.52302e-05
14 *978:B *979:B1 9.60939e-05
15 *981:C *492:8 3.55443e-05
16 *1012:B *1011:A2_N 0
17 *1012:B *492:14 3.42457e-05
18 *1145:C1 *1011:A2_N 0.000175519
19 *491:10 *492:14 5.94923e-05
*RES
1 *977:Y *492:8 15.1571 
2 *492:8 *492:14 8.19643 
3 *492:14 *978:C 9.3 
4 *492:14 *979:B1 12.3179 
5 *492:8 *1011:A2_N 17.8714 
*END

*D_NET *493 0.000608854
*CONN
*I *980:A_N I *D sky130_fd_sc_hd__nand2b_2
*I *981:A_N I *D sky130_fd_sc_hd__nand3b_2
*I *978:Y O *D sky130_fd_sc_hd__nor3_2
*CAP
1 *980:A_N 3.66104e-05
2 *981:A_N 4.46813e-05
3 *978:Y 8.12917e-05
4 *980:A_N *980:B 5.52302e-05
5 *980:A_N *494:6 9.90367e-05
6 *980:A_N *551:10 9.80173e-05
7 *981:A_N *551:10 6.65398e-05
8 *492:14 *981:A_N 0.000127446
*RES
1 *978:Y *981:A_N 29.2429 
2 *978:Y *980:A_N 19.9571 
*END

*D_NET *494 0.00144202
*CONN
*I *980:B I *D sky130_fd_sc_hd__nand2b_2
*I *981:B I *D sky130_fd_sc_hd__nand3b_2
*I *979:Y O *D sky130_fd_sc_hd__o21ai_2
*CAP
1 *980:B 7.42348e-05
2 *981:B 0.000116596
3 *979:Y 0.000210405
4 *494:6 0.000401235
5 *980:B *551:10 7.03295e-05
6 *981:B *551:10 0.000153054
7 *978:A *494:6 9.80173e-05
8 *978:B *494:6 9.80173e-05
9 *979:B1 *494:6 6.58597e-05
10 *980:A_N *980:B 5.52302e-05
11 *980:A_N *494:6 9.90367e-05
12 *1410:B *981:B 0
13 *492:14 *981:B 0
*RES
1 *979:Y *494:6 13.9429 
2 *494:6 *981:B 20.8536 
3 *494:6 *980:B 11.0679 
*END

*D_NET *495 0.00332782
*CONN
*I *1014:A2 I *D sky130_fd_sc_hd__o21ai_2
*I *1409:B I *D sky130_fd_sc_hd__nand2_2
*I *1015:B I *D sky130_fd_sc_hd__or3_4
*I *1016:A2 I *D sky130_fd_sc_hd__o31a_2
*I *980:Y O *D sky130_fd_sc_hd__nand2b_2
*CAP
1 *1014:A2 0
2 *1409:B 8.23804e-05
3 *1015:B 0.000217076
4 *1016:A2 0.000113257
5 *980:Y 0.000276583
6 *495:38 0.000176986
7 *495:23 0.000370359
8 *495:10 0.000448517
9 *1015:B *1015:C 0.00026353
10 *1016:A2 *524:8 5.33005e-05
11 *1016:A2 *524:14 0.000140933
12 *495:10 *1410:A 9.0143e-05
13 *495:10 *496:29 0.000120645
14 *495:10 *524:14 1.76039e-05
15 *495:10 *551:10 7.32272e-05
16 *495:23 *496:29 8.2958e-06
17 *495:23 *524:14 9.0143e-05
18 *495:38 *1050:A2 0.000113877
19 *495:38 *496:29 0.00011061
20 *495:38 *524:14 1.52978e-05
21 p[3] *495:10 2.22043e-05
22 *1011:B2 *1015:B 5.52302e-05
23 *1012:D *495:23 0.00015234
24 *1012:D *495:38 2.31791e-05
25 *1014:A1 *1409:B 5.52238e-05
26 *1014:B1 *495:10 0
27 *1015:A *1015:B 7.49997e-05
28 *1051:A1 *1015:B 2.28598e-05
29 *1512:A *1016:A2 0.000139019
*RES
1 *980:Y *495:10 20.1393 
2 *495:10 *1016:A2 16.8179 
3 *495:10 *495:23 2.25 
4 *495:23 *1015:B 18.05 
5 *495:23 *495:38 7.66071 
6 *495:38 *1409:B 10.6571 
7 *495:38 *1014:A2 9.3 
*END

*D_NET *496 0.00437249
*CONN
*I *1050:A1 I *D sky130_fd_sc_hd__o221a_2
*I *1145:B1 I *D sky130_fd_sc_hd__o221ai_4
*I *1410:A I *D sky130_fd_sc_hd__and2_2
*I *981:Y O *D sky130_fd_sc_hd__nand3b_2
*CAP
1 *1050:A1 0.000110509
2 *1145:B1 0.000312075
3 *1410:A 0.000405253
4 *981:Y 7.19737e-05
5 *496:29 0.000664627
6 *496:8 0.00071927
7 *1050:A1 *1050:A2 5.62119e-05
8 *1410:A *1013:A_N 9.84729e-05
9 *1410:A *1490:A 8.07313e-05
10 *496:29 *1050:A2 0
11 *1012:D *496:29 0.000175519
12 *1014:B1 *1410:A 0
13 *1050:B1 *1145:B1 0
14 *1050:B2 *1145:B1 0.00020455
15 *1145:B2 *1145:B1 0.000168799
16 *1145:B2 *496:29 5.13896e-05
17 *1410:B *1410:A 0.000423114
18 *1410:B *496:29 0.000206893
19 *1508:A *496:29 0.00015304
20 *92:10 *1145:B1 0.000140368
21 *495:10 *1410:A 9.0143e-05
22 *495:10 *496:29 0.000120645
23 *495:23 *496:29 8.2958e-06
24 *495:38 *496:29 0.00011061
*RES
1 *981:Y *496:8 14.7464 
2 *496:8 *1410:A 24.7464 
3 *496:8 *496:29 8.77679 
4 *496:29 *1145:B1 22.0411 
5 *496:29 *1050:A1 16.2375 
*END

*D_NET *497 0.00249492
*CONN
*I *983:B1 I *D sky130_fd_sc_hd__o21ai_4
*I *986:A2_N I *D sky130_fd_sc_hd__o2bb2ai_2
*I *982:X O *D sky130_fd_sc_hd__o21a_4
*CAP
1 *983:B1 0
2 *986:A2_N 0.000667318
3 *982:X 7.21957e-05
4 *497:8 0.000739513
5 *986:A2_N *982:A2 4.60131e-05
6 *986:A2_N *983:A1 1.51881e-05
7 *986:A2_N *986:B1 2.56723e-05
8 *986:A2_N *986:B2 0.000347173
9 *986:A2_N *987:B 5.49995e-05
10 *986:A2_N *668:80 9.15842e-06
11 *986:A2_N *668:93 6.67257e-05
12 *497:8 *982:A2 0.000196993
13 *497:8 *546:23 9.54265e-05
14 *1156:A2 *986:A2_N 3.81722e-05
15 *314:46 *986:A2_N 0.000120368
*RES
1 *982:X *497:8 16.3536 
2 *497:8 *986:A2_N 23.2821 
3 *497:8 *983:B1 13.8 
*END

*D_NET *498 0.00114697
*CONN
*I *984:C1 I *D sky130_fd_sc_hd__o311ai_4
*I *983:Y O *D sky130_fd_sc_hd__o21ai_4
*CAP
1 *984:C1 0.000126182
2 *983:Y 0.000126182
3 *984:C1 *984:B1 0.000142609
4 *984:C1 *985:B 0.000199319
5 *984:C1 *986:B1 0.000160224
6 *984:C1 *1537:A 0.000100165
7 *984:C1 *561:38 0.000146934
8 *114:14 *984:C1 0.000145355
*RES
1 *983:Y *984:C1 33.1 
*END

*D_NET *499 0.00341249
*CONN
*I *1539:A I *D sky130_fd_sc_hd__buf_2
*I *1478:A I *D sky130_fd_sc_hd__dlymetal6s2s_1
*I *984:Y O *D sky130_fd_sc_hd__o311ai_4
*CAP
1 *1539:A 0.000150256
2 *1478:A 3.04135e-05
3 *984:Y 0.000811494
4 *499:22 0.000992163
5 *1478:A *625:8 5.33005e-05
6 *1539:A *994:A1_N 0.000139653
7 *1539:A *551:46 2.8266e-06
8 *1539:A *551:72 5.52302e-05
9 *1539:A *646:72 0
10 *1539:A *646:97 0
11 *499:22 *982:A1 2.95896e-05
12 *499:22 *985:B 5.33005e-05
13 *499:22 *986:B1 2.85321e-05
14 *499:22 *994:A1_N 0.000173083
15 *499:22 *1113:B1 0.000107169
16 *499:22 *1532:A 4.79453e-05
17 *499:22 *502:12 8.27839e-05
18 *499:22 *526:46 6.91923e-05
19 *499:22 *646:72 0
20 *499:22 *647:58 0.00013161
21 *987:A *499:22 0.00013161
22 *992:B1 *499:22 0.000217406
23 *1040:A3 *1539:A 4.46186e-06
24 *1040:A3 *499:22 7.15591e-05
25 *42:42 *1539:A 2.89114e-05
26 *114:14 *1539:A 0
*RES
1 *984:Y *499:22 32.5136 
2 *499:22 *1478:A 14.3357 
3 *499:22 *1539:A 17.1929 
*END

*D_NET *500 0.00186031
*CONN
*I *986:B1 I *D sky130_fd_sc_hd__o2bb2ai_2
*I *985:Y O *D sky130_fd_sc_hd__nand2_2
*CAP
1 *986:B1 0.000301604
2 *985:Y 0.000301604
3 *986:B1 *984:B1 0.000193257
4 *986:B1 *985:B 2.05612e-05
5 *986:B1 *986:B2 0.000142449
6 *986:B1 *1537:A 4.11486e-05
7 *984:C1 *986:B1 0.000160224
8 *986:A2_N *986:B1 2.56723e-05
9 *314:46 *986:B1 0.000645263
10 *499:22 *986:B1 2.85321e-05
*RES
1 *985:Y *986:B1 27.7607 
*END

*D_NET *501 0.00235614
*CONN
*I *987:B I *D sky130_fd_sc_hd__nand2_2
*I *986:Y O *D sky130_fd_sc_hd__o2bb2ai_2
*CAP
1 *987:B 0.000655761
2 *986:Y 0.000655761
3 *987:B *983:A1 0.000150089
4 *987:B *990:A1 8.20179e-05
5 *987:B *992:A2 0.000114665
6 *987:B *994:B1 9.80173e-05
7 *987:B *1160:A2 6.13812e-05
8 *987:B *526:85 0.000269422
9 *987:B *548:22 2.94103e-05
10 *987:B *641:84 0
11 *987:B *672:59 6.42042e-05
12 *986:A2_N *987:B 5.49995e-05
13 *1156:A2 *987:B 1.55584e-05
14 *282:125 *987:B 0.000104854
*RES
1 *986:Y *987:B 41.9571 
*END

*D_NET *502 0.00167798
*CONN
*I *993:B I *D sky130_fd_sc_hd__nand3_4
*I *1040:A2 I *D sky130_fd_sc_hd__a311o_2
*I *994:A2_N I *D sky130_fd_sc_hd__o2bb2ai_2
*I *987:Y O *D sky130_fd_sc_hd__nand2_2
*CAP
1 *993:B 0
2 *1040:A2 9.52769e-05
3 *994:A2_N 4.42281e-05
4 *987:Y 8.73835e-05
5 *502:25 0.000216432
6 *502:12 0.000252766
7 *1040:A2 *993:A 0
8 *1040:A2 *602:29 0
9 *1040:A2 *646:72 8.06331e-05
10 *502:12 *992:A2 2.89114e-05
11 *502:12 *1113:B1 0.000170484
12 *987:A *502:12 5.71472e-05
13 *992:B1 *994:A2_N 2.59355e-05
14 *992:B1 *502:25 7.02611e-05
15 *38:6 *994:A2_N 5.33005e-05
16 *38:6 *502:25 0.0003377
17 *69:12 *502:25 7.47337e-05
18 *499:22 *502:12 8.27839e-05
*RES
1 *987:Y *502:12 21.0857 
2 *502:12 *994:A2_N 10.2643 
3 *502:12 *502:25 3.83929 
4 *502:25 *1040:A2 20.2464 
5 *502:25 *993:B 9.3 
*END

*D_NET *503 0.00248409
*CONN
*I *992:A2 I *D sky130_fd_sc_hd__a21oi_2
*I *990:B1 I *D sky130_fd_sc_hd__o211a_2
*I *988:Y O *D sky130_fd_sc_hd__nand2_2
*CAP
1 *992:A2 0.000683905
2 *990:B1 2.44167e-05
3 *988:Y 0.000109854
4 *503:10 0.000818176
5 *990:B1 *991:A 3.67452e-05
6 *990:B1 *644:102 8.25098e-05
7 *992:A2 *994:B1 9.60939e-05
8 *503:10 *991:A 6.19181e-05
9 *503:10 *641:90 6.05161e-06
10 *503:10 *644:102 0.000115474
11 *503:10 *672:68 5.33005e-05
12 *503:10 *672:83 9.41642e-05
13 *987:A *992:A2 0.000108917
14 *987:B *992:A2 0.000114665
15 *990:A2 *990:B1 1.02504e-05
16 *35:12 *503:10 6.05161e-06
17 *69:12 *503:10 3.2687e-05
18 *502:12 *992:A2 2.89114e-05
*RES
1 *988:Y *503:10 16.8 
2 *503:10 *990:B1 14.8357 
3 *503:10 *992:A2 22.4607 
*END

*D_NET *504 0.00186767
*CONN
*I *992:A1 I *D sky130_fd_sc_hd__a21oi_2
*I *989:Y O *D sky130_fd_sc_hd__a21oi_2
*CAP
1 *992:A1 0.000488084
2 *989:Y 0.000488084
3 *992:A1 *644:87 0.000656833
4 *992:A1 *646:72 0.00012401
5 *987:A *992:A1 0.000101545
6 *116:16 *992:A1 9.11365e-06
*RES
1 *989:Y *992:A1 35.5286 
*END

*D_NET *505 0.000629249
*CONN
*I *994:B1 I *D sky130_fd_sc_hd__o2bb2ai_2
*I *990:X O *D sky130_fd_sc_hd__o211a_2
*CAP
1 *994:B1 7.47388e-05
2 *990:X 7.47388e-05
3 *994:B1 *990:A1 0.000135749
4 *994:B1 *991:A 0.000149911
5 *987:B *994:B1 9.80173e-05
6 *992:A2 *994:B1 9.60939e-05
7 *114:14 *994:B1 0
*RES
1 *990:X *994:B1 30.4929 
*END

*D_NET *506 0.0331398
*CONN
*I *1448:A I *D sky130_fd_sc_hd__buf_6
*I *1091:C I *D sky130_fd_sc_hd__nand4_4
*I *1002:D I *D sky130_fd_sc_hd__and4_2
*I *1059:B I *D sky130_fd_sc_hd__and3_2
*I *1231:A1 I *D sky130_fd_sc_hd__a32o_2
*I *1198:A I *D sky130_fd_sc_hd__and3_2
*I *1128:B2 I *D sky130_fd_sc_hd__a22oi_2
*I *1033:B1 I *D sky130_fd_sc_hd__o21ai_2
*I *964:D1 I *D sky130_fd_sc_hd__o2111a_2
*I *1449:X O *D sky130_fd_sc_hd__clkbuf_4
*CAP
1 *1448:A 0.00159027
2 *1091:C 0.00123743
3 *1002:D 0
4 *1059:B 2.23854e-05
5 *1231:A1 0.000303996
6 *1198:A 6.08383e-05
7 *1128:B2 0.000263862
8 *1033:B1 0
9 *964:D1 0.000117523
10 *1449:X 0.000158736
11 *506:114 0.00345479
12 *506:79 0.000743741
13 *506:66 0.00104964
14 *506:58 0.00141204
15 *506:45 0.0012783
16 *506:39 0.00345107
17 *506:18 0.00159354
18 *506:12 0.00228684
19 *1091:C *1027:B 0.000183743
20 *1091:C *1091:D 1.92905e-05
21 *1091:C *593:33 6.05161e-06
22 *1128:B2 *1128:A1 0
23 *1198:A *573:62 2.40379e-05
24 *1448:A *941:B 4.22135e-06
25 *1448:A *941:D 4.13715e-05
26 *1448:A *1017:A1 0.000373188
27 *1448:A *1426:A 0.00137241
28 *1448:A *1428:A 0
29 *1448:A *676:49 7.97314e-05
30 *506:12 *1426:A 0.000163992
31 *506:18 *962:B 1.50223e-05
32 *506:18 *1153:A2 0.00018373
33 *506:18 *1153:B1 0.000121579
34 *506:18 *1157:A 0.000198605
35 *506:18 *1160:B1 2.42984e-05
36 *506:18 *1447:A 8.71175e-05
37 *506:18 *583:8 4.41329e-06
38 *506:18 *637:37 0
39 *506:18 *675:10 0.000170654
40 *506:39 *1160:B1 0.000186811
41 *506:39 *1554:A 6.5185e-05
42 *506:39 *639:73 0
43 *506:39 *651:8 0.000109355
44 *506:45 *1113:B1 0
45 *506:45 *1165:A2 4.28365e-05
46 *506:45 *529:22 0.000151447
47 *506:45 *639:73 0.000112364
48 *506:45 *651:8 0
49 *506:45 *651:27 0
50 *506:45 *651:52 1.76135e-05
51 *506:58 *936:A 0.000789514
52 *506:58 *1056:B 4.46186e-06
53 *506:58 *1125:A1 4.038e-06
54 *506:58 *1224:B1 0
55 *506:58 *1360:B1 1.24368e-05
56 *506:58 *562:54 0.000115072
57 *506:58 *639:73 0.000178412
58 *506:58 *649:44 7.40633e-05
59 *506:58 *651:52 0.000293737
60 *506:79 *1136:A1 5.58941e-05
61 *506:79 *630:94 0.000329101
62 *506:114 *1113:B1 0
63 *506:114 *529:22 0.000226116
64 *506:114 *647:77 1.90936e-05
65 *940:B2 *1448:A 0.000114359
66 *942:A *1448:A 6.42242e-05
67 *1006:A1 *1091:C 8.50152e-05
68 *1034:A *506:114 9.54798e-06
69 *1037:B1 *1091:C 0.00017309
70 *1059:A *506:58 0
71 *1062:A2 *506:18 0.000233007
72 *1066:A_N *964:D1 0.000231054
73 *1066:A_N *506:39 0.000170375
74 *1066:C *506:39 2.24804e-05
75 *1072:A1_N *506:18 0.000165546
76 *1085:A2 *1091:C 4.97876e-05
77 *1087:A *1091:C 0.000202353
78 *1087:C *1091:C 0.000159687
79 *1089:C1 *1091:C 0.000327666
80 *1103:B1 *506:12 0
81 *1103:B1 *506:18 4.22135e-06
82 *1152:A *506:45 0.000191199
83 *1152:A *506:58 0.000177227
84 *1156:B1 *506:39 0.000198783
85 *1162:C1 *506:39 0.00037613
86 *1178:B1 *506:66 3.92854e-05
87 *1178:B1 *506:79 4.96435e-05
88 *1220:A *506:58 6.30023e-05
89 *1222:A1 *506:58 0
90 *1225:A *506:79 0.000150632
91 *1231:B2 *1231:A1 8.55871e-05
92 *1245:A2 *506:66 0.000154027
93 *1270:A_N *1231:A1 0
94 *1360:A2 *506:58 9.60939e-05
95 *1458:A *506:12 3.38578e-05
96 *1458:A *506:18 0
97 *1502:A *506:66 0.000122651
98 *1523:A *1231:A1 9.54385e-05
99 *39:44 *506:114 0.000108023
100 *42:53 *506:114 2.06178e-05
101 *46:6 *1091:C 0.000135913
102 *65:10 *1091:C 0.000417177
103 *66:16 *1091:C 0
104 *76:14 *506:58 0.000103253
105 *78:23 *1091:C 0.000143804
106 *96:8 *506:58 0
107 *101:22 *506:66 0.000753287
108 *102:12 *506:18 0.000144696
109 *129:10 *1091:C 0
110 *129:19 *1091:C 0
111 *190:14 *506:45 2.92543e-05
112 *191:20 *506:45 3.67537e-05
113 *191:31 *506:39 0.000160403
114 *191:59 *506:39 0.000146627
115 *192:10 *506:58 0.000124713
116 *193:10 *506:39 3.27359e-05
117 *198:10 *506:39 0.000271015
118 *199:8 *506:39 0
119 *200:29 *506:39 0.000121573
120 *203:8 *506:39 0.000110226
121 *216:20 *1231:A1 0.00014817
122 *216:20 *506:79 0.000200276
123 *255:22 *506:58 0
124 *257:12 *506:58 0
125 *267:8 *506:66 0.000311021
126 *267:8 *506:79 3.34366e-05
127 *271:34 *1091:C 0.000453762
128 *286:12 *506:79 0
129 *287:10 *1231:A1 0
130 *287:10 *506:79 0
131 *357:53 *506:58 7.6644e-05
132 *378:87 *506:45 1.0945e-05
133 *460:66 *964:D1 0.000239846
134 *460:66 *506:39 7.36469e-05
*RES
1 *1449:X *506:12 18.3571 
2 *506:12 *506:18 20.6332 
3 *506:18 *964:D1 12.8536 
4 *506:18 *506:39 29.3118 
5 *506:39 *506:45 7.50547 
6 *506:45 *1033:B1 13.8 
7 *506:45 *506:58 30.1964 
8 *506:58 *506:66 16.9286 
9 *506:66 *1128:B2 16.7107 
10 *506:66 *506:79 10.1429 
11 *506:79 *1198:A 14.7464 
12 *506:79 *1231:A1 19.3357 
13 *506:58 *1059:B 9.72857 
14 *506:39 *506:114 12.3416 
15 *506:114 *1002:D 9.3 
16 *506:114 *1091:C 48.9964 
17 *506:12 *1448:A 26.5446 
*END

*D_NET *507 0.00778057
*CONN
*I *1447:A I *D sky130_fd_sc_hd__buf_6
*I *1444:A I *D sky130_fd_sc_hd__buf_6
*I *1450:X O *D sky130_fd_sc_hd__buf_6
*CAP
1 *1447:A 0.00106766
2 *1444:A 0
3 *1450:X 0.000684746
4 *507:14 0.0017524
5 *1447:A *962:B 3.34366e-05
6 *1447:A *1069:A2 0.00056232
7 *1447:A *652:16 8.95742e-06
8 *1447:A *672:16 0.0005956
9 *1447:A *672:41 0.0016812
10 *1447:A *675:10 0.00014576
11 *507:14 *943:A 7.67629e-05
12 *507:14 *623:10 7.70092e-05
13 *507:14 *652:16 0.00022374
14 *1459:A *507:14 5.52302e-05
15 *1462:A *507:14 5.52302e-05
16 *459:10 *507:14 0.000462095
17 *460:14 *1447:A 4.32258e-05
18 *460:14 *507:14 0.000168074
19 *506:18 *1447:A 8.71175e-05
*RES
1 *1450:X *507:14 30.3536 
2 *507:14 *1444:A 13.8 
3 *507:14 *1447:A 29.1613 
*END

*D_NET *508 0.00112673
*CONN
*I *1526:A I *D sky130_fd_sc_hd__buf_2
*I *1241:A2 I *D sky130_fd_sc_hd__o211a_2
*I *1497:X O *D sky130_fd_sc_hd__buf_6
*CAP
1 *1526:A 0.000350606
2 *1241:A2 0.000146237
3 *1497:X 0.000496843
4 *1526:A *1194:A2 3.99614e-06
5 *1526:A *539:6 4.88631e-05
6 *1241:C1 *1241:A2 8.01893e-05
*RES
1 *1497:X *1241:A2 21.2071 
2 *1497:X *1526:A 24.4929 
*END

*D_NET *509 0.00328139
*CONN
*I *1143:B I *D sky130_fd_sc_hd__nand4_4
*I *1142:A1 I *D sky130_fd_sc_hd__a22oi_2
*I *1498:X O *D sky130_fd_sc_hd__buf_2
*CAP
1 *1143:B 7.91525e-05
2 *1142:A1 0.000434319
3 *1498:X 0.000508503
4 *509:8 0.00102197
5 *509:8 *588:10 0
6 *1091:A *509:8 0.000175512
7 *1140:A2_N *1142:A1 0.000183713
8 *1140:B2 *509:8 0.000125724
9 *1141:A_N *509:8 0
10 *1141:C *1142:A1 2.89114e-05
11 *1142:B1 *1142:A1 3.54789e-05
12 *1148:B *1143:B 3.34366e-05
13 *1505:A *509:8 0.000100969
14 *1525:A *1143:B 0
15 *1525:A *509:8 0
16 *129:10 *509:8 8.39e-05
17 *129:19 *509:8 0.000106542
18 *131:41 *509:8 0.000142082
19 *178:23 *509:8 0
20 *181:10 *509:8 0
21 *182:10 *1143:B 9.30093e-05
22 *182:10 *509:8 0.000128161
*RES
1 *1498:X *509:8 26.0679 
2 *509:8 *1142:A1 19.5857 
3 *509:8 *1143:B 15.4429 
*END

*D_NET *510 0.0168526
*CONN
*I *964:A2 I *D sky130_fd_sc_hd__o2111a_2
*I *955:A I *D sky130_fd_sc_hd__nor3_2
*I *946:B I *D sky130_fd_sc_hd__nor2_4
*I *975:A1 I *D sky130_fd_sc_hd__o31a_2
*I *1248:A2 I *D sky130_fd_sc_hd__o21ai_2
*I *1499:X O *D sky130_fd_sc_hd__buf_4
*CAP
1 *964:A2 0
2 *955:A 5.31278e-05
3 *946:B 3.98048e-05
4 *975:A1 0.000296848
5 *1248:A2 0.000233899
6 *1499:X 0
7 *510:41 0.000532714
8 *510:39 0.0015962
9 *510:27 0.0024717
10 *510:4 0.00135859
11 *975:A1 *975:A2 1.52392e-05
12 *975:A1 *975:A3 5.52238e-05
13 *975:A1 *975:B1 5.52238e-05
14 *975:A1 *634:6 4.38128e-05
15 *975:A1 *634:21 0.000255401
16 *975:A1 *678:47 0.000142826
17 *975:A1 *678:120 5.74562e-05
18 *1248:A2 *1287:A2 0.000353946
19 *1248:A2 *1560:A 5.33005e-05
20 *510:27 *1202:A 5.50052e-05
21 *510:27 *1206:A2 9.08883e-05
22 *510:39 *629:70 0.00194219
23 *510:39 *640:34 2.02794e-05
24 *510:41 *678:47 0.000163964
25 *955:B *955:A 3.2033e-05
26 *1019:A2 *510:39 0
27 *1022:B *975:A1 0.000195562
28 *1066:A_N *510:27 0.000226419
29 *1417:A *975:A1 0.000117621
30 *1499:A *510:27 7.92005e-05
31 *1550:A *510:27 0.000694307
32 *65:10 *975:A1 0.000192976
33 *65:10 *510:39 4.31072e-05
34 *65:10 *510:41 0.000192934
35 *241:12 *510:27 5.05056e-05
36 *260:16 *510:27 4.57805e-05
37 *260:35 *510:39 0.0031129
38 *282:88 *510:41 0
39 *460:66 *510:27 0.00111661
40 *475:89 *510:39 1.90936e-05
41 *479:12 *510:39 0.000845905
*RES
1 *1499:X *510:4 9.3 
2 *510:4 *1248:A2 23.5143 
3 *510:4 *510:27 30.5179 
4 *510:27 *510:39 18.6687 
5 *510:39 *510:41 4.98214 
6 *510:41 *975:A1 23.3893 
7 *510:41 *946:B 14.3357 
8 *510:39 *955:A 14.7464 
9 *510:27 *964:A2 9.3 
*END

*D_NET *511 0.00296628
*CONN
*I *1202:A I *D sky130_fd_sc_hd__nand2_2
*I *1500:X O *D sky130_fd_sc_hd__buf_2
*CAP
1 *1202:A 0.000807586
2 *1500:X 0.000807586
3 *1202:A *931:A 5.81718e-05
4 *1202:A *1099:A2 0.000304689
5 *1202:A *1102:A 0
6 *1202:A *1106:A 0.000195388
7 *1202:A *1151:A1 0
8 *1202:A *590:10 0.00014008
9 *1202:A *635:41 5.82389e-05
10 *1202:A *667:10 1.69115e-05
11 *1066:A_N *1202:A 7.36469e-05
12 *1100:A *1202:A 3.55569e-05
13 *1103:A2 *1202:A 0.000146881
14 *1206:C1 *1202:A 0
15 *260:16 *1202:A 0.000221425
16 *460:66 *1202:A 4.51148e-05
17 *510:27 *1202:A 5.50052e-05
*RES
1 *1500:X *1202:A 44.5107 
*END

*D_NET *512 0.00215246
*CONN
*I *1287:A2 I *D sky130_fd_sc_hd__a31o_2
*I *1200:A2 I *D sky130_fd_sc_hd__o21ai_2
*I *1501:X O *D sky130_fd_sc_hd__buf_2
*CAP
1 *1287:A2 0.000449538
2 *1200:A2 0.00011491
3 *1501:X 6.97257e-05
4 *512:6 0.000634173
5 *1200:A2 *1513:A 4.90381e-05
6 *1287:A2 *930:A 0.000128161
7 *1287:A2 *1206:A2 7.74135e-05
8 *1287:A2 *1248:A1 0.000168853
9 *1287:A2 *1436:A 5.66157e-05
10 *1287:A2 *662:39 0
11 *512:6 *1513:A 2.31392e-05
12 *1248:A2 *1287:A2 0.000353946
13 *1499:A *1287:A2 2.69483e-05
*RES
1 *1501:X *512:6 10.2464 
2 *512:6 *1200:A2 11.5143 
3 *512:6 *1287:A2 28.1393 
*END

*D_NET *513 0.00212986
*CONN
*I *1128:B1 I *D sky130_fd_sc_hd__a22oi_2
*I *1226:B1 I *D sky130_fd_sc_hd__a22oi_2
*I *1502:X O *D sky130_fd_sc_hd__buf_2
*CAP
1 *1128:B1 4.82655e-05
2 *1226:B1 0.000181685
3 *1502:X 0.000353294
4 *513:10 0.000583245
5 *1128:B1 *928:A 7.38748e-05
6 *1128:B1 *554:56 0.000153054
7 *1226:B1 *1226:B2 0.000178847
8 *513:10 *928:A 8.359e-05
9 *513:10 *554:56 3.17148e-05
10 *513:10 *649:68 3.57844e-05
11 *1130:A1 *1226:B1 3.97677e-05
12 *101:22 *513:10 0.000346149
13 *215:12 *513:10 2.05938e-05
*RES
1 *1502:X *513:10 19.4607 
2 *513:10 *1226:B1 16.8179 
3 *513:10 *1128:B1 15.7464 
*END

*D_NET *514 0.00119202
*CONN
*I *1260:B1 I *D sky130_fd_sc_hd__a22oi_2
*I *1503:X O *D sky130_fd_sc_hd__buf_2
*CAP
1 *1260:B1 0.000244027
2 *1503:X 0.000244027
3 *1260:B1 *1260:A1 0.000235342
4 *1260:B1 *1260:B2 3.93346e-05
5 *1260:B1 *645:54 5.74499e-06
6 *1260:B1 *649:24 0.000145688
7 *1503:A *1260:B1 0.000102068
8 *302:14 *1260:B1 9.84968e-05
9 *307:8 *1260:B1 7.72966e-05
*RES
1 *1503:X *1260:B1 33.975 
*END

*D_NET *515 0.0012669
*CONN
*I *1279:B1 I *D sky130_fd_sc_hd__o31ai_4
*I *1240:B I *D sky130_fd_sc_hd__nand2_2
*I *1504:X O *D sky130_fd_sc_hd__buf_2
*CAP
1 *1279:B1 0
2 *1240:B 6.64985e-05
3 *1504:X 0.000232492
4 *515:10 0.00029899
5 *1240:B *1240:A 0.000126209
6 *515:10 *1240:A 7.4826e-05
7 *1238:C1 *515:10 0
8 *1316:A2 *1240:B 1.76135e-05
9 *1316:A2 *515:10 8.56716e-05
10 *1316:C1 *515:10 0.000175512
11 *280:6 *515:10 3.69047e-06
12 *280:15 *515:10 1.21258e-05
13 *321:35 *1240:B 0.000146026
14 *364:18 *1240:B 2.72449e-05
*RES
1 *1504:X *515:10 18.8179 
2 *515:10 *1240:B 16.6571 
3 *515:10 *1279:B1 13.8 
*END

*D_NET *516 0.000486173
*CONN
*I *1088:A I *D sky130_fd_sc_hd__inv_2
*I *1139:A2 I *D sky130_fd_sc_hd__a21boi_2
*I *1505:X O *D sky130_fd_sc_hd__buf_2
*CAP
1 *1088:A 7.21552e-05
2 *1139:A2 4.94436e-05
3 *1505:X 2.06112e-05
4 *516:6 0.00014221
5 *1505:A *1088:A 5.52302e-05
6 *131:41 *1088:A 6.57914e-05
7 *131:41 *1139:A2 8.07313e-05
*RES
1 *1505:X *516:6 9.72857 
2 *516:6 *1139:A2 10.6571 
3 *516:6 *1088:A 11.0857 
*END

*D_NET *517 0.00107543
*CONN
*I *1276:B1 I *D sky130_fd_sc_hd__o2bb2ai_4
*I *1506:X O *D sky130_fd_sc_hd__buf_2
*CAP
1 *1276:B1 0.000390398
2 *1506:X 0.000390398
3 *1276:B1 *1318:B1 0
4 *1230:A1 *1276:B1 0
5 *1230:B1 *1276:B1 0.000117378
6 *1276:B2 *1276:B1 9.25014e-06
7 *1506:A *1276:B1 8.44104e-05
8 *237:28 *1276:B1 1.08359e-05
9 *237:49 *1276:B1 7.2754e-05
10 *273:10 *1276:B1 0
*RES
1 *1506:X *1276:B1 35.0464 
*END

*D_NET *518 0.0030724
*CONN
*I *1586:A I *D sky130_fd_sc_hd__buf_6
*I *1441:A I *D sky130_fd_sc_hd__buf_6
*I *1451:X O *D sky130_fd_sc_hd__clkbuf_2
*CAP
1 *1586:A 0.000269001
2 *1441:A 0
3 *1451:X 0.000427559
4 *518:12 0.00069656
5 *1586:A *1443:A 0.000181796
6 *1586:A *594:8 0.000563021
7 *518:12 *594:8 0.000101585
8 *1100:A *1586:A 0.000170907
9 *1101:C1 *1586:A 9.60875e-05
10 *1451:A *518:12 0.000104564
11 *11:17 *1586:A 8.48428e-05
12 *11:17 *518:12 0.000282313
13 *460:14 *1586:A 9.41642e-05
*RES
1 *1451:X *518:12 17.6929 
2 *518:12 *1441:A 9.3 
3 *518:12 *1586:A 17.8 
*END

*D_NET *519 0.00141632
*CONN
*I *1083:A1 I *D sky130_fd_sc_hd__o21ai_2
*I *1089:A1 I *D sky130_fd_sc_hd__o211ai_4
*I *1507:X O *D sky130_fd_sc_hd__buf_6
*CAP
1 *1083:A1 0.000197992
2 *1089:A1 0.000214106
3 *1507:X 0
4 *519:6 0.000412098
5 *1081:B1 *1083:A1 7.79781e-06
6 *1083:A2 *1083:A1 9.57064e-05
7 *1084:A_N *1089:A1 0
8 *1084:B *1089:A1 0.000268735
9 *1084:C *1089:A1 4.43256e-05
10 *1089:B1 *1083:A1 5.84171e-05
11 *1089:B1 *1089:A1 0.000117144
12 *131:8 *1083:A1 0
13 *271:34 *1083:A1 0
14 *271:34 *1089:A1 0
*RES
1 *1507:X *519:6 13.8 
2 *519:6 *1089:A1 19.1393 
3 *519:6 *1083:A1 18.175 
*END

*D_NET *520 0.00378303
*CONN
*I *1051:A2 I *D sky130_fd_sc_hd__a211oi_4
*I *1050:C1 I *D sky130_fd_sc_hd__o221a_2
*I *1013:B I *D sky130_fd_sc_hd__nand2b_2
*I *1508:X O *D sky130_fd_sc_hd__buf_2
*CAP
1 *1051:A2 5.62671e-05
2 *1050:C1 0
3 *1013:B 0.000109751
4 *1508:X 0.000275833
5 *520:19 0.000311206
6 *520:8 0.000640522
7 *1013:B *1013:A_N 0.000441214
8 *520:19 *1013:A_N 0.000101545
9 *520:19 *1050:A2 0
10 *520:19 *1492:A 0.000128146
11 *1014:B1 *1013:B 0.000441214
12 *1014:B1 *520:19 0.000495193
13 *1016:A1 *520:19 6.65398e-05
14 *1050:B1 *1051:A2 0.000103041
15 *1050:B1 *520:19 4.46186e-06
16 *1051:A1 *1051:A2 0.00020455
17 *1051:A1 *520:19 0.000369111
18 *91:32 *1051:A2 4.46186e-06
19 *469:41 *520:19 2.99773e-05
*RES
1 *1508:X *520:8 16.8 
2 *520:8 *1013:B 19.3893 
3 *520:8 *520:19 8.92857 
4 *520:19 *1050:C1 13.8 
5 *520:19 *1051:A2 16.3536 
*END

*D_NET *521 0.00136545
*CONN
*I *1052:B I *D sky130_fd_sc_hd__nor2_2
*I *1509:X O *D sky130_fd_sc_hd__buf_6
*CAP
1 *1052:B 0.000401717
2 *1509:X 0.000401717
3 *1052:B *1492:A 0.000396898
4 *1050:B1 *1052:B 1.38106e-05
5 *1050:B2 *1052:B 9.6087e-05
6 *1052:A *1052:B 5.52238e-05
7 *1583:A *1052:B 0
*RES
1 *1509:X *1052:B 26.5464 
*END

*D_NET *522 0.000588214
*CONN
*I *1243:B1 I *D sky130_fd_sc_hd__o21ai_2
*I *1510:X O *D sky130_fd_sc_hd__buf_2
*CAP
1 *1243:B1 0.000194439
2 *1510:X 0.000194439
3 *1244:B *1243:B1 3.79467e-05
4 *1317:A2 *1243:B1 0
5 *1317:B1 *1243:B1 1.07719e-05
6 *229:27 *1243:B1 0
7 *284:10 *1243:B1 0.000150618
*RES
1 *1510:X *1243:B1 30.9036 
*END

*D_NET *523 0.000549018
*CONN
*I *1148:A I *D sky130_fd_sc_hd__nand2_2
*I *1511:X O *D sky130_fd_sc_hd__buf_2
*CAP
1 *1148:A 0.000233261
2 *1511:X 0.000233261
3 *1148:A *1143:A 7.43578e-06
4 *1148:B *1148:A 5.5782e-05
5 *1511:A *1148:A 1.92789e-05
6 *271:34 *1148:A 0
*RES
1 *1511:X *1148:A 31.3143 
*END

*D_NET *524 0.00414346
*CONN
*I *1013:A_N I *D sky130_fd_sc_hd__nand2b_2
*I *1016:A3 I *D sky130_fd_sc_hd__o31a_2
*I *1050:A2 I *D sky130_fd_sc_hd__o221a_2
*I *1015:C I *D sky130_fd_sc_hd__or3_4
*I *1512:X O *D sky130_fd_sc_hd__buf_2
*CAP
1 *1013:A_N 0.000211659
2 *1016:A3 0
3 *1050:A2 0.000166765
4 *1015:C 0.000112199
5 *1512:X 0.000181307
6 *524:14 0.000449507
7 *524:8 0.000227525
8 *524:6 0.000449949
9 *1013:A_N *1490:A 0.000320882
10 *1013:A_N *1491:A 7.80929e-05
11 *1050:A2 *1492:A 4.16021e-05
12 *1013:B *1013:A_N 0.000441214
13 *1014:B1 *1050:A2 3.46272e-05
14 *1014:B1 *524:14 1.46717e-05
15 *1015:B *1015:C 0.00026353
16 *1016:A1 *524:6 2.89114e-05
17 *1016:A1 *524:8 6.05161e-06
18 *1016:A2 *524:8 5.33005e-05
19 *1016:A2 *524:14 0.000140933
20 *1016:B1 *1050:A2 8.16036e-05
21 *1016:B1 *524:14 8.91726e-05
22 *1050:A1 *1050:A2 5.62119e-05
23 *1050:B1 *1050:A2 5.80706e-06
24 *1051:A1 *1015:C 5.52238e-05
25 *1410:A *1013:A_N 9.84729e-05
26 *1410:B *1013:A_N 0.000100165
27 *1512:A *524:6 8.71761e-05
28 *1512:A *524:8 8.43535e-06
29 *495:10 *524:14 1.76039e-05
30 *495:23 *524:14 9.0143e-05
31 *495:38 *1050:A2 0.000113877
32 *495:38 *524:14 1.52978e-05
33 *496:29 *1050:A2 0
34 *520:19 *1013:A_N 0.000101545
35 *520:19 *1050:A2 0
*RES
1 *1512:X *524:6 12.7107 
2 *524:6 *524:8 0.946429 
3 *524:8 *524:14 8.71429 
4 *524:14 *1015:C 16.3893 
5 *524:14 *1050:A2 18.7821 
6 *524:8 *1016:A3 9.3 
7 *524:6 *1013:A_N 26.3536 
*END

*D_NET *525 0.0177736
*CONN
*I *1287:A1 I *D sky130_fd_sc_hd__a31o_2
*I *1332:A1 I *D sky130_fd_sc_hd__o211ai_2
*I *959:A I *D sky130_fd_sc_hd__nor2_2
*I *961:A I *D sky130_fd_sc_hd__and2_2
*I *1108:C1 I *D sky130_fd_sc_hd__o211a_2
*I *1151:B1 I *D sky130_fd_sc_hd__o21ai_2
*I *1102:A I *D sky130_fd_sc_hd__and3_2
*I *1513:X O *D sky130_fd_sc_hd__buf_2
*CAP
1 *1287:A1 0.000215337
2 *1332:A1 0.000334564
3 *959:A 0
4 *961:A 7.11326e-05
5 *1108:C1 2.27214e-05
6 *1151:B1 0.00067863
7 *1102:A 0.000860731
8 *1513:X 0.00153684
9 *525:95 0.000665048
10 *525:85 0.000671264
11 *525:72 0.00056865
12 *525:20 0.00153936
13 *525:18 0.00118748
14 *961:A *1560:A 7.1959e-05
15 *1102:A *926:A 3.18676e-05
16 *1102:A *1105:A1 0
17 *1102:A *1154:A1 5.52238e-05
18 *1102:A *1154:B1 1.95646e-05
19 *1102:A *1446:A 0.000149985
20 *1102:A *637:37 1.02504e-05
21 *1102:A *637:43 0.000389203
22 *1102:A *669:10 0.000875884
23 *1102:A *676:32 0.000150947
24 *1108:C1 *613:14 1.21258e-05
25 *1151:B1 *1151:A1 0.000104203
26 *1151:B1 *632:59 4.53889e-05
27 *1151:B1 *652:39 0.00132069
28 *1287:A1 *1436:A 4.48647e-05
29 *1332:A1 *1289:A2 0
30 *1332:A1 *1294:A3 5.59013e-05
31 *1332:A1 *552:22 5.23856e-05
32 *1332:A1 *591:30 0
33 *1332:A1 *655:16 7.83587e-05
34 *525:18 *1199:B1 5.48781e-05
35 *525:18 *1469:A 0.000289759
36 *525:18 *1513:A 0.000442248
37 *525:18 *590:10 3.07347e-05
38 *525:18 *613:14 1.92789e-05
39 *525:18 *662:54 8.90892e-05
40 *525:18 *667:10 2.89114e-05
41 *525:72 *930:A 0.000151638
42 *525:72 *960:B 0.000146261
43 *525:72 *657:28 2.30648e-05
44 *525:85 *930:A 3.84291e-05
45 *525:85 *1467:A 6.98302e-05
46 *525:85 *657:28 0.000171368
47 *525:95 *959:B 0.000198079
48 *963:A *525:95 7.80714e-06
49 *1062:A2 *1102:A 0.000412316
50 *1101:C1 *1102:A 0.000126639
51 *1104:B1 *1151:B1 0.000543546
52 *1105:B1 *1102:A 0.000186669
53 *1112:B1 *1102:A 3.18676e-05
54 *1120:A2 *1151:B1 0
55 *1155:B1 *1102:A 1.39841e-05
56 *1201:A *525:18 9.76123e-05
57 *1202:A *1102:A 0
58 *1287:B1 *1287:A1 0.000213551
59 *1287:B1 *525:95 0.000281949
60 *1293:A2 *1332:A1 0
61 *1295:A1 *1332:A1 9.21958e-05
62 *1295:A2 *1332:A1 1.69604e-05
63 *1296:A2 *525:85 0
64 *1297:B *1332:A1 0.000117189
65 *1419:A *1151:B1 9.46907e-05
66 *1458:A *1108:C1 2.59355e-05
67 *1458:A *525:18 5.33334e-05
68 *102:12 *1102:A 1.02821e-05
69 *142:12 *1102:A 0.000144427
70 *142:12 *1151:B1 0.000171375
71 *249:12 *1151:B1 0.000607346
72 *342:12 *1332:A1 0.000341511
73 *461:12 *525:18 0.000114987
74 *476:10 *525:85 0
75 *478:10 *1332:A1 0.00026467
76 *478:10 *525:95 0.00022863
*RES
1 *1513:X *525:18 38.0679 
2 *525:18 *525:20 4.5 
3 *525:20 *1102:A 45.6929 
4 *525:20 *1151:B1 36.5321 
5 *525:18 *1108:C1 9.83571 
6 *1513:X *525:72 21.675 
7 *525:72 *961:A 15.1571 
8 *525:72 *525:85 7.66071 
9 *525:85 *525:95 11.6429 
10 *525:95 *959:A 13.8 
11 *525:95 *1332:A1 23.3357 
12 *525:85 *1287:A1 12.3 
*END

*D_NET *526 0.01017
*CONN
*I *990:C1 I *D sky130_fd_sc_hd__o211a_2
*I *1025:A I *D sky130_fd_sc_hd__and3_2
*I *1024:B1 I *D sky130_fd_sc_hd__a21oi_2
*I *953:C1 I *D sky130_fd_sc_hd__o2111a_2
*I *1023:A1 I *D sky130_fd_sc_hd__o311ai_2
*I *951:A1 I *D sky130_fd_sc_hd__o31a_2
*I *984:A1 I *D sky130_fd_sc_hd__o311ai_4
*I *1160:A1 I *D sky130_fd_sc_hd__o311ai_4
*I *1514:X O *D sky130_fd_sc_hd__buf_2
*CAP
1 *990:C1 0
2 *1025:A 0.000285687
3 *1024:B1 0
4 *953:C1 0.000284069
5 *1023:A1 3.39029e-05
6 *951:A1 0.000223725
7 *984:A1 6.78014e-06
8 *1160:A1 2.03632e-05
9 *1514:X 0.00035247
10 *526:85 0.000425394
11 *526:83 0.000264662
12 *526:59 0.000438058
13 *526:46 0.00108978
14 *526:29 0.000934902
15 *526:25 0.00055644
16 *526:12 0.000622161
17 *953:C1 *953:D1 2.77258e-05
18 *953:C1 *602:29 0.00011891
19 *953:C1 *634:49 0.000126439
20 *984:A1 *641:84 4.45982e-06
21 *1023:A1 *632:75 2.59355e-05
22 *1025:A *1025:B 4.13496e-05
23 *1025:A *1162:A1 5.47476e-05
24 *1025:A *548:22 0.000322666
25 *1160:A1 *929:A 3.49456e-06
26 *526:12 *986:A1_N 5.21702e-05
27 *526:12 *1160:A2 9.61075e-05
28 *526:12 *636:32 0.000172027
29 *526:12 *637:134 0
30 *526:25 *1160:A2 8.43535e-06
31 *526:25 *1532:A 5.33005e-05
32 *526:29 *641:84 0.000201117
33 *526:46 *1532:A 3.89237e-05
34 *526:46 *602:29 2.11419e-05
35 *526:46 *634:49 1.94879e-05
36 *526:59 *602:29 0.000347469
37 *526:59 *634:49 0.000355438
38 *526:83 *641:84 0.000326672
39 *526:83 *644:102 0.000176234
40 *951:A3 *951:A1 6.57032e-05
41 *953:A1 *953:C1 0.000178847
42 *987:B *526:85 0.000269422
43 *990:A2 *984:A1 2.06112e-05
44 *990:A2 *526:29 5.62135e-05
45 *990:A2 *526:83 5.12344e-05
46 *1026:C1 *1025:A 0.000388051
47 *1156:A2 *526:25 5.52302e-05
48 *198:10 *526:12 0
49 *260:35 *526:46 0.000538798
50 *292:82 *953:C1 3.06878e-06
51 *314:29 *526:25 0.000285539
52 *314:46 *951:A1 5.54301e-05
53 *499:22 *526:46 6.91923e-05
*RES
1 *1514:X *526:12 24.8536 
2 *526:12 *1160:A1 9.72857 
3 *526:12 *526:25 9.16071 
4 *526:25 *526:29 3.65179 
5 *526:29 *984:A1 14.0768 
6 *526:29 *526:46 8.94545 
7 *526:46 *951:A1 17.2286 
8 *526:46 *526:59 4.67857 
9 *526:59 *1023:A1 14.3357 
10 *526:59 *953:C1 18.4429 
11 *526:25 *526:83 8.875 
12 *526:83 *526:85 3 
13 *526:85 *1024:B1 9.3 
14 *526:85 *1025:A 16.7464 
15 *526:83 *990:C1 9.3 
*END

*D_NET *527 0.000219578
*CONN
*I *1091:D I *D sky130_fd_sc_hd__nand4_4
*I *1515:X O *D sky130_fd_sc_hd__buf_2
*CAP
1 *1091:D 0.000100144
2 *1515:X 0.000100144
3 *1091:C *1091:D 1.92905e-05
4 *1515:A *1091:D 0
*RES
1 *1515:X *1091:D 20.2786 
*END

*D_NET *528 0.000827688
*CONN
*I *1224:B1 I *D sky130_fd_sc_hd__o211ai_2
*I *1516:X O *D sky130_fd_sc_hd__buf_2
*CAP
1 *1224:B1 0.00030744
2 *1516:X 0.00030744
3 *1222:A1 *1224:B1 6.58195e-05
4 *1516:A *1224:B1 0
5 *97:57 *1224:B1 0.000142856
6 *256:32 *1224:B1 0
7 *256:45 *1224:B1 0
8 *257:12 *1224:B1 4.1331e-06
9 *506:58 *1224:B1 0
*RES
1 *1516:X *1224:B1 33.0286 
*END

*D_NET *529 0.0110435
*CONN
*I *1438:A I *D sky130_fd_sc_hd__buf_6
*I *1439:A I *D sky130_fd_sc_hd__dlygate4sd1_1
*I *1440:A I *D sky130_fd_sc_hd__dlygate4sd1_1
*I *1452:X O *D sky130_fd_sc_hd__buf_6
*CAP
1 *1438:A 0
2 *1439:A 0.000232541
3 *1440:A 0
4 *1452:X 0.000440098
5 *529:22 0.00334202
6 *529:10 0.00354958
7 *1439:A *996:B 5.71472e-05
8 *1439:A *631:138 0.00030478
9 *1439:A *665:55 0.000166426
10 *529:10 *659:10 5.26442e-05
11 *529:22 *933:A 0
12 *529:22 *1174:A1 4.65158e-06
13 *529:22 *1327:A3 0.000154308
14 *529:22 *1332:A2 4.5549e-05
15 *529:22 *1434:A 4.37485e-06
16 *529:22 *659:10 1.7846e-05
17 *1253:B1 *529:22 0.000208349
18 *1336:A *529:10 8.02709e-05
19 *1336:C *529:10 5.52302e-05
20 *1341:A *529:10 0.000150857
21 *39:14 *1439:A 0.000439685
22 *39:44 *529:22 0.000780424
23 *191:20 *529:22 0
24 *202:10 *529:22 2.11419e-05
25 *336:14 *529:22 0.000166669
26 *380:10 *529:10 0.000265542
27 *380:10 *529:22 9.03841e-05
28 *419:14 *529:10 0
29 *475:22 *529:22 3.54439e-05
30 *506:45 *529:22 0.000151447
31 *506:114 *529:22 0.000226116
*RES
1 *1452:X *529:10 24.0143 
2 *529:10 *529:22 20.8919 
3 *529:22 *1440:A 9.3 
4 *529:22 *1439:A 17.6393 
5 *529:10 *1438:A 13.8 
*END

*D_NET *530 0.0016438
*CONN
*I *1170:A1 I *D sky130_fd_sc_hd__o21ai_2
*I *1171:B2 I *D sky130_fd_sc_hd__o221ai_2
*I *1517:X O *D sky130_fd_sc_hd__buf_2
*CAP
1 *1170:A1 0.000138873
2 *1171:B2 9.8149e-05
3 *1517:X 0
4 *530:6 0.000237022
5 *1171:B2 *995:B 3.18676e-05
6 *1171:C1 *1171:B2 2.89114e-05
7 *1172:A *1170:A1 0.000117189
8 *1172:A *1171:B2 0.000108118
9 *41:48 *1170:A1 0.000286594
10 *203:8 *1171:B2 0.000148182
11 *205:10 *1171:B2 8.59056e-05
12 *205:21 *1170:A1 6.42242e-05
13 *205:21 *1171:B2 4.23086e-05
14 *209:26 *1170:A1 9.90431e-05
15 *357:53 *1170:A1 0.000157409
*RES
1 *1517:X *530:6 13.8 
2 *530:6 *1171:B2 17.4964 
3 *530:6 *1170:A1 19.2643 
*END

*D_NET *531 0.00857453
*CONN
*I *1212:A I *D sky130_fd_sc_hd__and3_2
*I *1208:A2 I *D sky130_fd_sc_hd__o211ai_4
*I *1250:A1 I *D sky130_fd_sc_hd__o21ai_2
*I *1251:A1 I *D sky130_fd_sc_hd__a21oi_2
*I *1518:X O *D sky130_fd_sc_hd__buf_2
*CAP
1 *1212:A 0.00111978
2 *1208:A2 0.00039278
3 *1250:A1 0.00122281
4 *1251:A1 0.000117645
5 *1518:X 0.000497741
6 *531:8 0.000243057
7 *531:6 0.000912907
8 *1208:A2 *1253:B2 4.46186e-06
9 *1208:A2 *1288:B2 0
10 *1208:A2 *632:44 0.000162411
11 *1212:A *1214:C1 7.56755e-05
12 *1212:A *591:18 2.61099e-05
13 *1250:A1 *995:B 1.40034e-05
14 *1250:A1 *1250:B1 5.33005e-05
15 *1250:A1 *1253:B2 0.00014183
16 *1250:A1 *632:44 5.52238e-05
17 *1250:A1 *655:118 8.07322e-05
18 *1251:A1 *1253:B2 0
19 *531:6 *1436:A 2.59355e-05
20 *531:6 *632:29 0.000249013
21 *531:6 *632:44 2.14757e-05
22 *531:6 *655:72 2.43875e-05
23 *1205:B *1208:A2 0.000317396
24 *1205:B *1250:A1 5.33005e-05
25 *1208:A1 *1208:A2 1.02504e-05
26 *1214:A2 *1212:A 0
27 *1214:B2 *1212:A 0.000352951
28 *1215:A2 *1212:A 3.8274e-05
29 *1216:A1 *1208:A2 1.09026e-05
30 *1249:A *1208:A2 0.000116417
31 *1251:B1 *1251:A1 2.8266e-06
32 *1253:B1 *1251:A1 1.21859e-05
33 *1288:C1 *1208:A2 1.02392e-05
34 *1288:C1 *1251:A1 0.000148189
35 *1328:A2 *1251:A1 2.59355e-05
36 *41:48 *1212:A 4.00276e-06
37 *42:22 *1251:A1 2.59355e-05
38 *246:14 *1212:A 0.000683732
39 *247:20 *1208:A2 0.000149904
40 *254:10 *1212:A 0.000428908
41 *290:10 *1208:A2 4.71964e-05
42 *410:10 *1212:A 0.000571416
43 *410:14 *1212:A 0.000123288
*RES
1 *1518:X *531:6 15.5857 
2 *531:6 *531:8 0.428571 
3 *531:8 *1251:A1 20.7821 
4 *531:8 *1250:A1 12.7286 
5 *531:6 *1208:A2 28.2286 
6 *1250:A1 *1212:A 48.2607 
*END

*D_NET *532 0.00472501
*CONN
*I *1436:A I *D sky130_fd_sc_hd__buf_6
*I *1518:A I *D sky130_fd_sc_hd__buf_2
*I *1519:X O *D sky130_fd_sc_hd__buf_2
*CAP
1 *1436:A 0.00056832
2 *1518:A 0
3 *1519:X 0.000575196
4 *532:18 0.00114352
5 *1436:A *930:A 6.72969e-05
6 *1436:A *934:A 0
7 *1436:A *1292:A1 0.000428601
8 *1436:A *1411:A 9.25014e-06
9 *1436:A *1540:A 0
10 *1436:A *631:42 0.000150264
11 *1436:A *632:29 8.11283e-05
12 *1436:A *655:72 0.000125997
13 *1436:A *662:22 0.000102362
14 *532:18 *1327:A2 5.14832e-05
15 *532:18 *1327:B1 5.65955e-05
16 *532:18 *1519:A 0
17 *532:18 *552:14 0.000125125
18 *532:18 *552:22 0.000137561
19 *532:18 *565:22 0.000242653
20 *532:18 *591:30 0.000145752
21 *532:18 *655:59 2.05612e-05
22 *532:18 *655:72 0.000140175
23 *532:18 *661:8 0
24 *1287:A1 *1436:A 4.48647e-05
25 *1287:A2 *1436:A 5.66157e-05
26 *1287:B1 *1436:A 9.99853e-05
27 *331:10 *1436:A 0
28 *332:12 *1436:A 0.000143439
29 *341:14 *532:18 4.01501e-05
30 *341:31 *532:18 4.31475e-05
31 *342:81 *532:18 9.90367e-05
32 *357:39 *1436:A 0
33 *419:14 *532:18 0
34 *531:6 *1436:A 2.59355e-05
*RES
1 *1519:X *532:18 31.8357 
2 *532:18 *1518:A 9.3 
3 *532:18 *1436:A 31.925 
*END

*D_NET *533 0.00126538
*CONN
*I *944:A I *D sky130_fd_sc_hd__nand2_8
*I *1520:X O *D sky130_fd_sc_hd__buf_4
*CAP
1 *944:A 0.000358755
2 *1520:X 0.000358755
3 *944:A *945:B 0.00015862
4 *944:A *1427:A 0.000163663
5 *944:A *1575:A 7.44262e-05
6 *944:A *666:10 3.43988e-06
7 *944:A *667:44 0
8 *944:A *667:57 5.79582e-06
9 *944:A *671:12 9.83388e-05
10 *944:A *672:16 4.3588e-05
11 *1413:A *944:A 0
*RES
1 *1520:X *944:A 35.9036 
*END

*D_NET *534 0.000367253
*CONN
*I *1150:A2 I *D sky130_fd_sc_hd__o21ai_2
*I *1521:X O *D sky130_fd_sc_hd__buf_2
*CAP
1 *1150:A2 0.00012916
2 *1521:X 0.00012916
3 *1150:A2 *636:32 0.000108934
*RES
1 *1521:X *1150:A2 21.225 
*END

*D_NET *535 0.0014893
*CONN
*I *1231:A3 I *D sky130_fd_sc_hd__a32o_2
*I *1179:B1 I *D sky130_fd_sc_hd__a21oi_2
*I *1198:C I *D sky130_fd_sc_hd__and3_2
*I *1522:X O *D sky130_fd_sc_hd__buf_2
*CAP
1 *1231:A3 0.000151732
2 *1179:B1 0
3 *1198:C 0.000114902
4 *1522:X 0.000306337
5 *535:12 0.000114902
6 *535:10 0.000458069
7 *1198:C *1231:A2 1.56e-05
8 *1198:C *573:62 3.69047e-06
9 *1231:A3 *1231:A2 4.25809e-05
10 *215:12 *1231:A3 0.000100969
11 *215:12 *535:10 6.5185e-05
12 *216:24 *1231:A3 5.71472e-05
13 *216:30 *1231:A3 2.14658e-05
14 *237:10 *1198:C 3.67142e-05
15 *268:10 *1231:A3 0
16 *268:10 *535:10 0
*RES
1 *1522:X *535:10 18.0321 
2 *535:10 *535:12 4.5 
3 *535:12 *1198:C 11.4964 
4 *535:12 *1179:B1 9.3 
5 *535:10 *1231:A3 17.3 
*END

*D_NET *536 0.000317859
*CONN
*I *1197:A I *D sky130_fd_sc_hd__nand2_2
*I *1523:X O *D sky130_fd_sc_hd__buf_2
*CAP
1 *1197:A 0.00015893
2 *1523:X 0.00015893
*RES
1 *1523:X *1197:A 20.6893 
*END

*D_NET *537 0.000578261
*CONN
*I *1177:A I *D sky130_fd_sc_hd__inv_2
*I *1524:X O *D sky130_fd_sc_hd__buf_2
*CAP
1 *1177:A 0.00019181
2 *1524:X 0.00019181
3 *1196:A *1177:A 0
4 *217:6 *1177:A 7.50473e-05
5 *217:19 *1177:A 1.02821e-05
6 *222:21 *1177:A 0.00010326
7 *235:10 *1177:A 6.05161e-06
8 *273:10 *1177:A 0
*RES
1 *1524:X *1177:A 31.5464 
*END

*D_NET *538 0.000897753
*CONN
*I *1143:A I *D sky130_fd_sc_hd__nand4_4
*I *1525:X O *D sky130_fd_sc_hd__buf_4
*CAP
1 *1143:A 0.000265681
2 *1525:X 0.000265681
3 *1143:C *1143:A 9.7659e-05
4 *1148:A *1143:A 7.43578e-06
5 *1148:B *1143:A 0
6 *1525:A *1143:A 6.26559e-05
7 *184:12 *1143:A 0.000198641
*RES
1 *1525:X *1143:A 33.6893 
*END

*D_NET *539 0.000955887
*CONN
*I *1194:A2 I *D sky130_fd_sc_hd__o21ai_2
*I *1144:A_N I *D sky130_fd_sc_hd__nand2b_2
*I *1526:X O *D sky130_fd_sc_hd__buf_2
*CAP
1 *1194:A2 3.64675e-05
2 *1144:A_N 0.000168426
3 *1526:X 0.000186953
4 *539:6 0.000391847
5 *1144:A_N *1144:B 0
6 *1144:A_N *1194:A1 6.5185e-05
7 *1147:A *1144:A_N 5.41494e-05
8 *1526:A *1194:A2 3.99614e-06
9 *1526:A *539:6 4.88631e-05
*RES
1 *1526:X *539:6 11.4786 
2 *539:6 *1144:A_N 21.7107 
3 *539:6 *1194:A2 10.0321 
*END

*D_NET *540 0.00880062
*CONN
*I *1435:A I *D sky130_fd_sc_hd__buf_6
*I *1434:A I *D sky130_fd_sc_hd__buf_4
*I *1453:X O *D sky130_fd_sc_hd__clkdlybuf4s25_1
*CAP
1 *1435:A 0
2 *1434:A 0.000471593
3 *1453:X 0.000171587
4 *540:43 0.00169316
5 *540:8 0.00233634
6 *1434:A *1332:A2 0
7 *1434:A *552:22 9.68461e-05
8 *1434:A *655:8 0.00010096
9 *1434:A *662:14 0
10 *1434:A *662:16 0
11 *540:43 *997:B 0.00023006
12 *540:43 *1030:A 9.99644e-06
13 *540:43 *1211:A2 0.000122081
14 *540:43 *1519:A 1.19402e-05
15 *540:43 *660:50 5.33005e-05
16 *540:43 *660:65 0.000777853
17 *1297:C *1434:A 4.46186e-06
18 *1302:A1 *540:43 2.84026e-05
19 *1302:A2 *540:43 0.000168661
20 *1326:C *540:43 2.77173e-05
21 *1330:A1 *1434:A 0.000270236
22 *1330:A1 *540:43 4.49293e-05
23 *1330:B1 *540:8 6.71755e-05
24 *341:31 *540:43 1.19402e-05
25 *342:12 *1434:A 0
26 *342:25 *1434:A 9.01334e-05
27 *342:36 *1434:A 2.16719e-05
28 *342:81 *540:8 9.41642e-05
29 *342:81 *540:43 0.000522451
30 *345:12 *540:43 0.000228791
31 *348:10 *540:43 0.000494284
32 *377:10 *540:43 2.59355e-05
33 *380:10 *1434:A 0.000478863
34 *380:10 *540:43 5.41794e-05
35 *419:14 *540:43 0
36 *475:30 *1434:A 4.32957e-05
37 *475:50 *1434:A 4.32309e-05
38 *529:22 *1434:A 4.37485e-06
*RES
1 *1453:X *540:8 15.9786 
2 *540:8 *1434:A 26.4071 
3 *540:8 *540:43 48.0357 
4 *540:43 *1435:A 9.3 
*END

*D_NET *541 0.00086062
*CONN
*I *1323:B1 I *D sky130_fd_sc_hd__o211a_4
*I *1527:X O *D sky130_fd_sc_hd__buf_6
*CAP
1 *1323:B1 0.000227833
2 *1527:X 0.000227833
3 *1322:A *1323:B1 6.05161e-06
4 *1323:C1 *1323:B1 0.000148911
5 *1324:B *1323:B1 1.3142e-05
6 *1349:A1 *1323:B1 5.26184e-05
7 *366:10 *1323:B1 0.000130932
8 *366:14 *1323:B1 5.33005e-05
*RES
1 *1527:X *1323:B1 32.4393 
*END

*D_NET *542 0.00382398
*CONN
*I *1318:B1 I *D sky130_fd_sc_hd__o21ai_2
*I *1528:X O *D sky130_fd_sc_hd__buf_2
*CAP
1 *1318:B1 0.00101562
2 *1528:X 0.00101562
3 *1318:B1 *544:20 0.000231876
4 *1230:B1 *1318:B1 0.000209437
5 *1235:A2 *1318:B1 6.63569e-05
6 *1237:A *1318:B1 0
7 *1238:C1 *1318:B1 0.000539088
8 *1275:A2 *1318:B1 0.000112534
9 *1276:B1 *1318:B1 0
10 *1506:A *1318:B1 0
11 *237:49 *1318:B1 5.52302e-05
12 *274:8 *1318:B1 0.000440711
13 *320:14 *1318:B1 0.000137505
*RES
1 *1528:X *1318:B1 49.9929 
*END

*D_NET *543 0.00369141
*CONN
*I *1104:A1 I *D sky130_fd_sc_hd__o21a_2
*I *1111:A1 I *D sky130_fd_sc_hd__o211ai_4
*I *1105:A1 I *D sky130_fd_sc_hd__o21ai_4
*I *1529:X O *D sky130_fd_sc_hd__buf_4
*CAP
1 *1104:A1 0.000361343
2 *1111:A1 1.50081e-05
3 *1105:A1 0.000211157
4 *1529:X 0.000171622
5 *543:21 0.000511878
6 *543:10 0.000518305
7 *1104:A1 *639:34 9.84729e-05
8 *1105:A1 *613:14 2.04825e-05
9 *543:10 *613:14 5.33005e-05
10 *1101:C1 *1105:A1 0.000151984
11 *1102:A *1105:A1 0
12 *1104:A2 *1104:A1 0.000184185
13 *1104:B1 *1104:A1 4.98055e-06
14 *1104:B1 *543:21 2.8266e-06
15 *1108:A2 *543:21 2.34423e-05
16 *1108:B1 *543:10 0.00026546
17 *1111:B1 *1104:A1 0.000403659
18 *1112:A1 *1104:A1 0.000143422
19 *1112:A1 *1111:A1 1.33343e-05
20 *1150:A1 *1104:A1 5.23822e-05
21 *1458:A *543:10 1.32552e-05
22 *1521:A *1104:A1 0.000142547
23 *142:12 *1105:A1 2.64618e-05
24 *142:12 *543:21 5.50237e-05
25 *144:19 *1104:A1 4.46186e-06
26 *144:19 *1105:A1 6.87388e-05
27 *144:19 *543:21 0.000104463
28 *147:12 *1111:A1 5.52302e-05
29 *152:12 *1104:A1 0
30 *152:12 *1111:A1 1.39841e-05
*RES
1 *1529:X *543:10 17.2286 
2 *543:10 *1105:A1 18.175 
3 *543:10 *543:21 2.85714 
4 *543:21 *1111:A1 14.3357 
5 *543:21 *1104:A1 23.1214 
*END

*D_NET *544 0.00596522
*CONN
*I *1278:B1 I *D sky130_fd_sc_hd__o21a_2
*I *1319:A I *D sky130_fd_sc_hd__nand2_2
*I *1353:A1 I *D sky130_fd_sc_hd__a21oi_2
*I *1530:X O *D sky130_fd_sc_hd__buf_2
*CAP
1 *1278:B1 0.00073605
2 *1319:A 1.99857e-05
3 *1353:A1 0.00022608
4 *1530:X 0
5 *544:20 0.00108185
6 *544:4 0.00157183
7 *1275:A1 *544:20 1.02504e-05
8 *1275:A2 *544:20 0.000111431
9 *1275:A3 *544:20 1.17968e-05
10 *1275:B1 *544:20 3.17148e-05
11 *1316:A1 *1278:B1 0.000126439
12 *1316:A2 *1278:B1 0
13 *1316:B1 *1278:B1 0.000841912
14 *1318:A2 *544:20 0.0001399
15 *1318:B1 *544:20 0.000231876
16 *1353:A2 *1353:A1 0
17 *1527:A *1353:A1 6.05161e-06
18 *268:38 *544:20 1.08359e-05
19 *320:14 *1278:B1 0.00010096
20 *320:14 *544:20 0.000396898
21 *364:22 *1353:A1 0.000129868
22 *365:8 *1319:A 1.04232e-05
23 *365:8 *544:20 0.000136031
24 *366:10 *1353:A1 3.30352e-05
*RES
1 *1530:X *544:4 9.3 
2 *544:4 *544:20 23.3929 
3 *544:20 *1353:A1 22.1393 
4 *544:20 *1319:A 9.72857 
5 *544:4 *1278:B1 29.1036 
*END

*D_NET *545 0.00161802
*CONN
*I *1046:A2 I *D sky130_fd_sc_hd__a21boi_2
*I *1531:X O *D sky130_fd_sc_hd__buf_2
*CAP
1 *1046:A2 0.000389132
2 *1531:X 0.000389132
3 *1046:A2 *1009:B 7.1416e-05
4 *1046:A2 *1046:A1 9.90431e-05
5 *1046:A2 *1049:A1 0.000117189
6 *1046:A2 *681:10 0.00019384
7 *1009:A *1046:A2 0
8 *1044:A_N *1046:A2 1.40306e-05
9 *1046:B1_N *1046:A2 5.33005e-05
10 *1531:A *1046:A2 0.000108477
11 *53:6 *1046:A2 4.58917e-05
12 *53:46 *1046:A2 0.000119135
13 *89:10 *1046:A2 1.74352e-05
*RES
1 *1531:X *1046:A2 36.9929 
*END

*D_NET *546 0.0107635
*CONN
*I *965:A1 I *D sky130_fd_sc_hd__a311o_2
*I *954:C I *D sky130_fd_sc_hd__or4_2
*I *950:B1 I *D sky130_fd_sc_hd__a211o_2
*I *940:A1 I *D sky130_fd_sc_hd__o22a_2
*I *991:A I *D sky130_fd_sc_hd__and3_2
*I *989:B1 I *D sky130_fd_sc_hd__a21oi_2
*I *986:B2 I *D sky130_fd_sc_hd__o2bb2ai_2
*I *1532:X O *D sky130_fd_sc_hd__buf_4
*CAP
1 *965:A1 0.000221942
2 *954:C 0.000190648
3 *950:B1 1.95116e-05
4 *940:A1 0.000473466
5 *991:A 0.000483262
6 *989:B1 1.40355e-05
7 *986:B2 0.000175718
8 *1532:X 0
9 *546:69 0.000494268
10 *546:60 0.000397769
11 *546:47 0.000932923
12 *546:23 0.000588607
13 *546:8 0.000594969
14 *546:4 0.000490818
15 *940:A1 *968:B 9.98197e-05
16 *940:A1 *968:C 0.000186035
17 *940:A1 *589:38 1.02504e-05
18 *940:A1 *589:51 0.000602936
19 *940:A1 *602:29 0.000212277
20 *940:A1 *644:36 0.000107298
21 *940:A1 *644:87 0.000301513
22 *940:A1 *672:140 7.90803e-05
23 *954:C *999:C 1.02504e-05
24 *965:A1 *966:B1 0.00015716
25 *965:A1 *678:73 1.00887e-05
26 *965:A1 *678:86 0.000138287
27 *989:B1 *632:75 2.89114e-05
28 *989:B1 *644:87 5.52302e-05
29 *991:A *982:A2 2.8266e-06
30 *991:A *990:A1 2.49484e-05
31 *991:A *1166:B1 0.000174789
32 *991:A *641:108 1.98839e-05
33 *991:A *644:102 1.59028e-05
34 *546:8 *929:A 0.000135028
35 *546:8 *1532:A 0.000141784
36 *546:8 *1537:A 1.8899e-05
37 *546:8 *561:38 0.000130693
38 *546:23 *982:A2 7.79781e-06
39 *546:47 *561:38 6.60368e-05
40 *546:47 *647:58 0.000135028
41 *546:60 *966:B1 4.23801e-05
42 *546:60 *647:58 0.000468865
43 *546:69 *966:B1 0.000100074
44 *950:A1 *950:B1 5.46383e-06
45 *950:A1 *546:60 2.38501e-05
46 *950:C1 *954:C 0.000136362
47 *951:B1 *546:60 9.41642e-05
48 *986:A2_N *986:B2 0.000347173
49 *986:B1 *986:B2 0.000142449
50 *990:A2 *986:B2 0.000120991
51 *990:A2 *991:A 0.000166983
52 *990:A2 *546:23 0.000233975
53 *990:B1 *991:A 3.67452e-05
54 *994:B1 *991:A 0.000149911
55 *35:12 *991:A 4.84486e-05
56 *65:10 *954:C 0.000141422
57 *114:14 *991:A 0
58 *116:16 *940:A1 4.51945e-05
59 *271:26 *965:A1 0.000146853
60 *314:46 *986:B2 0.000119461
61 *314:46 *546:8 5.33005e-05
62 *314:46 *546:23 3.14003e-05
63 *497:8 *546:23 9.54265e-05
64 *503:10 *991:A 6.19181e-05
*RES
1 *1532:X *546:4 9.3 
2 *546:4 *546:8 10.375 
3 *546:8 *986:B2 19.2821 
4 *546:8 *546:23 3.16071 
5 *546:23 *989:B1 14.3357 
6 *546:23 *991:A 23.925 
7 *546:4 *546:47 2.58929 
8 *546:47 *940:A1 32.3893 
9 *546:47 *546:60 5.875 
10 *546:60 *950:B1 9.72857 
11 *546:60 *546:69 1.76786 
12 *546:69 *954:C 23.5857 
13 *546:69 *965:A1 23.2464 
*END

*D_NET *547 0.000480466
*CONN
*I *1163:B1 I *D sky130_fd_sc_hd__o211ai_2
*I *1533:X O *D sky130_fd_sc_hd__buf_2
*CAP
1 *1163:B1 8.98613e-05
2 *1533:X 8.98613e-05
3 *1163:B1 *1114:B 0.000130439
4 *42:42 *1163:B1 1.98839e-05
5 *191:20 *1163:B1 5.33005e-05
6 *191:29 *1163:B1 9.71197e-05
*RES
1 *1533:X *1163:B1 21.225 
*END

*D_NET *548 0.00404675
*CONN
*I *1175:D I *D sky130_fd_sc_hd__nand4_4
*I *1534:X O *D sky130_fd_sc_hd__buf_2
*CAP
1 *1175:D 0
2 *1534:X 0.00130938
3 *548:22 0.00130938
4 *548:22 *1162:A1 5.6671e-05
5 *548:22 *1174:A1 0.000261237
6 *548:22 *640:73 9.23967e-05
7 *548:22 *641:84 0
8 *548:22 *665:55 6.71947e-05
9 *548:22 *672:59 0.000196269
10 *987:B *548:22 2.94103e-05
11 *1025:A *548:22 0.000322666
12 *1026:A1 *548:22 2.61408e-05
13 *1026:B1 *548:22 5.33005e-05
14 *1026:C1 *548:22 0.000150339
15 *1115:B1 *548:22 0
16 *1173:B1 *548:22 0.000172368
17 *39:14 *548:22 0
18 *161:35 *548:22 0
19 *202:10 *548:22 0
*RES
1 *1534:X *548:22 44.6036 
2 *548:22 *1175:D 9.3 
*END

*D_NET *549 0.0155049
*CONN
*I *1160:A2 I *D sky130_fd_sc_hd__o311ai_4
*I *1023:A3 I *D sky130_fd_sc_hd__o311ai_2
*I *1017:A2 I *D sky130_fd_sc_hd__o21a_2
*I *1020:B I *D sky130_fd_sc_hd__nand2_2
*I *1018:A2 I *D sky130_fd_sc_hd__o21ai_2
*I *1102:B I *D sky130_fd_sc_hd__and3_2
*I *1155:A2 I *D sky130_fd_sc_hd__a21oi_2
*I *1154:A2 I *D sky130_fd_sc_hd__o21ai_2
*I *1535:X O *D sky130_fd_sc_hd__buf_4
*CAP
1 *1160:A2 0.000520137
2 *1023:A3 0.000221323
3 *1017:A2 0.000138925
4 *1020:B 5.37376e-05
5 *1018:A2 0.000190737
6 *1102:B 8.19642e-05
7 *1155:A2 0.00010674
8 *1154:A2 0
9 *1535:X 9.93055e-05
10 *549:87 0.000410683
11 *549:63 0.000417182
12 *549:61 0.00141462
13 *549:53 0.00205666
14 *549:36 0.000913309
15 *549:19 0.00071604
16 *549:8 0.000222311
17 *1017:A2 *646:36 0.000265445
18 *1018:A2 *1481:A 0.000241349
19 *1018:A2 *602:18 0.000331922
20 *1018:A2 *634:49 2.19549e-05
21 *1020:B *947:A1 0.000182694
22 *1020:B *967:B1 3.18676e-05
23 *1023:A3 *561:14 0.000177234
24 *1023:A3 *634:49 3.34549e-05
25 *1102:B *1063:A 5.03803e-05
26 *1102:B *1446:A 0.000121982
27 *1102:B *637:20 1.02504e-05
28 *1160:A2 *983:A1 3.65102e-05
29 *1160:A2 *672:59 7.76473e-05
30 *549:8 *1154:A1 9.54798e-06
31 *549:8 *1535:A 2.60158e-05
32 *549:8 *640:42 0.000213707
33 *549:19 *1154:A1 0.000175036
34 *549:19 *599:33 0.00012822
35 *549:19 *640:42 0.000293708
36 *549:36 *599:22 6.90625e-05
37 *549:53 *1070:A1 0.000336626
38 *549:61 *986:A1_N 2.57552e-06
39 *549:61 *1017:B1 0.000247793
40 *549:61 *1072:B2 0.000306316
41 *549:61 *644:59 0.000137639
42 *549:61 *646:36 2.19907e-05
43 *549:63 *634:49 4.84721e-05
44 *549:63 *646:36 0.000125542
45 *549:87 *634:49 2.60743e-05
46 *549:87 *646:36 7.7069e-05
47 *951:A3 *1023:A3 0.000333054
48 *951:B1 *1023:A3 0.000125542
49 *953:A2 *1023:A3 1.02504e-05
50 *955:B *1023:A3 7.29646e-05
51 *969:B1 *1020:B 4.58194e-05
52 *969:B1 *549:63 8.8623e-05
53 *987:A *549:61 2.13481e-06
54 *987:B *1160:A2 6.13812e-05
55 *1019:B1 *549:61 5.66971e-05
56 *1021:A1 *549:63 1.73789e-05
57 *1064:A3 *1155:A2 0.000104626
58 *1064:A3 *549:36 0.000301438
59 *1066:C *549:61 1.4796e-05
60 *1071:B *549:53 1.46717e-05
61 *1072:A1_N *549:36 0.000197176
62 *1072:A1_N *549:53 0.000363462
63 *1156:A2 *1160:A2 0.000196449
64 *1474:A *549:53 0.000191475
65 *1551:A *549:61 6.96806e-05
66 *1584:A *549:53 0.000316633
67 *106:8 *549:36 0.000392026
68 *106:8 *549:53 0.000293342
69 *260:35 *1023:A3 1.06328e-05
70 *260:35 *549:87 1.03904e-05
71 *282:33 *549:36 1.57414e-05
72 *282:33 *549:53 1.21289e-05
73 *282:73 *1018:A2 7.98557e-05
74 *282:73 *549:63 0.000170085
75 *282:125 *1160:A2 1.80645e-05
76 *282:125 *549:53 9.00881e-05
77 *292:61 *1023:A3 8.48842e-05
78 *303:51 *1023:A3 8.07951e-05
79 *346:8 *549:61 0.000102752
80 *378:10 *549:8 3.92854e-05
81 *378:31 *549:8 2.4296e-05
82 *526:12 *1160:A2 9.61075e-05
83 *526:25 *1160:A2 8.43535e-06
*RES
1 *1535:X *549:8 16.6571 
2 *549:8 *1154:A2 13.8 
3 *549:8 *549:19 8.57143 
4 *549:19 *1155:A2 10.9786 
5 *549:19 *549:36 9.32143 
6 *549:36 *1102:B 19.9429 
7 *549:36 *549:53 16.7679 
8 *549:53 *549:61 24.0357 
9 *549:61 *549:63 4.375 
10 *549:63 *1018:A2 19.4429 
11 *549:63 *1020:B 15.5679 
12 *549:61 *549:87 1.33929 
13 *549:87 *1017:A2 16.3893 
14 *549:87 *1023:A3 20.9071 
15 *549:53 *1160:A2 23.175 
*END

*D_NET *550 0.00100952
*CONN
*I *945:B I *D sky130_fd_sc_hd__nor2_4
*I *1536:X O *D sky130_fd_sc_hd__buf_2
*CAP
1 *945:B 0.000304082
2 *1536:X 0.000304082
3 *945:B *667:44 0
4 *945:B *667:57 0.000103253
5 *945:B *671:10 2.14658e-05
6 *945:B *671:12 0.000118018
7 *944:A *945:B 0.00015862
8 *1201:A *945:B 0
*RES
1 *1536:X *945:B 32.6536 
*END

*D_NET *551 0.0204726
*CONN
*I *1046:A1 I *D sky130_fd_sc_hd__a21boi_2
*I *1009:B I *D sky130_fd_sc_hd__nand3_4
*I *1010:B1 I *D sky130_fd_sc_hd__a21o_4
*I *999:B I *D sky130_fd_sc_hd__and4_2
*I *1001:B1 I *D sky130_fd_sc_hd__o31a_2
*I *1174:A1 I *D sky130_fd_sc_hd__o2111ai_2
*I *1433:A I *D sky130_fd_sc_hd__dlymetal6s2s_1
*I *1079:A1 I *D sky130_fd_sc_hd__o21ai_4
*I *1080:A1 I *D sky130_fd_sc_hd__o21a_2
*I *1454:X O *D sky130_fd_sc_hd__buf_6
*CAP
1 *1046:A1 3.39568e-05
2 *1009:B 0.000386959
3 *1010:B1 8.64534e-05
4 *999:B 0
5 *1001:B1 0
6 *1174:A1 0.000328215
7 *1433:A 0.000465769
8 *1079:A1 0.00016385
9 *1080:A1 3.23366e-05
10 *1454:X 0.000603868
11 *551:127 0.000603557
12 *551:114 0.000335039
13 *551:72 0.00110028
14 *551:46 0.000875737
15 *551:38 0.0010766
16 *551:36 0.000273587
17 *551:26 0.0012619
18 *551:10 0.00174889
19 *1079:A1 *1076:B 0.000259549
20 *1079:A1 *554:25 0.000216755
21 *1079:A1 *602:29 0.000121573
22 *1079:A1 *634:91 0.000123295
23 *1080:A1 *1128:A1 0
24 *1433:A *1114:B 0.000122091
25 *1433:A *1162:A1 0.000217663
26 *1433:A *1465:A 9.60939e-05
27 *1433:A *596:8 9.71197e-05
28 *1433:A *628:16 0.000225609
29 *1433:A *665:10 3.51442e-05
30 *1433:A *665:12 0.000148196
31 *551:26 *999:C 0.000112869
32 *551:36 *1001:A2 1.15322e-05
33 *551:36 *634:64 0.000132438
34 *551:36 *634:72 4.58976e-05
35 *551:38 *634:72 1.33343e-05
36 *551:46 *1076:C 1.97176e-05
37 *551:46 *1128:A1 0.000136958
38 *551:46 *628:10 0
39 *551:46 *628:16 0
40 *551:46 *646:97 0.000971047
41 *551:72 *1001:A2 0
42 *551:72 *1114:B 0.000256708
43 *551:72 *628:16 0.00100398
44 *551:72 *634:72 0
45 *980:A_N *551:10 9.80173e-05
46 *980:B *551:10 7.03295e-05
47 *981:A_N *551:10 6.65398e-05
48 *981:B *551:10 0.000153054
49 *1007:A *551:26 0.000357945
50 *1009:A *1009:B 2.68461e-05
51 *1011:A1_N *551:10 5.83233e-05
52 *1011:A1_N *551:114 0.000173812
53 *1011:A1_N *551:127 0.00015134
54 *1011:A2_N *551:10 0.000164008
55 *1012:A *551:10 6.39901e-05
56 *1029:A2 *1079:A1 0
57 *1041:B *551:26 4.75908e-05
58 *1046:A2 *1009:B 7.1416e-05
59 *1046:A2 *1046:A1 9.90431e-05
60 *1046:B1_N *1009:B 0.000206223
61 *1080:B1 *1080:A1 3.57366e-05
62 *1080:B1 *551:46 9.60875e-05
63 *1145:B2 *551:127 0
64 *1145:C1 *551:10 1.78353e-05
65 *1145:C1 *551:114 5.7599e-05
66 *1145:C1 *551:127 0.000102315
67 *1170:A2 *1174:A1 9.25014e-06
68 *1171:B1 *1174:A1 0
69 *1410:B *551:10 0
70 *1512:A *551:10 0
71 *1539:A *551:46 2.8266e-06
72 *1539:A *551:72 5.52302e-05
73 *1567:A *551:26 4.58194e-05
74 *1576:A *1433:A 9.41642e-05
75 *41:67 *551:46 1.59935e-05
76 *41:80 *551:46 6.32852e-05
77 *42:42 *551:36 0.000197552
78 *42:42 *551:38 0.000117621
79 *42:42 *551:72 0.000235143
80 *43:24 *551:26 0.000184745
81 *44:25 *551:26 0.000402922
82 *45:6 *551:26 1.5424e-05
83 *45:6 *551:36 0.000175892
84 *51:34 *1009:B 2.6269e-05
85 *53:10 *551:127 4.02462e-05
86 *53:46 *551:127 5.75803e-05
87 *69:12 *551:26 0.000108538
88 *84:16 *551:26 0.000977438
89 *89:10 *1046:A1 7.43578e-06
90 *114:14 *551:46 0
91 *115:24 *551:46 0.000135575
92 *161:35 *1433:A 0.000223469
93 *161:52 *551:46 0.000235548
94 *200:29 *1433:A 0.000177815
95 *202:10 *1174:A1 0
96 *202:10 *1433:A 0.000384646
97 *208:10 *1174:A1 0.00012401
98 *469:16 *1010:B1 9.7659e-05
99 *487:29 *551:26 2.59355e-05
100 *492:14 *551:10 3.28534e-05
101 *495:10 *551:10 7.32272e-05
102 *529:22 *1174:A1 4.65158e-06
103 *548:22 *1174:A1 0.000261237
*RES
1 *1454:X *551:10 26.675 
2 *551:10 *551:26 36.0536 
3 *551:26 *551:36 5.23214 
4 *551:36 *551:38 2.17857 
5 *551:38 *551:46 24.9821 
6 *551:46 *1080:A1 10.0321 
7 *551:46 *1079:A1 22.9607 
8 *551:38 *551:72 11.6429 
9 *551:72 *1433:A 32.6036 
10 *551:72 *1174:A1 25.1036 
11 *551:36 *1001:B1 9.3 
12 *551:26 *999:B 9.3 
13 *551:10 *551:114 2.25 
14 *551:114 *1010:B1 15.5679 
15 *551:114 *551:127 9.48214 
16 *551:127 *1009:B 15.2464 
17 *551:127 *1046:A1 10.2464 
*END

*D_NET *552 0.00883667
*CONN
*I *1118:A2 I *D sky130_fd_sc_hd__o311a_2
*I *1327:A1 I *D sky130_fd_sc_hd__a31o_2
*I *1294:A1 I *D sky130_fd_sc_hd__a311o_2
*I *1290:A1 I *D sky130_fd_sc_hd__a21oi_2
*I *1411:X O *D sky130_fd_sc_hd__clkbuf_1
*CAP
1 *1118:A2 0.00118713
2 *1327:A1 0
3 *1294:A1 7.33584e-05
4 *1290:A1 9.12677e-05
5 *1411:X 0
6 *552:22 0.000801182
7 *552:14 0.00101976
8 *552:4 0.00157034
9 *1118:A2 *995:B 4.3049e-05
10 *1118:A2 *1118:A3 0.000309669
11 *1118:A2 *1253:B2 1.16949e-05
12 *1118:A2 *1291:B1 1.92789e-05
13 *1118:A2 *654:10 0.000313235
14 *1118:A2 *655:72 0.000141729
15 *1118:A2 *655:85 0.000211877
16 *1118:A2 *655:118 0.000482107
17 *1290:A1 *1289:A2 5.52302e-05
18 *1290:A1 *655:20 0.000124959
19 *1294:A1 *1294:A2 1.98839e-05
20 *1294:A1 *1294:A3 9.41642e-05
21 *1294:A1 *1294:C1 4.28157e-06
22 *1294:A1 *655:20 2.59355e-05
23 *552:14 *1327:A3 2.06112e-05
24 *552:14 *655:72 0.00035112
25 *552:22 *1294:A3 3.34366e-05
26 *552:22 *1327:B1 4.56405e-05
27 *552:22 *655:16 8.00806e-05
28 *1113:A2 *1118:A2 0
29 *1249:B *1294:A1 3.69047e-06
30 *1291:A1 *1118:A2 8.43535e-06
31 *1291:A2 *1118:A2 0.000177815
32 *1295:A1 *552:22 1.03037e-05
33 *1295:A2 *552:22 2.89016e-05
34 *1296:A2 *1294:A1 0
35 *1297:C *552:22 0.000127446
36 *1328:B1 *552:14 3.12359e-05
37 *1332:A1 *552:22 5.23856e-05
38 *1434:A *552:22 9.68461e-05
39 *154:10 *1118:A2 0.000172607
40 *244:10 *1118:A2 0.000260574
41 *332:12 *552:14 0
42 *334:10 *1290:A1 0.000173921
43 *334:10 *1294:A1 1.69961e-05
44 *341:10 *552:14 3.25862e-05
45 *342:12 *552:22 0.000249216
46 *532:18 *552:14 0.000125125
47 *532:18 *552:22 0.000137561
*RES
1 *1411:X *552:4 9.3 
2 *552:4 *552:14 15.1071 
3 *552:14 *552:22 20.3571 
4 *552:22 *1290:A1 12.7286 
5 *552:22 *1294:A1 11.0857 
6 *552:14 *1327:A1 9.3 
7 *552:4 *1118:A2 39.4786 
*END

*D_NET *553 0.0062478
*CONN
*I *1113:B1 I *D sky130_fd_sc_hd__o21ai_2
*I *1537:X O *D sky130_fd_sc_hd__buf_2
*CAP
1 *1113:B1 0.00244084
2 *1537:X 0.00244084
3 *1113:B1 *949:A 0.000250353
4 *1113:B1 *982:A1 0
5 *1113:B1 *994:A1_N 9.59532e-06
6 *1113:B1 *1532:A 2.04825e-05
7 *1113:B1 *1537:A 1.86951e-05
8 *1113:B1 *561:38 0
9 *1113:B1 *631:87 0
10 *114:14 *1113:B1 0.000649084
11 *154:10 *1113:B1 0.000140263
12 *191:20 *1113:B1 0
13 *499:22 *1113:B1 0.000107169
14 *502:12 *1113:B1 0.000170484
15 *506:45 *1113:B1 0
16 *506:114 *1113:B1 0
*RES
1 *1537:X *1113:B1 48.8427 
*END

*D_NET *554 0.0117854
*CONN
*I *1075:B1 I *D sky130_fd_sc_hd__o21a_2
*I *1178:A2 I *D sky130_fd_sc_hd__a22oi_2
*I *1261:A1 I *D sky130_fd_sc_hd__o21a_2
*I *1226:B2 I *D sky130_fd_sc_hd__a22oi_2
*I *949:B I *D sky130_fd_sc_hd__and2_2
*I *1538:X O *D sky130_fd_sc_hd__buf_2
*CAP
1 *1075:B1 0
2 *1178:A2 0
3 *1261:A1 0.000512552
4 *1226:B2 6.83996e-05
5 *949:B 0.000122872
6 *1538:X 9.9383e-05
7 *554:56 0.000682301
8 *554:41 0.00104613
9 *554:25 0.00154731
10 *554:8 0.000961579
11 *949:B *561:10 0.000238762
12 *1261:A1 *928:A 0.000173097
13 *1261:A1 *630:94 0.000113283
14 *554:25 *1076:A 0
15 *554:25 *1076:B 0.000248818
16 *554:25 *561:10 0.000501328
17 *554:41 *1128:A1 3.84291e-05
18 *554:41 *1138:A1 0.000310292
19 *554:41 *634:91 0
20 *554:41 *649:68 9.41642e-05
21 *554:56 *928:A 7.2589e-05
22 *554:56 *649:68 3.34366e-05
23 *1029:B1 *554:25 0
24 *1034:A *554:25 0
25 *1036:A1 *554:25 4.73656e-05
26 *1041:B *554:8 0.000139907
27 *1079:A1 *554:25 0.000216755
28 *1079:B1 *554:41 0
29 *1123:B1 *554:41 0
30 *1124:C *554:41 0.000396427
31 *1128:B1 *554:56 0.000153054
32 *1130:A1 *1226:B2 0.000221641
33 *1130:A1 *554:41 9.4879e-05
34 *1178:B1 *554:56 5.33334e-05
35 *1226:B1 *1226:B2 0.000178847
36 *37:10 *949:B 0.00018372
37 *38:6 *949:B 0.000100625
38 *76:16 *554:25 0.00024292
39 *99:36 *554:41 0.000266099
40 *114:25 *554:41 0
41 *115:24 *554:41 1.53908e-05
42 *115:39 *554:41 5.38886e-05
43 *116:18 *949:B 0.000242198
44 *116:18 *554:25 0.00124157
45 *121:12 *554:25 9.05384e-05
46 *122:10 *554:25 3.71496e-05
47 *161:52 *554:41 0.000213383
48 *164:10 *554:41 0
49 *165:10 *554:41 7.83174e-05
50 *215:12 *1261:A1 0
51 *215:12 *554:41 0.000266099
52 *215:12 *554:56 0.000189655
53 *268:10 *1261:A1 0.000114829
54 *292:113 *554:56 5.03772e-05
55 *513:10 *554:56 3.17148e-05
*RES
1 *1538:X *554:8 15.1571 
2 *554:8 *949:B 18.7286 
3 *554:8 *554:25 26.1786 
4 *554:25 *554:41 37.4821 
5 *554:41 *1226:B2 11.4786 
6 *554:41 *554:56 14.9286 
7 *554:56 *1261:A1 28.3357 
8 *554:56 *1178:A2 9.3 
9 *554:25 *1075:B1 9.3 
*END

*D_NET *555 0.00111441
*CONN
*I *994:A1_N I *D sky130_fd_sc_hd__o2bb2ai_2
*I *1539:X O *D sky130_fd_sc_hd__buf_2
*CAP
1 *994:A1_N 0.000253098
2 *1539:X 0.000253098
3 *1113:B1 *994:A1_N 9.59532e-06
4 *1539:A *994:A1_N 0.000139653
5 *42:42 *994:A1_N 0.00018372
6 *114:14 *994:A1_N 0.000102159
7 *499:22 *994:A1_N 0.000173083
*RES
1 *1539:X *994:A1_N 33.4393 
*END

*D_NET *556 0.00728026
*CONN
*I *1207:A1 I *D sky130_fd_sc_hd__o211a_4
*I *1206:B1 I *D sky130_fd_sc_hd__o311ai_4
*I *1529:A I *D sky130_fd_sc_hd__buf_4
*I *1101:B1 I *D sky130_fd_sc_hd__o311ai_4
*I *1540:X O *D sky130_fd_sc_hd__buf_4
*CAP
1 *1207:A1 0
2 *1206:B1 0
3 *1529:A 0.000279086
4 *1101:B1 3.99336e-05
5 *1540:X 0.000449726
6 *556:26 0.000931829
7 *556:20 0.00088664
8 *556:18 0.000723557
9 *1529:A *637:72 0.000170943
10 *1529:A *637:91 4.46186e-06
11 *556:18 *1288:B2 7.57946e-05
12 *556:18 *578:27 0.00012401
13 *556:18 *631:76 0.000393621
14 *556:20 *931:A 1.44708e-05
15 *556:26 *943:A 0.000354904
16 *556:26 *667:10 3.04612e-05
17 *556:26 *671:64 0.000195587
18 *1064:A3 *1529:A 2.30116e-06
19 *1101:A3 *1101:B1 0
20 *1101:A3 *556:26 0.000398815
21 *1108:B1 *1529:A 3.23658e-05
22 *1205:B *556:18 0.000324957
23 *1205:B *556:20 0.000382168
24 *1206:C1 *556:20 1.00887e-05
25 *1206:C1 *556:26 0.000587746
26 *1210:A2 *556:18 4.97121e-06
27 *1249:B *556:18 4.87854e-05
28 *142:6 *1529:A 4.08637e-05
29 *142:12 *1529:A 0.000268396
30 *142:12 *556:26 1.33343e-05
31 *245:12 *556:18 0.000105582
32 *245:12 *556:20 0.000249143
33 *331:10 *556:18 7.75022e-05
34 *460:51 *556:20 1.04777e-05
35 *460:51 *556:26 4.77408e-05
*RES
1 *1540:X *556:18 32.5679 
2 *556:18 *556:20 7.41071 
3 *556:20 *556:26 19.6071 
4 *556:26 *1101:B1 10.0321 
5 *556:26 *1529:A 23.9607 
6 *556:20 *1206:B1 13.8 
7 *556:18 *1207:A1 13.8 
*END

*D_NET *557 0.000411225
*CONN
*I *1189:A1 I *D sky130_fd_sc_hd__o21a_4
*I *1541:X O *D sky130_fd_sc_hd__buf_2
*CAP
1 *1189:A1 0.000135128
2 *1541:X 0.000135128
3 *1238:A1 *1189:A1 6.74815e-05
4 *1541:A *1189:A1 3.69047e-06
5 *222:8 *1189:A1 6.97972e-05
*RES
1 *1541:X *1189:A1 30.1893 
*END

*D_NET *558 0.000975869
*CONN
*I *1236:A2 I *D sky130_fd_sc_hd__o22ai_2
*I *1542:X O *D sky130_fd_sc_hd__buf_2
*CAP
1 *1236:A2 0.000306032
2 *1542:X 0.000306032
3 *1234:A1 *1236:A2 9.41642e-05
4 *1234:A2 *1236:A2 1.98839e-05
5 *1234:B1 *1236:A2 6.32633e-05
6 *1542:A *1236:A2 1.98839e-05
7 *235:10 *1236:A2 0.000123295
8 *315:16 *1236:A2 4.33143e-05
*RES
1 *1542:X *1236:A2 32.2429 
*END

*D_NET *559 0.000807916
*CONN
*I *1238:A2 I *D sky130_fd_sc_hd__o211ai_2
*I *1543:X O *D sky130_fd_sc_hd__buf_2
*CAP
1 *1238:A2 0.000273301
2 *1543:X 0.000273301
3 *1238:C1 *1238:A2 3.67142e-05
4 *1239:B *1238:A2 0.000224599
5 *1316:A1 *1238:A2 0
6 *1543:A *1238:A2 0
*RES
1 *1543:X *1238:A2 32.9214 
*END

*D_NET *560 0.000576248
*CONN
*I *1116:A1 I *D sky130_fd_sc_hd__a21oi_2
*I *1544:X O *D sky130_fd_sc_hd__buf_2
*CAP
1 *1116:A1 0.00017614
2 *1544:X 0.00017614
3 *1116:A2 *1116:A1 9.90367e-05
4 *1119:B1 *1116:A1 0
5 *1120:A2 *1116:A1 0.00010326
6 *154:10 *1116:A1 2.16719e-05
7 *249:12 *1116:A1 0
*RES
1 *1544:X *1116:A1 31.3143 
*END

*D_NET *561 0.0164316
*CONN
*I *1023:B1 I *D sky130_fd_sc_hd__o311ai_2
*I *966:B1 I *D sky130_fd_sc_hd__o21a_2
*I *984:B1 I *D sky130_fd_sc_hd__o311ai_4
*I *1074:A1 I *D sky130_fd_sc_hd__o211ai_4
*I *1073:A1 I *D sky130_fd_sc_hd__o211a_4
*I *1070:B1 I *D sky130_fd_sc_hd__o311ai_4
*I *1160:B1 I *D sky130_fd_sc_hd__o311ai_4
*I *962:B I *D sky130_fd_sc_hd__nand2_2
*I *1545:X O *D sky130_fd_sc_hd__buf_6
*CAP
1 *1023:B1 3.39029e-05
2 *966:B1 0.000468791
3 *984:B1 4.68693e-05
4 *1074:A1 0
5 *1073:A1 0.000213234
6 *1070:B1 6.04055e-05
7 *1160:B1 0.000334613
8 *962:B 0.000404848
9 *1545:X 0.000593402
10 *561:85 0.000313481
11 *561:50 0.0015599
12 *561:46 0.000954291
13 *561:44 0.000495828
14 *561:38 0.00108497
15 *561:14 0.00123986
16 *561:10 0.000682408
17 *962:B *962:A 0.000173764
18 *962:B *1107:B1 9.77423e-05
19 *962:B *1153:A2 9.5238e-05
20 *962:B *1514:A 0
21 *962:B *1579:A 3.97677e-05
22 *962:B *599:14 0.000262504
23 *962:B *672:41 3.34366e-05
24 *962:B *675:10 1.17968e-05
25 *966:B1 *971:A2 0.000354105
26 *966:B1 *647:58 3.5097e-05
27 *984:B1 *985:B 2.12733e-05
28 *1023:B1 *632:75 2.59355e-05
29 *1070:B1 *668:60 0.000142838
30 *1073:A1 *1072:B2 1.00375e-05
31 *1073:A1 *629:70 0.000384404
32 *1160:B1 *1153:B1 0
33 *561:10 *949:A 2.06178e-05
34 *561:10 *999:D 6.44623e-05
35 *561:10 *634:64 2.5565e-05
36 *561:10 *647:77 0
37 *561:38 *982:A1 5.02307e-05
38 *561:38 *982:A2 0.000102423
39 *561:38 *1532:A 0.00019029
40 *561:38 *1537:A 1.03696e-05
41 *561:38 *647:58 0.000427994
42 *561:38 *668:80 4.57131e-05
43 *561:38 *668:93 7.58841e-05
44 *561:44 *956:C 5.50052e-05
45 *561:44 *668:60 8.43535e-06
46 *561:44 *668:67 4.37451e-05
47 *561:44 *668:71 0.000317822
48 *561:44 *668:80 9.54798e-06
49 *561:46 *668:60 2.97489e-05
50 *561:50 *1153:B1 5.50052e-05
51 *561:50 *668:40 0.000181665
52 *561:50 *668:60 9.85599e-06
53 *561:85 *1072:B2 5.12445e-05
54 *561:85 *629:70 0.000240182
55 *949:B *561:10 0.000238762
56 *950:A1 *966:B1 0.000147381
57 *950:A1 *561:38 0
58 *953:A2 *561:10 0.000108295
59 *965:A1 *966:B1 0.00015716
60 *966:A1 *966:B1 4.4545e-05
61 *984:C1 *984:B1 0.000142609
62 *984:C1 *561:38 0.000146934
63 *986:B1 *984:B1 0.000193257
64 *1008:A1 *966:B1 6.05161e-06
65 *1023:A3 *561:14 0.000177234
66 *1034:A *561:10 6.85604e-05
67 *1070:A3 *561:85 5.74242e-05
68 *1070:C1 *561:50 0.000139338
69 *1074:A2 *1073:A1 0.000184187
70 *1107:A1 *962:B 5.33005e-05
71 *1113:B1 *561:38 0
72 *1160:C1 *1160:B1 4.87841e-05
73 *1447:A *962:B 3.34366e-05
74 *42:53 *561:10 2.84009e-05
75 *114:14 *561:38 3.16719e-05
76 *114:14 *561:44 0.000142495
77 *116:18 *561:10 3.14104e-05
78 *193:10 *962:B 8.67814e-06
79 *193:10 *1160:B1 2.41452e-05
80 *193:10 *561:50 0.000182804
81 *282:39 *1073:A1 0.00018372
82 *292:61 *561:10 0.00017309
83 *292:61 *561:14 0.000173812
84 *292:82 *561:10 6.81083e-05
85 *378:56 *962:B 0.000178847
86 *506:18 *962:B 1.50223e-05
87 *506:18 *1160:B1 2.42984e-05
88 *506:39 *1160:B1 0.000186811
89 *546:8 *561:38 0.000130693
90 *546:47 *561:38 6.60368e-05
91 *546:60 *966:B1 4.23801e-05
92 *546:69 *966:B1 0.000100074
93 *554:25 *561:10 0.000501328
*RES
1 *1545:X *561:10 28.7286 
2 *561:10 *561:14 6.75 
3 *561:14 *561:38 28.0179 
4 *561:38 *561:44 10.6429 
5 *561:44 *561:46 0.946429 
6 *561:46 *561:50 15.3036 
7 *561:50 *962:B 23.4607 
8 *561:50 *1160:B1 20.3 
9 *561:46 *1070:B1 11.3893 
10 *561:44 *561:85 7.66071 
11 *561:85 *1073:A1 20.55 
12 *561:85 *1074:A1 13.8 
13 *561:38 *984:B1 16.0321 
14 *561:14 *966:B1 19.8357 
15 *561:10 *1023:B1 14.3357 
*END

*D_NET *562 0.0113924
*CONN
*I *1125:A2 I *D sky130_fd_sc_hd__o21a_2
*I *1056:B I *D sky130_fd_sc_hd__or2_2
*I *1054:B I *D sky130_fd_sc_hd__nand2_2
*I *1053:B I *D sky130_fd_sc_hd__and2_4
*I *1055:A I *D sky130_fd_sc_hd__nor2_4
*I *1126:A2 I *D sky130_fd_sc_hd__a21o_2
*I *1455:X O *D sky130_fd_sc_hd__clkdlybuf4s25_1
*CAP
1 *1125:A2 0
2 *1056:B 8.80189e-05
3 *1054:B 5.20794e-05
4 *1053:B 0
5 *1055:A 0
6 *1126:A2 0.000237255
7 *1455:X 0.00100017
8 *562:54 0.000135423
9 *562:50 0.000171363
10 *562:48 0.000219125
11 *562:24 0.000357608
12 *562:22 0.00172327
13 *562:16 0.00238396
14 *1054:B *1054:A 0.000271352
15 *1054:B *651:52 5.33005e-05
16 *1056:B *1056:A 8.47107e-05
17 *1056:B *1127:A2 4.1331e-06
18 *1056:B *649:34 0
19 *1056:B *649:44 2.97074e-05
20 *1126:A2 *1125:A1 0.000136951
21 *562:16 *1334:B2 5.33005e-05
22 *562:16 *1361:B1 0.0004897
23 *562:16 *1367:D 7.48091e-05
24 *562:16 *1382:B 3.42301e-05
25 *562:16 *569:19 0.000310292
26 *562:16 *648:42 0.000134549
27 *562:16 *648:46 3.8432e-05
28 *562:22 *638:102 1.74352e-05
29 *562:24 *1056:A 0
30 *562:48 *1360:B1 0.000227258
31 *562:54 *1056:A 2.16719e-05
32 *562:54 *1125:A1 0.000175519
33 *1360:A1 *1126:A2 0
34 *1360:A1 *562:24 0
35 *1360:A2 *562:48 0.00018372
36 *1360:C1 *562:24 2.56694e-05
37 *1360:D1 *562:22 3.92757e-05
38 *1360:D1 *562:24 2.84494e-05
39 *1363:A2 *562:22 8.46829e-05
40 *1366:B *562:22 1.92789e-05
41 *1367:A *562:16 5.33005e-05
42 *1402:A *562:22 4.39735e-05
43 *75:25 *562:22 0.000262504
44 *95:26 *1054:B 5.71472e-05
45 *97:57 *1054:B 8.57535e-05
46 *98:12 *562:22 0.000265447
47 *166:19 *1056:B 0
48 *303:28 *1126:A2 0.000364953
49 *303:28 *562:22 6.81083e-05
50 *303:28 *562:24 0.000239236
51 *389:10 *1126:A2 3.55552e-05
52 *406:10 *562:22 6.12434e-05
53 *409:6 *562:48 1.24368e-05
54 *416:20 *562:22 0.000816507
55 *506:58 *1056:B 4.46186e-06
56 *506:58 *562:54 0.000115072
*RES
1 *1455:X *562:16 33.5679 
2 *562:16 *562:22 23.3214 
3 *562:22 *562:24 3.16071 
4 *562:24 *1126:A2 19.8357 
5 *562:24 *1055:A 13.8 
6 *562:22 *562:48 9.16071 
7 *562:48 *562:50 4.5 
8 *562:50 *562:54 7.35714 
9 *562:54 *1053:B 9.3 
10 *562:54 *1054:B 11.8893 
11 *562:50 *1056:B 16.05 
12 *562:48 *1125:A2 9.3 
*END

*D_NET *563 0.00133643
*CONN
*I *1194:B1 I *D sky130_fd_sc_hd__o21ai_2
*I *1144:B I *D sky130_fd_sc_hd__nand2b_2
*I *1546:X O *D sky130_fd_sc_hd__buf_2
*CAP
1 *1194:B1 0
2 *1144:B 0.00019771
3 *1546:X 0.000350982
4 *563:10 0.000548692
5 *1144:B *1194:A1 0
6 *563:10 *1194:A1 0
7 *1144:A_N *1144:B 0
8 *1147:A *1144:B 5.30637e-06
9 *1195:A *563:10 0
10 *1195:B *563:10 9.47456e-05
11 *1242:A1 *1144:B 4.1331e-06
12 *1242:A1 *563:10 6.53874e-05
13 *183:8 *1144:B 6.94694e-05
14 *187:23 *563:10 0
*RES
1 *1546:X *563:10 19.9429 
2 *563:10 *1144:B 17.6571 
3 *563:10 *1194:B1 13.8 
*END

*D_NET *564 0.00030246
*CONN
*I *1081:A1 I *D sky130_fd_sc_hd__o21ai_2
*I *1547:X O *D sky130_fd_sc_hd__buf_6
*CAP
1 *1081:A1 5.32269e-05
2 *1547:X 5.32269e-05
3 *131:8 *1081:A1 9.80029e-05
4 *292:82 *1081:A1 9.80029e-05
*RES
1 *1547:X *1081:A1 29.85 
*END

*D_NET *565 0.00381077
*CONN
*I *1289:A1 I *D sky130_fd_sc_hd__o21ai_2
*I *1548:X O *D sky130_fd_sc_hd__buf_2
*CAP
1 *1289:A1 0
2 *1548:X 0.000906574
3 *565:22 0.000906574
4 *565:22 *933:A 4.7091e-05
5 *565:22 *1292:A3 0.000132791
6 *565:22 *1293:B1 0.000106264
7 *565:22 *1328:A1 0.000310303
8 *565:22 *581:16 5.39456e-05
9 *565:22 *655:59 0.000222524
10 *1292:A2 *565:22 5.97719e-05
11 *1292:C1 *565:22 5.52302e-05
12 *1293:A2 *565:22 6.50027e-05
13 *1296:B1 *565:22 0.000167216
14 *1299:C1 *565:22 2.51343e-06
15 *341:10 *565:22 0.000169678
16 *341:14 *565:22 0.00015304
17 *474:8 *565:22 0.000209595
18 *532:18 *565:22 0.000242653
*RES
1 *1548:X *565:22 41.4429 
2 *565:22 *1289:A1 9.3 
*END

*D_NET *566 0.00165071
*CONN
*I *1030:A I *D sky130_fd_sc_hd__nor3b_4
*I *1549:X O *D sky130_fd_sc_hd__buf_2
*CAP
1 *1030:A 0.000350183
2 *1549:X 0.000350183
3 *1030:A *1211:A2 7.3237e-05
4 *1030:A *1214:B1 0.000215583
5 *1030:A *1214:C1 0.000335201
6 *1030:A *628:35 0.000175519
7 *1030:A *640:24 5.84075e-05
8 *303:28 *1030:A 8.24047e-05
9 *540:43 *1030:A 9.99644e-06
*RES
1 *1549:X *1030:A 35.8679 
*END

*D_NET *567 0.00443068
*CONN
*I *1288:B2 I *D sky130_fd_sc_hd__o221ai_2
*I *1550:X O *D sky130_fd_sc_hd__buf_2
*CAP
1 *1288:B2 0.00111369
2 *1550:X 0.00111369
3 *1288:B2 *1203:A2 3.34634e-05
4 *1288:B2 *578:10 0.000271651
5 *1288:B2 *578:23 0.000202835
6 *1203:B1 *1288:B2 0.000121897
7 *1208:A2 *1288:B2 0
8 *1249:A *1288:B2 0.000281133
9 *1288:B1 *1288:B2 5.33005e-05
10 *1288:C1 *1288:B2 5.33005e-05
11 *1550:A *1288:B2 0.000697439
12 *242:8 *1288:B2 0
13 *290:10 *1288:B2 0.000145753
14 *331:10 *1288:B2 0.000142894
15 *389:24 *1288:B2 0.00012384
16 *556:18 *1288:B2 7.57946e-05
*RES
1 *1550:X *1288:B2 49.4393 
*END

*D_NET *568 0.00235193
*CONN
*I *986:A1_N I *D sky130_fd_sc_hd__o2bb2ai_2
*I *1551:X O *D sky130_fd_sc_hd__buf_2
*CAP
1 *986:A1_N 0.000796386
2 *1551:X 0.000796386
3 *986:A1_N *637:134 5.02726e-05
4 *1066:C *986:A1_N 0.000345224
5 *346:8 *986:A1_N 0.000308913
6 *526:12 *986:A1_N 5.21702e-05
7 *549:61 *986:A1_N 2.57552e-06
*RES
1 *1551:X *986:A1_N 38.8143 
*END

*D_NET *569 0.00552125
*CONN
*I *1361:B1 I *D sky130_fd_sc_hd__o2bb2a_2
*I *1285:A1 I *D sky130_fd_sc_hd__a22oi_2
*I *1334:B2 I *D sky130_fd_sc_hd__a22oi_2
*I *1552:X O *D sky130_fd_sc_hd__buf_2
*CAP
1 *1361:B1 0.000720635
2 *1285:A1 0.000288941
3 *1334:B2 9.38886e-05
4 *1552:X 0
5 *569:19 0.00109636
6 *569:4 0.000180672
7 *1285:A1 *1285:B1 9.83442e-05
8 *1334:B2 *648:46 1.58163e-05
9 *1361:B1 *1365:A1_N 1.54027e-05
10 *1361:B1 *1388:A2 3.14163e-05
11 *1361:B1 *638:79 0.000369542
12 *1361:B1 *638:91 0.000168731
13 *1361:B1 *648:46 0.000206388
14 *569:19 *648:46 0.000100832
15 *1363:C1 *1361:B1 6.55175e-05
16 *1370:B1 *1334:B2 0.000220448
17 *1388:B1 *1361:B1 2.8078e-05
18 *1388:C1 *1361:B1 3.97677e-05
19 *388:10 *1334:B2 0.000218734
20 *391:14 *1285:A1 0.000429939
21 *409:6 *1361:B1 4.08637e-05
22 *409:12 *1361:B1 0.0001399
23 *438:10 *1361:B1 9.77423e-05
24 *562:16 *1334:B2 5.33005e-05
25 *562:16 *1361:B1 0.0004897
26 *562:16 *569:19 0.000310292
*RES
1 *1552:X *569:4 9.3 
2 *569:4 *1334:B2 21.6929 
3 *569:4 *569:19 3 
4 *569:19 *1285:A1 24.8357 
5 *569:19 *1361:B1 26.7107 
*END

*D_NET *570 0.00179853
*CONN
*I *1253:A1 I *D sky130_fd_sc_hd__a22oi_2
*I *1553:X O *D sky130_fd_sc_hd__buf_2
*CAP
1 *1253:A1 0.000273809
2 *1553:X 0.000273809
3 *1253:A1 *1553:A 5.04841e-06
4 *1253:A1 *631:112 0.000111491
5 *1253:A1 *631:119 4.87854e-05
6 *1253:A2 *1253:A1 0.000351162
7 *1328:A2 *1253:A1 3.69047e-06
8 *42:22 *1253:A1 0.000730738
*RES
1 *1553:X *1253:A1 26.975 
*END

*D_NET *571 0.000638
*CONN
*I *1024:A2 I *D sky130_fd_sc_hd__a21oi_2
*I *1554:X O *D sky130_fd_sc_hd__buf_2
*CAP
1 *1024:A2 0.000233173
2 *1554:X 0.000233173
3 *1024:A2 *632:75 7.03103e-05
4 *1024:A2 *637:134 3.34783e-05
5 *1026:B1 *1024:A2 5.7616e-05
6 *200:10 *1024:A2 0
7 *202:10 *1024:A2 1.02504e-05
*RES
1 *1554:X *1024:A2 31.4214 
*END

*D_NET *572 0.000473154
*CONN
*I *1247:A1 I *D sky130_fd_sc_hd__a21o_2
*I *1555:X O *D sky130_fd_sc_hd__buf_2
*CAP
1 *1247:A1 0.000110509
2 *1555:X 0.000110509
3 *1216:A1 *1247:A1 3.92757e-05
4 *1247:B1 *1247:A1 6.65398e-05
5 *348:10 *1247:A1 1.40849e-05
6 *349:10 *1247:A1 7.83462e-05
7 *410:10 *1247:A1 5.38886e-05
*RES
1 *1555:X *1247:A1 31.0643 
*END

*D_NET *573 0.0139247
*CONN
*I *1430:A I *D sky130_fd_sc_hd__buf_6
*I *1402:C I *D sky130_fd_sc_hd__and3_2
*I *1231:A2 I *D sky130_fd_sc_hd__a32o_2
*I *1198:B I *D sky130_fd_sc_hd__and3_2
*I *1225:B I *D sky130_fd_sc_hd__nand2_2
*I *1431:A I *D sky130_fd_sc_hd__clkbuf_2
*I *1456:X O *D sky130_fd_sc_hd__clkbuf_2
*CAP
1 *1430:A 0
2 *1402:C 0.000328214
3 *1231:A2 9.56784e-05
4 *1198:B 0
5 *1225:B 0.000363973
6 *1431:A 0
7 *1456:X 0.00045772
8 *573:62 0.000925093
9 *573:39 0.00149755
10 *573:26 0.00137801
11 *573:16 0.00250731
12 *573:12 0.00156297
13 *1225:B *1226:A2 3.17067e-05
14 *1225:B *627:10 8.15939e-05
15 *1225:B *627:12 7.83366e-05
16 *1402:C *1402:B 1.07719e-05
17 *1402:C *638:34 9.10431e-06
18 *1402:C *662:132 0
19 *573:12 *648:10 1.19309e-05
20 *573:16 *937:A 0.000106138
21 *573:16 *648:10 7.50473e-05
22 *573:26 *1283:B 0.000183726
23 *573:39 *1283:B 1.39726e-05
24 *573:39 *630:81 0.000354105
25 *573:39 *649:24 9.7659e-05
26 p[15] *573:12 0
27 *1198:A *573:62 2.40379e-05
28 *1198:C *1231:A2 1.56e-05
29 *1198:C *573:62 3.69047e-06
30 *1225:A *1225:B 1.3701e-05
31 *1231:A3 *1231:A2 4.25809e-05
32 *1261:B1 *1225:B 0.000146474
33 *1261:B1 *573:39 5.33005e-05
34 *1261:B1 *573:62 1.66503e-05
35 *1266:C1 *573:39 5.7661e-06
36 *1267:B1 *573:62 0.000153054
37 *1267:B2 *573:62 0
38 *1269:B *573:62 9.92409e-05
39 *1269:C *573:39 0.00010462
40 *1269:C *573:62 2.60158e-05
41 *1304:A1 *573:26 2.44318e-05
42 *1305:A2_N *573:26 1.74352e-05
43 *1307:C1 *573:26 0.000130768
44 *1307:C1 *573:39 0.000356028
45 *1405:A *1402:C 0
46 *1405:A *573:16 0.000439624
47 *1405:B *573:16 0.000137561
48 *1408:A4 *1402:C 0.000125908
49 *268:10 *1231:A2 0.000125731
50 *286:12 *1225:B 0
51 *286:12 *573:62 0
52 *301:50 *573:39 1.97865e-05
53 *305:8 *1225:B 1.18358e-05
54 *305:8 *573:62 0
55 *327:10 *573:26 0.00074049
56 *348:10 *1402:C 0.000576609
57 *348:14 *573:26 0.000170955
58 *400:12 *573:16 5.33005e-05
59 *443:10 *573:12 0
60 *446:10 *573:12 4.48113e-05
61 *446:10 *573:16 2.24763e-05
62 *446:19 *573:12 5.16396e-05
*RES
1 *1456:X *573:12 25.3714 
2 *573:12 *573:16 18.9286 
3 *573:16 *573:26 16.625 
4 *573:26 *1431:A 9.3 
5 *573:26 *573:39 13.2857 
6 *573:39 *1225:B 21.5679 
7 *573:39 *573:62 16.0357 
8 *573:62 *1198:B 9.3 
9 *573:62 *1231:A2 20.4786 
10 *573:16 *1402:C 26.2464 
11 *573:12 *1430:A 9.3 
*END

*D_NET *574 0.0018723
*CONN
*I *1240:A I *D sky130_fd_sc_hd__nand2_2
*I *1556:X O *D sky130_fd_sc_hd__buf_2
*CAP
1 *1240:A 0.000289708
2 *1556:X 0.000289708
3 *1240:B *1240:A 0.000126209
4 *1280:A *1240:A 2.50463e-05
5 *1316:C1 *1240:A 0.000247771
6 *1317:C1 *1240:A 0.000346632
7 *1528:A *1240:A 0.000128161
8 *1556:A *1240:A 0.000344244
9 *515:10 *1240:A 7.4826e-05
*RES
1 *1556:X *1240:A 37.7786 
*END

*D_NET *575 0.00205187
*CONN
*I *1138:B1 I *D sky130_fd_sc_hd__o31a_2
*I *1557:X O *D sky130_fd_sc_hd__buf_2
*CAP
1 *1138:B1 0.000325248
2 *1557:X 0.000325248
3 *1138:B1 *1138:A1 0.000349829
4 *1130:B1 *1138:B1 1.28809e-05
5 *1130:B2 *1138:B1 7.64371e-05
6 *1131:B *1138:B1 9.02232e-05
7 *1138:A2 *1138:B1 2.00059e-05
8 *1140:B1 *1138:B1 0.000655813
9 *101:22 *1138:B1 0.000196188
*RES
1 *1557:X *1138:B1 29.4393 
*END

*D_NET *576 0.00433076
*CONN
*I *1070:A1 I *D sky130_fd_sc_hd__o311ai_4
*I *1067:A I *D sky130_fd_sc_hd__nand3_2
*I *1065:A1 I *D sky130_fd_sc_hd__o21ai_2
*I *1558:X O *D sky130_fd_sc_hd__buf_2
*CAP
1 *1070:A1 0.000807885
2 *1067:A 0
3 *1065:A1 3.65878e-05
4 *1558:X 0.000209975
5 *576:21 0.00097898
6 *576:8 0.000417657
7 *1065:A1 *1065:A2 3.07555e-05
8 *1070:A1 *956:C 5.41499e-05
9 *1070:A1 *668:10 7.48356e-05
10 *1070:A1 *668:34 3.27158e-05
11 *1070:A1 *668:60 0.000107363
12 *1070:A1 *668:67 3.09985e-05
13 *576:8 *1068:A2 0.00022809
14 *576:8 *1558:A 1.21289e-05
15 *576:8 *629:87 5.52302e-05
16 *576:21 *1065:A2 5.19413e-05
17 *576:21 *668:10 1.02504e-05
18 *1068:A1 *576:8 5.52302e-05
19 *1068:B1 *1065:A1 9.69119e-06
20 *1068:B1 *576:8 5.52302e-05
21 *1068:B1 *576:21 4.04161e-05
22 *1071:B *1070:A1 0
23 *1072:B1 *1070:A1 0.000219366
24 *110:8 *576:21 0
25 *282:39 *1070:A1 0.000218636
26 *282:125 *1070:A1 0.000256016
27 *549:53 *1070:A1 0.000336626
*RES
1 *1558:X *576:8 18.0321 
2 *576:8 *1065:A1 14.5321 
3 *576:8 *576:21 2.78571 
4 *576:21 *1067:A 13.8 
5 *576:21 *1070:A1 29.6393 
*END

*D_NET *577 0.00169045
*CONN
*I *957:A2 I *D sky130_fd_sc_hd__a21oi_2
*I *946:A I *D sky130_fd_sc_hd__nor2_4
*I *975:A3 I *D sky130_fd_sc_hd__o31a_2
*I *1559:X O *D sky130_fd_sc_hd__buf_2
*CAP
1 *957:A2 9.5307e-05
2 *946:A 0
3 *975:A3 0.000121739
4 *1559:X 0
5 *577:10 0.000268345
6 *577:4 0.000241913
7 *957:A2 *958:B1 1.15281e-05
8 *957:A2 *632:87 0.000124157
9 *975:A3 *975:B1 9.83736e-05
10 *975:A3 *629:106 0.000225314
11 *975:A3 *634:21 5.33005e-05
12 *577:10 *958:B1 6.05161e-06
13 *948:A2 *975:A3 0.000171375
14 *975:A1 *975:A3 5.52238e-05
15 *271:26 *975:A3 2.82057e-05
16 *462:8 *975:A3 0.000128161
17 *467:10 *957:A2 6.14605e-05
*RES
1 *1559:X *577:4 9.3 
2 *577:4 *577:10 2.51786 
3 *577:10 *975:A3 23.2107 
4 *577:10 *946:A 9.3 
5 *577:4 *957:A2 20.4786 
*END

*D_NET *578 0.00536516
*CONN
*I *1208:C1 I *D sky130_fd_sc_hd__o211ai_4
*I *1209:B1 I *D sky130_fd_sc_hd__a21oi_4
*I *1288:A1 I *D sky130_fd_sc_hd__o221ai_2
*I *1210:B1 I *D sky130_fd_sc_hd__a21o_4
*I *1560:X O *D sky130_fd_sc_hd__buf_2
*CAP
1 *1208:C1 7.8792e-05
2 *1209:B1 0
3 *1288:A1 9.00471e-05
4 *1210:B1 0
5 *1560:X 0.000898723
6 *578:27 0.000160242
7 *578:23 0.000440411
8 *578:10 0.00119015
9 *578:10 *1203:A2 1.46689e-05
10 *578:10 *1560:A 0.000860395
11 *578:10 *662:50 6.14702e-06
12 *1115:A3 *1208:C1 9.60875e-05
13 *1115:A3 *1288:A1 2.23987e-05
14 *1115:A3 *578:27 0.000174805
15 *1205:B *1288:A1 0.000173076
16 *1205:B *578:27 2.90164e-05
17 *1208:A1 *578:23 5.33005e-05
18 *1210:A2 *578:27 1.18064e-05
19 *1216:A1 *1288:A1 0.00012501
20 *1249:A *578:10 7.31195e-06
21 *1288:B2 *578:10 0.000271651
22 *1288:B2 *578:23 0.000202835
23 *1472:A *1208:C1 5.15855e-05
24 *247:20 *578:23 9.60875e-05
25 *331:10 *578:23 0.000177948
26 *476:10 *578:10 8.6608e-06
27 *556:18 *578:27 0.00012401
*RES
1 *1560:X *578:10 27.2464 
2 *578:10 *1210:B1 13.8 
3 *578:10 *578:23 10.875 
4 *578:23 *578:27 7.05357 
5 *578:27 *1288:A1 16.5857 
6 *578:27 *1209:B1 13.8 
7 *578:23 *1208:C1 11.0857 
*END

*D_NET *579 0.00118531
*CONN
*I *1207:C1 I *D sky130_fd_sc_hd__o211a_4
*I *1561:X O *D sky130_fd_sc_hd__buf_2
*CAP
1 *1207:C1 0.000218364
2 *1561:X 0.000218364
3 *1207:C1 *1563:A 0.000360213
4 *1207:C1 *617:16 0.000202128
5 *1151:A2 *1207:C1 1.56e-05
6 *1288:B1 *1207:C1 1.24368e-05
7 *246:14 *1207:C1 0.000158201
*RES
1 *1561:X *1207:C1 34.6357 
*END

*D_NET *580 0.000598665
*CONN
*I *1259:A I *D sky130_fd_sc_hd__nand3_4
*I *1562:X O *D sky130_fd_sc_hd__buf_2
*CAP
1 *1259:A 0.000141865
2 *1562:X 0.000141865
3 *1259:A *633:26 0.00014183
4 *1247:A2 *1259:A 7.83587e-05
5 *298:10 *1259:A 6.74911e-05
6 *378:112 *1259:A 2.72545e-05
*RES
1 *1562:X *1259:A 30.6 
*END

*D_NET *581 0.00603532
*CONN
*I *1250:B1 I *D sky130_fd_sc_hd__o21ai_2
*I *1294:A3 I *D sky130_fd_sc_hd__a311o_2
*I *1292:A3 I *D sky130_fd_sc_hd__a311o_2
*I *1563:X O *D sky130_fd_sc_hd__buf_2
*CAP
1 *1250:B1 9.35327e-05
2 *1294:A3 0.00029458
3 *1292:A3 0.000156415
4 *1563:X 7.36336e-05
5 *581:16 0.00129903
6 *581:6 0.0010152
7 *1250:B1 *655:118 5.33005e-05
8 *1292:A3 *1292:B1 7.31822e-07
9 *1292:A3 *1293:B1 0.000158374
10 *1292:A3 *1467:A 1.24368e-05
11 *1294:A3 *1289:A2 0
12 *1294:A3 *1294:C1 1.22887e-05
13 *581:6 *632:59 8.27532e-05
14 *581:16 *1294:C1 0.000117378
15 *581:16 *1328:A1 0.000180951
16 *581:16 *632:6 9.83388e-05
17 *581:16 *632:29 0.000137561
18 *581:16 *632:44 9.41642e-05
19 *581:16 *632:59 0.000139913
20 *581:16 *655:59 0.000117175
21 *1115:A3 *581:16 2.30071e-05
22 *1216:A1 *1250:B1 0.00014101
23 *1249:B *1294:A3 1.40034e-05
24 *1250:A1 *1250:B1 5.33005e-05
25 *1288:B1 *581:16 2.07382e-05
26 *1288:C1 *581:16 0.000183963
27 *1292:A2 *1292:A3 1.74153e-05
28 *1292:A2 *581:16 3.08734e-05
29 *1292:C1 *1292:A3 8.23597e-06
30 *1293:A2 *581:16 0
31 *1294:A1 *1294:A3 9.41642e-05
32 *1296:A1 *1294:A3 9.43546e-06
33 *1296:A2 *1292:A3 2.68921e-05
34 *1296:A2 *1294:A3 2.565e-05
35 *1296:B1 *1292:A3 7.83587e-05
36 *1296:B1 *581:16 7.83659e-05
37 *1296:C1 *1292:A3 3.92757e-05
38 *1296:C1 *1294:A3 9.71197e-05
39 *1296:C1 *581:16 1.08359e-05
40 *1332:A1 *1294:A3 5.59013e-05
41 *244:10 *1250:B1 7.6644e-05
42 *247:20 *1250:B1 2.77476e-05
43 *332:12 *581:16 0.000395208
44 *334:10 *1294:A3 0.000136951
45 *357:16 *581:16 3.22964e-05
46 *552:22 *1294:A3 3.34366e-05
47 *565:22 *1292:A3 0.000132791
48 *565:22 *581:16 5.39456e-05
*RES
1 *1563:X *581:6 10.2464 
2 *581:6 *581:16 21.6786 
3 *581:16 *1292:A3 18.2464 
4 *581:16 *1294:A3 27.9071 
5 *581:6 *1250:B1 20.7821 
*END

*D_NET *582 0.000420949
*CONN
*I *1202:B I *D sky130_fd_sc_hd__nand2_2
*I *1564:X O *D sky130_fd_sc_hd__buf_2
*CAP
1 *1202:B 6.99867e-05
2 *1564:X 6.99867e-05
3 *1202:B *1151:A1 0.000140488
4 *1202:B *652:39 0.000140488
*RES
1 *1564:X *1202:B 29.5464 
*END

*D_NET *583 0.00596196
*CONN
*I *1107:A2 I *D sky130_fd_sc_hd__a21oi_2
*I *1060:B I *D sky130_fd_sc_hd__nand2_2
*I *1063:C I *D sky130_fd_sc_hd__and3_2
*I *1154:B1 I *D sky130_fd_sc_hd__o21ai_2
*I *1565:X O *D sky130_fd_sc_hd__buf_2
*CAP
1 *1107:A2 0
2 *1060:B 0.000268452
3 *1063:C 0.000369151
4 *1154:B1 9.27358e-05
5 *1565:X 0.000229997
6 *583:29 0.000915408
7 *583:16 0.000694397
8 *583:8 0.000553853
9 *1060:B *676:32 2.80937e-05
10 *1060:B *676:49 3.69047e-06
11 *1063:C *1063:A 9.90367e-05
12 *1063:C *1442:A 2.47833e-05
13 *1063:C *637:43 7.6644e-05
14 *1154:B1 *926:A 5.52238e-05
15 *1154:B1 *637:43 9.60939e-05
16 *583:8 *1153:B1 1.25275e-05
17 *583:8 *1157:A 0.000215493
18 *583:16 *1157:A 0.000185728
19 *583:16 *599:14 0.00012501
20 *583:29 *637:43 6.58597e-05
21 *1102:A *1154:B1 1.95646e-05
22 *1103:B1 *1063:C 0.000164738
23 *1107:A1 *583:16 2.70899e-05
24 *1155:B1 *1154:B1 2.34077e-05
25 *1155:B1 *583:29 0
26 *1159:A2 *583:8 0.000131536
27 *1458:A *583:16 0.000365794
28 *102:12 *1060:B 0.00016641
29 *102:12 *583:29 0.000221634
30 *197:10 *583:8 0.000118157
31 *282:12 *1154:B1 5.52238e-05
32 *282:12 *583:16 4.98055e-06
33 *282:18 *583:16 9.87983e-06
34 *378:56 *583:8 0.000481191
35 *378:56 *583:16 5.57571e-05
36 *506:18 *583:8 4.41329e-06
*RES
1 *1565:X *583:8 20.6036 
2 *583:8 *583:16 11.9643 
3 *583:16 *1154:B1 11.4964 
4 *583:16 *583:29 3.83929 
5 *583:29 *1063:C 23.5679 
6 *583:29 *1060:B 13.1571 
7 *583:8 *1107:A2 13.8 
*END

*D_NET *584 0.00134271
*CONN
*I *1481:A I *D sky130_fd_sc_hd__clkdlybuf4s25_1
*I *939:Y O *D sky130_fd_sc_hd__nor2_2
*CAP
1 *1481:A 0.000344887
2 *939:Y 0.000344887
3 *1481:A *1428:A 0
4 *1481:A *589:18 0
5 *1481:A *602:18 0.000161458
6 *1481:A *629:87 5.52302e-05
7 p[0] *1481:A 5.71472e-05
8 *1018:A2 *1481:A 0.000241349
9 *1021:A1 *1481:A 0.000104315
10 *282:73 *1481:A 3.34366e-05
*RES
1 *939:Y *1481:A 36.1536 
*END

*D_NET *585 0.000477082
*CONN
*I *979:A2 I *D sky130_fd_sc_hd__o21ai_2
*I *1566:X O *D sky130_fd_sc_hd__buf_2
*CAP
1 *979:A2 0.000214549
2 *1566:X 0.000214549
3 *973:A *979:A2 0
4 *1008:A2 *979:A2 4.79842e-05
*RES
1 *1566:X *979:A2 31.4214 
*END

*D_NET *586 0.00232104
*CONN
*I *973:B I *D sky130_fd_sc_hd__nor2_4
*I *1567:X O *D sky130_fd_sc_hd__buf_2
*CAP
1 *973:B 0.000447156
2 *1567:X 0.000447156
3 *973:A *973:B 0
4 *974:A *973:B 1.98839e-05
5 *1007:B *973:B 0
6 *1011:A1_N *973:B 0.000221634
7 *51:8 *973:B 0.000127446
8 *51:17 *973:B 0.00014279
9 *52:10 *973:B 3.32442e-05
10 *469:16 *973:B 0.000487721
11 *487:12 *973:B 3.34295e-05
12 *487:29 *973:B 0.000360575
*RES
1 *1567:X *973:B 39.4214 
*END

*D_NET *587 0.00825296
*CONN
*I *1069:A2 I *D sky130_fd_sc_hd__o21ai_2
*I *1568:X O *D sky130_fd_sc_hd__buf_2
*CAP
1 *1069:A2 0.00189502
2 *1568:X 0.00189502
3 *1069:A2 *1065:B1 2.11419e-05
4 *1069:A2 *1102:C 0.000105361
5 *1069:A2 *1426:A 0.0035387
6 *1069:A2 *1427:A 0
7 *1069:A2 *1428:A 0
8 *1069:A2 *641:49 9.77021e-06
9 *1069:A2 *672:16 0.000147503
10 *1069:A2 *672:41 1.88913e-05
11 *1447:A *1069:A2 0.00056232
12 *459:10 *1069:A2 5.92267e-05
*RES
1 *1568:X *1069:A2 42.7929 
*END

*D_NET *588 0.000663631
*CONN
*I *1092:B2 I *D sky130_fd_sc_hd__a22oi_2
*I *1498:A I *D sky130_fd_sc_hd__buf_2
*I *1569:X O *D sky130_fd_sc_hd__buf_2
*CAP
1 *1092:B2 0
2 *1498:A 5.92025e-05
3 *1569:X 0.000169483
4 *588:10 0.000228685
5 *1091:A *588:10 4.57538e-05
6 *1094:A *588:10 1.19402e-05
7 *1569:A *588:10 0.000108848
8 *129:10 *588:10 0
9 *132:12 *588:10 3.9718e-05
10 *509:8 *588:10 0
*RES
1 *1569:X *588:10 22.675 
2 *588:10 *1498:A 10.2464 
3 *588:10 *1092:B2 9.3 
*END

*D_NET *589 0.00868831
*CONN
*I *956:A I *D sky130_fd_sc_hd__and3_2
*I *967:B1 I *D sky130_fd_sc_hd__a21oi_2
*I *968:A I *D sky130_fd_sc_hd__and3_2
*I *982:A1 I *D sky130_fd_sc_hd__o21a_4
*I *1018:A1 I *D sky130_fd_sc_hd__o21ai_2
*I *948:B2 I *D sky130_fd_sc_hd__a22o_2
*I *941:A I *D sky130_fd_sc_hd__and4_2
*I *1570:X O *D sky130_fd_sc_hd__buf_4
*CAP
1 *956:A 1.9549e-05
2 *967:B1 0.000161728
3 *968:A 0
4 *982:A1 0.000526619
5 *1018:A1 2.50569e-05
6 *948:B2 0.000395753
7 *941:A 4.88265e-05
8 *1570:X 8.93178e-05
9 *589:79 0.000431921
10 *589:55 0.000700145
11 *589:51 0.000633456
12 *589:38 0.000304289
13 *589:18 0.000653286
14 *589:10 0.000367971
15 *941:A *629:87 9.90431e-05
16 *948:B2 *602:18 9.90367e-05
17 *948:B2 *629:87 0.000520888
18 *956:A *646:24 6.38331e-05
19 *967:B1 *967:A2 0
20 *967:B1 *646:24 7.07572e-05
21 *982:A1 *956:C 5.89317e-05
22 *982:A1 *1017:A1 6.82285e-05
23 *982:A1 *1532:A 2.45634e-05
24 *982:A1 *1537:A 2.04402e-05
25 *982:A1 *646:36 0.000205643
26 *982:A1 *646:57 0.000321347
27 *982:A1 *647:45 0
28 *1018:A1 *940:A2 5.52302e-05
29 *1018:A1 *1018:B1 6.05161e-06
30 *1018:A1 *634:21 4.38128e-05
31 *589:10 *1488:A 0.00014285
32 *589:18 *941:B 0
33 *589:18 *602:18 5.20127e-05
34 *589:18 *644:21 1.19402e-05
35 *589:38 *602:18 5.26184e-05
36 *589:38 *644:21 3.15739e-05
37 *589:38 *644:36 1.78447e-05
38 *589:51 *602:18 6.27587e-05
39 *589:51 *602:29 0.000258799
40 *589:51 *634:32 0.000167375
41 *589:51 *634:49 8.29037e-05
42 *589:55 *956:C 3.6444e-05
43 *589:79 *956:C 4.25228e-05
44 *589:79 *646:24 0.000135028
45 p[0] *948:B2 3.48705e-05
46 p[1] *589:18 4.74612e-05
47 *940:A1 *589:38 1.02504e-05
48 *940:A1 *589:51 0.000602936
49 *948:B1 *948:B2 0.000101755
50 *969:A1 *589:79 2.12733e-05
51 *969:C1 *589:79 5.33005e-05
52 *1020:B *967:B1 3.18676e-05
53 *1021:A1 *967:B1 6.87243e-05
54 *1021:A2 *967:B1 9.25014e-06
55 *1021:B1 *1018:A1 3.18676e-05
56 *1113:B1 *982:A1 0
57 *1481:A *589:18 0
58 *114:14 *982:A1 0
59 *282:88 *967:B1 5.36422e-05
60 *292:25 *982:A1 0.000279123
61 *484:10 *956:A 9.84729e-05
62 *484:10 *589:79 5.33005e-05
63 *499:22 *982:A1 2.95896e-05
64 *561:38 *982:A1 5.02307e-05
*RES
1 *1570:X *589:10 15.5857 
2 *589:10 *589:18 8.01786 
3 *589:18 *941:A 10.2464 
4 *589:18 *948:B2 18.0857 
5 *589:10 *589:38 1.94643 
6 *589:38 *1018:A1 14.7464 
7 *589:38 *589:51 12.5179 
8 *589:51 *589:55 2.19643 
9 *589:55 *982:A1 29.3 
10 *589:55 *968:A 9.3 
11 *589:51 *589:79 4.375 
12 *589:79 *967:B1 21.8179 
13 *589:79 *956:A 10.2464 
*END

*D_NET *590 0.00375066
*CONN
*I *1101:A2 I *D sky130_fd_sc_hd__o311ai_4
*I *1099:A2 I *D sky130_fd_sc_hd__o21a_2
*I *1571:X O *D sky130_fd_sc_hd__buf_2
*CAP
1 *1101:A2 3.04135e-05
2 *1099:A2 0.000164173
3 *1571:X 0.00100033
4 *590:10 0.00119492
5 *1099:A2 *667:10 1.76135e-05
6 *1099:A2 *667:16 0.000145028
7 *590:10 *1469:A 0.000282819
8 *590:10 *1571:A 7.49893e-05
9 *590:10 *667:10 8.80087e-05
10 *1101:A3 *1101:A2 5.33005e-05
11 *1202:A *1099:A2 0.000304689
12 *1202:A *590:10 0.00014008
13 *1206:C1 *590:10 0.000223558
14 *525:18 *590:10 3.07347e-05
*RES
1 *1571:X *590:10 27.3714 
2 *590:10 *1099:A2 18.175 
3 *590:10 *1101:A2 14.3357 
*END

*D_NET *591 0.0078303
*CONN
*I *1215:A1 I *D sky130_fd_sc_hd__o21ai_4
*I *1326:A I *D sky130_fd_sc_hd__and3_2
*I *1252:C1 I *D sky130_fd_sc_hd__o221ai_2
*I *1327:B1 I *D sky130_fd_sc_hd__a31o_2
*I *1295:B1 I *D sky130_fd_sc_hd__o21ai_2
*I *1294:C1 I *D sky130_fd_sc_hd__a311o_2
*I *1572:X O *D sky130_fd_sc_hd__buf_2
*CAP
1 *1215:A1 0
2 *1326:A 0.000142846
3 *1252:C1 6.20275e-05
4 *1327:B1 5.62655e-05
5 *1295:B1 0
6 *1294:C1 0.000201049
7 *1572:X 0.000218628
8 *591:49 5.62655e-05
9 *591:30 0.00137388
10 *591:22 0.00148092
11 *591:18 0.000757619
12 *591:14 0.000587336
13 *1294:C1 *655:59 4.16221e-05
14 *1326:A *997:B 0
15 *1326:A *660:50 5.26184e-05
16 *1327:B1 *655:59 6.05161e-06
17 *591:22 *997:B 0
18 *591:22 *660:50 6.04069e-05
19 *591:30 *1332:A2 0
20 *591:30 *1411:A 0.000506996
21 *591:30 *659:25 9.71197e-05
22 *1212:A *591:18 2.61099e-05
23 *1216:A1 *591:22 0
24 *1249:B *1294:C1 2.14658e-05
25 *1251:B1 *591:30 0
26 *1254:A2 *1252:C1 9.90367e-05
27 *1254:B1 *591:30 4.87854e-05
28 *1293:A2 *1294:C1 9.77156e-05
29 *1294:A1 *1294:C1 4.28157e-06
30 *1294:A3 *1294:C1 1.22887e-05
31 *1295:A2 *1294:C1 8.6918e-06
32 *1296:A1 *1294:C1 5.45512e-05
33 *1296:A2 *1294:C1 6.17156e-05
34 *1297:A *1294:C1 0.000154762
35 *1298:A1 *591:30 0.000121388
36 *1332:A1 *591:30 0
37 *249:12 *591:14 0.000170654
38 *254:10 *591:14 0.000103977
39 *254:10 *591:18 2.59355e-05
40 *290:23 *591:22 1.59782e-05
41 *294:6 *1252:C1 9.60939e-05
42 *294:19 *591:22 5.63101e-05
43 *295:10 *591:22 1.02504e-05
44 *295:21 *591:22 0.000125717
45 *296:6 *591:30 2.88018e-06
46 *297:33 *1252:C1 0.000117553
47 *297:33 *591:30 6.88294e-06
48 *298:10 *591:14 0.000224163
49 *357:39 *591:14 9.60939e-05
50 *532:18 *1327:B1 5.65955e-05
51 *532:18 *591:30 0.000145752
52 *552:22 *1327:B1 4.56405e-05
53 *581:16 *1294:C1 0.000117378
*RES
1 *1572:X *591:14 23.675 
2 *591:14 *591:18 9.96429 
3 *591:18 *591:22 9.48214 
4 *591:22 *591:30 21.2321 
5 *591:30 *1294:C1 20.1214 
6 *591:30 *591:49 4.5 
7 *591:49 *1295:B1 9.3 
8 *591:49 *1327:B1 10.6571 
9 *591:22 *1252:C1 11.4786 
10 *591:18 *1326:A 16.2821 
11 *591:14 *1215:A1 9.3 
*END

*D_NET *592 0.00466105
*CONN
*I *1212:C I *D sky130_fd_sc_hd__and3_2
*I *1030:B I *D sky130_fd_sc_hd__nor3b_4
*I *1118:A3 I *D sky130_fd_sc_hd__o311a_2
*I *1573:X O *D sky130_fd_sc_hd__buf_2
*CAP
1 *1212:C 2.65286e-05
2 *1030:B 0
3 *1118:A3 0.000324713
4 *1573:X 0.000224059
5 *592:22 0.000651068
6 *592:14 0.000576942
7 *1118:A3 *640:24 0.000183237
8 *1118:A3 *640:30 0.000569614
9 *592:14 *1573:A 0.000183726
10 *592:14 *641:10 0.000193322
11 *592:22 *641:10 5.41054e-05
12 *592:22 *641:12 9.15804e-05
13 *592:22 *641:20 0.000196262
14 *1033:A1 *592:22 5.33005e-05
15 *1113:A2 *1118:A3 0
16 *1118:A2 *1118:A3 0.000309669
17 *1219:A2 *592:14 7.79781e-06
18 *1252:B2 *1118:A3 2.87948e-05
19 *39:44 *1118:A3 8.78688e-05
20 *41:48 *1212:C 5.49544e-05
21 *42:26 *1118:A3 4.29086e-05
22 *160:12 *592:14 0.000265816
23 *160:12 *592:22 0.000384988
24 *378:87 *592:22 0.000149797
*RES
1 *1573:X *592:14 20.3 
2 *592:14 *592:22 12.9107 
3 *592:22 *1118:A3 28.1393 
4 *592:22 *1030:B 9.3 
5 *592:14 *1212:C 14.3357 
*END

*D_NET *593 0.00375272
*CONN
*I *1034:C I *D sky130_fd_sc_hd__nand3_2
*I *1002:B I *D sky130_fd_sc_hd__and4_2
*I *999:D I *D sky130_fd_sc_hd__and4_2
*I *1077:A2 I *D sky130_fd_sc_hd__a21oi_2
*I *1574:X O *D sky130_fd_sc_hd__buf_4
*CAP
1 *1034:C 0
2 *1002:B 0
3 *999:D 4.90709e-05
4 *1077:A2 7.28409e-05
5 *1574:X 6.59025e-05
6 *593:33 0.000219729
7 *593:27 0.000775341
8 *593:10 0.000743426
9 *593:10 *646:97 8.15939e-05
10 *593:10 *647:93 0.000150611
11 *593:27 *1076:A 0.000117189
12 *593:27 *647:77 3.34295e-05
13 *593:33 *647:77 0.000397141
14 *1034:A *999:D 4.75762e-05
15 *1034:A *593:33 0.000370533
16 *1077:A1 *1077:A2 2.89016e-05
17 *1091:C *593:33 6.05161e-06
18 *42:53 *999:D 7.72916e-05
19 *76:16 *593:27 0
20 *76:16 *593:33 0
21 *77:12 *593:27 2.34204e-05
22 *79:6 *593:27 0.000347174
23 *357:72 *1077:A2 1.39841e-05
24 *357:72 *593:27 6.70489e-05
25 *561:10 *999:D 6.44623e-05
*RES
1 *1574:X *593:10 20.2464 
2 *593:10 *1077:A2 10.675 
3 *593:10 *593:27 13.1607 
4 *593:27 *593:33 10.4286 
5 *593:33 *999:D 19.9429 
6 *593:33 *1002:B 9.3 
7 *593:27 *1034:C 13.8 
*END

*D_NET *594 0.00370613
*CONN
*I *1101:A1 I *D sky130_fd_sc_hd__o311ai_4
*I *1099:A1 I *D sky130_fd_sc_hd__o21a_2
*I *1575:X O *D sky130_fd_sc_hd__buf_2
*CAP
1 *1101:A1 5.43116e-05
2 *1099:A1 0.000196183
3 *1575:X 0.000825713
4 *594:8 0.00107621
5 *1099:A1 *943:A 4.12337e-05
6 *1099:A1 *667:16 0.000213766
7 *1101:A1 *943:A 5.97719e-05
8 *1101:A1 *667:10 1.31516e-05
9 *1101:A1 *667:16 5.10822e-05
10 *1103:A2 *1099:A1 0.00019958
11 *1451:A *594:8 0.000310526
12 *1586:A *594:8 0.000563021
13 *518:12 *594:8 0.000101585
*RES
1 *1575:X *594:8 25.0143 
2 *594:8 *1099:A1 18.6214 
3 *594:8 *1101:A1 15.4429 
*END

*D_NET *595 0.000375907
*CONN
*I *1482:A I *D sky130_fd_sc_hd__clkbuf_2
*I *1280:X O *D sky130_fd_sc_hd__xor2_2
*CAP
1 *1482:A 0.000187954
2 *1280:X 0.000187954
3 *1482:A *1496:A 0
*RES
1 *1280:X *1482:A 30.6 
*END

*D_NET *596 0.00161193
*CONN
*I *1163:A2 I *D sky130_fd_sc_hd__o211ai_2
*I *1162:A2 I *D sky130_fd_sc_hd__o211a_2
*I *1576:X O *D sky130_fd_sc_hd__buf_2
*CAP
1 *1163:A2 0.000156182
2 *1162:A2 0.000120927
3 *1576:X 7.03212e-05
4 *596:8 0.00034743
5 *1162:A2 *1162:A1 0.000127737
6 *1163:A2 *1162:A1 8.0089e-05
7 *1163:A2 *1164:A2 7.83659e-05
8 *1161:A2 *1163:A2 2.8046e-05
9 *1433:A *596:8 9.71197e-05
10 *191:31 *1163:A2 4.43698e-05
11 *191:59 *1163:A2 1.88048e-05
12 *200:10 *1162:A2 1.02504e-05
13 *200:29 *1162:A2 0.000259906
14 *204:8 *1163:A2 0.000172375
*RES
1 *1576:X *596:8 14.7464 
2 *596:8 *1162:A2 17.2643 
3 *596:8 *1163:A2 18.175 
*END

*D_NET *597 0.000775387
*CONN
*I *1380:A2 I *D sky130_fd_sc_hd__a21oi_2
*I *1381:A2 I *D sky130_fd_sc_hd__a21oi_4
*I *1577:X O *D sky130_fd_sc_hd__buf_2
*CAP
1 *1380:A2 7.43325e-05
2 *1381:A2 0.000169554
3 *1577:X 0
4 *597:4 0.000243887
5 *1381:A2 *1485:A 0.000159697
6 *1347:C *1381:A2 0
7 *1381:A1 *1381:A2 9.10431e-06
8 *404:10 *1380:A2 1.97695e-05
9 *404:21 *1380:A2 9.90431e-05
*RES
1 *1577:X *597:4 9.3 
2 *597:4 *1381:A2 22.3714 
3 *597:4 *1380:A2 10.9786 
*END

*D_NET *598 0.00125756
*CONN
*I *1062:C1 I *D sky130_fd_sc_hd__o211ai_2
*I *1578:X O *D sky130_fd_sc_hd__buf_2
*CAP
1 *1062:C1 0.000309558
2 *1578:X 0.000309558
3 *1062:C1 *637:58 3.8471e-05
4 *1062:C1 *637:72 0.000442155
5 *1061:B1 *1062:C1 8.43535e-06
6 *1064:B1 *1062:C1 9.60875e-05
7 *1072:A1_N *1062:C1 5.33005e-05
*RES
1 *1578:X *1062:C1 24.475 
*END

*D_NET *599 0.00492966
*CONN
*I *1064:A1 I *D sky130_fd_sc_hd__o31a_2
*I *1061:C1 I *D sky130_fd_sc_hd__o211a_2
*I *1578:A I *D sky130_fd_sc_hd__buf_2
*I *1154:A1 I *D sky130_fd_sc_hd__o21ai_2
*I *1155:A1 I *D sky130_fd_sc_hd__a21oi_2
*I *1579:X O *D sky130_fd_sc_hd__buf_4
*CAP
1 *1064:A1 0
2 *1061:C1 0
3 *1578:A 8.44293e-05
4 *1154:A1 8.44746e-05
5 *1155:A1 1.64896e-05
6 *1579:X 0.000758941
7 *599:48 0.000109724
8 *599:33 0.000232586
9 *599:22 0.000285679
10 *599:14 0.000905315
11 *1578:A *637:72 0.000181796
12 *599:14 *1157:A 0.000123288
13 *599:14 *1579:A 1.02821e-05
14 *599:14 *672:41 0.000137515
15 *599:14 *672:47 0.000320931
16 *599:14 *672:115 2.15245e-05
17 *599:33 *640:42 3.50971e-05
18 *599:48 *637:72 5.33005e-05
19 *962:B *599:14 0.000262504
20 *1064:A2 *599:22 4.33308e-05
21 *1064:A3 *1155:A1 2.89016e-05
22 *1064:A3 *599:22 0.000172206
23 *1102:A *1154:A1 5.52238e-05
24 *1458:A *1155:A1 2.89016e-05
25 *1458:A *599:22 0.000200728
26 *282:18 *599:22 8.43535e-06
27 *378:31 *1154:A1 0.000167574
28 *378:31 *599:33 4.46186e-06
29 *378:56 *599:33 8.91439e-05
30 *549:8 *1154:A1 9.54798e-06
31 *549:19 *1154:A1 0.000175036
32 *549:19 *599:33 0.00012822
33 *549:36 *599:22 6.90625e-05
34 *583:16 *599:14 0.00012501
*RES
1 *1579:X *599:14 29.5321 
2 *599:14 *599:22 4.39286 
3 *599:22 *1155:A1 9.83571 
4 *599:22 *599:33 7.35714 
5 *599:33 *1154:A1 16.5857 
6 *599:33 *599:48 5.03571 
7 *599:48 *1578:A 11.0679 
8 *599:48 *1061:C1 9.3 
9 *599:14 *1064:A1 9.3 
*END

*D_NET *600 0.000822819
*CONN
*I *1098:A I *D sky130_fd_sc_hd__xnor2_2
*I *1580:X O *D sky130_fd_sc_hd__buf_6
*CAP
1 *1098:A 0.000302903
2 *1580:X 0.000302903
3 *1097:A2 *1098:A 0
4 *1098:B *1098:A 1.41706e-05
5 *91:32 *1098:A 0.000202842
*RES
1 *1580:X *1098:A 33.5643 
*END

*D_NET *601 0.000287575
*CONN
*I *1483:A I *D sky130_fd_sc_hd__clkbuf_2
*I *1324:Y O *D sky130_fd_sc_hd__nor2_2
*CAP
1 *1483:A 0.000132417
2 *1324:Y 0.000132417
3 p[11] *1483:A 2.27416e-05
*RES
1 *1324:Y *1483:A 20.7786 
*END

*D_NET *602 0.0145493
*CONN
*I *1178:B2 I *D sky130_fd_sc_hd__a22oi_2
*I *1429:A I *D sky130_fd_sc_hd__buf_4
*I *1457:X O *D sky130_fd_sc_hd__clkdlybuf4s25_1
*CAP
1 *1178:B2 0.000278311
2 *1429:A 0.000109513
3 *1457:X 0.000449808
4 *602:29 0.00201205
5 *602:18 0.00229306
6 *1178:B2 *1136:A1 0.000277524
7 *1178:B2 *649:111 8.1985e-05
8 *1429:A *967:A2 3.63775e-05
9 *1429:A *647:6 5.52302e-05
10 *1429:A *647:10 9.41642e-05
11 *1429:A *672:134 2.14658e-05
12 *1429:A *672:140 0.000135028
13 *602:18 *634:32 1.08359e-05
14 *602:18 *634:49 0.000146447
15 *602:18 *672:140 9.41642e-05
16 *602:29 *993:A 0.000125717
17 *602:29 *1130:C1 1.73191e-05
18 *602:29 *1538:A 7.6644e-05
19 *602:29 *634:49 0.000600433
20 *602:29 *634:64 2.23987e-05
21 *602:29 *634:91 0.000945323
22 *602:29 *634:123 2.06178e-05
23 *602:29 *644:87 8.73038e-05
24 *602:29 *646:72 0
25 *602:29 *649:94 1.41029e-05
26 *602:29 *649:111 1.45177e-05
27 *940:A1 *602:29 0.000212277
28 *948:B2 *602:18 9.90367e-05
29 *953:C1 *602:29 0.00011891
30 *1001:A1 *602:29 0.000170055
31 *1018:A2 *602:18 0.000331922
32 *1040:A2 *602:29 0
33 *1079:A1 *602:29 0.000121573
34 *1079:A2 *602:29 0.00020634
35 *1083:B1 *602:29 0.000219193
36 *1130:A1 *602:29 1.80444e-05
37 *1130:B1 *602:29 6.66527e-05
38 *1133:A2 *1178:B2 1.65558e-05
39 *1134:A1 *1178:B2 8.58942e-06
40 *1134:A1 *602:29 1.84896e-05
41 *1134:A2 *602:29 0.000123295
42 *1140:B1 *602:29 0.000279099
43 *1149:B1_N *1178:B2 5.57065e-05
44 *1178:B1 *1178:B2 5.7661e-06
45 *1481:A *602:18 0.000161458
46 *41:80 *602:29 0.000763891
47 *44:12 *602:29 6.15243e-05
48 *116:16 *1429:A 0.000136958
49 *116:16 *602:29 0
50 *119:10 *602:29 0.000121573
51 *121:12 *602:29 0.000126439
52 *121:23 *602:29 0.00024338
53 *121:36 *602:29 0.00013966
54 *164:43 *1178:B2 6.8551e-05
55 *171:10 *602:29 0.000143031
56 *282:58 *602:18 0.000143188
57 *292:82 *602:29 0.00102463
58 *292:113 *1178:B2 0.000528337
59 *526:46 *602:29 2.11419e-05
60 *526:59 *602:29 0.000347469
61 *589:18 *602:18 5.20127e-05
62 *589:38 *602:18 5.26184e-05
63 *589:51 *602:18 6.27587e-05
64 *589:51 *602:29 0.000258799
*RES
1 *1457:X *602:18 33.7464 
2 *602:18 *1429:A 16.8 
3 *602:18 *602:29 53.5625 
4 *602:29 *1178:B2 22.9696 
*END

*D_NET *603 0.000603529
*CONN
*I *1484:A I *D sky130_fd_sc_hd__buf_6
*I *1351:Y O *D sky130_fd_sc_hd__nand2_2
*CAP
1 *1484:A 0.000275884
2 *1351:Y 0.000275884
3 *1324:A *1484:A 0
4 *1351:B *1484:A 5.17614e-05
*RES
1 *1351:Y *1484:A 32.1357 
*END

*D_NET *604 0.00226935
*CONN
*I *1485:A I *D sky130_fd_sc_hd__buf_6
*I *1381:Y O *D sky130_fd_sc_hd__a21oi_4
*CAP
1 *1485:A 0.000752295
2 *1381:Y 0.000752295
3 *1346:A2 *1485:A 6.39253e-05
4 *1381:A1 *1485:A 0.000535087
5 *1381:A2 *1485:A 0.000159697
6 *1381:B1 *1485:A 6.05161e-06
*RES
1 *1381:Y *1485:A 43.9929 
*END

*D_NET *605 0.000321625
*CONN
*I *1486:A I *D sky130_fd_sc_hd__clkbuf_2
*I *1399:Y O *D sky130_fd_sc_hd__o21ai_2
*CAP
1 *1486:A 9.83683e-05
2 *1399:Y 9.83683e-05
3 p[14] *1486:A 6.77408e-05
4 *1399:B1 *1486:A 5.71472e-05
*RES
1 *1399:Y *1486:A 29.7786 
*END

*D_NET *606 0.00423814
*CONN
*I *1487:A I *D sky130_fd_sc_hd__buf_6
*I *1408:X O *D sky130_fd_sc_hd__o41a_4
*CAP
1 *1487:A 0.00135298
2 *1408:X 0.00135298
3 *1487:A *643:64 6.20999e-05
4 *1405:B *1487:A 0
5 *1407:A *1487:A 0.000700612
6 *1408:A3 *1487:A 0
7 *1408:A4 *1487:A 0.000313197
8 *1408:B1 *1487:A 0
9 *391:14 *1487:A 0.000456277
10 *436:43 *1487:A 0
*RES
1 *1408:X *1487:A 48.4393 
*END

*D_NET *607 0.000950559
*CONN
*I *1488:A I *D sky130_fd_sc_hd__clkdlybuf4s25_1
*I *942:Y O *D sky130_fd_sc_hd__nor2_2
*CAP
1 *1488:A 0.000209514
2 *942:Y 0.000209514
3 *1488:A *644:21 0.000203523
4 *1488:A *676:49 0.000134461
5 p[1] *1488:A 5.06983e-05
6 *589:10 *1488:A 0.00014285
*RES
1 *942:Y *1488:A 24.2071 
*END

*D_NET *608 0.000250467
*CONN
*I *1489:A I *D sky130_fd_sc_hd__dlymetal6s2s_1
*I *952:Y O *D sky130_fd_sc_hd__xnor2_2
*CAP
1 *1489:A 0.000125234
2 *952:Y 0.000125234
3 *952:A *1489:A 0
*RES
1 *952:Y *1489:A 29.85 
*END

*D_NET *609 0.00119628
*CONN
*I *1490:A I *D sky130_fd_sc_hd__clkdlybuf4s25_1
*I *1410:X O *D sky130_fd_sc_hd__and2_2
*CAP
1 *1490:A 0.000374126
2 *1410:X 0.000374126
3 *1490:A *1491:A 1.02504e-05
4 *1013:A_N *1490:A 0.000320882
5 *1410:A *1490:A 8.07313e-05
6 *1410:B *1490:A 2.33087e-05
7 *1454:A *1490:A 1.28585e-05
*RES
1 *1410:X *1490:A 34.6714 
*END

*D_NET *610 0.000244118
*CONN
*I *1491:A I *D sky130_fd_sc_hd__clkdlybuf4s25_1
*I *1016:X O *D sky130_fd_sc_hd__o31a_2
*CAP
1 *1491:A 7.78873e-05
2 *1016:X 7.78873e-05
3 p[4] *1491:A 0
4 *1013:A_N *1491:A 7.80929e-05
5 *1490:A *1491:A 1.02504e-05
*RES
1 *1016:X *1491:A 29.5464 
*END

*D_NET *611 0.00121533
*CONN
*I *1492:A I *D sky130_fd_sc_hd__dlygate4sd1_1
*I *1052:Y O *D sky130_fd_sc_hd__nor2_2
*CAP
1 *1492:A 0.000319216
2 *1052:Y 0.000319216
3 *1014:B1 *1492:A 1.02504e-05
4 *1050:A2 *1492:A 4.16021e-05
5 *1052:B *1492:A 0.000396898
6 *520:19 *1492:A 0.000128146
*RES
1 *1052:Y *1492:A 33.0643 
*END

*D_NET *612 0.00025406
*CONN
*I *1493:A I *D sky130_fd_sc_hd__clkbuf_2
*I *1098:Y O *D sky130_fd_sc_hd__xnor2_2
*CAP
1 *1493:A 0.000109176
2 *1098:Y 0.000109176
3 p[6] *1493:A 3.5707e-05
4 *1098:B *1493:A 0
5 *91:32 *1493:A 0
*RES
1 *1098:Y *1493:A 29.475 
*END

*D_NET *613 0.0247993
*CONN
*I *1428:A I *D sky130_fd_sc_hd__buf_6
*I *1262:A I *D sky130_fd_sc_hd__nor3_2
*I *1283:A I *D sky130_fd_sc_hd__and3_2
*I *1458:X O *D sky130_fd_sc_hd__clkbuf_2
*CAP
1 *1428:A 0.00245979
2 *1262:A 0.000449927
3 *1283:A 0.000123809
4 *1458:X 0.000532649
5 *613:20 0.0073217
6 *613:14 0.0097404
7 *1262:A *630:81 2.63744e-05
8 *1428:A *1102:C 0.000213499
9 *1428:A *1426:A 0
10 *1428:A *629:87 8.89385e-05
11 *1428:A *641:49 0.000270147
12 *1428:A *672:41 0.00055603
13 *613:14 *672:41 0.000725045
14 *613:20 *936:A 0.000126864
15 *613:20 *1117:B1 0.000114602
16 *613:20 *651:52 0.000126864
17 *1021:A1 *1428:A 6.82745e-05
18 *1021:A2 *1428:A 0.000137957
19 *1064:A3 *613:14 0.000337644
20 *1069:A2 *1428:A 0
21 *1105:A1 *613:14 2.04825e-05
22 *1108:A2 *613:14 1.32552e-05
23 *1108:B1 *613:14 2.28499e-05
24 *1108:C1 *613:14 1.21258e-05
25 *1262:B *1262:A 0.000749032
26 *1262:B *1283:A 4.98422e-05
27 *1283:C *1283:A 8.04877e-05
28 *1448:A *1428:A 0
29 *1458:A *613:14 2.88018e-06
30 *1481:A *1428:A 0
31 *115:24 *1428:A 2.1479e-05
32 *144:19 *613:14 1.90936e-05
33 *160:12 *613:20 0.000101444
34 *303:28 *613:20 0.00014402
35 *305:8 *1262:A 1.90243e-05
36 *306:8 *1283:A 5.01657e-05
37 *324:39 *1428:A 0
38 *324:39 *613:14 0
39 *389:45 *613:20 0
40 *525:18 *613:14 1.92789e-05
41 *543:10 *613:14 5.33005e-05
*RES
1 *1458:X *613:14 21.2401 
2 *613:14 *613:20 17.8399 
3 *613:20 *1283:A 19.3912 
4 *613:20 *1262:A 19.5615 
5 *613:14 *1428:A 26.1853 
*END

*D_NET *614 0.000549015
*CONN
*I *1494:A I *D sky130_fd_sc_hd__clkdlybuf4s25_1
*I *1147:X O *D sky130_fd_sc_hd__xor2_2
*CAP
1 *1494:A 0.000274508
2 *1147:X 0.000274508
*RES
1 *1147:X *1494:A 32.3321 
*END

*D_NET *615 0.000503679
*CONN
*I *1495:A I *D sky130_fd_sc_hd__clkbuf_2
*I *1195:X O *D sky130_fd_sc_hd__xor2_2
*CAP
1 *1495:A 0.000251839
2 *1195:X 0.000251839
*RES
1 *1195:X *1495:A 22.8321 
*END

*D_NET *616 0.00100193
*CONN
*I *1496:A I *D sky130_fd_sc_hd__clkbuf_2
*I *1244:X O *D sky130_fd_sc_hd__xor2_2
*CAP
1 *1496:A 0.000500963
2 *1244:X 0.000500963
3 *1482:A *1496:A 0
*RES
1 *1244:X *1496:A 36.2071 
*END

*D_NET *617 0.00259044
*CONN
*I *1209:A2 I *D sky130_fd_sc_hd__a21oi_4
*I *1207:B1 I *D sky130_fd_sc_hd__o211a_4
*I *1210:A1 I *D sky130_fd_sc_hd__a21o_4
*I *1472:X O *D sky130_fd_sc_hd__buf_6
*CAP
1 *1209:A2 5.57881e-05
2 *1207:B1 0
3 *1210:A1 0.000182761
4 *1472:X 4.52714e-05
5 *617:16 0.000348528
6 *617:6 0.000266827
7 *1209:A2 *1151:A1 0.000173097
8 *1209:A2 *652:39 0.000173097
9 *617:16 *1563:A 1.00375e-05
10 *1115:A3 *617:6 9.41642e-05
11 *1115:A3 *617:16 0.000175892
12 *1207:A2 *1210:A1 9.0145e-05
13 *1207:C1 *617:16 0.000202128
14 *1210:A2 *1210:A1 4.16117e-05
15 *1472:A *617:16 6.57032e-05
16 *246:14 *617:16 0.000223599
17 *249:12 *1210:A1 0.000392923
18 *249:12 *617:16 4.88637e-05
*RES
1 *1472:X *617:6 10.2464 
2 *617:6 *617:16 14.5714 
3 *617:16 *1210:A1 14.2821 
4 *617:16 *1207:B1 9.3 
5 *617:6 *1209:A2 20.55 
*END

*D_NET *618 0.00297582
*CONN
*I *1164:A2 I *D sky130_fd_sc_hd__a21oi_4
*I *1165:A2 I *D sky130_fd_sc_hd__a21o_2
*I *1161:B1 I *D sky130_fd_sc_hd__o21ai_2
*I *1473:X O *D sky130_fd_sc_hd__buf_6
*CAP
1 *1164:A2 0.000507307
2 *1165:A2 0.000165777
3 *1161:B1 4.14657e-05
4 *1473:X 4.14657e-05
5 *618:16 0.000673085
6 *1161:B1 *1161:A1 4.58194e-05
7 *1164:A2 *1161:A1 0.000137447
8 *1165:A2 *1161:A1 3.23206e-05
9 *1165:A2 *639:73 4.52607e-05
10 *1161:A2 *1161:B1 5.22045e-05
11 *1161:A2 *1164:A2 9.25014e-06
12 *1162:C1 *1164:A2 2.16719e-05
13 *1163:A2 *1164:A2 7.83659e-05
14 *1164:A1 *1164:A2 0.000309921
15 *1164:B1 *1164:A2 5.21842e-05
16 *1165:A1 *1165:A2 0.000326702
17 *1533:A *1164:A2 0.000125547
18 *1533:A *1165:A2 0.000251887
19 *191:31 *1164:A2 1.52978e-05
20 *506:45 *1165:A2 4.28365e-05
*RES
1 *1473:X *1161:B1 19.5464 
2 *1473:X *618:16 9.3 
3 *618:16 *1165:A2 23.2107 
4 *618:16 *1164:A2 27.0143 
*END

*D_NET *619 0.00107955
*CONN
*I *1074:B1 I *D sky130_fd_sc_hd__o211ai_4
*I *1073:B1 I *D sky130_fd_sc_hd__o211a_4
*I *1584:X O *D sky130_fd_sc_hd__buf_6
*CAP
1 *1074:B1 6.81119e-05
2 *1073:B1 9.07442e-05
3 *1584:X 9.69946e-05
4 *619:8 0.000255851
5 *1073:B1 *629:70 8.34515e-05
6 *1074:B1 *629:70 0.000103041
7 *1022:A *619:8 5.30637e-06
8 *1073:C1 *1073:B1 6.01512e-05
9 *1074:C1 *1073:B1 2.09846e-05
10 *1074:C1 *1074:B1 0.000106552
11 *1584:A *619:8 5.03772e-05
12 *114:8 *619:8 0.000137983
*RES
1 *1584:X *619:8 15.9786 
2 *619:8 *1073:B1 16.05 
3 *619:8 *1074:B1 16.3536 
*END

*D_NET *620 0.00209047
*CONN
*I *1072:B2 I *D sky130_fd_sc_hd__a2bb2oi_4
*I *1474:X O *D sky130_fd_sc_hd__clkbuf_2
*CAP
1 *1072:B2 0.000342493
2 *1474:X 0.000342493
3 *1072:B2 *641:49 8.47731e-05
4 *1066:A_N *1072:B2 0.000100165
5 *1066:C *1072:B2 0.000172384
6 *1070:A3 *1072:B2 6.82706e-05
7 *1072:B1 *1072:B2 0.000336589
8 *1073:A1 *1072:B2 1.00375e-05
9 *1074:A2 *1072:B2 0.000177234
10 *1474:A *1072:B2 9.84673e-05
11 *549:61 *1072:B2 0.000306316
12 *561:85 *1072:B2 5.12445e-05
*RES
1 *1474:X *1072:B2 38.6357 
*END

*D_NET *621 0.00190604
*CONN
*I *1027:B I *D sky130_fd_sc_hd__nand3_2
*I *1475:X O *D sky130_fd_sc_hd__dlymetal6s2s_1
*CAP
1 *1027:B 0.000277485
2 *1475:X 0.000277485
3 *1029:A1 *1027:B 0.000181803
4 *1029:A2 *1027:B 5.33005e-05
5 *1037:B1 *1027:B 8.68665e-05
6 *1085:A2 *1027:B 1.41029e-05
7 *1085:B1 *1027:B 0.00012401
8 *1087:A *1027:B 1.08359e-05
9 *1091:C *1027:B 0.000183743
10 *1475:A *1027:B 5.33005e-05
11 *66:16 *1027:B 0.000572021
12 *72:14 *1027:B 4.51726e-05
13 *78:23 *1027:B 2.59093e-05
*RES
1 *1475:X *1027:B 37.4929 
*END

*D_NET *622 0.000836565
*CONN
*I *1028:A2 I *D sky130_fd_sc_hd__a21oi_2
*I *1476:X O *D sky130_fd_sc_hd__clkdlybuf4s25_1
*CAP
1 *1028:A2 0.000415629
2 *1476:X 0.000415629
3 *1009:A *1028:A2 5.30637e-06
4 *1531:A *1028:A2 0
5 *84:16 *1028:A2 0
*RES
1 *1476:X *1028:A2 32.6536 
*END

*D_NET *623 0.0195724
*CONN
*I *1427:A I *D sky130_fd_sc_hd__clkdlybuf4s25_1
*I *1426:A I *D sky130_fd_sc_hd__buf_4
*I *1459:X O *D sky130_fd_sc_hd__clkdlybuf4s25_1
*CAP
1 *1427:A 0.00420691
2 *1426:A 0.0020451
3 *1459:X 0.000173483
4 *623:10 0.0064255
5 *1426:A *629:70 2.34423e-05
6 *1426:A *641:49 7.41131e-05
7 *1427:A *930:A 0.000109051
8 *1427:A *1284:A 7.79781e-06
9 *1427:A *666:10 0.000322133
10 *1427:A *672:16 7.20046e-05
11 *944:A *1427:A 0.000163663
12 *1069:A2 *1426:A 0.0035387
13 *1069:A2 *1427:A 0
14 *1286:A *1427:A 4.58764e-05
15 *1413:A *1427:A 0.000157074
16 *1428:A *1426:A 0
17 *1448:A *1426:A 0.00137241
18 *1451:A *1427:A 5.57486e-05
19 *1451:A *623:10 0.000112777
20 *110:8 *1426:A 4.5539e-05
21 *388:10 *1427:A 0
22 *390:10 *1427:A 0.000207664
23 *475:22 *1427:A 0.000172388
24 *506:12 *1426:A 0.000163992
25 *507:14 *623:10 7.70092e-05
*RES
1 *1459:X *623:10 16.6482 
2 *623:10 *1426:A 27.7334 
3 *623:10 *1427:A 43.8037 
*END

*D_NET *624 0.000408347
*CONN
*I *993:A I *D sky130_fd_sc_hd__nand3_4
*I *1477:X O *D sky130_fd_sc_hd__clkbuf_2
*CAP
1 *993:A 0.000114664
2 *1477:X 0.000114664
3 *993:A *1477:A 5.33005e-05
4 *1040:A2 *993:A 0
5 *602:29 *993:A 0.000125717
*RES
1 *1477:X *993:A 29.7786 
*END

*D_NET *625 0.00137858
*CONN
*I *1040:A1 I *D sky130_fd_sc_hd__a311o_2
*I *1477:A I *D sky130_fd_sc_hd__clkbuf_2
*I *1478:X O *D sky130_fd_sc_hd__dlymetal6s2s_1
*CAP
1 *1040:A1 0
2 *1477:A 0.000140363
3 *1478:X 0.000240241
4 *625:8 0.000380605
5 *1477:A *1538:A 9.60875e-05
6 *993:A *1477:A 5.33005e-05
7 *1040:A3 *625:8 0.000139913
8 *1041:B *1477:A 4.69993e-05
9 *1041:B *625:8 0.000185643
10 *1478:A *625:8 5.33005e-05
11 *44:25 *1477:A 2.8428e-05
12 *44:25 *625:8 1.3701e-05
*RES
1 *1478:X *625:8 14.3714 
2 *625:8 *1477:A 12.3179 
3 *625:8 *1040:A1 9.3 
*END

*D_NET *626 0.0116174
*CONN
*I *1282:B1 I *D sky130_fd_sc_hd__a221o_2
*I *1383:B I *D sky130_fd_sc_hd__and3_2
*I *1403:A2 I *D sky130_fd_sc_hd__a31o_2
*I *1285:B1 I *D sky130_fd_sc_hd__a22oi_2
*I *1334:B1 I *D sky130_fd_sc_hd__a22oi_2
*I *1384:A2_N I *D sky130_fd_sc_hd__o2bb2a_2
*I *1479:X O *D sky130_fd_sc_hd__buf_2
*CAP
1 *1282:B1 2.23854e-05
2 *1383:B 0.000484328
3 *1403:A2 5.19304e-05
4 *1285:B1 0.00019069
5 *1334:B1 0.000271881
6 *1384:A2_N 0.000123618
7 *1479:X 0.000229159
8 *626:31 0.000701265
9 *626:18 0.000558774
10 *626:16 0.000282834
11 *626:14 0.0010522
12 *626:8 0.000784979
13 *1285:B1 *1285:A2 0.000205783
14 *1285:B1 *1285:B2 1.97695e-05
15 *1285:B1 *640:22 0.000311121
16 *1334:B1 *1334:A1 0.000389644
17 *1334:B1 *640:8 5.52238e-05
18 *1334:B1 *642:27 0.00015101
19 *1383:B *1383:A 7.90022e-05
20 *1383:B *1402:B 9.90367e-05
21 *1384:A2_N *638:42 0.000287835
22 *1403:A2 *1403:A1 5.33005e-05
23 *626:8 *1260:A1 8.51696e-05
24 *626:8 *1260:B2 0
25 *626:8 *1282:B2 1.28809e-05
26 *626:8 *645:54 0.000477959
27 *626:14 *1260:A1 2.44318e-05
28 *626:14 *1282:A2 0.000597005
29 *626:14 *1402:B 6.09572e-05
30 *626:14 *638:34 0.000125044
31 *626:14 *643:64 0.0003005
32 *626:16 *638:34 8.15095e-05
33 *626:18 *638:34 2.24646e-05
34 *626:18 *638:36 0.000302486
35 *626:18 *638:42 0.000242927
36 *626:31 *1334:A1 0.000392848
37 *626:31 *627:37 0.000103211
38 *626:31 *648:82 0.000301016
39 *1282:C1 *626:8 0.000224583
40 *1285:A1 *1285:B1 9.83442e-05
41 *1383:C *1403:A2 1.97695e-05
42 *1389:A1_N *1383:B 1.21258e-05
43 *1390:B *1383:B 0.000146989
44 *1390:C *1383:B 9.83442e-05
45 *1408:A4 *626:14 2.49484e-05
46 *302:14 *626:8 0.000504854
47 *373:22 *1383:B 8.50588e-05
48 *373:22 *1384:A2_N 0.000140076
49 *373:22 *1403:A2 5.52238e-05
50 *373:22 *626:16 2.24646e-05
51 *373:22 *626:18 0.000506745
52 *440:8 *1383:B 0.000141734
53 *453:12 *626:14 0
54 *453:12 *626:16 0
*RES
1 *1479:X *626:8 18.8893 
2 *626:8 *626:14 16.8393 
3 *626:14 *626:16 1.03571 
4 *626:16 *626:18 7.41071 
5 *626:18 *1384:A2_N 17.5679 
6 *626:18 *626:31 10.375 
7 *626:31 *1334:B1 15.2107 
8 *626:31 *1285:B1 23.675 
9 *626:16 *1403:A2 15.175 
10 *626:14 *1383:B 23.2643 
11 *626:8 *1282:B1 9.72857 
*END

*D_NET *627 0.0126926
*CONN
*I *1260:A2 I *D sky130_fd_sc_hd__a22oi_2
*I *1282:A2 I *D sky130_fd_sc_hd__a221o_2
*I *1285:A2 I *D sky130_fd_sc_hd__a22oi_2
*I *1334:A2 I *D sky130_fd_sc_hd__a22oi_2
*I *1226:A2 I *D sky130_fd_sc_hd__a22oi_2
*I *1480:X O *D sky130_fd_sc_hd__buf_4
*CAP
1 *1260:A2 0
2 *1282:A2 0.000181532
3 *1285:A2 0.000186536
4 *1334:A2 3.9735e-05
5 *1226:A2 0.000291249
6 *1480:X 0.000737676
7 *627:37 0.000863099
8 *627:31 0.00242191
9 *627:12 0.00198351
10 *627:10 0.000826385
11 *1226:A2 *630:81 0
12 *1226:A2 *649:34 0
13 *1282:A2 *643:64 0.000597005
14 *1285:A2 *640:22 2.14658e-05
15 *1285:A2 *648:50 0
16 *1285:A2 *648:56 0
17 *1334:A2 *1334:A1 0.000272321
18 *1334:A2 *642:27 0.000272321
19 *627:12 *630:81 0
20 *627:31 *630:60 0.000286501
21 *627:31 *630:81 5.75147e-05
22 *627:37 *1334:A1 0.000339548
23 *627:37 *642:27 0.000395804
24 *627:37 *645:46 0.000275946
25 *627:37 *648:82 0.000128546
26 *1130:A1 *1226:A2 0.000404707
27 *1225:B *1226:A2 3.17067e-05
28 *1225:B *627:10 8.15939e-05
29 *1225:B *627:12 7.83366e-05
30 *1285:B1 *1285:A2 0.000205783
31 *1364:A_N *627:31 0.000148177
32 *1364:A_N *627:37 0
33 *1366:A *627:31 1.34703e-05
34 *1366:A *627:37 0
35 *1366:B *627:37 5.16759e-05
36 *1388:A3 *1285:A2 0
37 *1402:A *627:37 6.42242e-05
38 *75:10 *627:37 0
39 *75:25 *627:37 0
40 *96:21 *1226:A2 2.8266e-06
41 *168:30 *1226:A2 0.000222784
42 *286:12 *1226:A2 0
43 *301:16 *1282:A2 0
44 *301:16 *627:37 0
45 *302:45 *627:10 0
46 *302:45 *627:12 0
47 *302:56 *627:10 2.89114e-05
48 *303:6 *627:10 0.000213645
49 *305:8 *627:10 3.51442e-05
50 *349:10 *1282:A2 5.0725e-05
51 *349:10 *627:37 0.000180039
52 *626:14 *1282:A2 0.000597005
53 *626:31 *627:37 0.000103211
*RES
1 *1480:X *627:10 26.1393 
2 *627:10 *627:12 1.94643 
3 *627:12 *1226:A2 21.3179 
4 *627:12 *627:31 28.8393 
5 *627:31 *627:37 21.6786 
6 *627:37 *1334:A2 11.8893 
7 *627:37 *1285:A2 22.1036 
8 *627:31 *1282:A2 21.4161 
9 *627:10 *1260:A2 13.8 
*END

*D_NET *628 0.0109144
*CONN
*I *1078:B2 I *D sky130_fd_sc_hd__a221o_2
*I *1574:A I *D sky130_fd_sc_hd__buf_4
*I *1168:A2 I *D sky130_fd_sc_hd__a21oi_4
*I *1031:B I *D sky130_fd_sc_hd__nor2_4
*I *1214:B1 I *D sky130_fd_sc_hd__a221o_2
*I *1213:A2 I *D sky130_fd_sc_hd__a21oi_2
*I *1114:C I *D sky130_fd_sc_hd__nand3_4
*I *1412:X O *D sky130_fd_sc_hd__buf_8
*CAP
1 *1078:B2 0.000181157
2 *1574:A 0.000106279
3 *1168:A2 3.93689e-05
4 *1031:B 4.85299e-05
5 *1214:B1 8.25349e-05
6 *1213:A2 9.07116e-05
7 *1114:C 2.01046e-05
8 *1412:X 0
9 *628:35 0.000404996
10 *628:20 0.000386639
11 *628:16 0.00187928
12 *628:10 0.00185041
13 *628:8 0.000274014
14 *628:6 0.000233817
15 *1031:B *641:20 0.000123295
16 *1078:B2 *996:B 0.000132117
17 *1078:B2 *1076:C 0.0001382
18 *1078:B2 *1128:A1 4.19961e-05
19 *1078:B2 *656:58 1.08359e-05
20 *1078:B2 *665:67 9.25014e-06
21 *1114:C *1466:A 1.02504e-05
22 *1168:A2 *1585:A 5.33005e-05
23 *1168:A2 *664:8 9.41642e-05
24 *1213:A2 *1214:A1 2.44318e-05
25 *1214:B1 *640:24 0.000203903
26 *628:8 *996:B 0.000194299
27 *628:10 *996:B 9.56708e-05
28 *628:10 *1585:A 2.24646e-05
29 *628:16 *996:B 3.67548e-05
30 *628:16 *1114:B 0.000702397
31 *628:16 *1585:A 0.000125724
32 *628:20 *1114:B 0.000180501
33 *628:35 *1214:C1 0.000200878
34 *628:35 *640:24 0.000297925
35 *628:35 *640:30 3.50559e-05
36 *1030:A *1214:B1 0.000215583
37 *1030:A *628:35 0.000175519
38 *1078:C1 *1078:B2 9.60939e-05
39 *1113:A1 *1114:C 5.7616e-05
40 *1113:A1 *628:35 6.81083e-05
41 *1213:B1 *1213:A2 9.60875e-05
42 *1433:A *628:16 0.000225609
43 *76:14 *1574:A 6.57815e-05
44 *114:14 *628:16 3.29967e-05
45 *160:12 *1031:B 0.000123295
46 *161:52 *1078:B2 0.000108118
47 *161:52 *1574:A 9.71197e-05
48 *161:52 *628:8 0.000109809
49 *161:52 *628:10 1.52978e-05
50 *303:28 *1114:C 2.26327e-05
51 *303:28 *628:35 4.33438e-05
52 *357:39 *1213:A2 2.61528e-05
53 *551:46 *628:10 0
54 *551:46 *628:16 0
55 *551:72 *628:16 0.00100398
*RES
1 *1412:X *628:6 13.8 
2 *628:6 *628:8 2.55357 
3 *628:8 *628:10 2.55357 
4 *628:10 *628:16 28.8214 
5 *628:16 *628:20 6.26786 
6 *628:20 *1114:C 14.5321 
7 *628:20 *628:35 7.16071 
8 *628:35 *1213:A2 15.7732 
9 *628:35 *1214:B1 16.6571 
10 *628:16 *1031:B 19.9429 
11 *628:10 *1168:A2 14.7464 
12 *628:8 *1574:A 15.9786 
13 *628:6 *1078:B2 18.6259 
*END

*D_NET *629 0.0200342
*CONN
*I *955:C I *D sky130_fd_sc_hd__nor3_2
*I *1559:A I *D sky130_fd_sc_hd__buf_2
*I *1021:B2 I *D sky130_fd_sc_hd__o22ai_2
*I *1068:A2 I *D sky130_fd_sc_hd__o21a_2
*I *964:A1 I *D sky130_fd_sc_hd__o2111a_2
*I *1204:B2 I *D sky130_fd_sc_hd__o22ai_2
*I *1203:B2 I *D sky130_fd_sc_hd__o22a_4
*I *1248:A1 I *D sky130_fd_sc_hd__o21ai_2
*I *1413:X O *D sky130_fd_sc_hd__buf_8
*CAP
1 *955:C 0.000216571
2 *1559:A 0
3 *1021:B2 2.38696e-05
4 *1068:A2 7.32977e-05
5 *964:A1 1.5703e-05
6 *1204:B2 0
7 *1203:B2 3.18063e-05
8 *1248:A1 9.82288e-05
9 *1413:X 3.63978e-05
10 *629:106 0.000697105
11 *629:87 0.00116193
12 *629:70 0.00207481
13 *629:51 0.00218008
14 *629:34 0.00123643
15 *629:19 0.000642061
16 *629:6 0.00032884
17 *955:C *632:83 2.59355e-05
18 *955:C *632:87 0.000168687
19 *955:C *678:62 5.5764e-05
20 *955:C *678:73 0.000166941
21 *964:A1 *640:34 4.29498e-05
22 *1021:B2 *634:21 2.14757e-05
23 *1068:A2 *1558:A 0.000222065
24 *1248:A1 *662:39 1.19472e-05
25 *629:19 *1203:A2 0.000139202
26 *629:51 *931:A 2.03842e-05
27 *629:51 *635:41 0
28 *629:51 *639:10 0.000128907
29 *629:51 *639:16 5.33005e-05
30 *629:70 *941:C 0
31 *629:70 *668:71 9.47564e-05
32 *629:87 *941:C 1.21258e-05
33 *629:87 *646:12 7.8327e-05
34 *629:106 *975:B1 0.000106552
35 *629:106 *976:A3 8.46829e-05
36 *629:106 *632:87 1.41029e-05
37 *629:106 *646:12 9.0143e-05
38 *629:106 *678:32 0.000268409
39 *629:106 *678:116 0.000164481
40 p[0] *629:87 0.000265794
41 *941:A *629:87 9.90431e-05
42 *942:B *629:87 5.17614e-05
43 *948:B1 *629:87 0
44 *948:B2 *629:87 0.000520888
45 *966:A2 *955:C 8.22793e-06
46 *975:A3 *629:106 0.000225314
47 *976:A2 *629:106 4.58194e-05
48 *1021:A2 *629:87 1.02504e-05
49 *1021:A2 *629:106 0.000161983
50 *1021:B1 *1021:B2 9.71197e-05
51 *1022:B *1021:B2 5.52238e-05
52 *1068:A1 *1068:A2 0
53 *1068:B1 *1068:A2 5.71472e-05
54 *1068:B1 *629:70 0
55 *1070:A3 *629:70 6.94761e-05
56 *1073:A1 *629:70 0.000384404
57 *1073:B1 *629:70 8.34515e-05
58 *1073:C1 *629:70 0
59 *1074:A2 *629:70 9.10431e-06
60 *1074:B1 *629:70 0.000103041
61 *1203:A1 *1203:B2 2.84026e-05
62 *1203:A1 *629:19 1.11817e-05
63 *1203:A1 *629:34 5.74499e-06
64 *1203:A1 *629:51 1.98839e-05
65 *1204:A2 *629:34 3.49456e-06
66 *1204:B1 *629:34 0.000164897
67 *1205:B *629:34 3.67779e-05
68 *1205:B *629:51 5.33005e-05
69 *1287:A2 *1248:A1 0.000168853
70 *1426:A *629:70 2.34423e-05
71 *1428:A *629:87 8.89385e-05
72 *1457:A *629:87 0.000396898
73 *1481:A *629:87 5.52302e-05
74 *65:10 *629:106 5.33005e-05
75 *110:8 *629:70 8.93762e-05
76 *114:14 *629:70 0
77 *153:8 *964:A1 4.44437e-05
78 *241:12 *629:51 8.14159e-06
79 *260:16 *629:51 0.000467533
80 *260:35 *629:51 0.000624776
81 *260:35 *629:70 2.81411e-05
82 *271:26 *955:C 5.21697e-05
83 *324:39 *629:51 0
84 *324:39 *629:70 0
85 *389:45 *629:51 0.000388184
86 *467:10 *955:C 0
87 *475:89 *629:6 1.28239e-05
88 *475:89 *629:19 4.20872e-05
89 *479:12 *629:70 0.00166412
90 *510:39 *629:70 0.00194219
91 *561:85 *629:70 0.000240182
92 *576:8 *1068:A2 0.00022809
93 *576:8 *629:87 5.52302e-05
*RES
1 *1413:X *629:6 9.83571 
2 *629:6 *1248:A1 20.55 
3 *629:6 *629:19 3.82143 
4 *629:19 *1203:B2 10.2643 
5 *629:19 *629:34 5.80357 
6 *629:34 *1204:B2 9.3 
7 *629:34 *629:51 12.5812 
8 *629:51 *964:A1 17.7904 
9 *629:51 *629:70 26.0482 
10 *629:70 *1068:A2 12.8536 
11 *629:70 *629:87 22.0357 
12 *629:87 *1021:B2 14.7464 
13 *629:87 *629:106 20.3929 
14 *629:106 *1559:A 13.8 
15 *629:106 *955:C 19.3179 
*END

*D_NET *630 0.0201012
*CONN
*I *1333:B I *D sky130_fd_sc_hd__nor2_2
*I *1305:B1 I *D sky130_fd_sc_hd__o2bb2ai_2
*I *1246:B I *D sky130_fd_sc_hd__or3b_4
*I *1136:A1 I *D sky130_fd_sc_hd__o22ai_4
*I *1261:A2 I *D sky130_fd_sc_hd__o21a_2
*I *1127:A2 I *D sky130_fd_sc_hd__a21oi_4
*I *1361:B2 I *D sky130_fd_sc_hd__o2bb2a_2
*I *1358:A1 I *D sky130_fd_sc_hd__o211ai_2
*I *1384:B2 I *D sky130_fd_sc_hd__o2bb2a_2
*I *1284:B I *D sky130_fd_sc_hd__nor2_2
*I *1414:X O *D sky130_fd_sc_hd__buf_2
*CAP
1 *1333:B 7.82143e-05
2 *1305:B1 0.000361392
3 *1246:B 1.69531e-05
4 *1136:A1 0.000734107
5 *1261:A2 2.23854e-05
6 *1127:A2 0.0001001
7 *1361:B2 0.00012956
8 *1358:A1 0
9 *1384:B2 0
10 *1284:B 0.000149312
11 *1414:X 0.000582088
12 *630:94 0.00111343
13 *630:81 0.00128224
14 *630:60 0.00132036
15 *630:56 0.000850621
16 *630:45 0.000455367
17 *630:36 0.000747351
18 *630:25 0.00114132
19 *630:10 0.0012065
20 *1127:A2 *649:34 1.69115e-05
21 *1333:B *1325:B 0.000227526
22 *1333:B *1356:A 3.71854e-05
23 *1333:B *643:18 0.000153904
24 *630:10 *1285:B2 0.000114793
25 *630:10 *643:18 7.84241e-05
26 *630:36 *1126:B1 0.00024787
27 *630:36 *638:42 2.39007e-05
28 *630:36 *638:48 2.94426e-05
29 *630:36 *640:22 0.000120645
30 *630:36 *654:52 1.82549e-05
31 *630:45 *640:22 4.58096e-05
32 *630:81 *649:34 0.000358394
33 *1056:B *1127:A2 4.1331e-06
34 *1149:A1 *1136:A1 9.90431e-05
35 *1149:A2 *1136:A1 5.33433e-05
36 *1149:B1_N *1136:A1 2.9177e-05
37 *1178:B1 *1136:A1 0.000473753
38 *1178:B1 *1246:B 5.33005e-05
39 *1178:B2 *1136:A1 0.000277524
40 *1226:A2 *630:81 0
41 *1259:C *630:36 9.71197e-05
42 *1261:A1 *630:94 0.000113283
43 *1261:B1 *630:81 0.000120587
44 *1262:A *630:81 2.63744e-05
45 *1286:B *630:10 0.000128146
46 *1307:A1 *1305:B1 0.000198448
47 *1307:A2 *1305:B1 0.000105637
48 *1307:A3 *1305:B1 0.000183726
49 *1503:A *630:81 7.72665e-05
50 *168:10 *1127:A2 6.74911e-05
51 *189:10 *1136:A1 0.000119607
52 *216:20 *1136:A1 5.41794e-05
53 *216:20 *630:94 0.000338351
54 *288:10 *1305:B1 0.00037646
55 *288:10 *630:36 0.000225307
56 *288:10 *630:45 0.000424525
57 *288:10 *630:56 0.000325958
58 *292:113 *1136:A1 5.53703e-05
59 *292:113 *1246:B 5.33005e-05
60 *300:14 *1305:B1 4.58194e-05
61 *302:14 *1305:B1 0
62 *302:45 *630:81 8.91726e-05
63 *303:18 *1305:B1 5.98293e-05
64 *303:28 *1305:B1 7.41454e-05
65 *303:28 *630:45 0.000122025
66 *303:28 *630:56 0.000111651
67 *305:8 *630:81 0
68 *327:10 *1305:B1 0.000268403
69 *351:10 *1305:B1 7.43578e-06
70 *389:10 *630:36 0.00128457
71 *390:10 *1284:B 0.000176744
72 *390:10 *630:10 0.000163052
73 *391:14 *1284:B 9.1711e-05
74 *391:14 *630:10 2.12687e-05
75 *409:6 *1361:B2 0.000390994
76 *411:6 *1361:B2 0.000265447
77 *506:79 *1136:A1 5.58941e-05
78 *506:79 *630:94 0.000329101
79 *573:39 *630:81 0.000354105
80 *627:12 *630:81 0
81 *627:31 *630:60 0.000286501
82 *627:31 *630:81 5.75147e-05
*RES
1 *1414:X *630:10 21.5143 
2 *630:10 *1284:B 17.4071 
3 *630:10 *630:25 12.4286 
4 *630:25 *1384:B2 9.3 
5 *630:25 *630:36 21.4464 
6 *630:36 *1358:A1 13.8 
7 *630:36 *630:45 5.58929 
8 *630:45 *1361:B2 17.6214 
9 *630:45 *630:56 4.375 
10 *630:56 *630:60 11.6071 
11 *630:60 *1127:A2 20.55 
12 *630:60 *630:81 23.8571 
13 *630:81 *1261:A2 9.72857 
14 *630:81 *630:94 12.2857 
15 *630:94 *1136:A1 27.1571 
16 *630:94 *1246:B 14.3357 
17 *630:56 *1305:B1 33.8714 
18 *1414:X *1333:B 21.5107 
*END

*D_NET *631 0.0202188
*CONN
*I *1214:C1 I *D sky130_fd_sc_hd__a221o_2
*I *1002:A I *D sky130_fd_sc_hd__and4_2
*I *1000:B1 I *D sky130_fd_sc_hd__o31a_2
*I *1115:C1 I *D sky130_fd_sc_hd__o311a_2
*I *1032:A2 I *D sky130_fd_sc_hd__a21o_2
*I *1253:B2 I *D sky130_fd_sc_hd__a22oi_2
*I *1116:B1 I *D sky130_fd_sc_hd__a21oi_2
*I *1293:B1 I *D sky130_fd_sc_hd__o21ai_2
*I *1292:B1 I *D sky130_fd_sc_hd__a311o_2
*I *1328:A1 I *D sky130_fd_sc_hd__o31a_2
*I *1415:X O *D sky130_fd_sc_hd__clkbuf_4
*CAP
1 *1214:C1 0.00023458
2 *1002:A 0.000282285
3 *1000:B1 0
4 *1115:C1 0.000326566
5 *1032:A2 0
6 *1253:B2 0.000633232
7 *1116:B1 0
8 *1293:B1 0.000447438
9 *1292:B1 2.49105e-05
10 *1328:A1 0.000502149
11 *1415:X 0.000541111
12 *631:138 0.00209544
13 *631:123 0.00236916
14 *631:119 0.000655666
15 *631:112 0.000306574
16 *631:87 0.00101947
17 *631:76 0.00104119
18 *631:42 0.000656179
19 *631:34 0.000992674
20 *1002:A *1000:A2 5.33005e-05
21 *1115:C1 *1117:B1 0.000224224
22 *1115:C1 *641:20 0.000354449
23 *1115:C1 *650:10 0.000112793
24 *1253:B2 *995:B 0.000175892
25 *1253:B2 *1291:B1 2.89016e-05
26 *1253:B2 *655:118 2.24079e-05
27 *1292:B1 *1292:A1 6.0233e-05
28 *1292:B1 *1467:A 4.14699e-06
29 *1293:B1 *1292:A1 1.13883e-05
30 *1293:B1 *1467:A 1.21972e-05
31 *1328:A1 *1292:A1 7.34993e-06
32 *631:42 *930:A 6.05161e-06
33 *631:42 *1292:A1 4.48647e-05
34 *631:42 *1467:A 1.39726e-05
35 *631:42 *1540:A 0
36 *631:119 *1553:A 2.59355e-05
37 *631:123 *1031:A 0.000189777
38 *631:138 *996:B 0.000124556
39 *631:138 *1031:A 0.000168099
40 *631:138 *665:6 8.46044e-06
41 *631:138 *665:55 1.1152e-05
42 *1000:A1 *1002:A 5.52238e-05
43 *1001:A3 *1002:A 4.08637e-05
44 *1030:A *1214:C1 0.000335201
45 *1113:A1 *631:119 5.33005e-05
46 *1113:A2 *631:87 9.10877e-06
47 *1113:B1 *631:87 0
48 *1118:A2 *1253:B2 1.16949e-05
49 *1152:A *631:138 1.02821e-05
50 *1208:A2 *1253:B2 4.46186e-06
51 *1209:A1 *631:76 6.42095e-05
52 *1212:A *1214:C1 7.56755e-05
53 *1214:B2 *1214:C1 4.974e-05
54 *1216:A1 *1253:B2 0.00011069
55 *1249:B *631:76 1.74795e-05
56 *1250:A1 *1253:B2 0.00014183
57 *1251:A1 *1253:B2 0
58 *1252:A2 *631:112 0.000221634
59 *1253:A1 *631:112 0.000111491
60 *1253:A1 *631:119 4.87854e-05
61 *1253:A2 *631:87 9.47312e-05
62 *1253:A2 *631:112 0.000152409
63 *1253:B1 *1253:B2 1.01912e-05
64 *1291:A1 *1253:B2 5.03772e-05
65 *1291:A2 *1253:B2 1.15172e-05
66 *1292:A2 *1292:B1 1.31145e-05
67 *1292:A2 *1293:B1 6.30968e-05
68 *1292:A2 *1328:A1 0.000176203
69 *1292:A3 *1292:B1 7.31822e-07
70 *1292:A3 *1293:B1 0.000158374
71 *1292:C1 *1293:B1 0
72 *1296:A2 *1293:B1 0
73 *1328:A2 *1253:B2 1.59935e-05
74 *1416:A *1328:A1 2.61189e-05
75 *1436:A *631:42 0.000150264
76 *1439:A *631:138 0.00030478
77 *39:14 *1002:A 5.52238e-05
78 *39:14 *631:138 0.000112904
79 *39:44 *631:112 5.71472e-05
80 *39:44 *631:119 8.27532e-05
81 *41:48 *1214:C1 1.92789e-05
82 *42:22 *1253:B2 1.59935e-05
83 *44:12 *1002:A 1.21258e-05
84 *74:46 *631:87 0.00014237
85 *154:10 *631:87 0
86 *190:14 *1115:C1 5.72318e-05
87 *191:20 *631:87 6.52967e-05
88 *191:59 *631:138 6.57032e-05
89 *201:8 *1115:C1 0.000259663
90 *205:10 *631:138 4.46231e-06
91 *247:20 *631:76 0.000262504
92 *249:12 *631:87 0.0001865
93 *249:12 *631:112 4.56594e-05
94 *290:10 *631:76 4.78779e-05
95 *303:28 *1214:C1 0.000567758
96 *332:12 *1328:A1 1.89507e-06
97 *341:10 *1328:A1 0.000336697
98 *357:16 *1328:A1 0.000138427
99 *357:16 *631:34 1.58163e-05
100 *357:16 *631:76 1.83136e-05
101 *357:39 *631:76 7.68701e-05
102 *556:18 *631:76 0.000393621
103 *565:22 *1293:B1 0.000106264
104 *565:22 *1328:A1 0.000310303
105 *581:16 *1328:A1 0.000180951
106 *628:35 *1214:C1 0.000200878
*RES
1 *1415:X *1328:A1 47.0821 
2 *1415:X *631:34 9.83571 
3 *631:34 *631:42 12.7143 
4 *631:42 *1292:B1 10.4429 
5 *631:42 *1293:B1 25.05 
6 *631:34 *631:76 13.5893 
7 *631:76 *1116:B1 9.3 
8 *631:76 *631:87 11.0357 
9 *631:87 *1253:B2 31.5946 
10 *631:87 *631:112 8.42857 
11 *631:112 *1032:A2 9.3 
12 *631:112 *631:119 3.41071 
13 *631:119 *631:123 3.01786 
14 *631:123 *1115:C1 27.5321 
15 *631:123 *631:138 23.0357 
16 *631:138 *1000:B1 9.3 
17 *631:138 *1002:A 13.9607 
18 *631:119 *1214:C1 27.1036 
*END

*D_NET *632 0.0215363
*CONN
*I *1115:A2 I *D sky130_fd_sc_hd__o311a_2
*I *1159:B1 I *D sky130_fd_sc_hd__o21ai_2
*I *971:A2 I *D sky130_fd_sc_hd__a21o_2
*I *965:B1 I *D sky130_fd_sc_hd__a311o_2
*I *970:A1 I *D sky130_fd_sc_hd__o311a_2
*I *958:B1 I *D sky130_fd_sc_hd__o21ai_2
*I *975:B1 I *D sky130_fd_sc_hd__o31a_2
*I *1288:A2 I *D sky130_fd_sc_hd__o221ai_2
*I *1205:A I *D sky130_fd_sc_hd__nand2_2
*I *1292:A1 I *D sky130_fd_sc_hd__a311o_2
*I *1416:X O *D sky130_fd_sc_hd__buf_6
*CAP
1 *1115:A2 1.69531e-05
2 *1159:B1 0
3 *971:A2 0.000300346
4 *965:B1 1.69531e-05
5 *970:A1 0.000289535
6 *958:B1 0.000219277
7 *975:B1 0.00028101
8 *1288:A2 5.17286e-05
9 *1205:A 0
10 *1292:A1 0.000237075
11 *1416:X 2.81632e-05
12 *632:87 0.000689657
13 *632:83 0.000823487
14 *632:77 0.000450371
15 *632:75 0.00158943
16 *632:67 0.00168693
17 *632:59 0.00145403
18 *632:44 0.00114357
19 *632:29 0.000461884
20 *632:6 0.000585681
21 *1115:A2 *640:73 5.33005e-05
22 *1292:A1 *1467:A 0.000187042
23 *632:29 *934:A 0
24 *632:29 *1411:A 1.00332e-05
25 *632:29 *655:72 0.000183477
26 *632:29 *655:85 0.000222666
27 *632:29 *655:118 9.41642e-05
28 *632:44 *655:118 8.46829e-05
29 *632:59 *1563:A 6.86693e-05
30 *632:59 *641:20 0.000427604
31 *632:59 *650:10 3.55471e-05
32 *632:67 *641:20 0.00012401
33 *632:75 *982:A2 0.000110117
34 *632:75 *982:B1 0.000226993
35 *632:75 *989:A2 0.000139907
36 *632:75 *1554:A 9.7659e-05
37 *632:75 *644:87 0.000116087
38 *948:A2 *975:B1 2.39779e-05
39 *952:B *975:B1 1.00375e-05
40 *955:B *632:83 4.00276e-06
41 *955:C *632:83 2.59355e-05
42 *955:C *632:87 0.000168687
43 *957:A2 *958:B1 1.15281e-05
44 *957:A2 *632:87 0.000124157
45 *965:A3 *965:B1 5.33005e-05
46 *965:C1 *965:B1 5.33005e-05
47 *966:B1 *971:A2 0.000354105
48 *970:A3 *970:A1 0.000198935
49 *970:C1 *970:A1 2.69219e-05
50 *975:A1 *975:B1 5.52238e-05
51 *975:A3 *975:B1 9.83736e-05
52 *976:B1 *975:B1 4.04012e-05
53 *989:A1 *632:75 6.27058e-05
54 *989:B1 *632:75 2.89114e-05
55 *1008:A1 *971:A2 4.22698e-05
56 *1008:A2 *971:A2 5.52302e-05
57 *1023:A1 *632:75 2.59355e-05
58 *1023:B1 *632:75 2.59355e-05
59 *1023:C1 *632:75 4.87953e-05
60 *1024:A2 *632:75 7.03103e-05
61 *1026:A1 *632:75 0.000143566
62 *1113:A1 *632:59 0.000309253
63 *1115:B1 *1115:A2 5.33005e-05
64 *1151:A2 *632:59 0.000269428
65 *1151:B1 *632:59 4.53889e-05
66 *1159:A1 *632:67 4.35336e-05
67 *1208:A2 *632:44 0.000162411
68 *1250:A1 *632:44 5.52238e-05
69 *1288:B1 *1288:A2 5.52238e-05
70 *1288:B1 *632:44 1.39841e-05
71 *1288:B1 *632:59 4.48389e-05
72 *1288:C1 *632:44 7.90699e-05
73 *1292:A2 *1292:A1 0
74 *1292:A2 *632:6 1.21258e-05
75 *1292:A2 *632:29 2.96219e-05
76 *1292:B1 *1292:A1 6.0233e-05
77 *1292:C1 *1292:A1 4.2855e-05
78 *1293:B1 *1292:A1 1.13883e-05
79 *1328:A1 *1292:A1 7.34993e-06
80 *1416:A *1292:A1 0.000200567
81 *1416:A *632:6 5.33005e-05
82 *1416:A *632:29 4.08637e-05
83 *1417:A *975:B1 5.71472e-05
84 *1436:A *1292:A1 0.000428601
85 *1436:A *632:29 8.11283e-05
86 *1534:A *632:67 4.96113e-05
87 *65:10 *632:75 6.1684e-05
88 *65:10 *632:77 0.000109693
89 *65:10 *632:83 0.000130862
90 *66:10 *632:75 0.00011837
91 *160:12 *632:59 0.000418354
92 *160:12 *632:67 0.000125724
93 *271:26 *632:75 0.000126446
94 *271:26 *632:77 0.000216154
95 *271:26 *632:83 0.000262292
96 *303:38 *632:67 2.24834e-05
97 *303:38 *632:75 0.00230534
98 *357:39 *632:29 0
99 *467:10 *975:B1 5.16489e-05
100 *467:10 *632:87 7.40115e-05
101 *470:8 *970:A1 2.11048e-05
102 *470:8 *632:83 1.29901e-05
103 *473:12 *958:B1 1.72894e-05
104 *531:6 *632:29 0.000249013
105 *531:6 *632:44 2.14757e-05
106 *577:10 *958:B1 6.05161e-06
107 *581:6 *632:59 8.27532e-05
108 *581:16 *632:6 9.83388e-05
109 *581:16 *632:29 0.000137561
110 *581:16 *632:44 9.41642e-05
111 *581:16 *632:59 0.000139913
112 *629:106 *975:B1 0.000106552
113 *629:106 *632:87 1.41029e-05
114 *631:42 *1292:A1 4.48647e-05
*RES
1 *1416:X *632:6 10.2464 
2 *632:6 *1292:A1 25.6571 
3 *632:6 *632:29 17.5536 
4 *632:29 *1205:A 9.3 
5 *632:29 *632:44 13.1429 
6 *632:44 *1288:A2 10.5679 
7 *632:44 *632:59 24.1786 
8 *632:59 *632:67 11.5179 
9 *632:67 *632:75 36.5714 
10 *632:75 *632:77 2.85714 
11 *632:77 *632:83 10.5536 
12 *632:83 *632:87 9.17857 
13 *632:87 *975:B1 20.0857 
14 *632:87 *958:B1 17.2107 
15 *632:83 *970:A1 13.4429 
16 *632:77 *965:B1 14.3357 
17 *632:75 *971:A2 19.5857 
18 *632:67 *1159:B1 9.3 
19 *632:59 *1115:A2 14.3357 
*END

*D_NET *633 0.0104867
*CONN
*I *1425:A I *D sky130_fd_sc_hd__clkdlybuf4s25_1
*I *1424:A I *D sky130_fd_sc_hd__clkbuf_4
*I *1460:X O *D sky130_fd_sc_hd__clkdlybuf4s25_1
*CAP
1 *1425:A 9.31915e-05
2 *1424:A 0
3 *1460:X 0.000341651
4 *633:26 0.00257255
5 *633:12 0.00300739
6 *633:12 *642:14 0.000414748
7 *633:12 *648:10 0
8 *633:12 *662:132 0.00014285
9 *633:26 *1211:B1 5.33334e-05
10 *633:26 *1325:B 1.3142e-05
11 *633:26 *642:14 0.000146237
12 *1216:B1_N *633:26 5.52302e-05
13 *1247:B1 *633:26 5.52238e-05
14 *1259:A *633:26 0.00014183
15 *1303:A_N *633:26 0.000166263
16 *1335:B *633:26 0.000315172
17 *1337:A2 *633:26 0.000101545
18 *1340:B *633:26 1.31516e-05
19 *1341:B *633:26 2.95726e-05
20 *1341:C *633:26 0.00018372
21 *1342:B1 *633:26 4.83363e-05
22 *1367:A *633:26 0.000125731
23 *1367:B *633:26 0.000184583
24 *1371:A *1425:A 1.98839e-05
25 *1392:C1 *1425:A 5.52302e-05
26 *1392:C1 *633:12 0.000197977
27 *1394:A1 *633:12 2.49484e-05
28 *246:14 *633:26 9.71197e-05
29 *250:10 *633:26 5.03772e-05
30 *254:23 *633:26 0.000175892
31 *255:18 *633:26 0.00028289
32 *330:19 *633:26 0.00035746
33 *349:10 *633:26 0.000114645
34 *372:8 *633:26 0
35 *377:51 *633:26 0
36 *383:8 *633:26 0.000247778
37 *383:16 *633:26 0.000125724
38 *390:10 *633:26 4.8843e-05
39 *391:14 *633:26 9.83442e-05
40 *416:33 *633:12 1.81709e-05
41 *416:33 *633:26 2.48938e-05
42 *419:14 *633:26 0
43 *420:10 *633:26 2.7952e-05
44 *439:10 *1425:A 5.7661e-06
45 *440:21 *633:12 0.000191877
46 *440:36 *633:12 0.000115474
*RES
1 *1460:X *633:12 22.8 
2 *633:12 *633:26 49.7143 
3 *633:26 *1424:A 9.3 
4 *633:12 *1425:A 15.6036 
*END

*D_NET *634 0.0186879
*CONN
*I *1001:A2 I *D sky130_fd_sc_hd__o31a_2
*I *1130:A2 I *D sky130_fd_sc_hd__o221a_2
*I *1138:A1 I *D sky130_fd_sc_hd__o31a_2
*I *1137:A1 I *D sky130_fd_sc_hd__o2111ai_4
*I *1090:B1 I *D sky130_fd_sc_hd__o2bb2ai_2
*I *1000:A2 I *D sky130_fd_sc_hd__o31a_2
*I *953:D1 I *D sky130_fd_sc_hd__o2111a_2
*I *939:A I *D sky130_fd_sc_hd__nor2_2
*I *940:A2 I *D sky130_fd_sc_hd__o22a_2
*I *975:A2 I *D sky130_fd_sc_hd__o31a_2
*I *1417:X O *D sky130_fd_sc_hd__clkbuf_2
*CAP
1 *1001:A2 1.50382e-05
2 *1130:A2 0
3 *1138:A1 0.000280255
4 *1137:A1 0.000158408
5 *1090:B1 9.90548e-05
6 *1000:A2 3.04135e-05
7 *953:D1 0.00013499
8 *939:A 0
9 *940:A2 3.53379e-05
10 *975:A2 1.67864e-06
11 *1417:X 0.000128327
12 *634:123 0.000292603
13 *634:99 0.00100422
14 *634:91 0.00171713
15 *634:72 0.00117321
16 *634:64 0.000535359
17 *634:49 0.00105173
18 *634:32 0.000652507
19 *634:21 0.0007383
20 *634:6 0.000761654
21 *940:A2 *1018:B1 3.30237e-05
22 *953:D1 *954:B 6.05161e-06
23 *634:72 *646:97 0
24 *634:91 *646:97 0
25 *634:91 *647:93 0.000224152
26 *951:A3 *634:49 0.000334715
27 *953:A1 *953:D1 9.0145e-05
28 *953:A2 *953:D1 9.71197e-05
29 *953:A2 *634:49 0.000190155
30 *953:A2 *634:64 3.34366e-05
31 *953:C1 *953:D1 2.77258e-05
32 *953:C1 *634:49 0.000126439
33 *969:B1 *634:49 0.000171447
34 *975:A1 *975:A2 1.52392e-05
35 *975:A1 *634:6 4.38128e-05
36 *975:A1 *634:21 0.000255401
37 *975:A3 *634:21 5.33005e-05
38 *1001:A3 *634:72 0.000124868
39 *1001:A3 *634:91 5.41794e-05
40 *1002:A *1000:A2 5.33005e-05
41 *1018:A1 *940:A2 5.52302e-05
42 *1018:A1 *634:21 4.38128e-05
43 *1018:A2 *634:49 2.19549e-05
44 *1021:A1 *634:21 2.89114e-05
45 *1021:B1 *634:21 0.000111129
46 *1021:B2 *634:21 2.14757e-05
47 *1022:B *634:21 0.000268403
48 *1023:A3 *634:49 3.34549e-05
49 *1077:B1 *634:91 6.65398e-05
50 *1079:A1 *634:91 0.000123295
51 *1079:B1 *634:91 0.000148196
52 *1090:B2 *1090:B1 0.000273269
53 *1123:B1 *634:91 0.000275101
54 *1130:A1 *634:123 5.80706e-06
55 *1130:B2 *1138:A1 3.45371e-05
56 *1131:A *1137:A1 0.000167194
57 *1131:A *634:99 9.54798e-06
58 *1137:A2 *1137:A1 0.000109659
59 *1138:A2 *1138:A1 3.57366e-05
60 *1138:B1 *1138:A1 0.000349829
61 *1140:B1 *1137:A1 4.87953e-05
62 *1417:A *634:6 8.18783e-05
63 *1547:A *634:91 8.36642e-05
64 *41:67 *634:91 0.000121573
65 *41:80 *634:91 0.000221256
66 *101:22 *634:99 0.000113256
67 *114:25 *634:91 1.78353e-05
68 *114:51 *634:91 4.03318e-05
69 *116:18 *634:64 0.000467424
70 *117:8 *634:91 1.12301e-05
71 *164:10 *634:91 0
72 *164:10 *634:123 0
73 *165:22 *634:99 1.36077e-05
74 *172:14 *634:99 3.8825e-06
75 *178:6 *1137:A1 9.60939e-05
76 *271:26 *634:21 5.71472e-05
77 *271:34 *1137:A1 0.000387075
78 *271:34 *634:99 1.90936e-05
79 *282:58 *940:A2 0.000136951
80 *282:58 *634:21 5.52302e-05
81 *282:58 *634:32 0.00014491
82 *282:58 *634:49 1.02504e-05
83 *292:82 *953:D1 3.97677e-05
84 *292:82 *634:64 0.000532389
85 *303:51 *634:49 7.15449e-05
86 *526:46 *634:49 1.94879e-05
87 *526:59 *634:49 0.000355438
88 *549:63 *634:49 4.84721e-05
89 *549:87 *634:49 2.60743e-05
90 *551:36 *1001:A2 1.15322e-05
91 *551:36 *634:64 0.000132438
92 *551:36 *634:72 4.58976e-05
93 *551:38 *634:72 1.33343e-05
94 *551:72 *1001:A2 0
95 *551:72 *634:72 0
96 *554:41 *1138:A1 0.000310292
97 *554:41 *634:91 0
98 *561:10 *634:64 2.5565e-05
99 *589:51 *634:32 0.000167375
100 *589:51 *634:49 8.29037e-05
101 *602:18 *634:32 1.08359e-05
102 *602:18 *634:49 0.000146447
103 *602:29 *634:49 0.000600433
104 *602:29 *634:64 2.23987e-05
105 *602:29 *634:91 0.000945323
106 *602:29 *634:123 2.06178e-05
*RES
1 *1417:X *634:6 11.8893 
2 *634:6 *975:A2 9.44286 
3 *634:6 *634:21 11.7857 
4 *634:21 *940:A2 10.6571 
5 *634:21 *634:32 6.75 
6 *634:32 *939:A 13.8 
7 *634:32 *634:49 18.4464 
8 *634:49 *953:D1 16.8 
9 *634:49 *634:64 13.9821 
10 *634:64 *634:72 7.51786 
11 *634:72 *1000:A2 14.3357 
12 *634:72 *634:91 25.9911 
13 *634:91 *634:99 8.36892 
14 *634:99 *1090:B1 16.3893 
15 *634:99 *1137:A1 19.7286 
16 *634:91 *634:123 4.77679 
17 *634:123 *1138:A1 16.4429 
18 *634:123 *1130:A2 9.3 
19 *634:64 *1001:A2 9.72857 
*END

*D_NET *635 0.0125155
*CONN
*I *1561:A I *D sky130_fd_sc_hd__buf_2
*I *1204:A1 I *D sky130_fd_sc_hd__o22ai_2
*I *1063:A I *D sky130_fd_sc_hd__and3_2
*I *1107:B1 I *D sky130_fd_sc_hd__a21oi_2
*I *1109:A I *D sky130_fd_sc_hd__and3_4
*I *1203:A2 I *D sky130_fd_sc_hd__o22a_4
*I *1560:A I *D sky130_fd_sc_hd__buf_2
*I *1418:X O *D sky130_fd_sc_hd__buf_12
*CAP
1 *1561:A 0.000242187
2 *1204:A1 1.89494e-05
3 *1063:A 0.000724602
4 *1107:B1 4.98643e-05
5 *1109:A 6.86238e-05
6 *1203:A2 0.000107515
7 *1560:A 0.000278902
8 *1418:X 0.000315267
9 *635:58 0.00165111
10 *635:41 0.00122908
11 *635:37 0.000411126
12 *635:35 0.000665824
13 *635:4 0.000386417
14 *1063:A *962:A 0.000348213
15 *1063:A *1060:A 5.4826e-05
16 *1063:A *1442:A 1.39726e-05
17 *1063:A *1446:A 5.44167e-05
18 *1063:A *1471:A 0.00010927
19 *1063:A *1514:A 2.56601e-05
20 *1063:A *1579:A 0.000397924
21 *1063:A *637:14 0
22 *1063:A *637:20 5.15925e-05
23 *1107:B1 *962:A 9.58126e-05
24 *1109:A *652:39 9.67754e-05
25 *1203:A2 *662:50 0.000144732
26 *1204:A1 *639:16 5.49995e-05
27 *1560:A *662:50 0.000141729
28 *1561:A *1151:A1 0.0007463
29 *1561:A *1563:A 0
30 *635:35 *1418:A 0.000139344
31 *635:37 *1151:A1 0.000196086
32 *635:37 *1563:A 0
33 *635:41 *1106:A 2.50593e-05
34 *635:41 *1151:A1 0.00042997
35 *635:58 *1157:B 1.24368e-05
36 *635:58 *1157:C 0.000115818
37 *635:58 *637:91 0.000316307
38 *635:58 *652:39 0.000139337
39 *961:A *1560:A 7.1959e-05
40 *962:B *1107:B1 9.77423e-05
41 *1063:C *1063:A 9.90367e-05
42 *1102:B *1063:A 5.03803e-05
43 *1103:B1 *1063:A 5.52302e-05
44 *1107:A1 *1107:B1 9.25014e-06
45 *1159:A1 *1107:B1 5.41794e-05
46 *1159:A1 *635:58 0.000137494
47 *1202:A *635:41 5.82389e-05
48 *1203:A1 *1203:A2 5.08831e-05
49 *1248:A2 *1560:A 5.33005e-05
50 *1249:A *1560:A 1.96467e-05
51 *1288:B2 *1203:A2 3.34634e-05
52 *241:12 *1204:A1 6.05161e-06
53 *241:12 *635:41 0.000135789
54 *246:14 *1561:A 0.000581745
55 *260:16 *635:41 0
56 *378:56 *1107:B1 1.96862e-05
57 *378:56 *635:58 4.18412e-05
58 *475:89 *1203:A2 1.59373e-05
59 *475:89 *1204:A1 1.4487e-05
60 *476:10 *1560:A 3.48664e-05
61 *578:10 *1203:A2 1.46689e-05
62 *578:10 *1560:A 0.000860395
63 *629:19 *1203:A2 0.000139202
64 *629:51 *635:41 0
*RES
1 *1418:X *635:4 9.3 
2 *635:4 *1560:A 18.0679 
3 *635:4 *1203:A2 21.6036 
4 *1418:X *635:35 18.8536 
5 *635:35 *635:37 2.55357 
6 *635:37 *635:41 10.3929 
7 *635:41 *1109:A 10.2464 
8 *635:41 *635:58 18.1071 
9 *635:58 *1107:B1 15.4786 
10 *635:58 *1063:A 36.7464 
11 *635:37 *1204:A1 14.3357 
12 *635:35 *1561:A 23.3357 
*END

*D_NET *636 0.00784505
*CONN
*I *1532:A I *D sky130_fd_sc_hd__buf_4
*I *1156:A1 I *D sky130_fd_sc_hd__o21ai_4
*I *983:A1 I *D sky130_fd_sc_hd__o21ai_4
*I *1418:A I *D sky130_fd_sc_hd__buf_12
*I *1419:X O *D sky130_fd_sc_hd__buf_8
*CAP
1 *1532:A 0.000791103
2 *1156:A1 0
3 *983:A1 0.00121276
4 *1418:A 6.35458e-05
5 *1419:X 0.00124611
6 *636:32 0.00160423
7 *983:A1 *929:A 4.84159e-05
8 *1532:A *1537:A 6.84143e-05
9 *982:A1 *1532:A 2.45634e-05
10 *986:A2_N *983:A1 1.51881e-05
11 *987:B *983:A1 0.000150089
12 *1113:B1 *1532:A 2.04825e-05
13 *1117:A1 *636:32 0.000182806
14 *1117:A2 *636:32 0.000195423
15 *1150:A2 *636:32 0.000108934
16 *1156:A2 *983:A1 0.000225922
17 *1160:A2 *983:A1 3.65102e-05
18 *1160:A3 *636:32 0.000177044
19 *1419:A *636:32 5.49995e-05
20 *115:24 *1532:A 0.000171407
21 *190:14 *636:32 5.37055e-05
22 *198:10 *636:32 0
23 *200:10 *636:32 3.04111e-05
24 *282:125 *983:A1 0.00020823
25 *314:29 *983:A1 9.58689e-05
26 *314:29 *1532:A 0.000181107
27 *314:46 *1532:A 9.41642e-05
28 *499:22 *1532:A 4.79453e-05
29 *526:12 *636:32 0.000172027
30 *526:25 *1532:A 5.33005e-05
31 *526:46 *1532:A 3.89237e-05
32 *546:8 *1532:A 0.000141784
33 *561:38 *1532:A 0.00019029
34 *635:35 *1418:A 0.000139344
*RES
1 *1419:X *1418:A 19.9571 
2 *1419:X *636:32 39.4429 
3 *636:32 *983:A1 27.425 
4 *636:32 *1156:A1 9.3 
5 *983:A1 *1532:A 48.9554 
*END

*D_NET *637 0.0136665
*CONN
*I *1025:B I *D sky130_fd_sc_hd__and3_2
*I *1024:A1 I *D sky130_fd_sc_hd__a21oi_2
*I *1063:B I *D sky130_fd_sc_hd__and3_2
*I *1062:A1 I *D sky130_fd_sc_hd__o211ai_2
*I *1061:A1 I *D sky130_fd_sc_hd__o211a_2
*I *1109:B I *D sky130_fd_sc_hd__and3_4
*I *1106:A I *D sky130_fd_sc_hd__nand2_2
*I *1108:A1 I *D sky130_fd_sc_hd__o211a_2
*I *926:A I *D sky130_fd_sc_hd__inv_2
*I *1060:A I *D sky130_fd_sc_hd__nand2_2
*I *1420:X O *D sky130_fd_sc_hd__buf_4
*CAP
1 *1025:B 0.000445751
2 *1024:A1 0
3 *1063:B 0
4 *1062:A1 0
5 *1061:A1 0
6 *1109:B 1.75511e-05
7 *1106:A 0.000111898
8 *1108:A1 2.7556e-05
9 *926:A 1.03356e-05
10 *1060:A 0.000129708
11 *1420:X 1.645e-05
12 *637:134 0.00115354
13 *637:91 0.000494289
14 *637:72 0.000779632
15 *637:58 0.000494436
16 *637:43 0.000307751
17 *637:37 0.000265664
18 *637:20 0.000389738
19 *637:14 0.000420888
20 *637:8 0.000960548
21 *1060:A *1102:C 5.4826e-05
22 *1060:A *1446:A 6.19202e-05
23 *1060:A *1471:A 4.21653e-05
24 *1106:A *1109:C 3.43941e-05
25 *1106:A *1151:A1 4.65932e-05
26 *1106:A *652:39 9.67754e-05
27 *1109:B *1109:C 1.02301e-05
28 *637:8 *1579:A 9.90367e-05
29 *637:8 *672:47 9.90367e-05
30 *637:14 *1442:A 4.38128e-05
31 *637:14 *1471:A 4.49369e-05
32 *637:20 *1102:C 1.04707e-05
33 *637:20 *1442:A 0.00022459
34 *637:20 *1446:A 1.27625e-05
35 *637:37 *1442:A 0.000178847
36 *637:37 *1446:A 2.26327e-05
37 *637:58 *1442:A 1.37643e-05
38 *637:91 *1109:C 2.59355e-05
39 *637:91 *652:39 0.000125202
40 *637:134 *1514:A 0
41 *637:134 *672:59 0.000878378
42 *986:A1_N *637:134 5.02726e-05
43 *1024:A2 *637:134 3.34783e-05
44 *1025:A *1025:B 4.13496e-05
45 *1026:A1 *1025:B 8.07951e-05
46 *1026:A1 *637:134 0.000174797
47 *1026:B1 *1025:B 7.05447e-05
48 *1026:B1 *637:134 5.59013e-05
49 *1026:C1 *1025:B 0.000472721
50 *1061:B1 *637:58 6.66256e-05
51 *1061:B1 *637:72 7.69659e-05
52 *1062:C1 *637:58 3.8471e-05
53 *1062:C1 *637:72 0.000442155
54 *1063:A *1060:A 5.4826e-05
55 *1063:A *637:14 0
56 *1063:A *637:20 5.15925e-05
57 *1063:C *637:43 7.6644e-05
58 *1071:A *637:134 0.000135843
59 *1071:B *637:14 4.89854e-05
60 *1071:B *637:134 1.66853e-05
61 *1072:A2_N *637:14 0.000145161
62 *1102:A *926:A 3.18676e-05
63 *1102:A *637:37 1.02504e-05
64 *1102:A *637:43 0.000389203
65 *1102:B *637:20 1.02504e-05
66 *1103:B1 *637:37 0.000186645
67 *1103:B1 *637:43 1.99235e-05
68 *1104:A2 *637:91 0.000167016
69 *1105:B1 *637:72 5.20232e-05
70 *1108:B1 *1108:A1 7.98958e-05
71 *1108:B1 *637:91 4.98055e-06
72 *1110:A1 *637:91 0.00011965
73 *1110:A2 *637:91 1.18451e-05
74 *1112:A1 *637:91 0.000148189
75 *1112:A2 *637:91 0.000108059
76 *1154:B1 *926:A 5.52238e-05
77 *1154:B1 *637:43 9.60939e-05
78 *1202:A *1106:A 0.000195388
79 *1458:A *1108:A1 3.97563e-05
80 *1458:A *637:58 0.000163916
81 *1529:A *637:72 0.000170943
82 *1529:A *637:91 4.46186e-06
83 *1578:A *637:72 0.000181796
84 *102:12 *637:43 0.000265447
85 *144:19 *637:72 0.000102752
86 *144:19 *637:91 0.000163847
87 *198:10 *637:134 0
88 *200:10 *637:134 0
89 *282:12 *637:58 0.000121573
90 *324:47 *637:134 1.90936e-05
91 *506:18 *637:37 0
92 *526:12 *637:134 0
93 *583:29 *637:43 6.58597e-05
94 *599:48 *637:72 5.33005e-05
95 *635:41 *1106:A 2.50593e-05
96 *635:58 *637:91 0.000316307
*RES
1 *1420:X *637:8 14.7464 
2 *637:8 *637:14 9.10714 
3 *637:14 *637:20 7.41071 
4 *637:20 *1060:A 16.3536 
5 *637:20 *637:37 11.5 
6 *637:37 *637:43 11.0893 
7 *637:43 *926:A 9.83571 
8 *637:43 *637:58 12.0446 
9 *637:58 *637:72 13.8839 
10 *637:72 *1108:A1 14.5946 
11 *637:72 *637:91 14.0714 
12 *637:91 *1106:A 21.8 
13 *637:91 *1109:B 9.72857 
14 *637:58 *1061:A1 9.3 
15 *637:37 *1062:A1 13.8 
16 *637:14 *1063:B 9.3 
17 *637:8 *637:134 15.3571 
18 *637:134 *1024:A1 13.8 
19 *637:134 *1025:B 20.3 
*END

*D_NET *638 0.010617
*CONN
*I *938:A I *D sky130_fd_sc_hd__inv_2
*I *1403:A1 I *D sky130_fd_sc_hd__a31o_2
*I *1365:A1_N I *D sky130_fd_sc_hd__o2bb2a_2
*I *1364:B I *D sky130_fd_sc_hd__and4b_2
*I *1357:B I *D sky130_fd_sc_hd__nand3_2
*I *1363:A1 I *D sky130_fd_sc_hd__a211oi_2
*I *1384:A1_N I *D sky130_fd_sc_hd__o2bb2a_2
*I *1385:B I *D sky130_fd_sc_hd__and4_2
*I *1326:B I *D sky130_fd_sc_hd__and3_2
*I *1383:A I *D sky130_fd_sc_hd__and3_2
*I *1421:X O *D sky130_fd_sc_hd__clkbuf_4
*CAP
1 *938:A 0.000115627
2 *1403:A1 8.31632e-05
3 *1365:A1_N 2.18641e-06
4 *1364:B 0.000115649
5 *1357:B 0.000258891
6 *1363:A1 0
7 *1384:A1_N 0
8 *1385:B 0.000163623
9 *1326:B 0.000150967
10 *1383:A 0.000371822
11 *1421:X 0.000586408
12 *638:102 0.00047361
13 *638:91 0.000335967
14 *638:79 0.000458453
15 *638:48 0.000337562
16 *638:42 0.00035938
17 *638:36 0.000620399
18 *638:34 0.000477999
19 *938:A *1385:A 5.71472e-05
20 *1383:A *643:64 0.00035746
21 *1403:A1 *1402:B 2.13481e-06
22 *638:34 *643:64 0.000108299
23 *1357:A *1357:B 8.90371e-05
24 *1357:C *1357:B 0
25 *1361:B1 *1365:A1_N 1.54027e-05
26 *1361:B1 *638:79 0.000369542
27 *1361:B1 *638:91 0.000168731
28 *1363:A2 *638:102 4.87953e-05
29 *1364:A_N *1364:B 5.03772e-05
30 *1364:A_N *638:91 1.99099e-05
31 *1365:A2_N *638:91 5.52238e-05
32 *1383:B *1383:A 7.90022e-05
33 *1383:C *1383:A 0.000150164
34 *1384:A2_N *638:42 0.000287835
35 *1385:C *1385:B 3.69047e-06
36 *1388:B1 *638:42 0.000327387
37 *1388:C1 *638:42 6.8646e-06
38 *1388:C1 *638:79 0.000140933
39 *1389:A1_N *1383:A 6.05161e-06
40 *1390:A *1383:A 3.37729e-05
41 *1390:C *1383:A 5.59013e-05
42 *1402:A *1357:B 0.000178847
43 *1402:A *638:91 5.33005e-05
44 *1402:A *638:102 0.000219711
45 *1402:C *638:34 9.10431e-06
46 *1403:A2 *1403:A1 5.33005e-05
47 *1403:B1 *1403:A1 6.05161e-06
48 *1408:A4 *638:34 0.000148903
49 *75:25 *638:91 4.06072e-05
50 *75:25 *638:102 3.97677e-05
51 *98:12 *1357:B 2.28598e-05
52 *297:50 *1364:B 3.69697e-05
53 *297:50 *638:102 2.61337e-05
54 *298:21 *1364:B 3.34687e-05
55 *298:21 *638:102 2.84494e-05
56 *301:16 *638:91 0.000238769
57 *348:10 *1326:B 0
58 *348:10 *638:34 0
59 *348:10 *638:36 0
60 *373:22 *1326:B 0.000266092
61 *373:22 *638:42 1.5942e-05
62 *373:22 *638:48 0.000261007
63 *389:10 *638:48 0.000188297
64 *389:18 *1326:B 1.90936e-05
65 *389:18 *638:48 8.6229e-06
66 *406:10 *1357:B 2.08721e-05
67 *409:12 *638:91 8.59056e-05
68 *410:8 *938:A 9.42624e-05
69 *410:8 *1385:B 5.74499e-06
70 *434:8 *638:42 0.000149904
71 *435:10 *638:42 1.78447e-05
72 *435:10 *638:48 0
73 *436:43 *1383:A 0.000125731
74 *440:8 *1383:A 3.08664e-05
75 *453:12 *1383:A 0
76 *562:22 *638:102 1.74352e-05
77 *626:14 *638:34 0.000125044
78 *626:16 *638:34 8.15095e-05
79 *626:18 *638:34 2.24646e-05
80 *626:18 *638:36 0.000302486
81 *626:18 *638:42 0.000242927
82 *630:36 *638:42 2.39007e-05
83 *630:36 *638:48 2.94426e-05
*RES
1 *1421:X *1383:A 35.2786 
2 *1421:X *638:34 18.1214 
3 *638:34 *638:36 4.07143 
4 *638:36 *638:42 12.4375 
5 *638:42 *638:48 8.50893 
6 *638:48 *1326:B 17.2643 
7 *638:48 *1385:B 14.3357 
8 *638:42 *1384:A1_N 9.3 
9 *638:36 *638:79 10.1071 
10 *638:79 *638:91 15.3036 
11 *638:91 *1363:A1 9.3 
12 *638:91 *638:102 7.41071 
13 *638:102 *1357:B 17.6571 
14 *638:102 *1364:B 15.7821 
15 *638:79 *1365:A1_N 9.55893 
16 *638:34 *1403:A1 14.7464 
17 *1385:B *938:A 21.1893 
*END

*D_NET *639 0.0157923
*CONN
*I *1563:A I *D sky130_fd_sc_hd__buf_2
*I *1564:A I *D sky130_fd_sc_hd__buf_2
*I *1565:A I *D sky130_fd_sc_hd__buf_2
*I *936:A I *D sky130_fd_sc_hd__inv_2
*I *1153:B1 I *D sky130_fd_sc_hd__o21a_4
*I *1422:X O *D sky130_fd_sc_hd__buf_6
*CAP
1 *1563:A 0.000527885
2 *1564:A 4.01363e-06
3 *1565:A 0
4 *936:A 0.00030914
5 *1153:B1 0.000368393
6 *1422:X 0.000276968
7 *639:73 0.00125829
8 *639:36 0.00131755
9 *639:34 0.000614526
10 *639:16 0.000862095
11 *639:10 0.00104841
12 *936:A *1125:A1 3.18676e-05
13 *936:A *651:52 0.0007888
14 *1153:B1 *1157:B 4.93118e-06
15 *1153:B1 *668:40 7.3742e-05
16 *639:10 *924:A 5.33005e-05
17 *639:10 *931:A 0.000309728
18 *639:10 *1109:C 0.000306309
19 *639:10 *652:39 3.86696e-05
20 *639:10 *671:70 9.67754e-05
21 *639:73 *1031:A 4.13595e-05
22 *639:73 *1517:A 2.14474e-05
23 *639:73 *1554:A 0
24 *639:73 *651:27 6.90134e-05
25 *1104:A1 *639:34 9.84729e-05
26 *1104:B1 *639:34 0.000135028
27 *1120:A2 *639:34 0.000274861
28 *1150:A1 *639:34 6.93704e-06
29 *1152:A *639:73 0.000390947
30 *1159:A2 *1153:B1 0.000209864
31 *1159:A2 *639:73 0.000376254
32 *1160:B1 *1153:B1 0
33 *1160:C1 *639:73 0.000150043
34 *1165:A1 *639:73 4.97121e-06
35 *1165:A2 *639:73 4.52607e-05
36 *1176:B *639:73 0.000202592
37 *1203:A1 *639:16 1.4796e-05
38 *1204:A1 *639:16 5.49995e-05
39 *1204:A2 *639:34 0
40 *1207:C1 *1563:A 0.000360213
41 *1210:A2 *1563:A 0.000308464
42 *1288:B1 *1563:A 0.000136951
43 *1533:A *639:73 0.00021985
44 *1561:A *1563:A 0
45 *41:48 *639:73 2.79421e-05
46 *160:24 *936:A 5.09694e-05
47 *161:10 *639:34 7.82478e-05
48 *192:10 *639:73 0.000125724
49 *197:10 *1153:B1 0.000119681
50 *199:8 *639:73 0.000173968
51 *241:12 *639:16 3.09896e-05
52 *245:12 *1563:A 0.000182905
53 *245:12 *639:10 3.1206e-05
54 *246:14 *1563:A 1.46624e-05
55 *247:20 *1563:A 0.000196269
56 *260:16 *639:10 0.000193831
57 *357:53 *639:73 4.58194e-05
58 *378:87 *639:73 0.000935802
59 *475:89 *639:16 4.5585e-05
60 *475:89 *639:34 0.000467767
61 *506:18 *1153:B1 0.000121579
62 *506:39 *639:73 0
63 *506:45 *639:73 0.000112364
64 *506:58 *936:A 0.000789514
65 *506:58 *639:73 0.000178412
66 *561:50 *1153:B1 5.50052e-05
67 *583:8 *1153:B1 1.25275e-05
68 *613:20 *936:A 0.000126864
69 *617:16 *1563:A 1.00375e-05
70 *629:51 *639:10 0.000128907
71 *629:51 *639:16 5.33005e-05
72 *632:59 *1563:A 6.86693e-05
73 *635:37 *1563:A 0
*RES
1 *1422:X *639:10 21.7821 
2 *639:10 *639:16 8.71875 
3 *639:16 *639:34 14.4777 
4 *639:34 *639:36 4.5 
5 *639:36 *1153:B1 21.0857 
6 *639:36 *639:73 45.8571 
7 *639:73 *936:A 25.3 
8 *639:34 *1565:A 9.3 
9 *639:16 *1564:A 9.45625 
10 *639:10 *1563:A 27.4786 
*END

*D_NET *640 0.0201884
*CONN
*I *1552:A I *D sky130_fd_sc_hd__buf_2
*I *1211:B1 I *D sky130_fd_sc_hd__o21a_4
*I *1553:A I *D sky130_fd_sc_hd__buf_2
*I *1025:C I *D sky130_fd_sc_hd__and3_2
*I *1554:A I *D sky130_fd_sc_hd__buf_2
*I *1157:C I *D sky130_fd_sc_hd__and3_2
*I *935:A I *D sky130_fd_sc_hd__inv_2
*I *1099:B1 I *D sky130_fd_sc_hd__o21a_2
*I *1423:X O *D sky130_fd_sc_hd__buf_6
*CAP
1 *1552:A 7.72391e-05
2 *1211:B1 1.99379e-05
3 *1553:A 5.52479e-05
4 *1025:C 0
5 *1554:A 0.000180019
6 *1157:C 9.71202e-05
7 *935:A 0
8 *1099:B1 0.000471309
9 *1423:X 7.70985e-05
10 *640:73 0.000699612
11 *640:42 0.00113976
12 *640:34 0.0011955
13 *640:30 0.00132106
14 *640:24 0.000944996
15 *640:22 0.00257378
16 *640:8 0.00218997
17 *1099:B1 *1500:A 0
18 *1553:A *1031:A 0
19 *640:8 *642:27 0.00011305
20 *640:22 *1211:A2 3.34366e-05
21 *640:22 *1285:B2 9.80173e-05
22 *640:22 *1385:A 9.41642e-05
23 *640:22 *1386:B1 3.4507e-05
24 *640:22 *648:56 9.41642e-05
25 *640:22 *654:52 0
26 *640:24 *1211:A2 0.000196276
27 *640:24 *1214:A1 6.94775e-05
28 *640:24 *654:52 0
29 *640:34 *641:20 0.000103872
30 *964:A1 *640:34 4.29498e-05
31 *964:C1 *640:34 0.000101777
32 *964:C1 *640:42 8.1382e-05
33 *1030:A *640:24 5.84075e-05
34 *1103:A1 *1099:B1 0.000276211
35 *1103:A2 *1099:B1 4.88637e-05
36 *1103:B1 *1099:B1 7.72917e-05
37 *1103:B1 *640:42 0.00014285
38 *1112:B1 *640:42 0.000238579
39 *1113:A1 *640:30 0.000309472
40 *1115:A2 *640:73 5.33005e-05
41 *1115:A3 *640:30 2.95726e-05
42 *1115:B1 *640:30 2.59355e-05
43 *1115:B1 *640:73 5.96516e-05
44 *1117:A1 *640:30 3.17163e-05
45 *1117:A1 *640:34 0.000355808
46 *1118:A3 *640:24 0.000183237
47 *1118:A3 *640:30 0.000569614
48 *1119:B2 *640:30 9.90367e-05
49 *1159:A1 *640:42 0
50 *1214:B1 *640:24 0.000203903
51 *1215:A2 *640:24 0
52 *1252:B2 *640:24 0
53 *1253:A1 *1553:A 5.04841e-06
54 *1285:A2 *640:22 2.14658e-05
55 *1285:B1 *640:22 0.000311121
56 *1334:B1 *640:8 5.52238e-05
57 *1358:A2 *640:22 6.71755e-05
58 *1359:A1 *640:22 1.21258e-05
59 *1370:B1 *1552:A 9.55563e-05
60 *1370:B1 *640:8 0.000137983
61 *1370:B1 *640:22 1.52978e-05
62 *1385:C *640:22 0.00022266
63 *1386:A1 *640:22 0.000137437
64 *1534:A *640:73 0.000101116
65 *11:17 *640:42 0
66 *41:25 *640:24 3.4984e-05
67 *97:18 *640:22 0.000307343
68 *144:10 *640:42 0
69 *153:8 *640:34 0.000126686
70 *153:8 *640:42 1.00887e-05
71 *153:23 *640:34 8.97147e-05
72 *154:10 *640:30 2.18871e-05
73 *155:10 *640:30 8.9727e-05
74 *155:12 *640:30 9.44522e-05
75 *161:35 *640:30 0.000175512
76 *197:10 *1157:C 9.75173e-05
77 *199:8 *1554:A 5.01117e-05
78 *255:18 *1211:B1 9.90367e-05
79 *288:10 *640:22 2.74584e-05
80 *297:33 *640:24 0
81 *303:28 *640:22 0.000455564
82 *303:28 *640:24 6.09057e-06
83 *303:38 *640:34 0.000222878
84 *378:56 *640:42 0
85 *388:10 *640:22 0
86 *390:10 *1552:A 0.000193125
87 *390:10 *640:22 0.00015134
88 *408:8 *640:22 5.23512e-05
89 *436:14 *640:22 0.000263723
90 *475:89 *640:34 5.48374e-05
91 *506:39 *1554:A 6.5185e-05
92 *510:39 *640:34 2.02794e-05
93 *548:22 *640:73 9.23967e-05
94 *549:8 *640:42 0.000213707
95 *549:19 *640:42 0.000293708
96 *599:33 *640:42 3.50971e-05
97 *628:35 *640:24 0.000297925
98 *628:35 *640:30 3.50559e-05
99 *630:36 *640:22 0.000120645
100 *630:45 *640:22 4.58096e-05
101 *631:119 *1553:A 2.59355e-05
102 *632:75 *1554:A 9.7659e-05
103 *633:26 *1211:B1 5.33334e-05
104 *635:58 *1157:C 0.000115818
105 *639:73 *1554:A 0
*RES
1 *1423:X *640:8 15.9786 
2 *640:8 *640:22 43.3571 
3 *640:22 *640:24 11.9643 
4 *640:24 *640:30 16.3036 
5 *640:30 *640:34 15.8571 
6 *640:34 *640:42 19.2679 
7 *640:42 *1099:B1 18.0857 
8 *640:42 *935:A 9.3 
9 *640:34 *1157:C 15.9786 
10 *640:30 *640:73 6.83929 
11 *640:73 *1554:A 21.7107 
12 *640:73 *1025:C 9.3 
13 *640:24 *1553:A 14.7643 
14 *640:22 *1211:B1 14.7464 
15 *640:8 *1552:A 16.3536 
*END

*D_NET *641 0.0252056
*CONN
*I *1212:B I *D sky130_fd_sc_hd__and3_2
*I *1214:A1 I *D sky130_fd_sc_hd__a221o_2
*I *1166:B1 I *D sky130_fd_sc_hd__o21a_2
*I *991:C I *D sky130_fd_sc_hd__and3_2
*I *988:B I *D sky130_fd_sc_hd__nand2_2
*I *1026:A2 I *D sky130_fd_sc_hd__a211o_2
*I *1066:B I *D sky130_fd_sc_hd__nand3b_4
*I *1065:B1 I *D sky130_fd_sc_hd__o21ai_2
*I *1102:C I *D sky130_fd_sc_hd__and3_2
*I *931:A I *D sky130_fd_sc_hd__inv_2
*I *1424:X O *D sky130_fd_sc_hd__clkbuf_4
*CAP
1 *1212:B 0
2 *1214:A1 0.000239464
3 *1166:B1 0.000678596
4 *991:C 0
5 *988:B 0
6 *1026:A2 6.17681e-05
7 *1066:B 0
8 *1065:B1 0.000314759
9 *1102:C 0.000207955
10 *931:A 0.00140615
11 *1424:X 0.000178995
12 *641:108 0.000774357
13 *641:90 0.00012981
14 *641:84 0.000616028
15 *641:49 0.00102685
16 *641:43 0.000654892
17 *641:41 0.00149408
18 *641:20 0.00322692
19 *641:12 0.00121224
20 *641:10 0.000222101
21 *931:A *1106:B 0.000273812
22 *931:A *671:8 0.000115961
23 *1026:A2 *672:59 9.7659e-05
24 *1065:B1 *1065:A2 0
25 *1065:B1 *1445:A 0
26 *1065:B1 *1471:A 0
27 *1065:B1 *1558:A 5.52302e-05
28 *1102:C *1446:A 6.71264e-05
29 *1166:B1 *996:A 0.00017309
30 *1166:B1 *1167:B 7.50601e-05
31 *1166:B1 *644:102 0.000115072
32 *1166:B1 *644:119 0.000416243
33 *1166:B1 *656:56 5.52302e-05
34 *1166:B1 *665:59 5.52302e-05
35 *641:20 *1117:B1 4.98055e-06
36 *641:49 *668:34 0.000264803
37 *641:84 *991:B 7.6231e-05
38 *641:84 *644:102 8.12097e-05
39 *641:90 *988:A 3.08382e-06
40 *641:90 *672:59 4.70078e-05
41 *641:90 *672:68 1.55885e-05
42 *641:108 *991:B 9.8045e-05
43 *984:A1 *641:84 4.45982e-06
44 *987:B *641:84 0
45 *990:A2 *641:84 0
46 *991:A *1166:B1 0.000174789
47 *991:A *641:108 1.98839e-05
48 *1031:B *641:20 0.000123295
49 *1033:A2 *641:20 9.1998e-05
50 *1060:A *1102:C 5.4826e-05
51 *1069:A1 *1065:B1 5.67286e-05
52 *1069:A2 *1065:B1 2.11419e-05
53 *1069:A2 *1102:C 0.000105361
54 *1069:A2 *641:49 9.77021e-06
55 *1070:C1 *641:49 0.000141923
56 *1071:B *1065:B1 9.88744e-05
57 *1072:B1 *641:49 0.000336589
58 *1072:B2 *641:49 8.47731e-05
59 *1074:A2 *641:49 5.20103e-05
60 *1101:A3 *931:A 1.24368e-05
61 *1115:C1 *641:20 0.000354449
62 *1159:A1 *641:20 0.000392834
63 *1168:B1 *1166:B1 0.000251423
64 *1169:B2 *1166:B1 5.7616e-05
65 *1202:A *931:A 5.81718e-05
66 *1206:C1 *931:A 0.000202344
67 *1213:A2 *1214:A1 2.44318e-05
68 *1213:B1 *1214:A1 0.00034127
69 *1213:B1 *641:10 1.02504e-05
70 *1213:B1 *641:12 4.43142e-05
71 *1213:B1 *641:20 1.52978e-05
72 *1214:A2 *1214:A1 2.61387e-05
73 *1214:B2 *1214:A1 0.000116889
74 *1215:A2 *1214:A1 4.62539e-05
75 *1219:A2 *641:10 7.80929e-05
76 *1426:A *641:49 7.41131e-05
77 *1428:A *1102:C 0.000213499
78 *1428:A *641:49 0.000270147
79 *1534:A *641:20 0.00014066
80 *40:10 *1166:B1 1.50181e-05
81 *41:25 *1214:A1 1.30365e-05
82 *41:48 *1214:A1 1.39726e-05
83 *69:12 *1026:A2 4.88637e-05
84 *69:12 *641:90 0.00018372
85 *114:14 *1166:B1 0
86 *160:12 *641:20 0.000229121
87 *161:35 *641:84 4.57392e-05
88 *161:35 *641:108 2.9058e-05
89 *201:8 *641:10 0.000127971
90 *201:8 *641:20 8.35054e-05
91 *245:12 *931:A 0.000109247
92 *260:16 *931:A 0.000453785
93 *260:35 *931:A 0.000814363
94 *260:35 *641:41 0.00152704
95 *282:125 *641:43 4.24209e-05
96 *282:125 *641:49 1.24912e-05
97 *282:125 *641:84 0.000126262
98 *303:38 *641:20 1.08359e-05
99 *357:39 *1214:A1 0.000383166
100 *378:87 *641:20 0.000120724
101 *389:45 *931:A 2.34205e-05
102 *503:10 *641:90 6.05161e-06
103 *526:29 *641:84 0.000201117
104 *526:83 *641:84 0.000326672
105 *548:22 *641:84 0
106 *556:20 *931:A 1.44708e-05
107 *592:14 *641:10 0.000193322
108 *592:22 *641:10 5.41054e-05
109 *592:22 *641:12 9.15804e-05
110 *592:22 *641:20 0.000196262
111 *629:51 *931:A 2.03842e-05
112 *632:59 *641:20 0.000427604
113 *632:67 *641:20 0.00012401
114 *637:20 *1102:C 1.04707e-05
115 *639:10 *931:A 0.000309728
116 *640:24 *1214:A1 6.94775e-05
117 *640:34 *641:20 0.000103872
*RES
1 *1424:X *641:10 19.3179 
2 *641:10 *641:12 1.33929 
3 *641:12 *641:20 26.8118 
4 *641:20 *931:A 32.4636 
5 *641:20 *641:41 5.97933 
6 *641:41 *641:43 2.40179 
7 *641:43 *641:49 13.5616 
8 *641:49 *1102:C 18.7175 
9 *641:49 *1065:B1 23.1832 
10 *641:43 *1066:B 13.8 
11 *641:41 *641:84 10.5982 
12 *641:84 *641:90 6.69643 
13 *641:90 *1026:A2 11.0679 
14 *641:90 *988:B 9.3 
15 *641:84 *641:108 6.375 
16 *641:108 *991:C 9.3 
17 *641:108 *1166:B1 35.6214 
18 *641:12 *1214:A1 29.9429 
19 *641:10 *1212:B 13.8 
*END

*D_NET *642 0.00672745
*CONN
*I *1388:A1 I *D sky130_fd_sc_hd__a311o_2
*I *1386:B1 I *D sky130_fd_sc_hd__o2111ai_4
*I *1423:A I *D sky130_fd_sc_hd__buf_6
*I *1461:X O *D sky130_fd_sc_hd__dlymetal6s2s_1
*CAP
1 *1388:A1 4.988e-05
2 *1386:B1 0.00014352
3 *1423:A 0
4 *1461:X 0.000500348
5 *642:27 0.000523195
6 *642:14 0.000830142
7 *1386:B1 *1334:A1 0.000190682
8 *1386:B1 *1385:A 8.50152e-05
9 *642:14 *648:10 4.56494e-05
10 *642:27 *1334:A1 6.39425e-05
11 *642:27 *645:46 0.00109085
12 *1334:A2 *642:27 0.000272321
13 *1334:B1 *642:27 0.00015101
14 *1370:A2 *642:14 0.000181796
15 *1370:A2 *642:27 0.00026353
16 *1370:B1 *642:14 9.60875e-05
17 *1370:B1 *642:27 0.000152235
18 *1371:A *642:14 0.000220429
19 *1388:A3 *1386:B1 2.16719e-05
20 *1388:A3 *1388:A1 5.74562e-05
21 *1394:A1 *642:14 0.000227063
22 *373:22 *1386:B1 1.721e-05
23 *377:51 *642:14 5.80706e-06
24 *408:8 *1386:B1 0.000138605
25 *436:14 *1386:B1 0.000168939
26 *436:14 *1388:A1 0.000125724
27 *627:37 *642:27 0.000395804
28 *633:12 *642:14 0.000414748
29 *633:26 *642:14 0.000146237
30 *640:8 *642:27 0.00011305
31 *640:22 *1386:B1 3.4507e-05
*RES
1 *1461:X *642:14 32.1929 
2 *642:14 *1423:A 9.3 
3 *642:14 *642:27 18.3214 
4 *642:27 *1386:B1 18.3179 
5 *642:27 *1388:A1 15.4429 
*END

*D_NET *643 0.0124566
*CONN
*I *1260:A1 I *D sky130_fd_sc_hd__a22oi_2
*I *1282:A1 I *D sky130_fd_sc_hd__a221o_2
*I *1367:D I *D sky130_fd_sc_hd__and4_2
*I *1285:B2 I *D sky130_fd_sc_hd__a22oi_2
*I *1333:A I *D sky130_fd_sc_hd__nor2_2
*I *1356:A I *D sky130_fd_sc_hd__and3_2
*I *1425:X O *D sky130_fd_sc_hd__clkdlybuf4s25_1
*CAP
1 *1260:A1 0.000995467
2 *1282:A1 0
3 *1367:D 3.21835e-05
4 *1285:B2 0.000177133
5 *1333:A 0
6 *1356:A 0.000141157
7 *1425:X 0.000552053
8 *643:64 0.00230802
9 *643:18 0.000319265
10 *643:14 0.000492308
11 *643:10 0.000267335
12 *643:8 0.00196269
13 *1260:A1 *1226:A1 3.97657e-05
14 *1260:A1 *1282:B2 6.26774e-06
15 *1356:A *1325:B 2.07382e-05
16 *1356:A *1356:B 1.72894e-05
17 *1367:D *648:46 0.000140933
18 *643:14 *645:12 5.83304e-05
19 *643:14 *645:46 0.000193118
20 *643:18 *1325:B 1.98839e-05
21 *1260:B1 *1260:A1 0.000235342
22 *1282:A2 *643:64 0.000597005
23 *1282:C1 *1260:A1 0.000117543
24 *1285:B1 *1285:B2 1.97695e-05
25 *1333:B *1356:A 3.71854e-05
26 *1333:B *643:18 0.000153904
27 *1371:A *643:8 0.000467849
28 *1371:C *643:10 0.00026367
29 *1371:C *643:14 0.000137224
30 *1371:C *643:64 9.25014e-06
31 *1383:A *643:64 0.00035746
32 *1392:A1 *643:10 0.000148189
33 *1408:A4 *643:64 0.000363912
34 *1414:A *643:10 2.1892e-05
35 *1414:A *643:14 3.84385e-05
36 *1487:A *643:64 6.20999e-05
37 *302:14 *1260:A1 0.000264261
38 *388:10 *643:64 0.000143128
39 *419:14 *643:14 0.000218734
40 *443:10 *643:10 2.26327e-05
41 *443:10 *643:64 0.000148701
42 *562:16 *1367:D 7.48091e-05
43 *626:8 *1260:A1 8.51696e-05
44 *626:14 *1260:A1 2.44318e-05
45 *626:14 *643:64 0.0003005
46 *630:10 *1285:B2 0.000114793
47 *630:10 *643:18 7.84241e-05
48 *638:34 *643:64 0.000108299
49 *640:22 *1285:B2 9.80173e-05
*RES
1 *1425:X *643:8 20.4964 
2 *643:8 *643:10 3.46429 
3 *643:10 *643:14 9.17857 
4 *643:14 *643:18 3.83929 
5 *643:18 *1356:A 11.9071 
6 *643:18 *1333:A 9.3 
7 *643:14 *1285:B2 13.1393 
8 *643:10 *1367:D 15.1571 
9 *643:8 *643:64 32.3929 
10 *643:64 *1282:A1 9.3 
11 *643:64 *1260:A1 23.4429 
*END

*D_NET *644 0.018626
*CONN
*I *1017:B1 I *D sky130_fd_sc_hd__o21a_2
*I *1167:B I *D sky130_fd_sc_hd__and3_2
*I *1169:A1 I *D sky130_fd_sc_hd__a221o_2
*I *1114:B I *D sky130_fd_sc_hd__nand3_4
*I *989:A2 I *D sky130_fd_sc_hd__a21oi_2
*I *968:C I *D sky130_fd_sc_hd__and3_2
*I *932:A I *D sky130_fd_sc_hd__inv_2
*I *967:A2 I *D sky130_fd_sc_hd__a21oi_2
*I *1018:B1 I *D sky130_fd_sc_hd__o21ai_2
*I *1067:C I *D sky130_fd_sc_hd__nand3_2
*I *1426:X O *D sky130_fd_sc_hd__buf_4
*CAP
1 *1017:B1 0.00010226
2 *1167:B 0.000378904
3 *1169:A1 0
4 *1114:B 0.000609763
5 *989:A2 6.14234e-05
6 *968:C 8.64099e-05
7 *932:A 0
8 *967:A2 0.000311664
9 *1018:B1 7.91776e-05
10 *1067:C 0.000127905
11 *1426:X 0
12 *644:119 0.000813076
13 *644:102 0.00136492
14 *644:87 0.000959582
15 *644:70 0.0008161
16 *644:59 0.000212134
17 *644:55 0.000260721
18 *644:36 0.000710025
19 *644:21 0.000827924
20 *644:4 0.00057713
21 *967:A2 *967:A1 5.7661e-06
22 *967:A2 *672:134 0.000135028
23 *967:A2 *672:140 1.13692e-05
24 *1017:B1 *1017:A1 0.000135028
25 *1017:B1 *646:36 6.3629e-05
26 *1067:C *1065:A2 0
27 *1067:C *676:49 4.88212e-05
28 *1114:B *1466:A 0.000136682
29 *1167:B *656:47 0.00010941
30 *1167:B *656:56 0.000401482
31 *644:21 *941:B 6.51946e-05
32 *644:21 *676:49 8.70144e-05
33 *644:36 *941:B 0.000102009
34 *644:36 *1017:A1 0.000240398
35 *644:36 *647:45 9.89586e-05
36 *644:55 *1017:A1 0.00027521
37 *644:55 *647:45 0.000283776
38 *644:59 *1017:A1 5.33005e-05
39 *644:59 *646:36 2.24718e-05
40 *644:70 *646:36 0.00022197
41 *644:87 *982:A2 0.000353086
42 *644:87 *982:B1 0.000116033
43 *644:102 *991:B 0.000286865
44 *644:119 *665:55 0
45 *940:A1 *968:C 0.000186035
46 *940:A1 *644:36 0.000107298
47 *940:A1 *644:87 0.000301513
48 *940:A2 *1018:B1 3.30237e-05
49 *967:B1 *967:A2 0
50 *987:A *644:70 9.58689e-05
51 *989:A1 *989:A2 9.60939e-05
52 *989:B1 *644:87 5.52302e-05
53 *990:A2 *644:102 8.98994e-05
54 *990:B1 *644:102 8.25098e-05
55 *991:A *644:102 1.59028e-05
56 *992:A1 *644:87 0.000656833
57 *1018:A1 *1018:B1 6.05161e-06
58 *1163:B1 *1114:B 0.000130439
59 *1166:B1 *1167:B 7.50601e-05
60 *1166:B1 *644:102 0.000115072
61 *1166:B1 *644:119 0.000416243
62 *1175:C *644:119 0
63 *1429:A *967:A2 3.63775e-05
64 *1433:A *1114:B 0.000122091
65 *1488:A *644:21 0.000203523
66 *35:12 *644:102 0.000101346
67 *42:42 *1114:B 0.000861286
68 *116:16 *968:C 0.000186035
69 *116:16 *644:87 0.000548916
70 *161:35 *644:102 3.84385e-05
71 *161:35 *644:119 0.000178807
72 *191:29 *1114:B 2.08721e-05
73 *216:14 *1167:B 0
74 *282:58 *1018:B1 1.00073e-05
75 *503:10 *644:102 0.000115474
76 *526:83 *644:102 0.000176234
77 *549:61 *1017:B1 0.000247793
78 *549:61 *644:59 0.000137639
79 *551:72 *1114:B 0.000256708
80 *589:18 *644:21 1.19402e-05
81 *589:38 *644:21 3.15739e-05
82 *589:38 *644:36 1.78447e-05
83 *602:29 *644:87 8.73038e-05
84 *628:16 *1114:B 0.000702397
85 *628:20 *1114:B 0.000180501
86 *632:75 *989:A2 0.000139907
87 *632:75 *644:87 0.000116087
88 *641:84 *644:102 8.12097e-05
*RES
1 *1426:X *644:4 9.3 
2 *644:4 *1067:C 11.4964 
3 *644:4 *644:21 12.9643 
4 *644:21 *1018:B1 15.1571 
5 *644:21 *644:36 7.26786 
6 *644:36 *967:A2 18.0857 
7 *644:36 *644:55 8.26786 
8 *644:55 *644:59 1.78571 
9 *644:59 *932:A 9.3 
10 *644:59 *644:70 7.82143 
11 *644:70 *968:C 16.3536 
12 *644:70 *644:87 21.0893 
13 *644:87 *989:A2 11.0857 
14 *644:87 *644:102 14.5714 
15 *644:102 *1114:B 32.8714 
16 *644:102 *644:119 10.4464 
17 *644:119 *1169:A1 13.8 
18 *644:119 *1167:B 21.0143 
19 *644:55 *1017:B1 12.3179 
*END

*D_NET *645 0.0131494
*CONN
*I *1282:B2 I *D sky130_fd_sc_hd__a221o_2
*I *1226:A1 I *D sky130_fd_sc_hd__a22oi_2
*I *1260:B2 I *D sky130_fd_sc_hd__a22oi_2
*I *1325:A I *D sky130_fd_sc_hd__and3_2
*I *1284:A I *D sky130_fd_sc_hd__nor2_2
*I *1427:X O *D sky130_fd_sc_hd__clkdlybuf4s25_1
*CAP
1 *1282:B2 3.17412e-05
2 *1226:A1 0.000619832
3 *1260:B2 3.85732e-05
4 *1325:A 1.83717e-05
5 *1284:A 8.33349e-05
6 *1427:X 0
7 *645:54 0.00143989
8 *645:48 0.00101776
9 *645:46 0.0020997
10 *645:12 0.000284916
11 *645:6 0.00207838
12 *645:12 *1325:B 0.000123933
13 *645:46 *1362:A2 0.000164903
14 *645:46 *648:82 2.87555e-06
15 *1178:B1 *1226:A1 0.000284172
16 *1246:C_N *1226:A1 5.85228e-05
17 *1260:A1 *1226:A1 3.97657e-05
18 *1260:A1 *1282:B2 6.26774e-06
19 *1260:B1 *1260:B2 3.93346e-05
20 *1260:B1 *645:54 5.74499e-06
21 *1286:A *1284:A 9.80029e-05
22 *1325:C *1325:A 5.52302e-05
23 *1325:C *645:12 5.33005e-05
24 *1361:A1_N *645:46 7.29191e-05
25 *1361:A2_N *645:46 9.71197e-05
26 *1364:D *645:46 0.00010326
27 *1370:A2 *645:46 9.41642e-05
28 *1414:A *645:12 4.48583e-05
29 *1414:A *645:46 8.99641e-05
30 *1427:A *1284:A 7.79781e-06
31 *1502:A *1226:A1 5.58941e-05
32 *98:12 *645:48 8.07951e-05
33 *266:12 *1226:A1 7.8327e-05
34 *286:12 *1226:A1 0
35 *287:10 *1226:A1 1.72894e-05
36 *288:10 *1282:B2 4.02462e-05
37 *288:10 *645:48 0.00023731
38 *297:50 *1282:B2 7.22594e-05
39 *297:50 *645:48 0.00054712
40 *298:21 *645:46 0.000101545
41 *302:14 *1260:B2 1.3701e-05
42 *302:14 *645:54 6.09143e-05
43 *378:112 *645:46 0.000180777
44 *388:10 *1284:A 0.000173804
45 *390:10 *1284:A 0
46 *409:6 *645:46 9.8643e-05
47 *419:14 *1284:A 4.13477e-05
48 *419:14 *645:12 8.56716e-05
49 *626:8 *1260:B2 0
50 *626:8 *1282:B2 1.28809e-05
51 *626:8 *645:54 0.000477959
52 *627:37 *645:46 0.000275946
53 *642:27 *645:46 0.00109085
54 *643:14 *645:12 5.83304e-05
55 *643:14 *645:46 0.000193118
*RES
1 *1427:X *645:6 13.8 
2 *645:6 *645:12 9.125 
3 *645:12 *1284:A 21.4607 
4 *645:12 *1325:A 9.83571 
5 *645:6 *645:46 46.375 
6 *645:46 *645:48 7.10714 
7 *645:48 *645:54 15.3214 
8 *645:54 *1260:B2 10.6929 
9 *645:54 *1226:A1 30.1929 
10 *645:48 *1282:B2 14.9652 
*END

*D_NET *646 0.016979
*CONN
*I *1020:A I *D sky130_fd_sc_hd__nand2_2
*I *969:A2 I *D sky130_fd_sc_hd__a211o_2
*I *928:A I *D sky130_fd_sc_hd__inv_2
*I *1538:A I *D sky130_fd_sc_hd__buf_2
*I *982:B1 I *D sky130_fd_sc_hd__o21a_4
*I *1537:A I *D sky130_fd_sc_hd__buf_2
*I *1428:X O *D sky130_fd_sc_hd__buf_6
*CAP
1 *1020:A 0
2 *969:A2 0
3 *928:A 0.000815017
4 *1538:A 0.000369086
5 *982:B1 7.66343e-05
6 *1537:A 0.000186987
7 *1428:X 0.000295036
8 *646:97 0.00192892
9 *646:72 0.00188371
10 *646:57 0.000649627
11 *646:36 0.000716916
12 *646:24 0.000569037
13 *646:12 0.000506417
14 *982:B1 *982:A2 0.00014183
15 *1537:A *985:B 0.000181107
16 *646:12 *947:A1 0.000205842
17 *646:12 *678:47 0
18 *646:24 *956:C 7.06679e-05
19 *646:24 *678:47 0
20 *646:36 *1017:A1 0.000178503
21 *646:36 *647:45 1.18512e-05
22 *646:97 *1075:A2 0.000135028
23 *646:97 *1076:B 0.00010933
24 *646:97 *647:93 1.50181e-05
25 *948:B1 *646:12 0.000198822
26 *955:B *646:36 6.05161e-06
27 *956:A *646:24 6.38331e-05
28 *967:B1 *646:24 7.07572e-05
29 *969:A1 *646:24 1.32293e-05
30 *982:A1 *1537:A 2.04402e-05
31 *982:A1 *646:36 0.000205643
32 *982:A1 *646:57 0.000321347
33 *984:C1 *1537:A 0.000100165
34 *986:B1 *1537:A 4.11486e-05
35 *987:A *646:36 0.000160011
36 *987:A *646:57 0.000287609
37 *987:A *646:72 2.16719e-05
38 *992:A1 *646:72 0.00012401
39 *992:B1 *646:72 1.00375e-05
40 *1001:A3 *646:97 0
41 *1017:A2 *646:36 0.000265445
42 *1017:B1 *646:36 6.3629e-05
43 *1019:B1 *646:36 5.23735e-05
44 *1021:A1 *646:36 0.000193307
45 *1021:A2 *646:12 1.90654e-05
46 *1021:A2 *646:24 6.0038e-05
47 *1040:A2 *646:72 8.06331e-05
48 *1040:A3 *646:72 9.24299e-05
49 *1040:B1 *646:97 0
50 *1041:B *1538:A 0.000310292
51 *1057:A *928:A 5.57727e-05
52 *1077:A1 *646:97 0.000172368
53 *1113:B1 *1537:A 1.86951e-05
54 *1128:B1 *928:A 7.38748e-05
55 *1138:A3 *928:A 8.99513e-05
56 *1261:A1 *928:A 0.000173097
57 *1477:A *1538:A 9.60875e-05
58 *1532:A *1537:A 6.84143e-05
59 *1539:A *646:72 0
60 *1539:A *646:97 0
61 *36:8 *646:72 8.34323e-05
62 *44:12 *1538:A 7.83587e-05
63 *44:12 *646:97 0
64 *44:25 *1538:A 0.000257619
65 *114:14 *1537:A 0
66 *116:16 *646:72 0
67 *117:8 *646:97 0.000137939
68 *161:52 *646:97 3.15645e-05
69 *215:12 *928:A 0
70 *216:20 *928:A 0.000267982
71 *268:10 *928:A 0.000975804
72 *269:10 *928:A 4.33438e-05
73 *282:88 *646:24 9.58632e-05
74 *499:22 *646:72 0
75 *513:10 *928:A 8.359e-05
76 *546:8 *1537:A 1.8899e-05
77 *549:61 *646:36 2.19907e-05
78 *549:63 *646:36 0.000125542
79 *549:87 *646:36 7.7069e-05
80 *551:46 *646:97 0.000971047
81 *554:56 *928:A 7.2589e-05
82 *561:38 *1537:A 1.03696e-05
83 *589:79 *646:24 0.000135028
84 *593:10 *646:97 8.15939e-05
85 *602:29 *1538:A 7.6644e-05
86 *602:29 *646:72 0
87 *629:87 *646:12 7.8327e-05
88 *629:106 *646:12 9.0143e-05
89 *632:75 *982:B1 0.000226993
90 *634:72 *646:97 0
91 *634:91 *646:97 0
92 *644:59 *646:36 2.24718e-05
93 *644:70 *646:36 0.00022197
94 *644:87 *982:B1 0.000116033
*RES
1 *1428:X *646:12 26.05 
2 *646:12 *646:24 14.2857 
3 *646:24 *646:36 24.375 
4 *646:36 *1537:A 27.2286 
5 *646:36 *646:57 4.67857 
6 *646:57 *982:B1 16.9429 
7 *646:57 *646:72 8.01786 
8 *646:72 *1538:A 29.425 
9 *646:72 *646:97 30.4821 
10 *646:97 *928:A 36.3893 
11 *646:24 *969:A2 9.3 
12 *646:12 *1020:A 9.3 
*END

*D_NET *647 0.0182228
*CONN
*I *950:A2 I *D sky130_fd_sc_hd__a211o_2
*I *1076:A I *D sky130_fd_sc_hd__and3_2
*I *1034:B I *D sky130_fd_sc_hd__nand3_2
*I *1128:A1 I *D sky130_fd_sc_hd__a22oi_2
*I *1078:A1 I *D sky130_fd_sc_hd__a221o_2
*I *954:B I *D sky130_fd_sc_hd__or4_2
*I *985:A I *D sky130_fd_sc_hd__nand2_2
*I *927:A I *D sky130_fd_sc_hd__inv_2
*I *947:A2 I *D sky130_fd_sc_hd__a21oi_2
*I *941:D I *D sky130_fd_sc_hd__and4_2
*I *1429:X O *D sky130_fd_sc_hd__buf_4
*CAP
1 *950:A2 0
2 *1076:A 0.000228884
3 *1034:B 2.06112e-05
4 *1128:A1 0.000989131
5 *1078:A1 0
6 *954:B 0.000177474
7 *985:A 0
8 *927:A 0
9 *947:A2 0.000532066
10 *941:D 0.000282822
11 *1429:X 2.14871e-05
12 *647:93 0.00140807
13 *647:81 0.000527746
14 *647:77 0.00101777
15 *647:62 0.00113828
16 *647:58 0.000497401
17 *647:45 0.000539066
18 *647:14 0.000899671
19 *647:10 0.000258812
20 *647:6 0.000497294
21 *941:D *941:B 0
22 *941:D *941:C 0.000350559
23 *947:A2 *941:B 5.52302e-05
24 *947:A2 *678:32 0.00047122
25 *1128:A1 *1076:C 4.66688e-05
26 *1128:A1 *665:67 0.000197977
27 *647:14 *941:C 0.000117135
28 *647:45 *1017:A1 8.44271e-06
29 *647:45 *672:140 2.16719e-05
30 *647:77 *949:A 5.7903e-06
31 *647:77 *999:C 5.58941e-05
32 *940:B2 *941:D 0.000172233
33 *940:B2 *647:14 0.000222885
34 *942:A *941:D 0.000127446
35 *942:B *941:D 0.000145161
36 *950:A1 *647:58 9.41642e-05
37 *950:C1 *647:62 0
38 *953:A1 *647:62 7.25104e-05
39 *953:D1 *954:B 6.05161e-06
40 *954:D *954:B 1.92905e-05
41 *966:B1 *647:58 3.5097e-05
42 *982:A1 *647:45 0
43 *987:A *647:45 5.99861e-05
44 *987:A *647:58 1.13265e-05
45 *1022:A *947:A2 7.53073e-05
46 *1023:C1 *647:62 0.000218591
47 *1029:B1 *1076:A 0.000179082
48 *1029:B1 *647:77 1.76039e-05
49 *1034:A *1034:B 3.99614e-06
50 *1034:A *647:77 2.0586e-05
51 *1034:A *647:81 2.14658e-05
52 *1034:A *647:93 7.32272e-05
53 *1041:A *647:77 0
54 *1041:B *647:77 5.84267e-05
55 *1077:A1 *647:93 0.000139945
56 *1078:B2 *1128:A1 4.19961e-05
57 *1078:C1 *1128:A1 9.80173e-05
58 *1080:A1 *1128:A1 0
59 *1124:A *1128:A1 0
60 *1124:B *1128:A1 0.00020455
61 *1124:C *1128:A1 9.95404e-05
62 *1128:A2 *1128:A1 5.52302e-05
63 *1128:B2 *1128:A1 0
64 *1129:B *1128:A1 0.000194934
65 *1429:A *647:6 5.52302e-05
66 *1429:A *647:10 9.41642e-05
67 *1448:A *941:D 4.13715e-05
68 *1457:A *941:D 0.000176285
69 *41:67 *647:93 0.000100831
70 *42:53 *647:77 0.00012566
71 *69:12 *647:77 0
72 *76:14 *647:93 0.000128546
73 *77:12 *647:93 2.89114e-05
74 *99:8 *1128:A1 9.59321e-05
75 *99:36 *1128:A1 0.000106575
76 *114:14 *1128:A1 0
77 *115:24 *1128:A1 0.000114602
78 *116:16 *647:10 8.86413e-05
79 *116:16 *647:45 0.00054713
80 *116:16 *647:58 0.000168592
81 *161:52 *1128:A1 0.000576617
82 *165:10 *1128:A1 0
83 *165:36 *1128:A1 0
84 *215:12 *1128:A1 0
85 *292:61 *647:62 9.11365e-06
86 *292:82 *647:62 2.88424e-05
87 *465:12 *954:B 5.06983e-05
88 *465:12 *647:62 8.07951e-05
89 *465:12 *647:77 7.83659e-05
90 *499:22 *647:58 0.00013161
91 *506:114 *647:77 1.90936e-05
92 *546:47 *647:58 0.000135028
93 *546:60 *647:58 0.000468865
94 *551:46 *1128:A1 0.000136958
95 *554:25 *1076:A 0
96 *554:41 *1128:A1 3.84291e-05
97 *561:10 *647:77 0
98 *561:38 *647:58 0.000427994
99 *593:10 *647:93 0.000150611
100 *593:27 *1076:A 0.000117189
101 *593:27 *647:77 3.34295e-05
102 *593:33 *647:77 0.000397141
103 *634:91 *647:93 0.000224152
104 *644:36 *647:45 9.89586e-05
105 *644:55 *647:45 0.000283776
106 *646:36 *647:45 1.18512e-05
107 *646:97 *647:93 1.50181e-05
*RES
1 *1429:X *647:6 9.83571 
2 *647:6 *647:10 3.01786 
3 *647:10 *647:14 7.35714 
4 *647:14 *941:D 22.5679 
5 *647:14 *947:A2 22.5679 
6 *647:10 *927:A 9.3 
7 *647:6 *647:45 12.5179 
8 *647:45 *985:A 13.8 
9 *647:45 *647:58 12.625 
10 *647:58 *647:62 10.3929 
11 *647:62 *954:B 15.9786 
12 *647:62 *647:77 14.75 
13 *647:77 *647:81 5.85714 
14 *647:81 *647:93 19.0893 
15 *647:93 *1078:A1 9.3 
16 *647:93 *1128:A1 42.7643 
17 *647:81 *1034:B 9.72857 
18 *647:77 *1076:A 18.7107 
19 *647:58 *950:A2 9.3 
*END

*D_NET *648 0.01532
*CONN
*I *937:A I *D sky130_fd_sc_hd__inv_2
*I *1367:C I *D sky130_fd_sc_hd__and4_2
*I *1388:A2 I *D sky130_fd_sc_hd__a311o_2
*I *1382:B I *D sky130_fd_sc_hd__nand2_2
*I *1362:A2 I *D sky130_fd_sc_hd__a22o_2
*I *1126:B1 I *D sky130_fd_sc_hd__a21o_2
*I *1385:A I *D sky130_fd_sc_hd__and4_2
*I *1386:C1 I *D sky130_fd_sc_hd__o2111ai_4
*I *1325:B I *D sky130_fd_sc_hd__and3_2
*I *1356:B I *D sky130_fd_sc_hd__and3_2
*I *1430:X O *D sky130_fd_sc_hd__buf_6
*CAP
1 *937:A 0.00016099
2 *1367:C 0
3 *1388:A2 5.64987e-05
4 *1382:B 0.000155339
5 *1362:A2 0.000245346
6 *1126:B1 0.000672003
7 *1385:A 0.000216385
8 *1386:C1 1.99857e-05
9 *1325:B 0.000543267
10 *1356:B 0.000113035
11 *1430:X 0.000907735
12 *648:82 0.00149669
13 *648:56 0.000349547
14 *648:50 0.000832365
15 *648:48 0.000295187
16 *648:46 0.000770507
17 *648:42 0.000895544
18 *648:14 0.000827968
19 *648:10 0.00109995
20 *1126:B1 *654:52 2.89114e-05
21 *1385:A *1334:A1 2.26424e-05
22 *1385:A *1384:B1 6.74815e-05
23 *648:10 *662:8 0
24 *648:10 *662:14 0
25 *648:14 *662:14 0
26 p[15] *648:10 0
27 *938:A *1385:A 5.71472e-05
28 *1259:C *1126:B1 9.71197e-05
29 *1285:A2 *648:50 0
30 *1285:A2 *648:56 0
31 *1333:B *1325:B 0.000227526
32 *1334:B2 *648:46 1.58163e-05
33 *1335:B *1325:B 0.000243627
34 *1356:A *1325:B 2.07382e-05
35 *1356:A *1356:B 1.72894e-05
36 *1359:A1 *1126:B1 0.000148196
37 *1359:A2 *1362:A2 7.49272e-05
38 *1361:B1 *1388:A2 3.14163e-05
39 *1361:B1 *648:46 0.000206388
40 *1364:D *1362:A2 2.89114e-05
41 *1367:A *648:42 5.52302e-05
42 *1367:D *648:46 0.000140933
43 *1371:A *648:10 0.00025263
44 *1371:A *648:14 0.000165269
45 *1382:A *1385:A 0.000101444
46 *1385:C *1126:B1 2.82057e-05
47 *1386:B1 *1385:A 8.50152e-05
48 *1388:A3 *1382:B 3.27526e-05
49 *1388:A3 *648:50 0.000210344
50 *1388:A3 *648:56 0.000119738
51 *1394:A1 *648:10 0.000134758
52 *1414:A *1325:B 8.07951e-05
53 *1414:A *648:10 0
54 *1463:A *648:10 0
55 *75:10 *1126:B1 0
56 *349:10 *1126:B1 0
57 *373:22 *1385:A 0.000383281
58 *377:51 *648:14 0.000153047
59 *378:112 *1362:A2 0.000240433
60 *408:8 *1385:A 1.5424e-05
61 *408:8 *1386:C1 1.04232e-05
62 *408:8 *648:56 2.89016e-05
63 *410:8 *1385:A 5.52238e-05
64 *419:14 *1325:B 0
65 *438:10 *1382:B 0.00014338
66 *440:36 *648:10 0
67 *443:10 *648:10 0
68 *446:10 *937:A 0.00014183
69 *446:10 *648:10 5.71472e-05
70 *562:16 *1382:B 3.42301e-05
71 *562:16 *648:42 0.000134549
72 *562:16 *648:46 3.8432e-05
73 *569:19 *648:46 0.000100832
74 *573:12 *648:10 1.19309e-05
75 *573:16 *937:A 0.000106138
76 *573:16 *648:10 7.50473e-05
77 *626:31 *648:82 0.000301016
78 *627:37 *648:82 0.000128546
79 *630:36 *1126:B1 0.00024787
80 *633:12 *648:10 0
81 *633:26 *1325:B 1.3142e-05
82 *640:22 *1385:A 9.41642e-05
83 *640:22 *648:56 9.41642e-05
84 *642:14 *648:10 4.56494e-05
85 *643:18 *1325:B 1.98839e-05
86 *645:12 *1325:B 0.000123933
87 *645:46 *1362:A2 0.000164903
88 *645:46 *648:82 2.87555e-06
*RES
1 *1430:X *648:10 29.675 
2 *648:10 *648:14 8.57143 
3 *648:14 *1356:B 10.6571 
4 *648:14 *1325:B 28.4964 
5 *648:10 *648:42 7.91071 
6 *648:42 *648:46 12.0536 
7 *648:46 *648:48 4.5 
8 *648:48 *648:50 2.85714 
9 *648:50 *648:56 7.08929 
10 *648:56 *1386:C1 9.72857 
11 *648:56 *1385:A 24.7643 
12 *648:50 *648:82 11.6071 
13 *648:82 *1126:B1 30.1393 
14 *648:82 *1362:A2 15.5679 
15 *648:48 *1382:B 16.9607 
16 *648:46 *1388:A2 10.2464 
17 *648:42 *1367:C 9.3 
18 *1430:X *937:A 22.0286 
*END

*D_NET *649 0.0135555
*CONN
*I *1263:A2 I *D sky130_fd_sc_hd__a21oi_2
*I *1264:C I *D sky130_fd_sc_hd__and3_2
*I *1179:A2 I *D sky130_fd_sc_hd__a21oi_2
*I *1180:C I *D sky130_fd_sc_hd__and3_2
*I *1137:B1 I *D sky130_fd_sc_hd__o2111ai_4
*I *1130:C1 I *D sky130_fd_sc_hd__o221a_2
*I *1129:A I *D sky130_fd_sc_hd__nor2_2
*I *1360:B1 I *D sky130_fd_sc_hd__o2111a_2
*I *1125:B1 I *D sky130_fd_sc_hd__o21a_2
*I *1283:B I *D sky130_fd_sc_hd__and3_2
*I *1431:X O *D sky130_fd_sc_hd__clkbuf_2
*CAP
1 *1263:A2 0
2 *1264:C 0
3 *1179:A2 9.21819e-05
4 *1180:C 0
5 *1137:B1 0.000106239
6 *1130:C1 0.000154173
7 *1129:A 2.23854e-05
8 *1360:B1 0.000142414
9 *1125:B1 0
10 *1283:B 0.000160824
11 *1431:X 0.000381138
12 *649:111 0.000869553
13 *649:94 0.000922315
14 *649:81 0.000773381
15 *649:68 0.00170786
16 *649:44 0.000357985
17 *649:34 0.00159626
18 *649:28 0.000408156
19 *649:24 0.000352758
20 *1056:B *649:34 0
21 *1056:B *649:44 2.97074e-05
22 *1059:A *649:34 1.52978e-05
23 *1059:A *649:44 0.000137983
24 *1059:A *649:68 9.71197e-05
25 *1127:A2 *649:34 1.69115e-05
26 *1130:A1 *649:68 0.000575196
27 *1130:A1 *649:81 1.63504e-05
28 *1130:B1 *1130:C1 1.34576e-05
29 *1133:A2 *649:111 0
30 *1136:A2 *649:94 8.98585e-05
31 *1136:A2 *649:111 0.000245349
32 *1136:B2 *1137:B1 8.5232e-05
33 *1137:C1 *1137:B1 4.22908e-05
34 *1140:B1 *1130:C1 0.000210235
35 *1140:B1 *1137:B1 0.00030926
36 *1140:B1 *649:94 6.73939e-05
37 *1178:B2 *649:111 8.1985e-05
38 *1179:A1 *1179:A2 0.000186669
39 *1180:A *1179:A2 5.52302e-05
40 *1182:B *649:111 0.000154027
41 *1182:C *649:111 1.74352e-05
42 *1188:A2 *649:111 5.33334e-05
43 *1226:A2 *649:34 0
44 *1260:B1 *649:24 0.000145688
45 *1360:A1 *1360:B1 5.33005e-05
46 *1360:A2 *1360:B1 3.8274e-05
47 *1503:A *649:34 0.000148189
48 *101:22 *1130:C1 0.000179919
49 *101:22 *649:94 9.25014e-06
50 *164:16 *649:81 0.000304387
51 *166:19 *649:34 2.61337e-05
52 *166:19 *649:44 7.6644e-05
53 *166:19 *649:68 0.000116049
54 *168:10 *649:34 0.000337644
55 *170:6 *649:81 9.74668e-05
56 *189:10 *649:111 0
57 *215:12 *649:68 0.000101545
58 *219:10 *1179:A2 6.05161e-06
59 *271:38 *649:111 1.84421e-05
60 *292:113 *1130:C1 4.6152e-05
61 *292:113 *649:111 0
62 *300:14 *649:24 4.70162e-05
63 *302:14 *649:24 0
64 *302:56 *649:28 0
65 *303:12 *649:28 6.67434e-05
66 *307:8 *649:24 1.17968e-05
67 *506:58 *1360:B1 1.24368e-05
68 *506:58 *649:44 7.40633e-05
69 *513:10 *649:68 3.57844e-05
70 *554:41 *649:68 9.41642e-05
71 *554:56 *649:68 3.34366e-05
72 *562:48 *1360:B1 0.000227258
73 *573:26 *1283:B 0.000183726
74 *573:39 *1283:B 1.39726e-05
75 *573:39 *649:24 9.7659e-05
76 *602:29 *1130:C1 1.73191e-05
77 *602:29 *649:94 1.41029e-05
78 *602:29 *649:111 1.45177e-05
79 *630:81 *649:34 0.000358394
*RES
1 *1431:X *1283:B 20.7786 
2 *1431:X *649:24 22.3179 
3 *649:24 *649:28 2.19643 
4 *649:28 *649:34 16.7143 
5 *649:34 *649:44 12.8393 
6 *649:44 *1125:B1 9.3 
7 *649:44 *1360:B1 12.7286 
8 *649:34 *649:68 24.9643 
9 *649:68 *1129:A 9.72857 
10 *649:68 *649:81 12.0357 
11 *649:81 *1130:C1 17.8 
12 *649:81 *649:94 1.33929 
13 *649:94 *1137:B1 17.2286 
14 *649:94 *649:111 18.6786 
15 *649:111 *1180:C 9.3 
16 *649:111 *1179:A2 11.8 
17 *649:28 *1264:C 9.3 
18 *649:24 *1263:A2 9.3 
*END

*D_NET *650 0.00394906
*CONN
*I *1465:A I *D sky130_fd_sc_hd__buf_6
*I *1118:B1 I *D sky130_fd_sc_hd__o311a_2
*I *1117:B1 I *D sky130_fd_sc_hd__a21oi_2
*I *1432:X O *D sky130_fd_sc_hd__clkbuf_2
*CAP
1 *1465:A 9.95403e-05
2 *1118:B1 0.000243573
3 *1117:B1 0.000228499
4 *1432:X 0.000365765
5 *650:21 0.000343113
6 *650:10 0.000594264
7 *1118:B1 *653:10 0.000260574
8 *1115:C1 *1117:B1 0.000224224
9 *1115:C1 *650:10 0.000112793
10 *1116:A2 *1118:B1 5.54256e-05
11 *1118:A1 *1118:B1 0.00018942
12 *1159:A1 *1117:B1 5.94737e-05
13 *1161:A2 *650:10 0.000137983
14 *1433:A *1465:A 9.60939e-05
15 *1534:A *1117:B1 7.2754e-05
16 *161:35 *1118:B1 1.32389e-05
17 *161:35 *1465:A 2.42516e-05
18 *190:14 *1117:B1 0.000524288
19 *190:14 *650:10 0.000121416
20 *378:56 *1117:B1 5.80706e-06
21 *378:87 *1117:B1 2.14378e-05
22 *613:20 *1117:B1 0.000114602
23 *632:59 *650:10 3.55471e-05
24 *641:20 *1117:B1 4.98055e-06
*RES
1 *1432:X *650:10 18.8536 
2 *650:10 *1117:B1 21.2107 
3 *650:10 *650:21 4.5 
4 *650:21 *1118:B1 14.3893 
5 *650:21 *1465:A 11.0679 
*END

*D_NET *651 0.0100724
*CONN
*I *1517:A I *D sky130_fd_sc_hd__buf_2
*I *1054:A I *D sky130_fd_sc_hd__nand2_2
*I *1056:A I *D sky130_fd_sc_hd__or2_2
*I *1055:B I *D sky130_fd_sc_hd__nor2_4
*I *1053:A I *D sky130_fd_sc_hd__and2_4
*I *1030:C_N I *D sky130_fd_sc_hd__nor3b_4
*I *1031:A I *D sky130_fd_sc_hd__nor2_4
*I *1465:X O *D sky130_fd_sc_hd__buf_6
*CAP
1 *1517:A 5.88037e-05
2 *1054:A 0.000209474
3 *1056:A 0.000202225
4 *1055:B 5.35746e-05
5 *1053:A 0
6 *1030:C_N 0.000107292
7 *1031:A 0.000297374
8 *1465:X 0.000256382
9 *651:68 0.000434085
10 *651:59 9.59457e-05
11 *651:52 0.000637979
12 *651:31 0.000832155
13 *651:27 0.000274275
14 *651:8 0.000662359
15 *1030:C_N *995:B 0.000221641
16 *1056:A *1125:A1 0.00015134
17 *651:31 *995:B 0.000252113
18 *651:52 *1125:A1 0.000310058
19 *936:A *651:52 0.0007888
20 *1033:A1 *1030:C_N 2.97137e-05
21 *1033:A2 *1030:C_N 5.33005e-05
22 *1054:B *1054:A 0.000271352
23 *1054:B *651:52 5.33005e-05
24 *1056:B *1056:A 8.47107e-05
25 *1152:A *1031:A 0.00010096
26 *1152:A *651:27 4.60232e-06
27 *1165:A1 *651:8 0.00016029
28 *1171:C1 *651:31 3.32631e-05
29 *1172:A *1517:A 2.48938e-05
30 *1176:B *1517:A 0.000149904
31 *1219:A2 *651:52 0.00011061
32 *1360:A1 *1056:A 0.000153047
33 *1360:A1 *651:52 9.10431e-06
34 *1360:D1 *1056:A 0
35 *1553:A *1031:A 0
36 *76:14 *651:52 0.000104974
37 *95:26 *1054:A 4.88637e-05
38 *97:6 *651:59 1.04232e-05
39 *97:14 *1055:B 5.17614e-05
40 *97:57 *1055:B 2.28499e-05
41 *97:57 *651:52 9.60939e-05
42 *160:12 *651:52 0
43 *190:14 *651:52 0.000417891
44 *191:20 *651:8 4.11218e-05
45 *199:8 *651:8 6.21582e-05
46 *200:29 *651:8 0.000123288
47 *201:8 *651:52 8.33559e-05
48 *203:8 *1517:A 0.00017309
49 *203:8 *651:8 0.000167619
50 *203:8 *651:27 0.000189698
51 *255:18 *651:52 0.000173804
52 *303:28 *1056:A 0
53 *303:28 *651:52 0
54 *357:53 *651:52 7.83659e-05
55 *378:87 *1031:A 8.32083e-05
56 *506:39 *651:8 0.000109355
57 *506:45 *651:8 0
58 *506:45 *651:27 0
59 *506:45 *651:52 1.76135e-05
60 *506:58 *651:52 0.000293737
61 *562:24 *1056:A 0
62 *562:54 *1056:A 2.16719e-05
63 *613:20 *651:52 0.000126864
64 *631:123 *1031:A 0.000189777
65 *631:138 *1031:A 0.000168099
66 *639:73 *1031:A 4.13595e-05
67 *639:73 *1517:A 2.14474e-05
68 *639:73 *651:27 6.90134e-05
*RES
1 *1465:X *651:8 20.6036 
2 *651:8 *1031:A 20.7821 
3 *651:8 *651:27 2.55357 
4 *651:27 *651:31 7.08929 
5 *651:31 *1030:C_N 11.9071 
6 *651:31 *651:52 30.1607 
7 *651:52 *1053:A 9.3 
8 *651:52 *651:59 0.428571 
9 *651:59 *1055:B 10.6571 
10 *651:59 *651:68 0.428571 
11 *651:68 *1056:A 23.5143 
12 *651:68 *1054:A 13.55 
13 *651:27 *1517:A 16.3536 
*END

*D_NET *652 0.0177273
*CONN
*I *1358:C1 I *D sky130_fd_sc_hd__o211ai_2
*I *1334:A1 I *D sky130_fd_sc_hd__a22oi_2
*I *1384:B1 I *D sky130_fd_sc_hd__o2bb2a_2
*I *1291:B1 I *D sky130_fd_sc_hd__o21a_2
*I *1422:A I *D sky130_fd_sc_hd__buf_6
*I *1462:X O *D sky130_fd_sc_hd__dlymetal6s4s_1
*CAP
1 *1358:C1 0.000242101
2 *1334:A1 0.000301611
3 *1384:B1 7.33911e-05
4 *1291:B1 1.80162e-05
5 *1422:A 0.000160947
6 *1462:X 0.000654226
7 *652:60 0.00104264
8 *652:56 0.00152155
9 *652:39 0.00180148
10 *652:16 0.00198683
11 *1422:A *1513:A 0.000111367
12 *1422:A *671:70 1.21258e-05
13 *652:16 *1443:A 0.000168074
14 *652:16 *1513:A 0.000515282
15 *652:39 *924:A 1.21258e-05
16 *652:39 *1109:C 1.51643e-05
17 *652:39 *1151:A1 0.000533807
18 *652:39 *671:70 7.65779e-05
19 *652:56 *995:B 2.84009e-05
20 *1106:A *652:39 9.67754e-05
21 *1109:A *652:39 9.67754e-05
22 *1118:A2 *1291:B1 1.92789e-05
23 *1151:B1 *652:39 0.00132069
24 *1202:B *652:39 0.000140488
25 *1209:A2 *652:39 0.000173097
26 *1252:A2 *652:56 0.000262357
27 *1253:B2 *1291:B1 2.89016e-05
28 *1334:A2 *1334:A1 0.000272321
29 *1334:B1 *1334:A1 0.000389644
30 *1358:A2 *1358:C1 0
31 *1359:A1 *652:60 4.58976e-05
32 *1359:B1 *1358:C1 6.62868e-05
33 *1385:A *1334:A1 2.26424e-05
34 *1385:A *1384:B1 6.74815e-05
35 *1385:C *1358:C1 1.07719e-05
36 *1385:C *652:60 8.25843e-06
37 *1386:B1 *1334:A1 0.000190682
38 *1388:A3 *1334:A1 0.000190682
39 *1447:A *652:16 8.95742e-06
40 *75:10 *652:56 0.00121935
41 *97:18 *1358:C1 7.49387e-06
42 *246:14 *652:39 0
43 *246:14 *652:56 0
44 *249:12 *652:39 0.000117628
45 *249:12 *652:56 0.000168579
46 *336:14 *652:39 6.27272e-06
47 *378:87 *652:56 0.000114207
48 *378:112 *652:56 0.00113621
49 *408:8 *652:60 0.000767211
50 *460:14 *652:16 0
51 *460:40 *652:16 0
52 *460:51 *652:16 0.000100387
53 *461:12 *1422:A 7.89362e-05
54 *507:14 *652:16 0.00022374
55 *626:31 *1334:A1 0.000392848
56 *627:37 *1334:A1 0.000339548
57 *635:58 *652:39 0.000139337
58 *637:91 *652:39 0.000125202
59 *639:10 *652:39 3.86696e-05
60 *642:27 *1334:A1 6.39425e-05
*RES
1 *1462:X *652:16 31.8893 
2 *652:16 *1422:A 20.6929 
3 *652:16 *652:39 32.7321 
4 *652:39 *1291:B1 14.3357 
5 *652:39 *652:56 26.2321 
6 *652:56 *652:60 13.25 
7 *652:60 *1384:B1 15.4429 
8 *652:60 *1334:A1 24.4964 
9 *652:56 *1358:C1 12.6214 
*END

*D_NET *653 0.00192441
*CONN
*I *1466:A I *D sky130_fd_sc_hd__buf_6
*I *1432:A I *D sky130_fd_sc_hd__clkbuf_2
*I *1433:X O *D sky130_fd_sc_hd__dlymetal6s2s_1
*CAP
1 *1466:A 0.000124878
2 *1432:A 0
3 *1433:X 0.000158077
4 *653:10 0.000282955
5 *1113:A1 *1466:A 2.91255e-05
6 *1114:B *1466:A 0.000136682
7 *1114:C *1466:A 1.02504e-05
8 *1118:B1 *653:10 0.000260574
9 *42:42 *1466:A 0.000136682
10 *155:10 *1466:A 0.00016267
11 *155:10 *653:10 0.00014469
12 *155:12 *653:10 9.54798e-06
13 *161:35 *653:10 8.5229e-05
14 *303:28 *1466:A 0.000239878
15 *303:28 *653:10 9.15804e-05
16 *303:30 *653:10 5.15925e-05
*RES
1 *1433:X *653:10 18.3357 
2 *653:10 *1432:A 13.8 
3 *653:10 *1466:A 18.3179 
*END

*D_NET *654 0.0123334
*CONN
*I *1125:A1 I *D sky130_fd_sc_hd__o21a_2
*I *1126:A1 I *D sky130_fd_sc_hd__a21o_2
*I *1572:A I *D sky130_fd_sc_hd__buf_2
*I *933:A I *D sky130_fd_sc_hd__inv_2
*I *1466:X O *D sky130_fd_sc_hd__buf_6
*CAP
1 *1125:A1 0.000639069
2 *1126:A1 0
3 *1572:A 3.59657e-05
4 *933:A 0.00159436
5 *1466:X 0.0003478
6 *654:52 0.00136403
7 *654:29 0.00108107
8 *654:10 0.0022623
9 *936:A *1125:A1 3.18676e-05
10 *1056:A *1125:A1 0.00015134
11 *1113:A2 *933:A 0.000130776
12 *1113:A2 *654:29 5.66157e-05
13 *1118:A2 *654:10 0.000313235
14 *1126:A2 *1125:A1 0.000136951
15 *1126:B1 *654:52 2.89114e-05
16 *1215:A2 *654:52 4.13595e-05
17 *1215:B1 *654:52 9.80173e-05
18 *1252:B2 *654:29 0
19 *1253:A2 *933:A 9.25014e-06
20 *1253:A2 *654:29 0.000209483
21 *1259:C *654:52 0.000193118
22 *1291:A1 *654:10 2.59355e-05
23 *1292:C1 *933:A 0
24 *1358:B1 *654:52 3.51442e-05
25 *1360:A1 *1125:A1 0.000186397
26 *1416:A *933:A 5.41201e-05
27 *41:25 *654:52 2.9281e-05
28 *42:42 *654:10 0.000561076
29 *73:10 *654:29 0.000136618
30 *73:12 *654:29 0.00016384
31 *74:46 *933:A 0.000130776
32 *155:10 *654:10 5.33005e-05
33 *160:24 *1125:A1 5.92984e-05
34 *191:20 *933:A 8.99497e-05
35 *249:12 *654:29 0
36 *249:12 *654:52 0
37 *250:10 *654:52 0.000335937
38 *288:10 *654:52 9.77024e-05
39 *297:33 *654:29 0.000126439
40 *297:33 *654:52 0.000310979
41 *297:50 *654:52 1.18064e-05
42 *298:10 *654:52 0.000107568
43 *336:14 *933:A 0.000459785
44 *341:10 *933:A 4.50033e-05
45 *357:39 *1572:A 1.58163e-05
46 *389:10 *1125:A1 1.61526e-05
47 *506:58 *1125:A1 4.038e-06
48 *529:22 *933:A 0
49 *562:54 *1125:A1 0.000175519
50 *565:22 *933:A 4.7091e-05
51 *630:36 *654:52 1.82549e-05
52 *640:22 *654:52 0
53 *640:24 *654:52 0
54 *651:52 *1125:A1 0.000310058
*RES
1 *1466:X *654:10 21.7464 
2 *654:10 *933:A 26.2129 
3 *654:10 *654:29 7.71429 
4 *654:29 *1572:A 14.3357 
5 *654:29 *654:52 29.9286 
6 *654:52 *1126:A1 9.3 
7 *654:52 *1125:A1 30.2643 
*END

*D_NET *655 0.0158617
*CONN
*I *995:B I *D sky130_fd_sc_hd__and2_2
*I *1250:A2 I *D sky130_fd_sc_hd__o21ai_2
*I *997:B I *D sky130_fd_sc_hd__nor2_2
*I *1251:A2 I *D sky130_fd_sc_hd__a21oi_2
*I *998:B I *D sky130_fd_sc_hd__or2_4
*I *934:A I *D sky130_fd_sc_hd__inv_2
*I *1327:A2 I *D sky130_fd_sc_hd__a31o_2
*I *1294:A2 I *D sky130_fd_sc_hd__a311o_2
*I *1290:A2 I *D sky130_fd_sc_hd__a21oi_2
*I *1289:A2 I *D sky130_fd_sc_hd__o21ai_2
*I *1434:X O *D sky130_fd_sc_hd__buf_4
*CAP
1 *995:B 0.001587
2 *1250:A2 0
3 *997:B 0.000487863
4 *1251:A2 0
5 *998:B 8.52003e-05
6 *934:A 0.000151373
7 *1327:A2 3.45581e-05
8 *1294:A2 3.18695e-05
9 *1290:A2 0
10 *1289:A2 0.000244471
11 *1434:X 0.000264126
12 *655:118 0.00175126
13 *655:91 8.52003e-05
14 *655:89 0.000572911
15 *655:85 0.000297514
16 *655:72 0.000363646
17 *655:59 0.00076463
18 *655:20 0.000400144
19 *655:16 0.00024436
20 *655:8 0.000886942
21 *995:B *995:A 1.97695e-05
22 *997:B *660:50 0
23 *1289:A2 *662:16 0
24 *1030:C_N *995:B 0.000221641
25 *1033:A1 *995:B 5.74499e-06
26 *1118:A2 *995:B 4.3049e-05
27 *1118:A2 *655:72 0.000141729
28 *1118:A2 *655:85 0.000211877
29 *1118:A2 *655:118 0.000482107
30 *1171:A1 *995:B 5.52238e-05
31 *1171:B1 *995:B 0.000183726
32 *1171:B2 *995:B 3.18676e-05
33 *1171:C1 *995:B 2.32353e-05
34 *1173:A1 *995:B 4.27935e-05
35 *1173:A2 *995:B 4.69993e-05
36 *1175:C *995:B 8.37335e-05
37 *1205:B *655:118 5.33005e-05
38 *1250:A1 *995:B 1.40034e-05
39 *1250:A1 *655:118 8.07322e-05
40 *1250:B1 *655:118 5.33005e-05
41 *1252:A1 *995:B 5.33005e-05
42 *1252:A2 *995:B 5.59533e-05
43 *1252:B2 *995:B 3.45453e-05
44 *1253:B2 *995:B 0.000175892
45 *1253:B2 *655:118 2.24079e-05
46 *1290:A1 *1289:A2 5.52302e-05
47 *1290:A1 *655:20 0.000124959
48 *1290:B1 *1289:A2 0
49 *1294:A1 *1294:A2 1.98839e-05
50 *1294:A1 *655:20 2.59355e-05
51 *1294:A3 *1289:A2 0
52 *1294:C1 *655:59 4.16221e-05
53 *1299:A1 *997:B 7.60306e-05
54 *1302:B1 *997:B 0
55 *1326:A *997:B 0
56 *1326:C *997:B 0.000100126
57 *1327:B1 *655:59 6.05161e-06
58 *1328:A2 *998:B 0.000163196
59 *1332:A1 *1289:A2 0
60 *1332:A1 *655:16 7.83587e-05
61 *1434:A *655:8 0.00010096
62 *1436:A *934:A 0
63 *1436:A *655:72 0.000125997
64 *42:22 *998:B 0.000164373
65 *73:10 *995:B 5.52302e-05
66 *75:10 *995:B 0.00010326
67 *208:10 *995:B 5.0532e-05
68 *246:14 *995:B 0.00031213
69 *290:10 *997:B 0.000192983
70 *290:10 *655:89 0.000192776
71 *290:23 *997:B 0.000188734
72 *331:10 *997:B 0.000105276
73 *331:10 *655:89 9.60298e-05
74 *357:39 *934:A 8.63596e-05
75 *357:39 *997:B 4.14252e-05
76 *378:87 *995:B 0.000861151
77 *531:6 *655:72 2.43875e-05
78 *532:18 *1327:A2 5.14832e-05
79 *532:18 *655:59 2.05612e-05
80 *532:18 *655:72 0.000140175
81 *540:43 *997:B 0.00023006
82 *552:14 *655:72 0.00035112
83 *552:22 *655:16 8.00806e-05
84 *565:22 *655:59 0.000222524
85 *581:16 *655:59 0.000117175
86 *591:22 *997:B 0
87 *632:29 *934:A 0
88 *632:29 *655:72 0.000183477
89 *632:29 *655:85 0.000222666
90 *632:29 *655:118 9.41642e-05
91 *632:44 *655:118 8.46829e-05
92 *651:31 *995:B 0.000252113
93 *652:56 *995:B 2.84009e-05
*RES
1 *1434:X *655:8 13.55 
2 *655:8 *655:16 10.4643 
3 *655:16 *655:20 3.01786 
4 *655:20 *1289:A2 22.2286 
5 *655:20 *1290:A2 9.3 
6 *655:16 *1294:A2 9.83571 
7 *655:8 *655:59 17.4643 
8 *655:59 *1327:A2 10.3357 
9 *655:59 *655:72 5.875 
10 *655:72 *934:A 20.8536 
11 *655:72 *655:85 2.17857 
12 *655:85 *655:89 7.05357 
13 *655:89 *655:91 4.5 
14 *655:91 *998:B 12.3 
15 *655:91 *1251:A2 9.3 
16 *655:89 *997:B 25.8179 
17 *655:85 *655:118 5.48214 
18 *655:118 *1250:A2 9.3 
19 *655:118 *995:B 49.6571 
*END

*D_NET *656 0.0110901
*CONN
*I *1075:A2 I *D sky130_fd_sc_hd__o21a_2
*I *1076:C I *D sky130_fd_sc_hd__and3_2
*I *1167:C I *D sky130_fd_sc_hd__and3_2
*I *996:B I *D sky130_fd_sc_hd__nand2_2
*I *1166:A2 I *D sky130_fd_sc_hd__o21a_2
*I *1573:A I *D sky130_fd_sc_hd__buf_2
*I *1211:A1 I *D sky130_fd_sc_hd__o21a_4
*I *1435:X O *D sky130_fd_sc_hd__buf_6
*CAP
1 *1075:A2 0.000130967
2 *1076:C 0.000578939
3 *1167:C 4.36033e-05
4 *996:B 0.000320384
5 *1166:A2 0
6 *1573:A 0.00017942
7 *1211:A1 0
8 *1435:X 0.00127011
9 *656:75 0.000622542
10 *656:58 0.000353837
11 *656:56 0.00026725
12 *656:47 0.00124622
13 *656:12 0.000306135
14 *996:B *1585:A 0.000149911
15 *1075:A2 *1076:B 1.98839e-05
16 *1075:A2 *665:67 0.000174839
17 *1076:C *665:59 5.33005e-05
18 *1167:C *665:59 5.33005e-05
19 *656:47 *665:55 0.000273237
20 *656:47 *665:59 2.28598e-05
21 *656:56 *665:59 8.60102e-05
22 *656:58 *665:67 5.41794e-05
23 *1077:B1 *1076:C 0.000388038
24 *1078:B2 *996:B 0.000132117
25 *1078:B2 *1076:C 0.0001382
26 *1078:B2 *656:58 1.08359e-05
27 *1078:C1 *996:B 9.91086e-05
28 *1078:C1 *1076:C 1.38323e-05
29 *1078:C1 *656:56 5.33005e-05
30 *1078:C1 *656:58 4.49293e-05
31 *1080:A2 *1076:C 5.33005e-05
32 *1080:B1 *1076:C 2.56289e-05
33 *1128:A1 *1076:C 4.66688e-05
34 *1166:B1 *656:56 5.52302e-05
35 *1167:B *656:47 0.00010941
36 *1167:B *656:56 0.000401482
37 *1168:B1 *656:56 0.000142856
38 *1218:A1 *656:47 7.02611e-05
39 *1218:A2 *656:47 2.15245e-05
40 *1218:B1 *656:47 0.000437768
41 *1219:A2 *1573:A 4.13496e-05
42 *1220:B *1573:A 0
43 *1439:A *996:B 5.71472e-05
44 *39:14 *996:B 9.02133e-05
45 *41:67 *1076:C 3.28686e-05
46 *41:80 *1076:C 0.000107038
47 *114:14 *996:B 0.000481574
48 *114:14 *1075:A2 7.06079e-05
49 *114:14 *656:58 1.17968e-05
50 *122:10 *1076:C 4.0552e-05
51 *160:12 *656:12 9.34004e-05
52 *210:23 *656:47 0.000192489
53 *210:25 *656:47 2.44318e-05
54 *216:14 *656:47 1.88048e-05
55 *255:18 *1573:A 0.00035519
56 *303:28 *656:12 0.000174812
57 *357:66 *996:B 5.66157e-05
58 *551:46 *1076:C 1.97176e-05
59 *592:14 *1573:A 0.000183726
60 *628:8 *996:B 0.000194299
61 *628:10 *996:B 9.56708e-05
62 *628:16 *996:B 3.67548e-05
63 *631:138 *996:B 0.000124556
64 *646:97 *1075:A2 0.000135028
*RES
1 *1435:X *656:12 21.4964 
2 *656:12 *1211:A1 9.3 
3 *656:12 *1573:A 13.9607 
4 *1435:X *656:47 35.05 
5 *656:47 *1166:A2 9.3 
6 *656:47 *656:56 8.73214 
7 *656:56 *656:58 1.03571 
8 *656:58 *996:B 25.8714 
9 *656:58 *656:75 4.5 
10 *656:75 *1167:C 9.83571 
11 *656:75 *1076:C 19.425 
12 *656:56 *1075:A2 17.1036 
*END

*D_NET *657 0.00351507
*CONN
*I *1467:A I *D sky130_fd_sc_hd__buf_6
*I *961:B I *D sky130_fd_sc_hd__and2_2
*I *960:B I *D sky130_fd_sc_hd__or2_2
*I *959:B I *D sky130_fd_sc_hd__nor2_2
*I *1436:X O *D sky130_fd_sc_hd__buf_6
*CAP
1 *1467:A 0.00036168
2 *961:B 0
3 *960:B 0.000238983
4 *959:B 0.000206389
5 *1436:X 0.000226832
6 *657:28 0.000355815
7 *657:26 0.000498954
8 *959:B *662:22 0.000447399
9 *657:26 *662:22 5.33005e-05
10 *963:A *959:B 0
11 *1287:B1 *959:B 7.72745e-05
12 *1287:B1 *657:26 2.59355e-05
13 *1292:A1 *1467:A 0.000187042
14 *1292:A2 *1467:A 1.46231e-05
15 *1292:A3 *1467:A 1.24368e-05
16 *1292:B1 *1467:A 4.14699e-06
17 *1293:B1 *1467:A 1.21972e-05
18 *1296:A2 *1467:A 0
19 *1413:A *960:B 0.00013926
20 *475:89 *960:B 3.02302e-05
21 *476:10 *959:B 0
22 *525:72 *960:B 0.000146261
23 *525:72 *657:28 2.30648e-05
24 *525:85 *1467:A 6.98302e-05
25 *525:85 *657:28 0.000171368
26 *525:95 *959:B 0.000198079
27 *631:42 *1467:A 1.39726e-05
*RES
1 *1436:X *959:B 34.3857 
2 *1436:X *657:26 14.3357 
3 *657:26 *657:28 2.55357 
4 *657:28 *960:B 18.3357 
5 *657:28 *961:B 13.8 
6 *657:26 *1467:A 19.4786 
*END

*D_NET *658 0.00433671
*CONN
*I *1540:A I *D sky130_fd_sc_hd__buf_4
*I *930:A I *D sky130_fd_sc_hd__inv_2
*I *1467:X O *D sky130_fd_sc_hd__buf_6
*CAP
1 *1540:A 0.000225589
2 *930:A 0.00108795
3 *1467:X 0
4 *658:4 0.00131354
5 *930:A *960:A 5.33005e-05
6 *930:A *662:22 0.000481512
7 *930:A *662:39 4.9046e-05
8 *1287:A2 *930:A 0.000128161
9 *1413:A *930:A 0.000599462
10 *1427:A *930:A 0.000109051
11 *1436:A *930:A 6.72969e-05
12 *1436:A *1540:A 0
13 *331:10 *1540:A 0
14 *475:22 *930:A 0
15 *476:10 *930:A 2.56694e-05
16 *525:72 *930:A 0.000151638
17 *525:85 *930:A 3.84291e-05
18 *631:42 *930:A 6.05161e-06
19 *631:42 *1540:A 0
*RES
1 *1467:X *658:4 9.3 
2 *658:4 *930:A 48.7643 
3 *658:4 *1540:A 21.9964 
*END

*D_NET *659 0.00348327
*CONN
*I *1411:A I *D sky130_fd_sc_hd__clkbuf_1
*I *1468:A I *D sky130_fd_sc_hd__buf_6
*I *1332:A2 I *D sky130_fd_sc_hd__o211ai_2
*I *1437:X O *D sky130_fd_sc_hd__buf_6
*CAP
1 *1411:A 0.000392341
2 *1468:A 6.20402e-05
3 *1332:A2 0.000170724
4 *1437:X 0.000110218
5 *659:25 0.000611546
6 *659:10 0.000438108
7 *1411:A *998:A 0.00017039
8 *1298:A1 *1411:A 1.85871e-05
9 *1298:A2 *1411:A 1.13105e-05
10 *1298:B1 *1411:A 3.18747e-05
11 *1298:C1 *1411:A 7.57394e-05
12 *1298:C1 *1468:A 0
13 *1341:A *659:10 4.0342e-06
14 *1434:A *1332:A2 0
15 *1436:A *1411:A 9.25014e-06
16 *332:12 *1411:A 7.89037e-05
17 *342:12 *1332:A2 9.90367e-05
18 *357:39 *1411:A 0
19 *375:6 *1332:A2 0.00018624
20 *419:14 *1332:A2 3.17148e-05
21 *419:14 *659:10 0.000197721
22 *419:14 *659:25 5.33005e-05
23 *529:10 *659:10 5.26442e-05
24 *529:22 *1332:A2 4.5549e-05
25 *529:22 *659:10 1.7846e-05
26 *591:30 *1332:A2 0
27 *591:30 *1411:A 0.000506996
28 *591:30 *659:25 9.71197e-05
29 *632:29 *1411:A 1.00332e-05
*RES
1 *1437:X *659:10 16.8893 
2 *659:10 *1332:A2 17.8179 
3 *659:10 *659:25 7.5 
4 *659:25 *1468:A 10.5679 
5 *659:25 *1411:A 27.7286 
*END

*D_NET *660 0.00708637
*CONN
*I *1211:A2 I *D sky130_fd_sc_hd__o21a_4
*I *1549:A I *D sky130_fd_sc_hd__buf_2
*I *997:A I *D sky130_fd_sc_hd__nor2_2
*I *998:A I *D sky130_fd_sc_hd__or2_4
*I *1548:A I *D sky130_fd_sc_hd__buf_2
*I *1468:X O *D sky130_fd_sc_hd__buf_6
*CAP
1 *1211:A2 0.000134364
2 *1549:A 0
3 *997:A 0
4 *998:A 0.000172804
5 *1548:A 0
6 *1468:X 0.000114566
7 *660:65 0.000446112
8 *660:50 0.000838566
9 *660:21 0.00086901
10 *660:10 0.000283954
11 *997:B *660:50 0
12 *1030:A *1211:A2 7.3237e-05
13 *1216:A1 *660:50 0.000338351
14 *1217:B *660:65 0.000109555
15 *1255:A2 *660:50 0.000142856
16 *1256:A *660:50 4.70078e-05
17 *1298:B1 *660:10 0.000149966
18 *1299:A1 *660:50 7.59411e-05
19 *1299:A2 *998:A 0.000101545
20 *1299:B1 *660:21 0.000132222
21 *1299:B1 *660:50 1.17091e-05
22 *1302:A1 *998:A 0
23 *1326:A *660:50 5.26184e-05
24 *1326:C *660:50 6.05161e-06
25 *1328:A2 *998:A 5.07076e-05
26 *1411:A *998:A 0.00017039
27 *41:25 *1211:A2 2.14658e-05
28 *41:25 *660:50 2.59355e-05
29 *41:25 *660:65 0.000299423
30 *42:22 *998:A 2.84109e-05
31 *247:22 *660:65 5.52302e-05
32 *297:12 *660:50 1.97756e-05
33 *303:28 *1211:A2 0.000222892
34 *332:12 *998:A 0.000361546
35 *341:10 *660:10 1.00332e-05
36 *341:14 *660:10 2.23987e-05
37 *344:12 *660:50 5.68713e-05
38 *357:39 *998:A 0
39 *357:39 *660:50 0.000397502
40 *540:43 *1211:A2 0.000122081
41 *540:43 *660:50 5.33005e-05
42 *540:43 *660:65 0.000777853
43 *591:22 *660:50 6.04069e-05
44 *640:22 *1211:A2 3.34366e-05
45 *640:24 *1211:A2 0.000196276
*RES
1 *1468:X *660:10 20.8536 
2 *660:10 *1548:A 9.3 
3 *660:10 *660:21 3.14286 
4 *660:21 *998:A 23.925 
5 *660:21 *660:50 22.7143 
6 *660:50 *997:A 9.3 
7 *660:50 *660:65 10.2679 
8 *660:65 *1549:A 9.3 
9 *660:65 *1211:A2 23.3357 
*END

*D_NET *661 0.000598212
*CONN
*I *1519:A I *D sky130_fd_sc_hd__buf_2
*I *1437:A I *D sky130_fd_sc_hd__buf_6
*I *1438:X O *D sky130_fd_sc_hd__buf_6
*CAP
1 *1519:A 0.000116081
2 *1437:A 0
3 *1438:X 7.8166e-05
4 *661:8 0.000194247
5 *341:31 *1519:A 0
6 *419:14 *1519:A 0.000113877
7 *419:14 *661:8 8.39e-05
8 *532:18 *1519:A 0
9 *532:18 *661:8 0
10 *540:43 *1519:A 1.19402e-05
*RES
1 *1438:X *661:8 15.7464 
2 *661:8 *1437:A 13.8 
3 *661:8 *1519:A 16.6571 
*END

*D_NET *662 0.0221237
*CONN
*I *1421:A I *D sky130_fd_sc_hd__clkbuf_4
*I *1402:B I *D sky130_fd_sc_hd__and3_2
*I *1327:A3 I *D sky130_fd_sc_hd__a31o_2
*I *1289:B1 I *D sky130_fd_sc_hd__o21ai_2
*I *1109:C I *D sky130_fd_sc_hd__and3_4
*I *1200:B1 I *D sky130_fd_sc_hd__o21ai_2
*I *1106:B I *D sky130_fd_sc_hd__nand2_2
*I *1199:B1 I *D sky130_fd_sc_hd__o21a_2
*I *1248:B1 I *D sky130_fd_sc_hd__o21ai_2
*I *1287:A3 I *D sky130_fd_sc_hd__a31o_2
*I *1463:X O *D sky130_fd_sc_hd__clkbuf_2
*CAP
1 *1421:A 0
2 *1402:B 0.000355789
3 *1327:A3 0.000703846
4 *1289:B1 3.50585e-05
5 *1109:C 0.000706944
6 *1200:B1 0
7 *1106:B 0.000339664
8 *1199:B1 8.55824e-05
9 *1248:B1 0
10 *1287:A3 6.75577e-05
11 *1463:X 8.26226e-05
12 *662:132 0.00142685
13 *662:54 0.000498782
14 *662:52 9.09895e-05
15 *662:50 0.00107628
16 *662:39 0.000571374
17 *662:22 0.00106974
18 *662:16 0.00122003
19 *662:14 0.00278781
20 *662:8 0.00283537
21 *1106:B *671:8 0.000309266
22 *1109:C *671:70 0.000110551
23 *1199:B1 *671:8 0.000182592
24 *662:50 *1206:A1 0.000112731
25 *662:52 *1206:A1 4.6355e-05
26 *662:54 *1206:A1 3.27526e-05
27 *930:A *662:22 0.000481512
28 *930:A *662:39 4.9046e-05
29 *931:A *1106:B 0.000273812
30 *959:B *662:22 0.000447399
31 *1106:A *1109:C 3.43941e-05
32 *1109:B *1109:C 1.02301e-05
33 *1201:A *1199:B1 4.79581e-05
34 *1203:A2 *662:50 0.000144732
35 *1203:B1 *1109:C 0.000137561
36 *1203:B1 *662:50 6.89101e-05
37 *1248:A1 *662:39 1.19472e-05
38 *1249:A *662:50 4.77058e-05
39 *1287:A2 *662:39 0
40 *1287:B1 *662:22 6.88469e-05
41 *1289:A2 *662:16 0
42 *1290:B1 *1289:B1 5.30637e-06
43 *1290:B1 *662:16 0.000129868
44 *1329:A1 *662:14 0.000150625
45 *1330:B1 *662:14 7.39637e-05
46 *1335:A *662:14 0
47 *1356:C *662:14 0.000129868
48 *1383:B *1402:B 9.90367e-05
49 *1402:C *1402:B 1.07719e-05
50 *1402:C *662:132 0
51 *1403:A1 *1402:B 2.13481e-06
52 *1403:B1 *1402:B 1.58163e-05
53 *1405:A *662:132 0.000203391
54 *1405:B *662:132 3.88131e-05
55 *1408:A3 *662:132 9.83388e-05
56 *1408:A4 *1402:B 0
57 *1408:A4 *662:132 0
58 *1434:A *662:14 0
59 *1434:A *662:16 0
60 *1436:A *662:22 0.000102362
61 *1452:A *662:14 0
62 *1461:A *662:14 0.000106299
63 *1463:A *662:8 0.000169405
64 *1463:A *662:14 0.000140263
65 *1560:A *662:50 0.000141729
66 *324:14 *1106:B 9.60939e-05
67 *331:10 *662:39 1.83053e-05
68 *336:14 *1327:A3 0.000465855
69 *341:10 *1327:A3 1.90936e-05
70 *342:25 *662:14 0
71 *375:14 *662:14 0
72 *375:29 *662:14 6.26559e-05
73 *377:36 *662:14 0
74 *377:51 *662:14 0
75 *383:22 *662:14 0
76 *383:24 *662:14 0
77 *405:12 *662:14 0.000711051
78 *440:36 *662:132 0.000776205
79 *440:43 *662:132 0.00013017
80 *453:12 *1402:B 4.94362e-05
81 *453:12 *662:132 0.000320806
82 *461:12 *1199:B1 5.41794e-05
83 *461:12 *662:50 7.58841e-05
84 *461:12 *662:52 5.51649e-05
85 *461:12 *662:54 0.000168667
86 *475:22 *1327:A3 0
87 *525:18 *1199:B1 5.48781e-05
88 *525:18 *662:54 8.90892e-05
89 *529:22 *1327:A3 0.000154308
90 *552:14 *1327:A3 2.06112e-05
91 *578:10 *662:50 6.14702e-06
92 *626:14 *1402:B 6.09572e-05
93 *633:12 *662:132 0.00014285
94 *637:91 *1109:C 2.59355e-05
95 *639:10 *1109:C 0.000306309
96 *648:10 *662:8 0
97 *648:10 *662:14 0
98 *648:14 *662:14 0
99 *652:39 *1109:C 1.51643e-05
100 *657:26 *662:22 5.33005e-05
*RES
1 *1463:X *662:8 16.05 
2 *662:8 *662:14 36.4554 
3 *662:14 *662:16 7.86607 
4 *662:16 *662:22 21.0357 
5 *662:22 *1287:A3 10.5679 
6 *662:22 *662:39 13.0179 
7 *662:39 *1248:B1 9.3 
8 *662:39 *662:50 12.3571 
9 *662:50 *662:52 0.732143 
10 *662:52 *662:54 2.25 
11 *662:54 *1199:B1 16.3 
12 *662:54 *1106:B 20.9429 
13 *662:52 *1200:B1 13.8 
14 *662:50 *1109:C 23.5321 
15 *662:16 *1289:B1 14.3357 
16 *662:14 *1327:A3 22.8896 
17 *662:8 *662:132 29.5536 
18 *662:132 *1402:B 18.7464 
19 *662:132 *1421:A 13.8 
*END

*D_NET *663 0.000689066
*CONN
*I *1585:A I *D sky130_fd_sc_hd__buf_8
*I *1439:X O *D sky130_fd_sc_hd__dlygate4sd1_1
*CAP
1 *1585:A 0.000132971
2 *1439:X 0.000132971
3 *1585:A *664:8 7.17235e-05
4 *996:B *1585:A 0.000149911
5 *1168:A2 *1585:A 5.33005e-05
6 *628:10 *1585:A 2.24646e-05
7 *628:16 *1585:A 0.000125724
*RES
1 *1439:X *1585:A 31.3143 
*END

*D_NET *664 0.00203291
*CONN
*I *1545:A I *D sky130_fd_sc_hd__buf_6
*I *996:A I *D sky130_fd_sc_hd__nand2_2
*I *995:A I *D sky130_fd_sc_hd__and2_2
*I *1585:X O *D sky130_fd_sc_hd__buf_8
*CAP
1 *1545:A 0.000132591
2 *996:A 7.85865e-05
3 *995:A 0.000109037
4 *1585:X 0.000593263
5 *664:8 0.000648296
6 *995:B *995:A 1.97695e-05
7 *1166:B1 *996:A 0.00017309
8 *1168:A2 *664:8 9.41642e-05
9 *1168:B1 *995:A 6.05161e-06
10 *1168:B1 *664:8 2.89114e-05
11 *1585:A *664:8 7.17235e-05
12 *40:10 *996:A 5.33882e-05
13 *114:14 *996:A 0
14 *208:10 *995:A 2.40379e-05
*RES
1 *1585:X *664:8 16.425 
2 *664:8 *995:A 11.0857 
3 *664:8 *996:A 20.55 
4 *1585:X *1545:A 20.3679 
*END

*D_NET *665 0.0106631
*CONN
*I *1166:A1 I *D sky130_fd_sc_hd__o21a_2
*I *1167:A I *D sky130_fd_sc_hd__and3_2
*I *1076:B I *D sky130_fd_sc_hd__and3_2
*I *1075:A1 I *D sky130_fd_sc_hd__o21a_2
*I *1163:A1 I *D sky130_fd_sc_hd__o211ai_2
*I *1161:A1 I *D sky130_fd_sc_hd__o21ai_2
*I *1162:A1 I *D sky130_fd_sc_hd__o211a_2
*I *1440:X O *D sky130_fd_sc_hd__dlygate4sd1_1
*CAP
1 *1166:A1 0
2 *1167:A 0
3 *1076:B 0.000723854
4 *1075:A1 0
5 *1163:A1 0
6 *1161:A1 0.000586943
7 *1162:A1 0.000220909
8 *1440:X 8.91494e-05
9 *665:67 0.000841676
10 *665:59 0.000373791
11 *665:55 0.00110006
12 *665:12 0.000858
13 *665:10 0.000145593
14 *665:6 0.00102869
15 *1025:A *1162:A1 5.47476e-05
16 *1029:A2 *1076:B 6.05161e-06
17 *1029:B1 *1076:B 2.56601e-05
18 *1075:A2 *1076:B 1.98839e-05
19 *1075:A2 *665:67 0.000174839
20 *1076:C *665:59 5.33005e-05
21 *1078:B2 *665:67 9.25014e-06
22 *1078:C1 *665:59 9.41642e-05
23 *1079:A1 *1076:B 0.000259549
24 *1128:A1 *665:67 0.000197977
25 *1161:A2 *1161:A1 3.70665e-05
26 *1161:B1 *1161:A1 4.58194e-05
27 *1162:A2 *1162:A1 0.000127737
28 *1163:A2 *1162:A1 8.0089e-05
29 *1164:A1 *1161:A1 9.99644e-06
30 *1164:A2 *1161:A1 0.000137447
31 *1164:B1 *1161:A1 4.05236e-05
32 *1165:A2 *1161:A1 3.23206e-05
33 *1166:B1 *665:59 5.52302e-05
34 *1167:C *665:59 5.33005e-05
35 *1168:B1 *665:59 0.000142856
36 *1173:B1 *665:55 0.000312736
37 *1175:C *665:55 4.94362e-05
38 *1433:A *1162:A1 0.000217663
39 *1433:A *665:10 3.51442e-05
40 *1433:A *665:12 0.000148196
41 *1439:A *665:55 0.000166426
42 *1533:A *1161:A1 2.14757e-05
43 *39:8 *665:55 3.43988e-06
44 *39:14 *665:55 1.77247e-05
45 *114:14 *665:67 2.00751e-05
46 *122:10 *1076:B 3.69697e-05
47 *161:35 *665:55 0
48 *161:52 *665:67 1.81805e-05
49 *202:10 *1162:A1 0.000114508
50 *202:10 *665:10 0.00010095
51 *204:8 *1162:A1 3.34295e-05
52 *204:8 *665:10 0.000231072
53 *204:8 *665:12 0.000138946
54 *206:10 *665:59 9.90367e-05
55 *209:16 *665:55 5.41794e-05
56 *210:23 *665:55 0.000238769
57 *216:14 *665:55 4.03318e-05
58 *548:22 *1162:A1 5.6671e-05
59 *548:22 *665:55 6.71947e-05
60 *554:25 *1076:B 0.000248818
61 *631:138 *665:6 8.46044e-06
62 *631:138 *665:55 1.1152e-05
63 *644:119 *665:55 0
64 *646:97 *1076:B 0.00010933
65 *656:47 *665:55 0.000273237
66 *656:47 *665:59 2.28598e-05
67 *656:56 *665:59 8.60102e-05
68 *656:58 *665:67 5.41794e-05
*RES
1 *1440:X *665:6 10.2464 
2 *665:6 *665:10 7.66071 
3 *665:10 *665:12 1.94643 
4 *665:12 *1162:A1 20.2241 
5 *665:12 *1161:A1 21.8893 
6 *665:10 *1163:A1 13.8 
7 *665:6 *665:55 25.1607 
8 *665:55 *665:59 5.48214 
9 *665:59 *665:67 12.6964 
10 *665:67 *1075:A1 9.3 
11 *665:67 *1076:B 29.4964 
12 *665:59 *1167:A 9.3 
13 *665:55 *1166:A1 9.3 
*END

*D_NET *666 0.00243954
*CONN
*I *1469:A I *D sky130_fd_sc_hd__buf_6
*I *1571:A I *D sky130_fd_sc_hd__buf_2
*I *1441:X O *D sky130_fd_sc_hd__buf_6
*CAP
1 *1469:A 0.00025191
2 *1571:A 0.000115714
3 *1441:X 0.000178086
4 *666:10 0.000545709
5 *1469:A *667:57 7.32756e-05
6 *1571:A *667:57 6.05161e-06
7 *666:10 *667:44 5.8084e-05
8 *666:10 *670:8 0
9 *944:A *666:10 3.43988e-06
10 *1206:C1 *1469:A 0.000221628
11 *1427:A *666:10 0.000322133
12 *461:12 *1469:A 1.59373e-05
13 *525:18 *1469:A 0.000289759
14 *590:10 *1469:A 0.000282819
15 *590:10 *1571:A 7.49893e-05
*RES
1 *1441:X *666:10 22.675 
2 *666:10 *1571:A 11.6214 
3 *666:10 *1469:A 17.2464 
*END

*D_NET *667 0.00538962
*CONN
*I *944:B I *D sky130_fd_sc_hd__nand2_8
*I *1206:A2 I *D sky130_fd_sc_hd__o311ai_4
*I *1501:A I *D sky130_fd_sc_hd__buf_2
*I *1199:A2 I *D sky130_fd_sc_hd__o21a_2
*I *945:A I *D sky130_fd_sc_hd__nor2_4
*I *1500:A I *D sky130_fd_sc_hd__buf_2
*I *943:B I *D sky130_fd_sc_hd__and2_4
*I *1469:X O *D sky130_fd_sc_hd__buf_6
*CAP
1 *944:B 0
2 *1206:A2 0.000195039
3 *1501:A 3.753e-05
4 *1199:A2 0
5 *945:A 0
6 *1500:A 1.11927e-05
7 *943:B 8.85388e-05
8 *1469:X 0.000149408
9 *667:66 0.000433835
10 *667:57 0.000395379
11 *667:44 0.000355555
12 *667:38 0.000513003
13 *667:16 0.00035737
14 *667:10 0.000758607
15 *943:B *943:A 5.52238e-05
16 *667:10 *943:A 0
17 *667:38 *1575:A 0.000272636
18 *667:44 *1470:A 0
19 *944:A *667:44 0
20 *944:A *667:57 5.79582e-06
21 *945:B *667:44 0
22 *945:B *667:57 0.000103253
23 *1099:A1 *667:16 0.000213766
24 *1099:A2 *667:10 1.76135e-05
25 *1099:A2 *667:16 0.000145028
26 *1099:B1 *1500:A 0
27 *1101:A1 *667:10 1.31516e-05
28 *1101:A1 *667:16 5.10822e-05
29 *1101:A3 *667:38 0.000265846
30 *1101:A3 *667:44 0
31 *1103:A2 *943:B 1.33343e-05
32 *1103:A2 *1500:A 0
33 *1103:A2 *667:16 0.000139907
34 *1201:A *667:44 3.4846e-06
35 *1202:A *667:10 1.69115e-05
36 *1206:C1 *667:10 1.52978e-05
37 *1287:A2 *1206:A2 7.74135e-05
38 *1469:A *667:57 7.32756e-05
39 *1499:A *1206:A2 0.000247413
40 *1571:A *667:57 6.05161e-06
41 *460:8 *667:38 6.13288e-05
42 *510:27 *1206:A2 9.08883e-05
43 *525:18 *667:10 2.89114e-05
44 *556:26 *667:10 3.04612e-05
45 *590:10 *667:10 8.80087e-05
46 *666:10 *667:44 5.8084e-05
*RES
1 *1469:X *667:10 17.1929 
2 *667:10 *667:16 10.2321 
3 *667:16 *943:B 11.0857 
4 *667:16 *1500:A 9.72857 
5 *667:10 *667:38 12.0357 
6 *667:38 *667:44 11.8571 
7 *667:44 *945:A 9.3 
8 *667:44 *667:57 8.23214 
9 *667:57 *1199:A2 13.8 
10 *667:57 *667:66 3.00893 
11 *667:66 *1501:A 14.6125 
12 *667:66 *1206:A2 18.3268 
13 *667:38 *944:B 9.3 
*END

*D_NET *668 0.0135541
*CONN
*I *956:C I *D sky130_fd_sc_hd__and3_2
*I *982:A2 I *D sky130_fd_sc_hd__o21a_4
*I *929:A I *D sky130_fd_sc_hd__inv_2
*I *985:B I *D sky130_fd_sc_hd__nand2_2
*I *984:A3 I *D sky130_fd_sc_hd__o311ai_4
*I *1070:A2 I *D sky130_fd_sc_hd__o311ai_4
*I *1153:A1 I *D sky130_fd_sc_hd__o21a_4
*I *1157:B I *D sky130_fd_sc_hd__and3_2
*I *1067:B I *D sky130_fd_sc_hd__nand3_2
*I *1065:A2 I *D sky130_fd_sc_hd__o21ai_2
*I *1442:X O *D sky130_fd_sc_hd__buf_6
*CAP
1 *956:C 0.000999488
2 *982:A2 0.000185991
3 *929:A 0.000507716
4 *985:B 0.000572727
5 *984:A3 0
6 *1070:A2 0
7 *1153:A1 1.97574e-05
8 *1157:B 0.000181238
9 *1067:B 0
10 *1065:A2 0.000208385
11 *1442:X 0
12 *668:93 0.000725481
13 *668:80 0.000625484
14 *668:71 0.000250319
15 *668:67 0.00125485
16 *668:60 0.000143904
17 *668:40 0.000731343
18 *668:34 0.000897319
19 *668:10 0.000293021
20 *668:6 0.000333731
21 *956:C *956:B 4.00058e-05
22 *1065:A2 *676:49 0.000139913
23 *1157:B *1157:A 6.82912e-05
24 *969:A1 *956:C 3.23206e-05
25 *969:C1 *956:C 2.59355e-05
26 *982:A1 *956:C 5.89317e-05
27 *982:B1 *982:A2 0.00014183
28 *983:A1 *929:A 4.84159e-05
29 *984:A2 *668:71 7.56533e-05
30 *984:B1 *985:B 2.12733e-05
31 *984:C1 *985:B 0.000199319
32 *986:A2_N *982:A2 4.60131e-05
33 *986:A2_N *668:80 9.15842e-06
34 *986:A2_N *668:93 6.67257e-05
35 *986:B1 *985:B 2.05612e-05
36 *991:A *982:A2 2.8266e-06
37 *1065:A1 *1065:A2 3.07555e-05
38 *1065:B1 *1065:A2 0
39 *1067:C *1065:A2 0
40 *1069:A1 *1065:A2 2.80066e-05
41 *1069:B1 *1065:A2 3.32631e-05
42 *1070:A1 *956:C 5.41499e-05
43 *1070:A1 *668:10 7.48356e-05
44 *1070:A1 *668:34 3.27158e-05
45 *1070:A1 *668:60 0.000107363
46 *1070:A1 *668:67 3.09985e-05
47 *1070:B1 *668:60 0.000142838
48 *1070:C1 *668:40 4.84073e-05
49 *1070:C1 *668:60 2.85321e-05
50 *1072:B1 *668:40 0.000303705
51 *1072:B1 *668:60 0.000125202
52 *1074:A2 *668:34 0
53 *1153:B1 *1157:B 4.93118e-06
54 *1153:B1 *668:40 7.3742e-05
55 *1160:A1 *929:A 3.49456e-06
56 *1537:A *985:B 0.000181107
57 *110:8 *668:10 0
58 *110:8 *668:34 0
59 *114:14 *982:A2 5.53406e-05
60 *114:14 *668:71 1.2294e-05
61 *193:10 *668:40 6.56786e-05
62 *197:10 *1157:B 1.85914e-05
63 *282:39 *668:34 0.000217057
64 *282:73 *956:C 1.02301e-05
65 *282:88 *956:C 4.23643e-05
66 *282:125 *668:34 0.00030975
67 *314:29 *929:A 0.000154187
68 *314:46 *929:A 1.38323e-05
69 *314:46 *985:B 2.59599e-05
70 *314:46 *668:80 1.75296e-05
71 *484:10 *956:C 5.92753e-05
72 *497:8 *982:A2 0.000196993
73 *499:22 *985:B 5.33005e-05
74 *546:8 *929:A 0.000135028
75 *546:23 *982:A2 7.79781e-06
76 *561:38 *982:A2 0.000102423
77 *561:38 *668:80 4.57131e-05
78 *561:38 *668:93 7.58841e-05
79 *561:44 *956:C 5.50052e-05
80 *561:44 *668:60 8.43535e-06
81 *561:44 *668:67 4.37451e-05
82 *561:44 *668:71 0.000317822
83 *561:44 *668:80 9.54798e-06
84 *561:46 *668:60 2.97489e-05
85 *561:50 *668:40 0.000181665
86 *561:50 *668:60 9.85599e-06
87 *576:21 *1065:A2 5.19413e-05
88 *576:21 *668:10 1.02504e-05
89 *589:55 *956:C 3.6444e-05
90 *589:79 *956:C 4.25228e-05
91 *629:70 *668:71 9.47564e-05
92 *632:75 *982:A2 0.000110117
93 *635:58 *1157:B 1.24368e-05
94 *641:49 *668:34 0.000264803
95 *644:87 *982:A2 0.000353086
96 *646:24 *956:C 7.06679e-05
*RES
1 *1442:X *668:6 13.8 
2 *668:6 *668:10 6.44643 
3 *668:10 *1065:A2 22.6393 
4 *668:10 *1067:B 9.3 
5 *668:6 *668:34 12.2143 
6 *668:34 *668:40 10.9464 
7 *668:40 *1157:B 12.3179 
8 *668:40 *1153:A1 9.72857 
9 *668:34 *668:60 3.83929 
10 *668:60 *1070:A2 9.3 
11 *668:60 *668:67 0.946429 
12 *668:67 *668:71 9.48214 
13 *668:71 *984:A3 13.8 
14 *668:71 *668:80 0.732143 
15 *668:80 *985:B 21.2286 
16 *668:80 *668:93 1.03571 
17 *668:93 *929:A 20.4071 
18 *668:93 *982:A2 20.675 
19 *668:67 *956:C 25.7643 
*END

*D_NET *669 0.00546613
*CONN
*I *1442:A I *D sky130_fd_sc_hd__buf_6
*I *1535:A I *D sky130_fd_sc_hd__buf_4
*I *1586:X O *D sky130_fd_sc_hd__buf_6
*CAP
1 *1442:A 0.000952364
2 *1535:A 0.000115603
3 *1586:X 0.000336551
4 *669:10 0.00140452
5 *1061:B1 *1442:A 0.000378038
6 *1062:A2 *669:10 5.33005e-05
7 *1063:A *1442:A 1.39726e-05
8 *1063:C *1442:A 2.47833e-05
9 *1072:A1_N *1442:A 3.45371e-05
10 *1101:C1 *669:10 1.74352e-05
11 *1102:A *669:10 0.000875884
12 *1103:B1 *1442:A 0.000111501
13 *1155:B1 *1442:A 7.6644e-05
14 *1458:A *1535:A 0
15 *11:17 *669:10 0.000318101
16 *378:10 *1535:A 7.6644e-05
17 *378:31 *1442:A 0.000158576
18 *378:31 *1535:A 3.06466e-05
19 *549:8 *1535:A 2.60158e-05
20 *637:14 *1442:A 4.38128e-05
21 *637:20 *1442:A 0.00022459
22 *637:37 *1442:A 0.000178847
23 *637:58 *1442:A 1.37643e-05
*RES
1 *1586:X *669:10 22.9786 
2 *669:10 *1535:A 16.05 
3 *669:10 *1442:A 29.8714 
*END

*D_NET *670 0.00303982
*CONN
*I *1470:A I *D sky130_fd_sc_hd__buf_8
*I *1575:A I *D sky130_fd_sc_hd__buf_2
*I *1443:X O *D sky130_fd_sc_hd__buf_6
*CAP
1 *1470:A 0.00017226
2 *1575:A 0.00063327
3 *1443:X 8.40787e-05
4 *670:8 0.000889609
5 *1470:A *1443:A 5.59013e-05
6 *1470:A *1513:A 0.000370759
7 *1575:A *672:16 3.0933e-05
8 *670:8 *1443:A 0.000120504
9 *944:A *1575:A 7.44262e-05
10 *1101:A3 *1470:A 0.000308191
11 *459:10 *1575:A 0
12 *461:12 *1470:A 2.72545e-05
13 *666:10 *670:8 0
14 *667:38 *1575:A 0.000272636
15 *667:44 *1470:A 0
*RES
1 *1443:X *670:8 15.4429 
2 *670:8 *1575:A 31.1393 
3 *670:8 *1470:A 19.3893 
*END

*D_NET *671 0.00715677
*CONN
*I *924:A I *D sky130_fd_sc_hd__inv_6
*I *1206:A1 I *D sky130_fd_sc_hd__o311ai_4
*I *1200:A1 I *D sky130_fd_sc_hd__o21ai_2
*I *943:A I *D sky130_fd_sc_hd__and2_4
*I *1199:A1 I *D sky130_fd_sc_hd__o21a_2
*I *1520:A I *D sky130_fd_sc_hd__buf_4
*I *960:A I *D sky130_fd_sc_hd__or2_2
*I *1536:A I *D sky130_fd_sc_hd__buf_2
*I *1470:X O *D sky130_fd_sc_hd__buf_8
*CAP
1 *924:A 1.92319e-05
2 *1206:A1 0.000196373
3 *1200:A1 1.95391e-05
4 *943:A 0.000375054
5 *1199:A1 0
6 *1520:A 0
7 *960:A 0.000445468
8 *1536:A 0
9 *1470:X 0.000208287
10 *671:70 0.000383101
11 *671:64 0.000263092
12 *671:49 0.000451726
13 *671:12 0.000545228
14 *671:10 0.000111911
15 *671:8 0.000220438
16 *1200:A1 *1513:A 5.65955e-05
17 *671:70 *1513:A 0.000187189
18 *930:A *960:A 5.33005e-05
19 *931:A *671:8 0.000115961
20 *943:B *943:A 5.52238e-05
21 *944:A *671:12 9.83388e-05
22 *945:B *671:10 2.14658e-05
23 *945:B *671:12 0.000118018
24 *1099:A1 *943:A 4.12337e-05
25 *1101:A1 *943:A 5.97719e-05
26 *1101:A3 *671:8 1.21258e-05
27 *1103:A2 *943:A 0.000170957
28 *1106:B *671:8 0.000309266
29 *1109:C *671:70 0.000110551
30 *1199:B1 *671:8 0.000182592
31 *1203:B1 *1200:A1 6.05161e-06
32 *1203:B1 *671:70 9.40659e-05
33 *1413:A *960:A 0.000197879
34 *1422:A *671:70 1.21258e-05
35 *1499:A *1206:A1 0
36 *324:14 *960:A 7.11447e-05
37 *324:14 *671:8 0.000157286
38 *324:14 *671:10 1.74352e-05
39 *324:14 *671:12 0.000147415
40 *460:14 *943:A 0.000234177
41 *460:40 *943:A 0.000143173
42 *460:51 *943:A 9.65171e-05
43 *460:51 *671:64 8.95908e-05
44 *507:14 *943:A 7.67629e-05
45 *556:26 *943:A 0.000354904
46 *556:26 *671:64 0.000195587
47 *639:10 *924:A 5.33005e-05
48 *639:10 *671:70 9.67754e-05
49 *652:39 *924:A 1.21258e-05
50 *652:39 *671:70 7.65779e-05
51 *662:50 *1206:A1 0.000112731
52 *662:52 *1206:A1 4.6355e-05
53 *662:54 *1206:A1 3.27526e-05
54 *667:10 *943:A 0
*RES
1 *1470:X *671:8 15.6036 
2 *671:8 *671:10 0.535714 
3 *671:10 *671:12 3.82143 
4 *671:12 *1536:A 9.3 
5 *671:12 *960:A 28.3179 
6 *671:10 *1520:A 9.3 
7 *671:8 *1199:A1 9.3 
8 *1470:X *671:49 13.8 
9 *671:49 *943:A 24.4786 
10 *671:49 *671:64 7.05357 
11 *671:64 *671:70 5.19643 
12 *671:70 *1200:A1 9.83571 
13 *671:70 *1206:A1 21.3893 
14 *671:64 *924:A 9.83571 
*END

*D_NET *672 0.0282579
*CONN
*I *1420:A I *D sky130_fd_sc_hd__buf_4
*I *968:B I *D sky130_fd_sc_hd__and3_2
*I *947:A1 I *D sky130_fd_sc_hd__a21oi_2
*I *967:A1 I *D sky130_fd_sc_hd__a21oi_2
*I *941:C I *D sky130_fd_sc_hd__and4_2
*I *949:A I *D sky130_fd_sc_hd__and2_2
*I *990:A1 I *D sky130_fd_sc_hd__o211a_2
*I *991:B I *D sky130_fd_sc_hd__and3_2
*I *988:A I *D sky130_fd_sc_hd__nand2_2
*I *1151:A1 I *D sky130_fd_sc_hd__o21ai_2
*I *1464:X O *D sky130_fd_sc_hd__clkbuf_2
*CAP
1 *1420:A 0
2 *968:B 3.73875e-05
3 *947:A1 0.00025437
4 *967:A1 2.54237e-05
5 *941:C 0.000679173
6 *949:A 0.000871768
7 *990:A1 0.000151398
8 *991:B 0.000129568
9 *988:A 3.75838e-05
10 *1151:A1 0.000854442
11 *1464:X 0.00119854
12 *672:140 0.000454025
13 *672:134 0.000402478
14 *672:115 0.00131523
15 *672:83 0.00118468
16 *672:68 0.000340852
17 *672:59 0.000775781
18 *672:47 0.00124692
19 *672:41 0.00080157
20 *672:16 0.00274126
21 *672:41 *1446:A 8.35951e-05
22 *672:41 *1514:A 7.79781e-06
23 *672:41 *1579:A 0.000269428
24 *672:47 *1579:A 0.000122884
25 *940:A1 *968:B 9.98197e-05
26 *940:A1 *672:140 7.90803e-05
27 *940:B2 *941:C 2.29869e-05
28 *941:D *941:C 0.000350559
29 *942:B *941:C 0.000146876
30 *944:A *672:16 4.3588e-05
31 *962:B *672:41 3.34366e-05
32 *967:A2 *967:A1 5.7661e-06
33 *967:A2 *672:134 0.000135028
34 *967:A2 *672:140 1.13692e-05
35 *969:B1 *947:A1 1.39841e-05
36 *969:B1 *672:140 1.92789e-05
37 *987:A *941:C 9.15842e-06
38 *987:B *990:A1 8.20179e-05
39 *987:B *672:59 6.42042e-05
40 *991:A *990:A1 2.49484e-05
41 *992:B1 *672:83 2.42516e-05
42 *994:B1 *990:A1 0.000135749
43 *1020:B *947:A1 0.000182694
44 *1021:A2 *947:A1 7.60306e-05
45 *1022:A *941:C 0.000198541
46 *1026:A1 *672:59 0.00034008
47 *1026:A2 *672:59 9.7659e-05
48 *1064:A3 *672:41 5.91832e-05
49 *1069:A2 *672:16 0.000147503
50 *1069:A2 *672:41 1.88913e-05
51 *1071:B *672:59 0.000168667
52 *1073:C1 *941:C 0
53 *1074:C1 *941:C 0
54 *1106:A *1151:A1 4.65932e-05
55 *1113:B1 *949:A 0.000250353
56 *1151:B1 *1151:A1 0.000104203
57 *1156:A2 *672:59 0.00021735
58 *1160:A2 *672:59 7.76473e-05
59 *1202:A *1151:A1 0
60 *1202:B *1151:A1 0.000140488
61 *1209:A2 *1151:A1 0.000173097
62 *1413:A *672:16 0
63 *1427:A *672:16 7.20046e-05
64 *1428:A *672:41 0.00055603
65 *1429:A *672:134 2.14658e-05
66 *1429:A *672:140 0.000135028
67 *1447:A *672:16 0.0005956
68 *1447:A *672:41 0.0016812
69 *1451:A *672:16 8.44271e-06
70 *1457:A *941:C 0.000104238
71 *1474:A *672:59 3.42969e-05
72 *1561:A *1151:A1 0.0007463
73 *1575:A *672:16 3.0933e-05
74 *11:17 *672:16 7.75834e-05
75 *35:12 *672:83 2.95726e-05
76 *114:14 *941:C 3.47468e-05
77 *114:14 *990:A1 0
78 *115:24 *941:C 9.59532e-06
79 *116:16 *968:B 9.05696e-05
80 *116:16 *672:115 1.24368e-05
81 *116:16 *672:134 0.000379583
82 *116:16 *672:140 3.17148e-05
83 *161:35 *991:B 5.19098e-05
84 *161:35 *672:59 0.000269422
85 *324:39 *1151:A1 8.6123e-06
86 *324:39 *672:16 0
87 *324:39 *672:41 0
88 *324:47 *672:47 9.22103e-06
89 *324:47 *672:115 0.00093759
90 *389:45 *672:41 5.23109e-05
91 *459:10 *672:16 0
92 *503:10 *672:68 5.33005e-05
93 *503:10 *672:83 9.41642e-05
94 *548:22 *672:59 0.000196269
95 *561:10 *949:A 2.06178e-05
96 *599:14 *672:41 0.000137515
97 *599:14 *672:47 0.000320931
98 *599:14 *672:115 2.15245e-05
99 *602:18 *672:140 9.41642e-05
100 *613:14 *672:41 0.000725045
101 *629:70 *941:C 0
102 *629:87 *941:C 1.21258e-05
103 *635:37 *1151:A1 0.000196086
104 *635:41 *1151:A1 0.00042997
105 *637:8 *672:47 9.90367e-05
106 *637:134 *672:59 0.000878378
107 *641:84 *991:B 7.6231e-05
108 *641:90 *988:A 3.08382e-06
109 *641:90 *672:59 4.70078e-05
110 *641:90 *672:68 1.55885e-05
111 *641:108 *991:B 9.8045e-05
112 *644:102 *991:B 0.000286865
113 *646:12 *947:A1 0.000205842
114 *647:14 *941:C 0.000117135
115 *647:45 *672:140 2.16719e-05
116 *647:77 *949:A 5.7903e-06
117 *652:39 *1151:A1 0.000533807
*RES
1 *1464:X *672:16 23.2716 
2 *672:16 *1151:A1 39.1864 
3 *672:16 *672:41 17.0964 
4 *672:41 *672:47 4.46429 
5 *672:47 *672:59 28.875 
6 *672:59 *988:A 10.0321 
7 *672:59 *672:68 0.946429 
8 *672:68 *991:B 22.0679 
9 *672:68 *672:83 7.08929 
10 *672:83 *990:A1 16.9964 
11 *672:83 *949:A 22.8175 
12 *672:47 *672:115 9.57143 
13 *672:115 *941:C 32.675 
14 *672:115 *672:134 8.73214 
15 *672:134 *672:140 8.125 
16 *672:140 *967:A1 9.72857 
17 *672:140 *947:A1 23.6571 
18 *672:134 *968:B 15.1393 
19 *672:41 *1420:A 9.3 
*END

*D_NET *673 0.00354959
*CONN
*I *1513:A I *D sky130_fd_sc_hd__buf_2
*I *1443:A I *D sky130_fd_sc_hd__buf_6
*I *1444:X O *D sky130_fd_sc_hd__buf_6
*CAP
1 *1513:A 0.000460699
2 *1443:A 0.000120093
3 *1444:X 0
4 *673:6 0.000580792
5 *1200:A1 *1513:A 5.65955e-05
6 *1200:A2 *1513:A 4.90381e-05
7 *1422:A *1513:A 0.000111367
8 *1470:A *1443:A 5.59013e-05
9 *1470:A *1513:A 0.000370759
10 *1586:A *1443:A 0.000181796
11 *11:17 *1443:A 6.62868e-05
12 *324:14 *1513:A 7.69776e-06
13 *461:12 *1513:A 3.21325e-05
14 *512:6 *1513:A 2.31392e-05
15 *525:18 *1513:A 0.000442248
16 *652:16 *1443:A 0.000168074
17 *652:16 *1513:A 0.000515282
18 *670:8 *1443:A 0.000120504
19 *671:70 *1513:A 0.000187189
*RES
1 *1444:X *673:6 13.8 
2 *673:6 *1443:A 17.8179 
3 *673:6 *1513:A 27.925 
*END

*D_NET *674 0.00270062
*CONN
*I *1558:A I *D sky130_fd_sc_hd__buf_2
*I *1471:A I *D sky130_fd_sc_hd__buf_8
*I *1445:X O *D sky130_fd_sc_hd__buf_8
*CAP
1 *1558:A 0.000473309
2 *1471:A 0.00039378
3 *1445:X 0.000136038
4 *674:6 0.00100313
5 *1471:A *1445:A 0.000123847
6 *1060:A *1471:A 4.21653e-05
7 *1063:A *1471:A 0.00010927
8 *1065:B1 *1471:A 0
9 *1065:B1 *1558:A 5.52302e-05
10 *1068:A1 *1558:A 8.47274e-05
11 *1068:A2 *1558:A 0.000222065
12 *1071:B *1471:A 0
13 *576:8 *1558:A 1.21289e-05
14 *637:14 *1471:A 4.49369e-05
*RES
1 *1445:X *674:6 11.4786 
2 *674:6 *1471:A 25.7107 
3 *674:6 *1558:A 18.5143 
*END

*D_NET *675 0.00371518
*CONN
*I *1153:A2 I *D sky130_fd_sc_hd__o21a_4
*I *1579:A I *D sky130_fd_sc_hd__buf_4
*I *962:A I *D sky130_fd_sc_hd__nand2_2
*I *1471:X O *D sky130_fd_sc_hd__buf_8
*CAP
1 *1153:A2 7.88532e-05
2 *1579:A 0.000194942
3 *962:A 0.000182946
4 *1471:X 8.74186e-05
5 *675:12 0.000377889
6 *675:10 0.000166272
7 *962:B *962:A 0.000173764
8 *962:B *1153:A2 9.5238e-05
9 *962:B *1579:A 3.97677e-05
10 *962:B *675:10 1.17968e-05
11 *1063:A *962:A 0.000348213
12 *1063:A *1579:A 0.000397924
13 *1072:A1_N *675:10 9.80173e-05
14 *1107:A1 *962:A 5.33005e-05
15 *1107:B1 *962:A 9.58126e-05
16 *1110:A1 *962:A 0.00018624
17 *1447:A *675:10 0.00014576
18 *282:33 *675:10 9.60939e-05
19 *324:47 *1579:A 2.89114e-05
20 *506:18 *1153:A2 0.00018373
21 *506:18 *675:10 0.000170654
22 *599:14 *1579:A 1.02821e-05
23 *637:8 *1579:A 9.90367e-05
24 *672:41 *1579:A 0.000269428
25 *672:47 *1579:A 0.000122884
*RES
1 *1471:X *675:10 16.9964 
2 *675:10 *675:12 4.5 
3 *675:12 *962:A 15.1929 
4 *675:12 *1579:A 16.0143 
5 *675:10 *1153:A2 16.3536 
*END

*D_NET *676 0.00880225
*CONN
*I *1017:A1 I *D sky130_fd_sc_hd__o21a_2
*I *1570:A I *D sky130_fd_sc_hd__buf_4
*I *1445:A I *D sky130_fd_sc_hd__buf_8
*I *1157:A I *D sky130_fd_sc_hd__and3_2
*I *1446:X O *D sky130_fd_sc_hd__buf_8
*CAP
1 *1017:A1 0.000405873
2 *1570:A 0
3 *1445:A 9.10817e-05
4 *1157:A 0.000423541
5 *1446:X 0.000704568
6 *676:49 0.00160931
7 *676:32 0.00157555
8 *1017:A1 *941:B 0.000360981
9 *676:32 *1446:A 1.7613e-05
10 *676:49 *941:B 8.08022e-05
11 *940:B2 *1017:A1 8.05766e-05
12 *982:A1 *1017:A1 6.82285e-05
13 *1017:B1 *1017:A1 0.000135028
14 *1060:B *676:32 2.80937e-05
15 *1060:B *676:49 3.69047e-06
16 *1065:A2 *676:49 0.000139913
17 *1065:B1 *1445:A 0
18 *1067:C *676:49 4.88212e-05
19 *1071:B *676:49 2.72967e-05
20 *1072:A1_N *1157:A 0.000169439
21 *1102:A *676:32 0.000150947
22 *1103:B1 *1445:A 0
23 *1103:B1 *676:32 5.35475e-05
24 *1157:B *1157:A 6.82912e-05
25 *1448:A *1017:A1 0.000373188
26 *1448:A *676:49 7.97314e-05
27 *1471:A *1445:A 0.000123847
28 *1488:A *676:49 0.000134461
29 *102:12 *1157:A 0.000146275
30 *102:12 *676:32 1.32552e-05
31 *197:10 *1157:A 6.82912e-05
32 *292:25 *1017:A1 5.4031e-05
33 *506:18 *1157:A 0.000198605
34 *583:8 *1157:A 0.000215493
35 *583:16 *1157:A 0.000185728
36 *599:14 *1157:A 0.000123288
37 *644:21 *676:49 8.70144e-05
38 *644:36 *1017:A1 0.000240398
39 *644:55 *1017:A1 0.00027521
40 *644:59 *1017:A1 5.33005e-05
41 *646:36 *1017:A1 0.000178503
42 *647:45 *1017:A1 8.44271e-06
*RES
1 *1446:X *1157:A 38.9214 
2 *1446:X *676:32 22.4429 
3 *676:32 *1445:A 20.2464 
4 *676:32 *676:49 20.0357 
5 *676:49 *1570:A 13.8 
6 *676:49 *1017:A1 27.5321 
*END

*D_NET *677 0.00227272
*CONN
*I *1514:A I *D sky130_fd_sc_hd__buf_2
*I *1446:A I *D sky130_fd_sc_hd__buf_8
*I *1447:X O *D sky130_fd_sc_hd__buf_6
*CAP
1 *1514:A 0.00033738
2 *1446:A 0.000305593
3 *1447:X 0
4 *677:6 0.000642974
5 *962:B *1514:A 0
6 *1060:A *1446:A 6.19202e-05
7 *1063:A *1446:A 5.44167e-05
8 *1063:A *1514:A 2.56601e-05
9 *1066:A_N *1514:A 5.4959e-05
10 *1066:C *1514:A 0.000100165
11 *1071:A *1514:A 0
12 *1102:A *1446:A 0.000149985
13 *1102:B *1446:A 0.000121982
14 *1102:C *1446:A 6.71264e-05
15 *1156:B1 *1514:A 9.54798e-06
16 *102:12 *1446:A 5.23792e-05
17 *193:10 *1514:A 0.000144231
18 *637:20 *1446:A 1.27625e-05
19 *637:37 *1446:A 2.26327e-05
20 *637:134 *1514:A 0
21 *672:41 *1446:A 8.35951e-05
22 *672:41 *1514:A 7.79781e-06
23 *676:32 *1446:A 1.7613e-05
*RES
1 *1447:X *677:6 13.8 
2 *677:6 *1446:A 21.2821 
3 *677:6 *1514:A 20.5679 
*END

*D_NET *678 0.0117828
*CONN
*I *976:A3 I *D sky130_fd_sc_hd__a31oi_4
*I *925:A I *D sky130_fd_sc_hd__inv_2
*I *948:A1 I *D sky130_fd_sc_hd__a22o_2
*I *954:A I *D sky130_fd_sc_hd__or4_2
*I *999:C I *D sky130_fd_sc_hd__and4_2
*I *965:A2 I *D sky130_fd_sc_hd__a311o_2
*I *957:A1 I *D sky130_fd_sc_hd__a21oi_2
*I *956:B I *D sky130_fd_sc_hd__and3_2
*I *947:B1 I *D sky130_fd_sc_hd__a21oi_2
*I *941:B I *D sky130_fd_sc_hd__and4_2
*I *1448:X O *D sky130_fd_sc_hd__buf_6
*CAP
1 *976:A3 5.38328e-05
2 *925:A 0
3 *948:A1 0.000208412
4 *954:A 0
5 *999:C 0.000467367
6 *965:A2 0
7 *957:A1 9.25727e-05
8 *956:B 8.00891e-05
9 *947:B1 8.24481e-06
10 *941:B 0.000369972
11 *1448:X 0.000624106
12 *678:120 0.000300681
13 *678:116 0.000217323
14 *678:86 0.000847435
15 *678:73 0.000563401
16 *678:62 0.000397521
17 *678:47 0.000378131
18 *678:34 0.000194091
19 *678:32 0.000334774
20 p[1] *941:B 9.14786e-05
21 *941:D *941:B 0
22 *947:A2 *941:B 5.52302e-05
23 *947:A2 *678:32 0.00047122
24 *948:A2 *948:A1 0.00015206
25 *948:A2 *678:120 2.37761e-05
26 *948:B1 *948:A1 0
27 *948:B1 *678:47 1.99099e-05
28 *948:B1 *678:120 0
29 *954:C *999:C 1.02504e-05
30 *955:C *678:62 5.5764e-05
31 *955:C *678:73 0.000166941
32 *956:C *956:B 4.00058e-05
33 *958:A2 *956:B 9.84673e-05
34 *958:A2 *957:A1 8.23573e-05
35 *958:A2 *678:62 0.000339045
36 *965:A1 *678:73 1.00887e-05
37 *965:A1 *678:86 0.000138287
38 *966:A2 *678:73 6.78438e-05
39 *966:A2 *678:86 5.77037e-05
40 *975:A1 *678:47 0.000142826
41 *975:A1 *678:120 5.74562e-05
42 *981:C *678:86 0.00030926
43 *1008:A1 *678:86 0
44 *1017:A1 *941:B 0.000360981
45 *1022:A *941:B 1.92905e-05
46 *1022:A *947:B1 2.89016e-05
47 *1022:A *976:A3 3.99614e-06
48 *1022:A *678:32 0.000201114
49 *1022:A *678:34 3.99614e-06
50 *1022:A *678:116 3.82242e-05
51 *1022:B *678:47 9.25014e-06
52 *1041:A *999:C 0.000362538
53 *1041:B *999:C 5.41794e-05
54 *1448:A *941:B 4.22135e-06
55 *37:10 *999:C 0.000153054
56 *37:23 *999:C 0.000137224
57 *43:24 *999:C 5.33005e-05
58 *45:6 *999:C 0.000487088
59 *65:10 *999:C 0.00012799
60 *65:10 *678:120 5.41794e-05
61 *66:10 *678:86 0.00012401
62 *271:26 *678:62 3.02892e-05
63 *271:26 *678:73 0.000176655
64 *271:26 *678:86 0.000147669
65 *271:26 *678:120 6.42242e-05
66 *282:58 *678:32 5.33005e-05
67 *282:73 *678:32 0.000124521
68 *465:12 *999:C 0
69 *469:16 *678:86 7.49499e-05
70 *484:10 *956:B 4.44061e-05
71 *484:10 *957:A1 0.000137276
72 *484:10 *678:62 7.96941e-05
73 *510:41 *678:47 0.000163964
74 *551:26 *999:C 0.000112869
75 *589:18 *941:B 0
76 *629:106 *976:A3 8.46829e-05
77 *629:106 *678:32 0.000268409
78 *629:106 *678:116 0.000164481
79 *644:21 *941:B 6.51946e-05
80 *644:36 *941:B 0.000102009
81 *646:12 *678:47 0
82 *646:24 *678:47 0
83 *647:77 *999:C 5.58941e-05
84 *676:49 *941:B 8.08022e-05
*RES
1 *1448:X *941:B 35.85 
2 *1448:X *678:32 17.925 
3 *678:32 *678:34 0.428571 
4 *678:34 *947:B1 9.83571 
5 *678:34 *678:47 13.375 
6 *678:47 *956:B 11.4964 
7 *678:47 *678:62 8.64286 
8 *678:62 *957:A1 16.3893 
9 *678:62 *678:73 4.98214 
10 *678:73 *965:A2 13.8 
11 *678:73 *678:86 14.6071 
12 *678:86 *999:C 40.0321 
13 *678:86 *954:A 9.3 
14 *678:32 *678:116 1.76786 
15 *678:116 *678:120 7.05357 
16 *678:120 *948:A1 18.7821 
17 *678:120 *925:A 13.8 
18 *678:116 *976:A3 10.675 
*END

*D_NET *679 0.000858495
*CONN
*I *1194:A1 I *D sky130_fd_sc_hd__o21ai_2
*I *1147:B I *D sky130_fd_sc_hd__xor2_2
*I *1581:X O *D sky130_fd_sc_hd__buf_2
*CAP
1 *1194:A1 0.000158062
2 *1147:B 0.000226301
3 *1581:X 6.82389e-05
4 *1144:A_N *1194:A1 6.5185e-05
5 *1144:B *1194:A1 0
6 *1147:A *1194:A1 5.57727e-05
7 *183:8 *1194:A1 0
8 *187:23 *1147:B 6.97972e-05
9 *187:23 *1194:A1 0.000215137
10 *563:10 *1194:A1 0
*RES
1 *1581:X *1147:B 19.9429 
2 *1147:B *1194:A1 23.2821 
*END

*D_NET *680 0.000112637
*CONN
*I *1320:B I *D sky130_fd_sc_hd__nand2_2
*I *1582:X O *D sky130_fd_sc_hd__buf_6
*CAP
1 *1320:B 5.63185e-05
2 *1582:X 5.63185e-05
*RES
1 *1582:X *1320:B 19.5464 
*END

*D_NET *681 0.00241929
*CONN
*I *1049:A1 I *D sky130_fd_sc_hd__a21oi_2
*I *1047:A I *D sky130_fd_sc_hd__nand2_2
*I *1583:X O *D sky130_fd_sc_hd__buf_2
*CAP
1 *1049:A1 0.000256433
2 *1047:A 0.00013279
3 *1583:X 0.00029211
4 *681:10 0.000681333
5 *1011:A1_N *681:10 2.32517e-05
6 *1044:B *1049:A1 5.83233e-05
7 *1046:A2 *1049:A1 0.000117189
8 *1046:A2 *681:10 0.00019384
9 *1047:B *1047:A 0.000123309
10 *1049:A2 *1049:A1 0.00010685
11 *1049:A2 *681:10 7.79781e-06
12 *1145:C1 *681:10 0.000310314
13 *1146:C *1049:A1 6.39901e-05
14 *1531:A *1049:A1 0
15 *1531:A *681:10 0
16 *1583:A *681:10 5.17614e-05
17 *52:19 *681:10 0
*RES
1 *1583:X *681:10 19.9429 
2 *681:10 *1047:A 16.4071 
3 *681:10 *1049:A1 19.3536 
*END
