*SPEF "ieee 1481-1999"
*DESIGN "behav"
*DATE "16:27:06 Sunday September 06, 2026"
*VENDOR "The OpenROAD Project"
*PROGRAM "OpenROAD"
*VERSION "dcf36133a369abc8f3c5e5738cd4d82e4903c0e0"
*DESIGN_FLOW "NAME_SCOPE LOCAL" "PIN_CAP NONE"
*DIVIDER /
*DELIMITER :
*BUS_DELIMITER []
*T_UNIT 1 NS
*C_UNIT 1 PF
*R_UNIT 1 OHM
*L_UNIT 1 HENRY

*NAME_MAP
*3 a[0]
*4 a[1]
*5 a[2]
*6 a[3]
*7 b[0]
*8 b[1]
*9 b[2]
*10 b[3]
*11 p[0]
*12 p[1]
*13 p[2]
*14 p[3]
*15 p[4]
*16 p[5]
*17 p[6]
*18 p[7]
*19 _000_
*20 _001_
*21 _002_
*22 _003_
*23 _004_
*24 _005_
*25 _006_
*26 _007_
*27 _008_
*28 _009_
*29 _010_
*30 _011_
*31 _012_
*32 _013_
*33 _014_
*34 _015_
*35 _016_
*36 _017_
*37 _018_
*38 _019_
*39 _020_
*40 _021_
*41 _022_
*42 _023_
*43 _024_
*44 _025_
*45 _026_
*46 _027_
*47 _028_
*48 _029_
*49 _030_
*50 _031_
*51 _032_
*52 _033_
*53 _034_
*54 _035_
*55 _036_
*56 _037_
*57 _038_
*58 _039_
*59 _040_
*60 _041_
*61 _042_
*62 _043_
*63 _044_
*64 _045_
*65 _046_
*66 _047_
*67 _048_
*68 _049_
*69 _050_
*70 _051_
*71 _052_
*72 _053_
*73 _054_
*74 _055_
*75 _056_
*76 _057_
*77 _058_
*78 _059_
*79 _060_
*80 _061_
*81 _062_
*82 _063_
*83 _064_
*84 _065_
*85 _066_
*86 _067_
*87 _068_
*88 _069_
*89 _070_
*90 _071_
*91 _072_
*92 _073_
*93 _074_
*94 _075_
*95 _076_
*96 _077_
*97 _078_
*98 _079_
*99 _080_
*100 _081_
*101 _082_
*102 _083_
*103 _084_
*104 _085_
*105 _086_
*106 _087_
*107 _088_
*108 _089_
*109 _090_
*110 _091_
*111 _092_
*112 _093_
*113 _094_
*114 _095_
*115 _096_
*116 _097_
*117 _098_
*118 _099_
*119 _100_
*120 _101_
*121 _102_
*122 _103_
*123 _104_
*124 _105_
*125 _106_
*126 _107_
*127 _108_
*128 _109_
*129 _110_
*130 _111_
*131 _112_
*132 _113_
*133 _114_
*134 _115_
*135 _116_
*136 _117_
*137 _118_
*138 _119_
*139 _120_
*140 _121_
*141 _122_
*142 _123_
*143 _124_
*144 _125_
*145 _126_
*146 _127_
*147 _128_
*148 net
*149 net1
*150 net10
*151 net11
*152 net12
*153 net13
*154 net14
*155 net15
*156 net16
*157 net17
*158 net18
*159 net19
*160 net2
*161 net20
*162 net21
*163 net22
*164 net23
*165 net24
*166 net25
*167 net26
*168 net27
*169 net28
*170 net29
*171 net3
*172 net30
*173 net31
*174 net32
*175 net33
*176 net34
*177 net35
*178 net36
*179 net37
*180 net38
*181 net39
*182 net4
*183 net40
*184 net41
*185 net42
*186 net43
*187 net44
*188 net45
*189 net46
*190 net47
*191 net48
*192 net49
*193 net5
*194 net50
*195 net51
*196 net52
*197 net53
*198 net54
*199 net55
*200 net56
*201 net57
*202 net58
*203 net59
*204 net6
*205 net60
*206 net61
*207 net62
*208 net63
*209 net64
*210 net65
*211 net66
*212 net67
*213 net68
*214 net69
*215 net7
*216 net70
*217 net71
*218 net72
*219 net8
*220 net9
*221 PHY_EDGE_ROW_0_Left_20
*222 PHY_EDGE_ROW_0_Right_0
*223 PHY_EDGE_ROW_10_Left_30
*224 PHY_EDGE_ROW_10_Right_10
*225 PHY_EDGE_ROW_11_Left_31
*226 PHY_EDGE_ROW_11_Right_11
*227 PHY_EDGE_ROW_12_Left_32
*228 PHY_EDGE_ROW_12_Right_12
*229 PHY_EDGE_ROW_13_Left_33
*230 PHY_EDGE_ROW_13_Right_13
*231 PHY_EDGE_ROW_14_Left_34
*232 PHY_EDGE_ROW_14_Right_14
*233 PHY_EDGE_ROW_15_Left_35
*234 PHY_EDGE_ROW_15_Right_15
*235 PHY_EDGE_ROW_16_Left_36
*236 PHY_EDGE_ROW_16_Right_16
*237 PHY_EDGE_ROW_17_Left_37
*238 PHY_EDGE_ROW_17_Right_17
*239 PHY_EDGE_ROW_18_Left_38
*240 PHY_EDGE_ROW_18_Right_18
*241 PHY_EDGE_ROW_19_Left_39
*242 PHY_EDGE_ROW_19_Right_19
*243 PHY_EDGE_ROW_1_Left_21
*244 PHY_EDGE_ROW_1_Right_1
*245 PHY_EDGE_ROW_2_Left_22
*246 PHY_EDGE_ROW_2_Right_2
*247 PHY_EDGE_ROW_3_Left_23
*248 PHY_EDGE_ROW_3_Right_3
*249 PHY_EDGE_ROW_4_Left_24
*250 PHY_EDGE_ROW_4_Right_4
*251 PHY_EDGE_ROW_5_Left_25
*252 PHY_EDGE_ROW_5_Right_5
*253 PHY_EDGE_ROW_6_Left_26
*254 PHY_EDGE_ROW_6_Right_6
*255 PHY_EDGE_ROW_7_Left_27
*256 PHY_EDGE_ROW_7_Right_7
*257 PHY_EDGE_ROW_8_Left_28
*258 PHY_EDGE_ROW_8_Right_8
*259 PHY_EDGE_ROW_9_Left_29
*260 PHY_EDGE_ROW_9_Right_9
*261 TAP_TAPCELL_ROW_0_40
*262 TAP_TAPCELL_ROW_0_41
*263 TAP_TAPCELL_ROW_0_42
*264 TAP_TAPCELL_ROW_0_43
*265 TAP_TAPCELL_ROW_10_62
*266 TAP_TAPCELL_ROW_10_63
*267 TAP_TAPCELL_ROW_11_64
*268 TAP_TAPCELL_ROW_11_65
*269 TAP_TAPCELL_ROW_12_66
*270 TAP_TAPCELL_ROW_12_67
*271 TAP_TAPCELL_ROW_13_68
*272 TAP_TAPCELL_ROW_13_69
*273 TAP_TAPCELL_ROW_14_70
*274 TAP_TAPCELL_ROW_14_71
*275 TAP_TAPCELL_ROW_15_72
*276 TAP_TAPCELL_ROW_15_73
*277 TAP_TAPCELL_ROW_16_74
*278 TAP_TAPCELL_ROW_16_75
*279 TAP_TAPCELL_ROW_17_76
*280 TAP_TAPCELL_ROW_17_77
*281 TAP_TAPCELL_ROW_18_78
*282 TAP_TAPCELL_ROW_18_79
*283 TAP_TAPCELL_ROW_19_80
*284 TAP_TAPCELL_ROW_19_81
*285 TAP_TAPCELL_ROW_19_82
*286 TAP_TAPCELL_ROW_19_83
*287 TAP_TAPCELL_ROW_1_44
*288 TAP_TAPCELL_ROW_1_45
*289 TAP_TAPCELL_ROW_2_46
*290 TAP_TAPCELL_ROW_2_47
*291 TAP_TAPCELL_ROW_3_48
*292 TAP_TAPCELL_ROW_3_49
*293 TAP_TAPCELL_ROW_4_50
*294 TAP_TAPCELL_ROW_4_51
*295 TAP_TAPCELL_ROW_5_52
*296 TAP_TAPCELL_ROW_5_53
*297 TAP_TAPCELL_ROW_6_54
*298 TAP_TAPCELL_ROW_6_55
*299 TAP_TAPCELL_ROW_7_56
*300 TAP_TAPCELL_ROW_7_57
*301 TAP_TAPCELL_ROW_8_58
*302 TAP_TAPCELL_ROW_8_59
*303 TAP_TAPCELL_ROW_9_60
*304 TAP_TAPCELL_ROW_9_61
*305 _129_
*306 _130_
*307 _131_
*308 _132_
*309 _133_
*310 _134_
*311 _135_
*312 _136_
*313 _137_
*314 _138_
*315 _139_
*316 _140_
*317 _141_
*318 _142_
*319 _143_
*320 _144_
*321 _145_
*322 _146_
*323 _147_
*324 _148_
*325 _149_
*326 _150_
*327 _151_
*328 _152_
*329 _153_
*330 _154_
*331 _155_
*332 _156_
*333 _157_
*334 _158_
*335 _159_
*336 _160_
*337 _161_
*338 _162_
*339 _163_
*340 _164_
*341 _165_
*342 _166_
*343 _167_
*344 _168_
*345 _169_
*346 _170_
*347 _171_
*348 _172_
*349 _173_
*350 _174_
*351 _175_
*352 _176_
*353 _177_
*354 _178_
*355 _179_
*356 _180_
*357 _181_
*358 _182_
*359 _183_
*360 _184_
*361 _185_
*362 _186_
*363 _187_
*364 _188_
*365 _189_
*366 _190_
*367 _191_
*368 _192_
*369 _193_
*370 _194_
*371 _195_
*372 _196_
*373 _197_
*374 _198_
*375 _199_
*376 _200_
*377 _201_
*378 _202_
*379 _203_
*380 _204_
*381 _205_
*382 _206_
*383 _207_
*384 _208_
*385 _209_
*386 _210_
*387 _211_
*388 _212_
*389 _213_
*390 _214_
*391 _215_
*392 _216_
*393 _217_
*394 _218_
*395 _219_
*396 _220_
*397 _221_
*398 _222_
*399 _223_
*400 _224_
*401 _225_
*402 _226_
*403 _227_
*404 _228_
*405 _229_
*406 _230_
*407 _231_
*408 _232_
*409 _233_
*410 _234_
*411 _235_
*412 _236_
*413 _237_
*414 _238_
*415 _239_
*416 _240_
*417 _241_
*418 _242_
*419 _243_
*420 _244_
*421 _245_
*422 _246_
*423 _247_
*424 _248_
*425 _249_
*426 _250_
*427 _251_
*428 _252_
*429 _253_
*430 _254_
*431 _255_
*432 _256_
*433 _257_
*434 _258_
*435 _259_
*436 _260_
*437 _261_
*438 _262_
*439 _263_
*440 _264_
*441 _265_
*442 fanout17
*443 fanout18
*444 fanout20
*445 fanout22
*446 fanout23
*447 fanout24
*448 fanout25
*449 fanout26
*450 fanout27
*451 fanout28
*452 input1
*453 input2
*454 input3
*455 input4
*456 input5
*457 input6
*458 input7
*459 input8
*460 load_slew19
*461 load_slew21
*462 max_cap29
*463 max_cap30
*464 output10
*465 output11
*466 output12
*467 output13
*468 output14
*469 output15
*470 output16
*471 output9
*472 rebuffer31
*473 rebuffer32
*474 rebuffer33
*475 rebuffer34
*476 rebuffer35
*477 rebuffer36
*478 rebuffer37
*479 rebuffer38
*480 rebuffer39
*481 rebuffer40
*482 rebuffer41
*483 rebuffer42
*484 rebuffer43
*485 rebuffer44
*486 rebuffer45
*487 rebuffer46
*488 rebuffer47
*489 rebuffer48
*490 rebuffer49
*491 rebuffer50
*492 rebuffer51
*493 rebuffer52
*494 rebuffer53
*495 rebuffer54
*496 rebuffer55
*497 rebuffer56
*498 rebuffer57
*499 rebuffer58
*500 rebuffer59
*501 rebuffer60
*502 rebuffer61
*503 rebuffer62
*504 rebuffer63
*505 rebuffer64
*506 rebuffer65
*507 rebuffer66
*508 rebuffer67
*509 rebuffer68
*510 rebuffer69
*511 rebuffer70
*512 rebuffer71
*513 rebuffer72
*514 split

*PORTS
a[0] I
a[1] I
a[2] I
a[3] I
b[0] I
b[1] I
b[2] I
b[3] I
p[0] O
p[1] O
p[2] O
p[3] O
p[4] O
p[5] O
p[6] O
p[7] O

*D_NET *3 0.00147368
*CONN
*P a[0] I
*I *452:A I *D sky130_fd_sc_hd__dlymetal6s2s_1
*CAP
1 a[0] 0.000578239
2 *452:A 0.000578239
3 *452:A p[0] 0.000158602
4 *452:A p[2] 0.000158602
*RES
1 a[0] *452:A 27.6031 
*END

*D_NET *4 0.00159395
*CONN
*P a[1] I
*I *453:A I *D sky130_fd_sc_hd__clkbuf_2
*CAP
1 a[1] 0.000641855
2 *453:A 0.000641855
3 *453:A *384:A1 6.8529e-05
4 *453:A *456:A 9.83388e-05
5 *453:A *160:18 0.000143375
*RES
1 a[1] *453:A 27.1036 
*END

*D_NET *5 0.00149103
*CONN
*P a[2] I
*I *454:A I *D sky130_fd_sc_hd__clkbuf_2
*CAP
1 a[2] 0.000469758
2 *454:A 0.000469758
3 *454:A *455:A 0.000530045
4 *454:A *171:8 2.14658e-05
*RES
1 a[2] *454:A 25.9786 
*END

*D_NET *6 0.00137126
*CONN
*P a[3] I
*I *455:A I *D sky130_fd_sc_hd__buf_2
*CAP
1 a[3] 0.000392991
2 *455:A 0.000392991
3 *455:A *171:8 5.52302e-05
4 *454:A *455:A 0.000530045
*RES
1 a[3] *455:A 25.05 
*END

*D_NET *7 0.0030699
*CONN
*P b[0] I
*I *456:A I *D sky130_fd_sc_hd__clkbuf_2
*CAP
1 b[0] 0.000878744
2 *456:A 0.000878744
3 *456:A *357:C 0
4 *456:A *358:B1 0.000313235
5 *456:A *381:A 4.83648e-05
6 *456:A *381:B 9.80173e-05
7 *456:A *384:A1 3.20584e-05
8 *456:A *489:A 8.01079e-05
9 *456:A *84:12 9.90367e-05
10 *456:A *141:10 5.68722e-05
11 *456:A *169:8 2.8266e-06
12 *456:A *193:14 0.000483554
13 *453:A *456:A 9.83388e-05
*RES
1 b[0] *456:A 34.8357 
*END

*D_NET *8 0.000840322
*CONN
*P b[1] I
*I *457:A I *D sky130_fd_sc_hd__buf_12
*CAP
1 b[1] 0.000390571
2 *457:A 0.000390571
3 *457:A *458:A 5.918e-05
4 *457:A *459:A 0
*RES
1 b[1] *457:A 23.7149 
*END

*D_NET *9 0.00136044
*CONN
*P b[2] I
*I *458:A I *D sky130_fd_sc_hd__clkbuf_2
*CAP
1 b[2] 0.000543963
2 *458:A 0.000543963
3 *458:A *432:A 5.52302e-05
4 *458:A *459:A 0
5 *458:A *42:38 1.33343e-05
6 *458:A *61:10 0.000144773
7 *457:A *458:A 5.918e-05
*RES
1 b[2] *458:A 23.007 
*END

*D_NET *10 0.00093195
*CONN
*P b[3] I
*I *459:A I *D sky130_fd_sc_hd__buf_4
*CAP
1 b[3] 0.000465975
2 *459:A 0.000465975
3 *457:A *459:A 0
4 *458:A *459:A 0
*RES
1 b[3] *459:A 24.5905 
*END

*D_NET *11 0.000880413
*CONN
*P p[0] O
*I *471:X O *D sky130_fd_sc_hd__clkdlybuf4s25_1
*CAP
1 p[0] 0.000290379
2 *471:X 0.000290379
3 p[0] p[2] 0.00013292
4 p[0] *87:10 8.13261e-06
5 *452:A p[0] 0.000158602
*RES
1 *471:X p[0] 18.6273 
*END

*D_NET *12 0.00115788
*CONN
*P p[1] O
*I *464:X O *D sky130_fd_sc_hd__buf_6
*CAP
1 p[1] 0.000556004
2 *464:X 0.000556004
3 p[1] *316:A1 3.34366e-05
4 p[1] *183:69 1.24368e-05
*RES
1 *464:X p[1] 24.7464 
*END

*D_NET *13 0.00216815
*CONN
*P p[2] O
*I *465:X O *D sky130_fd_sc_hd__buf_6
*CAP
1 p[2] 0.000712713
2 *465:X 0.000712713
3 p[2] *508:A 9.54275e-05
4 p[2] *212:6 0.000355777
5 p[0] p[2] 0.00013292
6 *452:A p[2] 0.000158602
*RES
1 *465:X p[2] 28.2695 
*END

*D_NET *14 0.00148541
*CONN
*P p[3] O
*I *466:X O *D sky130_fd_sc_hd__buf_6
*CAP
1 p[3] 0.000654284
2 *466:X 0.000654284
3 p[3] *346:A2 2.63433e-05
4 p[3] *350:A 9.48025e-05
5 p[3] *350:B 0
6 p[3] *466:A 5.56943e-05
7 p[3] *103:31 0
*RES
1 *466:X p[3] 21.7198 
*END

*D_NET *15 0.00134588
*CONN
*P p[4] O
*I *467:X O *D sky130_fd_sc_hd__buf_6
*CAP
1 p[4] 0.000672941
2 *467:X 0.000672941
*RES
1 *467:X p[4] 26.9786 
*END

*D_NET *16 0.00169759
*CONN
*P p[5] O
*I *468:X O *D sky130_fd_sc_hd__clkbuf_2
*CAP
1 p[5] 0.000766092
2 *468:X 0.000766092
3 p[5] *406:A2 6.4443e-05
4 p[5] *468:A 0.00010096
*RES
1 *468:X p[5] 29.0321 
*END

*D_NET *17 0.00126294
*CONN
*P p[6] O
*I *469:X O *D sky130_fd_sc_hd__buf_6
*CAP
1 p[6] 0.00063147
2 *469:X 0.00063147
*RES
1 *469:X p[6] 26.4429 
*END

*D_NET *18 0.000923552
*CONN
*P p[7] O
*I *470:X O *D sky130_fd_sc_hd__buf_6
*CAP
1 p[7] 0.000461776
2 *470:X 0.000461776
3 p[7] *470:A 0
*RES
1 *470:X p[7] 20.1702 
*END

*D_NET *19 0.00667181
*CONN
*I *511:A I *D sky130_fd_sc_hd__buf_2
*I *512:A I *D sky130_fd_sc_hd__buf_2
*I *390:B1 I *D sky130_fd_sc_hd__a22oi_2
*I *391:B2 I *D sky130_fd_sc_hd__a22o_4
*I *388:X O *D sky130_fd_sc_hd__a31o_4
*CAP
1 *511:A 0.000364084
2 *512:A 9.83021e-05
3 *390:B1 2.0816e-05
4 *391:B2 0.000427044
5 *388:X 0.00121576
6 *19:49 0.000709342
7 *19:24 0.00141666
8 *390:B1 *391:A1 3.41517e-06
9 *391:B2 *391:A1 0.000142418
10 *391:B2 *146:39 4.7812e-05
11 *511:A *413:A 5.58941e-05
12 *511:A *416:C1 6.69211e-05
13 *511:A *420:A1 5.09196e-05
14 *511:A *421:A1 1.31516e-05
15 *511:A *431:A1 2.06075e-05
16 *511:A *433:A 7.29667e-05
17 *511:A *439:A 5.80706e-06
18 *511:A *47:14 0
19 *511:A *65:14 0.00019969
20 *511:A *216:8 0.00021527
21 *511:A *216:14 6.78048e-05
22 *512:A *413:A 0.000175519
23 *512:A *416:C1 4.13477e-05
24 *512:A *418:A 5.33005e-05
25 *512:A *433:A 0.00010326
26 *19:24 *387:A1 0.0003477
27 *19:24 *388:A1 1.60212e-05
28 *19:24 *388:A2 0.000171126
29 *19:24 *391:A1 3.08664e-05
30 *19:24 *415:A2_N 0
31 *19:24 *415:B1 0
32 *19:24 *415:B2 1.31517e-05
33 *19:24 *447:A 5.82384e-05
34 *19:24 *74:12 4.43106e-05
35 *19:24 *85:31 0.00012347
36 *19:24 *146:18 6.16561e-05
37 *19:24 *147:23 0.000139293
38 *19:24 *160:40 2.05629e-05
39 *19:49 *413:A 5.33005e-05
40 *19:49 *413:B 3.99614e-06
*RES
1 *388:X *19:24 38.5143 
2 *19:24 *391:B2 13.1214 
3 *19:24 *390:B1 9.72857 
4 *391:B2 *19:49 17.6393 
5 *19:49 *512:A 16.5857 
6 *19:49 *511:A 23.4607 
*END

*D_NET *20 0.00263577
*CONN
*I *392:B1 I *D sky130_fd_sc_hd__o211a_4
*I *415:A1_N I *D sky130_fd_sc_hd__o2bb2ai_2
*I *393:B1 I *D sky130_fd_sc_hd__o211ai_4
*I *389:Y O *D sky130_fd_sc_hd__nor2_2
*CAP
1 *392:B1 0
2 *415:A1_N 0.000351564
3 *393:B1 2.99464e-05
4 *389:Y 0.000124251
5 *20:23 0.000442388
6 *20:10 0.000245021
7 *393:B1 *74:38 7.64988e-05
8 *393:B1 *146:12 5.52238e-05
9 *393:B1 *204:27 4.75972e-05
10 *415:A1_N *392:A1 5.65955e-05
11 *415:A1_N *392:A2 0.000189063
12 *415:A1_N *392:C1 4.08637e-05
13 *415:A1_N *415:A2_N 0.000143375
14 *415:A1_N *415:B1 3.1367e-05
15 *415:A1_N *415:B2 5.49489e-05
16 *415:A1_N *418:A 9.2617e-05
17 *415:A1_N *146:24 0.000159625
18 *415:A1_N *147:36 9.63157e-05
19 *20:10 *75:33 5.71472e-05
20 *20:10 *75:35 1.33343e-05
21 *20:10 *159:24 5.03787e-05
22 *20:23 *397:A1 4.46186e-06
23 *20:23 *146:18 0.000198698
24 *20:23 *159:24 7.44918e-05
*RES
1 *389:Y *20:10 16.2821 
2 *20:10 *393:B1 15.1571 
3 *20:10 *20:23 7.35714 
4 *20:23 *415:A1_N 17.8179 
5 *20:23 *392:B1 9.3 
*END

*D_NET *21 0.000967679
*CONN
*I *476:A I *D sky130_fd_sc_hd__buf_2
*I *397:A2 I *D sky130_fd_sc_hd__o21ai_4
*I *390:Y O *D sky130_fd_sc_hd__a22oi_2
*CAP
1 *476:A 0
2 *397:A2 9.67817e-05
3 *390:Y 0.000239464
4 *21:8 0.000336246
5 *397:A2 *396:A2 0
6 *397:A2 *397:B1 0
7 *397:A2 *401:A1 0.000128154
8 *397:A2 *159:10 2.49484e-05
9 *397:A2 *159:24 4.46186e-06
10 *21:8 *390:A2 9.60875e-05
11 *21:8 *391:A1 2.59355e-05
12 *21:8 *401:A1 1.56e-05
*RES
1 *390:Y *21:8 13.55 
2 *21:8 *397:A2 20.55 
3 *21:8 *476:A 9.3 
*END

*D_NET *22 0.00233789
*CONN
*I *420:C1 I *D sky130_fd_sc_hd__o2111ai_4
*I *400:C I *D sky130_fd_sc_hd__nand3_4
*I *399:A I *D sky130_fd_sc_hd__and3_2
*I *391:X O *D sky130_fd_sc_hd__a22o_4
*CAP
1 *420:C1 0.000160782
2 *400:C 2.22847e-05
3 *399:A 0
4 *391:X 0.000210341
5 *22:17 0.00029821
6 *22:10 0.000325484
7 *420:C1 *400:B 0.000150625
8 *420:C1 *173:10 5.16779e-05
9 *22:10 *420:A1 0.000335938
10 *22:10 *421:A1 7.15687e-05
11 *22:10 *421:A3 4.53031e-05
12 *22:10 *44:10 4.09696e-05
13 *22:10 *44:21 7.28998e-05
14 *22:17 *399:C 0.000350311
15 *22:17 *504:A 9.83388e-05
16 *22:17 *173:10 0.000103157
*RES
1 *391:X *22:10 24.4964 
2 *22:10 *399:A 9.3 
3 *22:10 *22:17 3.82143 
4 *22:17 *400:C 9.72857 
5 *22:17 *420:C1 21.6036 
*END

*D_NET *23 0.000989863
*CONN
*I *397:A1 I *D sky130_fd_sc_hd__o21ai_4
*I *392:X O *D sky130_fd_sc_hd__o211a_4
*CAP
1 *397:A1 0.000288852
2 *392:X 0.000288852
3 *397:A1 *401:A2 3.34366e-05
4 *397:A1 *146:18 6.8646e-06
5 *397:A1 *146:39 0
6 *397:A1 *159:10 0.000168698
7 *397:A1 *159:24 0.000198698
8 *397:A1 *160:40 0
9 *20:23 *397:A1 4.46186e-06
*RES
1 *392:X *397:A1 33.6357 
*END

*D_NET *24 0.00747188
*CONN
*I *472:A I *D sky130_fd_sc_hd__buf_2
*I *420:D1 I *D sky130_fd_sc_hd__o2111ai_4
*I *400:B I *D sky130_fd_sc_hd__nand3_4
*I *417:A2 I *D sky130_fd_sc_hd__a21oi_4
*I *398:B I *D sky130_fd_sc_hd__nand2_2
*I *416:B1 I *D sky130_fd_sc_hd__o211a_4
*I *393:Y O *D sky130_fd_sc_hd__o211ai_4
*CAP
1 *472:A 0.000201831
2 *420:D1 0
3 *400:B 0.000331901
4 *417:A2 0.000682527
5 *398:B 0
6 *416:B1 0.000273607
7 *393:Y 0.000145279
8 *24:53 0.000881127
9 *24:32 0.00143358
10 *24:21 0.000312829
11 *24:6 0.000731715
12 *400:B *420:B1 0.000141729
13 *400:B *65:14 0.000140088
14 *416:B1 *310:A 0.000222666
15 *416:B1 *416:A1 9.47613e-05
16 *416:B1 *416:C1 5.71472e-05
17 *416:B1 *204:27 4.05183e-05
18 *416:B1 *215:10 9.90367e-05
19 *417:A2 *434:B 0
20 *417:A2 *438:B1 1.01912e-05
21 *472:A *31:6 2.89016e-05
22 *472:A *173:10 9.53441e-05
23 *24:6 *310:A 5.49544e-05
24 *24:6 *74:6 0.000352832
25 *24:6 *74:38 9.83442e-05
26 *24:6 *204:27 0.0001524
27 *24:21 *391:B1 5.87659e-05
28 *24:21 *482:A 0.000115204
29 *24:21 *44:10 3.25078e-05
30 *24:21 *46:10 0.000531463
31 *24:53 *401:A2 0
32 *24:53 *415:A2_N 0
33 *24:53 *443:A 0
34 *420:C1 *400:B 0.000150625
*RES
1 *393:Y *24:6 14.3536 
2 *24:6 *416:B1 15.3179 
3 *24:6 *24:21 12.2143 
4 *24:21 *398:B 13.8 
5 *24:21 *24:32 3.41 
6 *24:32 *417:A2 18.6869 
7 *24:32 *24:53 11.7587 
8 *24:53 *400:B 21.9071 
9 *24:53 *420:D1 9.3 
10 *400:B *472:A 22.4571 
*END

*D_NET *25 0.000890818
*CONN
*I *477:A I *D sky130_fd_sc_hd__buf_2
*I *395:B1 I *D sky130_fd_sc_hd__o21a_4
*I *394:Y O *D sky130_fd_sc_hd__o22ai_4
*CAP
1 *477:A 0
2 *395:B1 0.00015454
3 *394:Y 8.13694e-05
4 *25:8 0.000235909
5 *395:B1 *394:B1 0
6 *395:B1 *507:A 0.000173804
7 *395:B1 *26:16 7.8327e-05
8 *395:B1 *74:38 6.97494e-05
9 *25:8 *204:46 9.71197e-05
*RES
1 *394:Y *25:8 10.9786 
2 *25:8 *395:B1 22.3179 
3 *25:8 *477:A 9.3 
*END

*D_NET *26 0.00525458
*CONN
*I *399:C I *D sky130_fd_sc_hd__and3_2
*I *473:A I *D sky130_fd_sc_hd__buf_6
*I *400:A I *D sky130_fd_sc_hd__nand3_4
*I *420:B1 I *D sky130_fd_sc_hd__o2111ai_4
*I *395:X O *D sky130_fd_sc_hd__o21a_4
*CAP
1 *399:C 0.000396817
2 *473:A 0
3 *400:A 0.000117315
4 *420:B1 0.000601813
5 *395:X 0.00078837
6 *26:18 0.000427387
7 *26:16 0.000893446
8 *399:C *50:8 0.000123352
9 *399:C *173:10 2.15245e-05
10 *400:A *401:A2 5.94923e-05
11 *420:B1 *65:14 0.000135783
12 *26:16 *368:A1 0.000105582
13 *26:16 *368:B1 0
14 *26:16 *370:A2 7.46814e-05
15 *26:16 *370:C1 7.57869e-05
16 *26:16 *394:B1 0
17 *26:16 *396:A2 0
18 *26:16 *396:B1 0
19 *26:16 *397:B1 0
20 *26:16 *460:A 0
21 *26:16 *28:8 0
22 *26:16 *65:14 5.71472e-05
23 *26:16 *121:28 0.000129868
24 *26:16 *124:10 0
25 *26:16 *126:10 4.25716e-05
26 *26:16 *126:19 4.98055e-06
27 *26:16 *129:10 1.92789e-05
28 *26:16 *159:10 0.000200699
29 *26:18 *65:14 0.000312222
30 *26:18 *159:10 9.60939e-05
31 *395:B1 *26:16 7.8327e-05
32 *400:B *420:B1 0.000141729
33 *22:17 *399:C 0.000350311
*RES
1 *395:X *26:16 34.5679 
2 *26:16 *26:18 3 
3 *26:18 *420:B1 13.9786 
4 *26:18 *400:A 20.55 
5 *26:16 *473:A 9.3 
6 *420:B1 *399:C 33.475 
*END

*D_NET *27 0.000401964
*CONN
*I *397:B1 I *D sky130_fd_sc_hd__o21ai_4
*I *396:Y O *D sky130_fd_sc_hd__o21ai_2
*CAP
1 *397:B1 0.000173907
2 *396:Y 0.000173907
3 *397:B1 *445:A 5.41494e-05
4 *397:A2 *397:B1 0
5 *26:16 *397:B1 0
*RES
1 *396:Y *397:B1 30.9036 
*END

*D_NET *28 0.00226384
*CONN
*I *402:B2 I *D sky130_fd_sc_hd__a22oi_2
*I *403:B I *D sky130_fd_sc_hd__and3_2
*I *480:A I *D sky130_fd_sc_hd__buf_2
*I *404:A I *D sky130_fd_sc_hd__nand4_4
*I *397:Y O *D sky130_fd_sc_hd__o21ai_4
*CAP
1 *402:B2 0
2 *403:B 0.000136845
3 *480:A 0
4 *404:A 4.05809e-05
5 *397:Y 0.000220147
6 *28:30 0.0002434
7 *28:23 0.000274219
8 *28:8 0.000428391
9 *403:B *402:A1 0
10 *403:B *403:A 4.20435e-05
11 *403:B *403:C 0.000128161
12 *403:B *405:A2 1.02504e-05
13 *403:B *33:10 5.57914e-05
14 *403:B *33:19 4.01501e-05
15 *404:A *404:B 9.90367e-05
16 *28:8 *460:A 0.000174805
17 *28:8 *65:14 0
18 *28:23 *31:16 5.52302e-05
19 *28:23 *33:10 0
20 *28:23 *35:8 5.48581e-05
21 *28:23 *65:14 0
22 *28:30 *31:16 0.000259934
23 *26:16 *28:8 0
*RES
1 *397:Y *28:8 18.175 
2 *28:8 *404:A 14.7464 
3 *28:8 *28:23 7.89286 
4 *28:23 *480:A 9.3 
5 *28:23 *28:30 2.58929 
6 *28:30 *403:B 21.9964 
7 *28:30 *402:B2 9.3 
*END

*D_NET *29 0.00275239
*CONN
*I *401:A2 I *D sky130_fd_sc_hd__o21a_4
*I *398:Y O *D sky130_fd_sc_hd__nand2_2
*CAP
1 *401:A2 0.000809775
2 *398:Y 0.000809775
3 *401:A2 *398:A 0.000182003
4 *401:A2 *401:A1 0.000130197
5 *401:A2 *401:B1 5.52302e-05
6 *401:A2 *460:A 0.000468475
7 *401:A2 *31:12 0.000104236
8 *401:A2 *159:10 9.97744e-05
9 *397:A1 *401:A2 3.34366e-05
10 *400:A *401:A2 5.94923e-05
11 *24:53 *401:A2 0
*RES
1 *398:Y *401:A2 44.5643 
*END

*D_NET *30 0.000235669
*CONN
*I *438:A1 I *D sky130_fd_sc_hd__o211ai_2
*I *399:X O *D sky130_fd_sc_hd__and3_2
*CAP
1 *438:A1 5.12946e-05
2 *399:X 5.12946e-05
3 *438:A1 *421:A1 6.65398e-05
4 *438:A1 *439:A 6.65398e-05
*RES
1 *399:X *438:A1 29.2429 
*END

*D_NET *31 0.00288437
*CONN
*I *404:B I *D sky130_fd_sc_hd__nand4_4
*I *475:A I *D sky130_fd_sc_hd__buf_2
*I *402:B1 I *D sky130_fd_sc_hd__a22oi_2
*I *403:C I *D sky130_fd_sc_hd__and3_2
*I *400:Y O *D sky130_fd_sc_hd__nand3_4
*CAP
1 *404:B 0.000224916
2 *475:A 0
3 *402:B1 5.31984e-05
4 *403:C 8.51003e-05
5 *400:Y 4.74783e-05
6 *31:16 0.000479478
7 *31:12 0.000444265
8 *31:6 0.00037548
9 *403:C *374:A 0
10 *403:C *402:A1 0
11 *404:B *404:C 0
12 *404:B *173:10 1.24368e-05
13 *31:6 *173:10 0.000139907
14 *31:12 *401:A1 0.000197991
15 *31:16 *422:B1 5.7661e-06
16 *31:16 *33:10 0.000142856
17 *401:A2 *31:12 0.000104236
18 *403:B *403:C 0.000128161
19 *404:A *404:B 9.90367e-05
20 *472:A *31:6 2.89016e-05
21 *28:23 *31:16 5.52302e-05
22 *28:30 *31:16 0.000259934
*RES
1 *400:Y *31:6 10.6571 
2 *31:6 *31:12 11.5536 
3 *31:12 *31:16 6.71429 
4 *31:16 *403:C 20.2464 
5 *31:16 *402:B1 10.2643 
6 *31:12 *475:A 9.3 
7 *31:6 *404:B 13.1393 
*END

*D_NET *32 0.00131642
*CONN
*I *425:A2 I *D sky130_fd_sc_hd__o211ai_2
*I *435:A1 I *D sky130_fd_sc_hd__o211ai_2
*I *401:X O *D sky130_fd_sc_hd__o21a_4
*CAP
1 *425:A2 0.000287136
2 *435:A1 3.13113e-05
3 *401:X 0
4 *32:4 0.000318447
5 *425:A2 *425:B1 0.000150618
6 *425:A2 *425:C1 0
7 *425:A2 *435:B1 6.8529e-05
8 *425:A2 *436:C1 0.000182592
9 *425:A2 *35:19 0
10 *425:A2 *52:25 0.000190322
11 *435:A1 *435:B1 3.08664e-05
12 *435:A1 *436:C1 5.65955e-05
*RES
1 *401:X *32:4 9.3 
2 *32:4 *435:A1 10.2643 
3 *32:4 *425:A2 24.7464 
*END

*D_NET *33 0.00236794
*CONN
*I *474:A I *D sky130_fd_sc_hd__buf_2
*I *405:A1 I *D sky130_fd_sc_hd__o21ai_2
*I *426:A1 I *D sky130_fd_sc_hd__o2111ai_2
*I *436:A1 I *D sky130_fd_sc_hd__o211ai_2
*I *402:Y O *D sky130_fd_sc_hd__a22oi_2
*CAP
1 *474:A 3.18784e-05
2 *405:A1 0.000129101
3 *426:A1 0.000119786
4 *436:A1 0
5 *402:Y 0.00018954
6 *33:19 0.000301392
7 *33:10 0.000273923
8 *405:A1 *405:A2 7.6021e-05
9 *405:A1 *406:A1 3.34366e-05
10 *405:A1 *138:35 0.000114759
11 *426:A1 *424:B 5.52302e-05
12 *426:A1 *426:B1 3.03071e-05
13 *426:A1 *54:6 1.32552e-05
14 *426:A1 *135:10 0.000357048
15 *426:A1 *138:22 5.33005e-05
16 *33:10 *401:B1 0
17 *33:10 *35:8 0
18 *33:19 *401:B1 0
19 *33:19 *405:A2 9.24299e-05
20 *33:19 *436:A2 0.000226021
21 *33:19 *138:35 3.17148e-05
22 *403:B *33:10 5.57914e-05
23 *403:B *33:19 4.01501e-05
24 *28:23 *33:10 0
25 *31:16 *33:10 0.000142856
*RES
1 *402:Y *33:10 17.7107 
2 *33:10 *436:A1 13.8 
3 *33:10 *33:19 3.46429 
4 *33:19 *426:A1 17.6393 
5 *33:19 *405:A1 16.2821 
6 *405:A1 *474:A 19.1357 
*END

*D_NET *34 0.000625772
*CONN
*I *405:A2 I *D sky130_fd_sc_hd__o21ai_2
*I *403:X O *D sky130_fd_sc_hd__and3_2
*CAP
1 *405:A2 0.000223536
2 *403:X 0.000223536
3 *405:A2 *374:B 0
4 *405:A2 *403:A 0
5 *403:B *405:A2 1.02504e-05
6 *405:A1 *405:A2 7.6021e-05
7 *33:19 *405:A2 9.24299e-05
*RES
1 *403:X *405:A2 32.2071 
*END

*D_NET *35 0.0017184
*CONN
*I *424:B I *D sky130_fd_sc_hd__nand2_4
*I *426:B1 I *D sky130_fd_sc_hd__o2111ai_2
*I *436:B1 I *D sky130_fd_sc_hd__o211ai_2
*I *404:Y O *D sky130_fd_sc_hd__nand4_4
*CAP
1 *424:B 1.32759e-05
2 *426:B1 0.00010541
3 *436:B1 0
4 *404:Y 0.000107029
5 *35:19 0.000284514
6 *35:8 0.000272857
7 *424:B *54:6 1.56e-05
8 *426:B1 *426:A2 5.71472e-05
9 *426:B1 *426:C1 0
10 *426:B1 *427:A 0.00014285
11 *426:B1 *435:C1 2.89016e-05
12 *426:B1 *54:6 4.29414e-05
13 *426:B1 *135:10 5.72899e-05
14 *35:8 *401:A1 1.00375e-05
15 *35:8 *401:B1 6.97972e-05
16 *35:8 *65:14 0.000296852
17 *35:19 *401:B1 1.76039e-05
18 *35:19 *425:C1 0
19 *35:19 *427:A 5.59013e-05
20 *35:19 *436:A2 0
21 *425:A2 *35:19 0
22 *426:A1 *424:B 5.52302e-05
23 *426:A1 *426:B1 3.03071e-05
24 *28:23 *35:8 5.48581e-05
25 *33:10 *35:8 0
*RES
1 *404:Y *35:8 17.8714 
2 *35:8 *436:B1 13.8 
3 *35:8 *35:19 7.35714 
4 *35:19 *426:B1 12.7464 
5 *35:19 *424:B 9.83571 
*END

*D_NET *36 0.000233777
*CONN
*I *406:B1 I *D sky130_fd_sc_hd__o21a_2
*I *405:Y O *D sky130_fd_sc_hd__o21ai_2
*CAP
1 *406:B1 8.47088e-05
2 *405:Y 8.47088e-05
3 *406:B1 *406:A1 6.43589e-05
4 *406:B1 *406:A2 0
*RES
1 *405:Y *406:B1 29.5464 
*END

*D_NET *37 0.00152949
*CONN
*I *412:C1 I *D sky130_fd_sc_hd__o211a_2
*I *407:X O *D sky130_fd_sc_hd__and2_2
*CAP
1 *412:C1 0.000478952
2 *407:X 0.000478952
3 *412:C1 *308:A 3.89621e-06
4 *412:C1 *428:A 0.000181107
5 *412:C1 *428:B 1.43078e-05
6 *412:C1 *430:A3 5.79792e-05
7 *412:C1 *431:A2 0.000180195
8 *412:C1 *432:B 1.00887e-05
9 *412:C1 *42:23 0.000124012
*RES
1 *407:X *412:C1 34.7071 
*END

*D_NET *38 0.00239472
*CONN
*I *410:B1 I *D sky130_fd_sc_hd__a22oi_2
*I *408:Y O *D sky130_fd_sc_hd__o21ai_2
*CAP
1 *410:B1 0.000305105
2 *408:Y 0.000305105
3 *410:B1 *387:A1 0.000152656
4 *410:B1 *387:A2 0.000120039
5 *410:B1 *387:B1 0.000268551
6 *410:B1 *410:B2 3.13993e-05
7 *410:B1 *411:A2 6.8255e-05
8 *410:B1 *159:93 9.58632e-05
9 *410:B1 *164:37 0.000860218
10 *410:B1 *182:36 5.273e-05
11 *410:B1 *182:42 1.23046e-05
12 *410:B1 *182:83 0.00012249
*RES
1 *408:Y *410:B1 38.9214 
*END

*D_NET *39 0.000763099
*CONN
*I *429:A1_N I *D sky130_fd_sc_hd__a2bb2o_2
*I *409:Y O *D sky130_fd_sc_hd__o21bai_2
*CAP
1 *429:A1_N 0.000129297
2 *409:Y 0.000129297
3 *429:A1_N *409:A2 5.33005e-05
4 *429:A1_N *429:B2 2.13202e-05
5 *429:A1_N *430:A1 1.98839e-05
6 *429:A1_N *500:A 0.00019484
7 *429:A1_N *97:8 2.13202e-05
8 *429:A1_N *203:23 0.00019384
*RES
1 *409:Y *429:A1_N 31.3143 
*END

*D_NET *40 0.00430666
*CONN
*I *414:B1 I *D sky130_fd_sc_hd__a31o_2
*I *413:A I *D sky130_fd_sc_hd__nor2_2
*I *416:A1 I *D sky130_fd_sc_hd__o211a_4
*I *410:Y O *D sky130_fd_sc_hd__a22oi_2
*CAP
1 *414:B1 0
2 *413:A 0.000212664
3 *416:A1 0.000129457
4 *410:Y 0.000278851
5 *40:22 0.000567197
6 *40:16 0.000503927
7 *413:A *416:C1 4.56494e-05
8 *413:A *420:A1 7.8327e-05
9 *413:A *44:10 0
10 *416:A1 *416:C1 5.52238e-05
11 *416:A1 *42:38 9.80173e-05
12 *416:A1 *204:27 0.000324344
13 *416:A1 *215:10 0.000166096
14 *40:16 *310:A 0.000183357
15 *40:16 *414:A1 4.08637e-05
16 *40:16 *414:A2 5.33005e-05
17 *40:16 *501:A 0.000195257
18 *40:16 *72:10 0.000169233
19 *40:16 *148:33 0.000170755
20 *40:16 *159:45 0.000151916
21 *40:22 *308:A 9.45048e-06
22 *40:22 *310:A 5.76278e-05
23 *40:22 *407:B 2.24718e-05
24 *40:22 *414:A1 0.000178503
25 *40:22 *414:A2 0.000137639
26 *40:22 *416:C1 9.69119e-06
27 *40:22 *431:A1 0
28 *40:22 *431:A2 4.27842e-06
29 *40:22 *44:10 0
30 *40:22 *171:40 1.6815e-05
31 *40:22 *215:10 6.62741e-05
32 *416:B1 *416:A1 9.47613e-05
33 *511:A *413:A 5.58941e-05
34 *512:A *413:A 0.000175519
35 *19:49 *413:A 5.33005e-05
*RES
1 *410:Y *40:16 26.6036 
2 *40:16 *40:22 10.1429 
3 *40:22 *416:A1 18.8893 
4 *40:22 *413:A 19.0143 
5 *40:16 *414:B1 9.3 
*END

*D_NET *41 0.00047576
*CONN
*I *414:A3 I *D sky130_fd_sc_hd__a31o_2
*I *411:Y O *D sky130_fd_sc_hd__a21oi_2
*CAP
1 *414:A3 0.000135881
2 *411:Y 0.000135881
3 *414:A3 *44:10 5.45307e-05
4 *414:A3 *159:24 0.000149468
*RES
1 *411:Y *414:A3 21.1893 
*END

*D_NET *42 0.00444934
*CONN
*I *416:A2 I *D sky130_fd_sc_hd__o211a_4
*I *413:B I *D sky130_fd_sc_hd__nor2_2
*I *431:D1 I *D sky130_fd_sc_hd__a2111oi_2
*I *430:A2 I *D sky130_fd_sc_hd__o31a_2
*I *412:X O *D sky130_fd_sc_hd__o211a_2
*CAP
1 *416:A2 0
2 *413:B 0.000270277
3 *431:D1 0
4 *430:A2 0.000284956
5 *412:X 0.000167272
6 *42:38 0.000505627
7 *42:23 0.000406396
8 *42:8 0.000623274
9 *413:B *431:A1 0.000196432
10 *413:B *433:A 0.000138651
11 *413:B *434:B 0
12 *413:B *449:A 5.66157e-05
13 *413:B *61:10 0
14 *413:B *204:8 0.00010326
15 *430:A2 *430:A1 5.33005e-05
16 *430:A2 *430:A3 0.000745968
17 *430:A2 *430:B1 0.000123295
18 *430:A2 *448:A 6.29506e-05
19 *430:A2 *500:A 5.73707e-05
20 *430:A2 *197:32 3.67452e-05
21 *42:8 *412:A1 2.57194e-05
22 *42:8 *412:A2 9.58632e-05
23 *42:23 *430:A3 1.05603e-05
24 *42:23 *432:B 2.37944e-05
25 *42:23 *203:23 6.80225e-05
26 *42:38 *432:B 9.95914e-05
27 *42:38 *449:A 0
28 *42:38 *203:23 3.67279e-06
29 *42:38 *204:27 2.59355e-05
30 *42:38 *215:10 2.44318e-05
31 *412:C1 *42:23 0.000124012
32 *416:A1 *42:38 9.80173e-05
33 *458:A *42:38 1.33343e-05
34 *19:49 *413:B 3.99614e-06
*RES
1 *412:X *42:8 16.3893 
2 *42:8 *430:A2 23.5679 
3 *42:8 *42:23 3.80357 
4 *42:23 *431:D1 13.8 
5 *42:23 *42:38 9.66071 
6 *42:38 *413:B 25.175 
7 *42:38 *416:A2 9.3 
*END

*D_NET *43 0.000373837
*CONN
*I *418:B I *D sky130_fd_sc_hd__nand2_2
*I *413:Y O *D sky130_fd_sc_hd__nor2_2
*CAP
1 *418:B 4.93035e-05
2 *413:Y 4.93035e-05
3 *418:B *416:C1 0.000177227
4 *418:B *431:A1 9.80029e-05
*RES
1 *413:Y *418:B 29.85 
*END

*D_NET *44 0.00389257
*CONN
*I *421:A3 I *D sky130_fd_sc_hd__a31o_4
*I *420:A2 I *D sky130_fd_sc_hd__o2111ai_4
*I *417:B1 I *D sky130_fd_sc_hd__a21oi_4
*I *414:X O *D sky130_fd_sc_hd__a31o_2
*CAP
1 *421:A3 0.000223553
2 *420:A2 2.9238e-05
3 *417:B1 6.11123e-05
4 *414:X 0.000432603
5 *44:21 0.000342493
6 *44:10 0.000583417
7 *417:B1 *482:A 0.000140933
8 *420:A2 *65:14 5.33005e-05
9 *421:A3 *421:A1 0
10 *421:A3 *421:A2 0
11 *421:A3 *422:A2 0.00014285
12 *421:A3 *503:A 5.04589e-05
13 *421:A3 *46:10 0.000333493
14 *421:A3 *50:27 6.05161e-06
15 *44:10 *308:A 3.34687e-05
16 *44:10 *407:B 9.71197e-05
17 *44:10 *414:A2 9.84673e-05
18 *44:10 *420:A1 0
19 *44:10 *46:10 0.000529809
20 *44:10 *72:10 0.000125731
21 *44:10 *145:10 0
22 *44:10 *159:24 0.000129297
23 *44:10 *159:45 1.52978e-05
24 *44:21 *46:10 0.000217663
25 *413:A *44:10 0
26 *414:A3 *44:10 5.45307e-05
27 *22:10 *421:A3 4.53031e-05
28 *22:10 *44:10 4.09696e-05
29 *22:10 *44:21 7.28998e-05
30 *24:21 *44:10 3.25078e-05
31 *40:22 *44:10 0
*RES
1 *414:X *44:10 25.5143 
2 *44:10 *417:B1 15.1571 
3 *44:10 *44:21 2.85714 
4 *44:21 *420:A2 14.3357 
5 *44:21 *421:A3 19.9607 
*END

*D_NET *45 0.00109991
*CONN
*I *418:A I *D sky130_fd_sc_hd__nand2_2
*I *415:Y O *D sky130_fd_sc_hd__o2bb2ai_2
*CAP
1 *418:A 0.000402413
2 *415:Y 0.000402413
3 *418:A *415:A2_N 0.000141729
4 *418:A *433:A 7.43578e-06
5 *415:A1_N *418:A 9.2617e-05
6 *512:A *418:A 5.33005e-05
*RES
1 *415:Y *418:A 25.725 
*END

*D_NET *46 0.00449709
*CONN
*I *423:A1 I *D sky130_fd_sc_hd__o21ai_2
*I *488:A I *D sky130_fd_sc_hd__buf_2
*I *422:A1 I *D sky130_fd_sc_hd__o21ai_4
*I *416:X O *D sky130_fd_sc_hd__o211a_4
*CAP
1 *423:A1 6.60604e-05
2 *488:A 7.7115e-05
3 *422:A1 8.75156e-05
4 *416:X 0.000447638
5 *46:23 0.000393847
6 *46:10 0.000785825
7 *422:A1 *422:A2 0.000139638
8 *422:A1 *50:27 5.33005e-05
9 *422:A1 *51:10 5.45307e-05
10 *423:A1 *435:C1 5.12285e-05
11 *488:A *190:8 1.97695e-05
12 *46:10 *308:A 9.71197e-05
13 *46:10 *310:A 4.27437e-05
14 *46:10 *421:A2 0
15 *46:10 *482:A 1.0945e-05
16 *46:10 *50:8 6.54144e-05
17 *46:10 *50:27 0.000171566
18 *46:10 *204:27 0.000183713
19 *46:23 *421:A2 0
20 *46:23 *423:A2 0
21 *46:23 *435:C1 0.000104974
22 *46:23 *437:A1 0
23 *46:23 *437:B1 0
24 *46:23 *50:27 3.17148e-05
25 *421:A3 *46:10 0.000333493
26 *24:21 *46:10 0.000531463
27 *44:10 *46:10 0.000529809
28 *44:21 *46:10 0.000217663
*RES
1 *416:X *46:10 29.6571 
2 *46:10 *422:A1 16.3893 
3 *46:10 *46:23 9.48214 
4 *46:23 *488:A 10.675 
5 *46:23 *423:A1 10.6571 
*END

*D_NET *47 0.00521675
*CONN
*I *419:B I *D sky130_fd_sc_hd__nor2_2
*I *422:A2 I *D sky130_fd_sc_hd__o21ai_4
*I *434:A I *D sky130_fd_sc_hd__xnor2_2
*I *417:Y O *D sky130_fd_sc_hd__a21oi_4
*CAP
1 *419:B 0.000335878
2 *422:A2 0.000761378
3 *434:A 0.000135049
4 *417:Y 0.000479171
5 *47:25 0.0011813
6 *47:14 0.000698262
7 *419:B *437:A1 0
8 *419:B *438:A2 9.64979e-05
9 *419:B *439:B 0.000227736
10 *419:B *470:A 0
11 *422:A2 *439:A 0.000137983
12 *422:A2 *503:A 5.87905e-05
13 *422:A2 *50:27 8.43535e-06
14 *422:A2 *51:10 6.20679e-05
15 *47:14 *431:A1 0.000123032
16 *47:14 *434:B 0
17 *47:14 *438:A2 0.000124868
18 *47:14 *438:B1 0.000263686
19 *47:14 *439:A 2.49484e-05
20 *47:14 *482:A 3.82242e-05
21 *47:14 *216:14 9.76689e-05
22 *47:25 *438:A2 7.92879e-05
23 *421:A3 *422:A2 0.00014285
24 *422:A1 *422:A2 0.000139638
25 *511:A *47:14 0
*RES
1 *417:Y *47:14 23.05 
2 *47:14 *434:A 15.9786 
3 *47:14 *47:25 1.94643 
4 *47:25 *422:A2 24.1214 
5 *47:25 *419:B 20.6393 
*END

*D_NET *48 0.00138392
*CONN
*I *433:A I *D sky130_fd_sc_hd__xnor2_2
*I *418:Y O *D sky130_fd_sc_hd__nand2_2
*CAP
1 *433:A 0.00044269
2 *418:Y 0.00044269
3 *433:A *416:C1 0.000176226
4 *413:B *433:A 0.000138651
5 *418:A *433:A 7.43578e-06
6 *511:A *433:A 7.29667e-05
7 *512:A *433:A 0.00010326
*RES
1 *418:Y *433:A 35.9929 
*END

*D_NET *49 0.0015863
*CONN
*I *438:A2 I *D sky130_fd_sc_hd__o211ai_2
*I *419:Y O *D sky130_fd_sc_hd__nor2_2
*CAP
1 *438:A2 0.000271821
2 *419:Y 0.000271821
3 *438:A2 *437:A1 5.26184e-05
4 *438:A2 *437:A2 0.000128154
5 *438:A2 *437:B1 0
6 *438:A2 *439:A 0.000340066
7 *438:A2 *439:B 0.000221163
8 *419:B *438:A2 9.64979e-05
9 *47:14 *438:A2 0.000124868
10 *47:25 *438:A2 7.92879e-05
*RES
1 *419:Y *438:A2 36.8321 
*END

*D_NET *50 0.00205848
*CONN
*I *503:A I *D sky130_fd_sc_hd__buf_2
*I *421:B1 I *D sky130_fd_sc_hd__a31o_4
*I *504:A I *D sky130_fd_sc_hd__buf_2
*I *420:Y O *D sky130_fd_sc_hd__o2111ai_4
*CAP
1 *503:A 0.000259174
2 *421:B1 0
3 *504:A 2.16528e-05
4 *420:Y 0.000105148
5 *50:27 0.000534182
6 *50:8 0.000401809
7 *503:A *437:A2 1.33343e-05
8 *503:A *439:A 3.69047e-06
9 *504:A *173:10 5.20669e-05
10 *399:C *50:8 0.000123352
11 *421:A3 *503:A 5.04589e-05
12 *421:A3 *50:27 6.05161e-06
13 *422:A1 *50:27 5.33005e-05
14 *422:A2 *503:A 5.87905e-05
15 *422:A2 *50:27 8.43535e-06
16 *22:17 *504:A 9.83388e-05
17 *46:10 *50:8 6.54144e-05
18 *46:10 *50:27 0.000171566
19 *46:23 *50:27 3.17148e-05
*RES
1 *420:Y *50:8 16.3536 
2 *50:8 *504:A 14.7464 
3 *50:8 *50:27 9.375 
4 *50:27 *421:B1 9.3 
5 *50:27 *503:A 13.9786 
*END

*D_NET *51 0.00297779
*CONN
*I *426:C1 I *D sky130_fd_sc_hd__o2111ai_2
*I *436:C1 I *D sky130_fd_sc_hd__o211ai_2
*I *421:X O *D sky130_fd_sc_hd__a31o_4
*CAP
1 *426:C1 0.000152477
2 *436:C1 0.000324643
3 *421:X 0.000190964
4 *51:10 0.000668083
5 *426:C1 *423:A2 0.000142082
6 *426:C1 *423:B1 0.000185124
7 *426:C1 *425:B1 3.97677e-05
8 *426:C1 *435:A2 0.000148911
9 *426:C1 *435:C1 0.000160372
10 *426:C1 *52:25 4.17433e-05
11 *436:C1 *401:B1 0.000276211
12 *436:C1 *435:A2 2.59355e-05
13 *436:C1 *435:B1 1.10868e-05
14 *51:10 *423:A2 0.000197991
15 *51:10 *435:A2 5.66157e-05
16 *51:10 *52:8 0
17 *422:A1 *51:10 5.45307e-05
18 *422:A2 *51:10 6.20679e-05
19 *425:A2 *436:C1 0.000182592
20 *426:B1 *426:C1 0
21 *435:A1 *436:C1 5.65955e-05
*RES
1 *421:X *51:10 18.1214 
2 *51:10 *436:C1 20.0857 
3 *51:10 *426:C1 19.175 
*END

*D_NET *52 0.00206166
*CONN
*I *426:D1 I *D sky130_fd_sc_hd__o2111ai_2
*I *423:B1 I *D sky130_fd_sc_hd__o21ai_2
*I *435:B1 I *D sky130_fd_sc_hd__o211ai_2
*I *422:Y O *D sky130_fd_sc_hd__o21ai_4
*CAP
1 *426:D1 0
2 *423:B1 2.92109e-05
3 *435:B1 0.000267264
4 *422:Y 0.000135441
5 *52:25 0.000196345
6 *52:8 0.000569839
7 *423:B1 *425:B1 0.000185124
8 *435:B1 *435:A2 9.58181e-05
9 *52:8 *423:A2 0
10 *52:25 *425:B1 5.49489e-05
11 *425:A2 *435:B1 6.8529e-05
12 *425:A2 *52:25 0.000190322
13 *426:C1 *423:B1 0.000185124
14 *426:C1 *52:25 4.17433e-05
15 *435:A1 *435:B1 3.08664e-05
16 *436:C1 *435:B1 1.10868e-05
17 *51:10 *52:8 0
*RES
1 *422:Y *52:8 16.05 
2 *52:8 *435:B1 18.4607 
3 *52:8 *52:25 8.19643 
4 *52:25 *423:B1 11.0679 
5 *52:25 *426:D1 9.3 
*END

*D_NET *53 0.00123093
*CONN
*I *425:B1 I *D sky130_fd_sc_hd__o211ai_2
*I *423:Y O *D sky130_fd_sc_hd__o21ai_2
*CAP
1 *425:B1 0.000238913
2 *423:Y 0.000238913
3 *425:B1 *425:C1 0
4 *425:B1 *427:A 0
5 *425:B1 *435:C1 1.15281e-05
6 *425:B1 *135:10 0.000311121
7 *423:B1 *425:B1 0.000185124
8 *425:A2 *425:B1 0.000150618
9 *426:C1 *425:B1 3.97677e-05
10 *52:25 *425:B1 5.49489e-05
*RES
1 *423:Y *425:B1 33.9036 
*END

*D_NET *54 0.0029496
*CONN
*I *425:C1 I *D sky130_fd_sc_hd__o211ai_2
*I *435:C1 I *D sky130_fd_sc_hd__o211ai_2
*I *424:Y O *D sky130_fd_sc_hd__nand2_4
*CAP
1 *425:C1 0.0001997
2 *435:C1 0.000699464
3 *424:Y 0.000206533
4 *54:6 0.0011057
5 *425:C1 *426:A2 5.48488e-05
6 *425:C1 *427:A 0
7 *425:C1 *427:B 6.29133e-05
8 *435:C1 *423:A2 3.28604e-05
9 *435:C1 *135:10 1.40131e-05
10 *54:6 *427:A 0.000144773
11 *423:A1 *435:C1 5.12285e-05
12 *424:B *54:6 1.56e-05
13 *425:A2 *425:C1 0
14 *425:B1 *425:C1 0
15 *425:B1 *435:C1 1.15281e-05
16 *426:A1 *54:6 1.32552e-05
17 *426:B1 *435:C1 2.89016e-05
18 *426:B1 *54:6 4.29414e-05
19 *426:C1 *435:C1 0.000160372
20 *35:19 *425:C1 0
21 *46:23 *435:C1 0.000104974
*RES
1 *424:Y *54:6 12.3 
2 *54:6 *435:C1 27.5679 
3 *54:6 *425:C1 22.1214 
*END

*D_NET *55 0.000192546
*CONN
*I *427:B I *D sky130_fd_sc_hd__nand2_2
*I *425:Y O *D sky130_fd_sc_hd__o211ai_2
*CAP
1 *427:B 6.48164e-05
2 *425:Y 6.48164e-05
3 *425:C1 *427:B 6.29133e-05
*RES
1 *425:Y *427:B 19.975 
*END

*D_NET *56 0.000822722
*CONN
*I *427:A I *D sky130_fd_sc_hd__nand2_2
*I *426:Y O *D sky130_fd_sc_hd__o2111ai_2
*CAP
1 *427:A 0.000165144
2 *426:Y 0.000165144
3 *427:A *406:A1 0
4 *427:A *426:A2 0.000148911
5 *427:A *138:35 0
6 *425:B1 *427:A 0
7 *425:C1 *427:A 0
8 *426:B1 *427:A 0.00014285
9 *35:19 *427:A 5.59013e-05
10 *54:6 *427:A 0.000144773
*RES
1 *426:Y *427:A 31.8143 
*END

*D_NET *57 0.00275202
*CONN
*I *431:C1 I *D sky130_fd_sc_hd__a2111oi_2
*I *430:A3 I *D sky130_fd_sc_hd__o31a_2
*I *428:X O *D sky130_fd_sc_hd__and3_2
*CAP
1 *431:C1 2.114e-05
2 *430:A3 0.00041913
3 *428:X 0.000140354
4 *57:8 0.000580624
5 *430:A3 *335:B 0.000125731
6 *430:A3 *432:A 0.000435796
7 *430:A3 *432:B 7.97591e-05
8 *430:A3 *197:19 1.69115e-05
9 *431:C1 *428:A 1.98839e-05
10 *431:C1 *428:B 2.59355e-05
11 *57:8 *428:A 6.05161e-06
12 *57:8 *428:B 5.03772e-05
13 *57:8 *428:C 1.58163e-05
14 *412:C1 *430:A3 5.79792e-05
15 *430:A2 *430:A3 0.000745968
16 *42:23 *430:A3 1.05603e-05
*RES
1 *428:X *57:8 11.9071 
2 *57:8 *430:A3 31.7107 
3 *57:8 *431:C1 9.83571 
*END

*D_NET *58 0.000484168
*CONN
*I *430:B1 I *D sky130_fd_sc_hd__o31a_2
*I *429:X O *D sky130_fd_sc_hd__a2bb2o_2
*CAP
1 *430:B1 9.21422e-05
2 *429:X 9.21422e-05
3 *430:B1 *97:8 5.33005e-05
4 *430:B1 *197:19 1.02504e-05
5 *430:B1 *197:32 0.000113038
6 *430:A2 *430:B1 0.000123295
*RES
1 *429:X *430:B1 29.7786 
*END

*D_NET *59 0.00220165
*CONN
*I *432:A I *D sky130_fd_sc_hd__or2_4
*I *430:X O *D sky130_fd_sc_hd__o31a_2
*CAP
1 *432:A 0.000621215
2 *430:X 0.000621215
3 *432:A *335:B 0.000127446
4 *432:A *428:C 0.000124749
5 *432:A *432:B 6.76272e-05
6 *432:A *185:8 0.000148376
7 *430:A3 *432:A 0.000435796
8 *458:A *432:A 5.52302e-05
*RES
1 *430:X *432:A 43.3679 
*END

*D_NET *60 0.000496422
*CONN
*I *432:B I *D sky130_fd_sc_hd__or2_4
*I *431:Y O *D sky130_fd_sc_hd__a2111oi_2
*CAP
1 *432:B 0.000107781
2 *431:Y 0.000107781
3 *432:B *449:A 0
4 *412:C1 *432:B 1.00887e-05
5 *430:A3 *432:B 7.97591e-05
6 *432:A *432:B 6.76272e-05
7 *42:23 *432:B 2.37944e-05
8 *42:38 *432:B 9.95914e-05
*RES
1 *431:Y *432:B 31.0643 
*END

*D_NET *61 0.00161458
*CONN
*I *434:B I *D sky130_fd_sc_hd__xnor2_2
*I *433:B I *D sky130_fd_sc_hd__xnor2_2
*I *432:X O *D sky130_fd_sc_hd__or2_4
*CAP
1 *434:B 0.000415369
2 *433:B 0
3 *432:X 0.000319534
4 *61:10 0.000734903
5 *434:B *431:A1 0
6 *434:B *438:B1 0
7 *61:10 *204:8 0
8 *413:B *434:B 0
9 *413:B *61:10 0
10 *417:A2 *434:B 0
11 *458:A *61:10 0.000144773
12 *47:14 *434:B 0
*RES
1 *432:X *61:10 19.2286 
2 *61:10 *433:B 13.8 
3 *61:10 *434:B 21.2107 
*END

*D_NET *62 0.000675728
*CONN
*I *438:B1 I *D sky130_fd_sc_hd__o211ai_2
*I *433:Y O *D sky130_fd_sc_hd__xnor2_2
*CAP
1 *438:B1 0.000183034
2 *433:Y 0.000183034
3 *438:B1 *431:A1 3.57844e-05
4 *417:A2 *438:B1 1.01912e-05
5 *434:B *438:B1 0
6 *47:14 *438:B1 0.000263686
*RES
1 *433:Y *438:B1 31.975 
*END

*D_NET *63 0.000916754
*CONN
*I *437:B1 I *D sky130_fd_sc_hd__o211ai_2
*I *434:Y O *D sky130_fd_sc_hd__xnor2_2
*CAP
1 *437:B1 0.000310114
2 *434:Y 0.000310114
3 *437:B1 *421:A1 0.000200413
4 *437:B1 *437:A2 4.57445e-05
5 *437:B1 *439:A 5.03694e-05
6 *438:A2 *437:B1 0
7 *46:23 *437:B1 0
*RES
1 *434:Y *437:B1 34.0464 
*END

*D_NET *64 0.000324919
*CONN
*I *437:C1 I *D sky130_fd_sc_hd__o211ai_2
*I *435:Y O *D sky130_fd_sc_hd__o211ai_2
*CAP
1 *437:C1 0.000162459
2 *435:Y 0.000162459
*RES
1 *435:Y *437:C1 21.1893 
*END

*D_NET *65 0.00392147
*CONN
*I *438:C1 I *D sky130_fd_sc_hd__o211ai_2
*I *436:Y O *D sky130_fd_sc_hd__o211ai_2
*CAP
1 *438:C1 0
2 *436:Y 0.00121564
3 *65:14 0.00121564
4 *65:14 *401:A1 0.000273583
5 *65:14 *216:8 2.15245e-05
6 *400:B *65:14 0.000140088
7 *420:A2 *65:14 5.33005e-05
8 *420:B1 *65:14 0.000135783
9 *511:A *65:14 0.00019969
10 *26:16 *65:14 5.71472e-05
11 *26:18 *65:14 0.000312222
12 *28:8 *65:14 0
13 *28:23 *65:14 0
14 *35:8 *65:14 0.000296852
*RES
1 *436:Y *65:14 41.7821 
2 *65:14 *438:C1 9.3 
*END

*D_NET *66 0.00104986
*CONN
*I *439:B I *D sky130_fd_sc_hd__nand2_2
*I *437:Y O *D sky130_fd_sc_hd__o211ai_2
*CAP
1 *439:B 0.000193706
2 *437:Y 0.000193706
3 *439:B *437:A1 9.60939e-05
4 *439:B *437:A2 6.05161e-06
5 *439:B *439:A 0.000111407
6 *419:B *439:B 0.000227736
7 *438:A2 *439:B 0.000221163
*RES
1 *437:Y *439:B 32.7607 
*END

*D_NET *67 0.00142042
*CONN
*I *439:A I *D sky130_fd_sc_hd__nand2_2
*I *438:Y O *D sky130_fd_sc_hd__o211ai_2
*CAP
1 *439:A 0.000331936
2 *438:Y 0.000331936
3 *439:A *421:A1 0
4 *439:A *437:A2 1.57414e-05
5 *422:A2 *439:A 0.000137983
6 *437:B1 *439:A 5.03694e-05
7 *438:A1 *439:A 6.65398e-05
8 *438:A2 *439:A 0.000340066
9 *439:B *439:A 0.000111407
10 *503:A *439:A 3.69047e-06
11 *511:A *439:A 5.80706e-06
12 *47:14 *439:A 2.49484e-05
*RES
1 *438:Y *439:A 36.5643 
*END

*D_NET *68 0.000311284
*CONN
*I *441:B I *D sky130_fd_sc_hd__xor2_2
*I *440:X O *D sky130_fd_sc_hd__o31a_4
*CAP
1 *441:B 0.0001179
2 *440:X 0.0001179
3 *441:B *440:B1 5.62995e-05
4 *441:B *441:A 1.91842e-05
*RES
1 *440:X *441:B 11.4339 
*END

*D_NET *69 0.00703506
*CONN
*I *365:B1 I *D sky130_fd_sc_hd__a311o_2
*I *364:B1 I *D sky130_fd_sc_hd__a311oi_2
*I *442:A I *D sky130_fd_sc_hd__buf_12
*I *305:Y O *D sky130_fd_sc_hd__inv_8
*CAP
1 *365:B1 0.00024522
2 *364:B1 2.66016e-05
3 *442:A 0
4 *305:Y 0.000247267
5 *69:25 0.0010901
6 *69:12 0.00106554
7 *364:B1 *85:55 4.97967e-05
8 *364:B1 *165:19 9.67754e-05
9 *365:B1 *356:A3 6.97936e-06
10 *365:B1 *394:B1 0.000400075
11 *365:B1 *479:A 5.33005e-05
12 *365:B1 *113:14 0.000562447
13 *365:B1 *162:16 2.59355e-05
14 *69:12 *336:A 0
15 *69:12 *384:A1 1.00375e-05
16 *69:12 *148:33 0.000342488
17 *69:12 *170:10 2.61099e-05
18 *69:12 *171:12 0
19 *69:12 *171:27 0
20 *69:25 *355:A 7.47835e-06
21 *69:25 *356:A3 1.6815e-05
22 *69:25 *361:A1 5.06983e-05
23 *69:25 *366:A 0.000120368
24 *69:25 *366:B 7.47852e-05
25 *69:25 *380:A1 5.52302e-05
26 *69:25 *394:B1 0.000102909
27 *69:25 *463:A 7.11255e-05
28 *69:25 *501:A 0.000182598
29 *69:25 *157:28 0.000159903
30 *69:25 *160:18 3.57843e-05
31 *69:25 *170:10 0.00167655
32 *69:25 *182:48 0.000178847
33 *69:25 *182:57 5.33005e-05
*RES
1 *305:Y *69:12 23.925 
2 *69:12 *442:A 9.3 
3 *69:12 *69:25 27.3929 
4 *69:25 *364:B1 14.7464 
5 *69:25 *365:B1 22.05 
*END

*D_NET *70 0.00888813
*CONN
*I *440:A1 I *D sky130_fd_sc_hd__o31a_4
*I *314:C1 I *D sky130_fd_sc_hd__a211oi_2
*I *313:A2 I *D sky130_fd_sc_hd__o211a_4
*I *338:A2 I *D sky130_fd_sc_hd__o311ai_2
*I *351:A I *D sky130_fd_sc_hd__nor2_2
*I *337:A2 I *D sky130_fd_sc_hd__o311a_4
*I *394:A1 I *D sky130_fd_sc_hd__o22ai_4
*I *343:A2 I *D sky130_fd_sc_hd__o31a_2
*I *306:Y O *D sky130_fd_sc_hd__inv_4
*CAP
1 *440:A1 3.39029e-05
2 *314:C1 0.000142
3 *313:A2 7.46871e-05
4 *338:A2 7.36456e-05
5 *351:A 0.000182662
6 *337:A2 7.62904e-05
7 *394:A1 0.0001197
8 *343:A2 0
9 *306:Y 0.000380403
10 *70:75 0.000346649
11 *70:73 0.000278241
12 *70:40 0.000258953
13 *70:38 0.000391677
14 *70:23 0.000679534
15 *70:12 0.000694977
16 *70:6 0.000947954
17 *313:A2 *316:A1 0.000197991
18 *313:A2 *172:35 2.8266e-06
19 *313:A2 *172:37 7.26935e-05
20 *314:C1 *312:B 0.000156357
21 *314:C1 *502:A 5.71472e-05
22 *314:C1 *90:20 0.000103403
23 *314:C1 *206:8 0.00012935
24 *337:A2 *506:A 4.35141e-05
25 *337:A2 *90:26 7.83366e-05
26 *337:A2 *168:22 0
27 *338:A2 *338:A1 3.99614e-06
28 *338:A2 *338:B1 0
29 *338:A2 *450:A 3.32631e-05
30 *338:A2 *92:27 0
31 *351:A *372:A2 2.89114e-05
32 *351:A *506:A 8.13657e-05
33 *351:A *90:26 0.000129175
34 *394:A1 *351:B 7.34455e-06
35 *394:A1 *394:A2 9.71197e-05
36 *394:A1 *75:77 1.52978e-05
37 *394:A1 *127:8 0
38 *394:A1 *161:10 3.01343e-05
39 *440:A1 *194:6 2.59355e-05
40 *70:6 *106:14 0.000141941
41 *70:12 *344:A1 7.24871e-05
42 *70:12 *359:B1 0.000124012
43 *70:12 *75:14 0.00019315
44 *70:12 *75:25 9.15842e-06
45 *70:12 *168:32 0.000356963
46 *70:23 *311:A 0.000113075
47 *70:23 *461:A 0
48 *70:23 *75:25 0.000207271
49 *70:23 *75:77 0.000315894
50 *70:23 *163:18 0
51 *70:23 *168:32 0.000145662
52 *70:38 *444:A 0.000186669
53 *70:38 *450:A 1.39726e-05
54 *70:38 *461:A 2.14658e-05
55 *70:38 *161:10 7.77751e-05
56 *70:38 *204:46 6.7569e-05
57 *70:73 *316:A1 0.000267815
58 *70:73 *172:72 8.71271e-05
59 *70:75 *316:A1 0.000365682
60 *70:75 *324:A2 6.42338e-05
61 *70:75 *172:35 4.038e-06
62 *70:75 *172:72 7.67315e-05
*RES
1 *306:Y *70:6 13.5321 
2 *70:6 *70:12 12.6964 
3 *70:12 *343:A2 13.8 
4 *70:12 *70:23 11.3036 
5 *70:23 *394:A1 20.3893 
6 *70:23 *70:38 5.875 
7 *70:38 *70:40 4.5 
8 *70:40 *337:A2 15.7464 
9 *70:40 *351:A 17.4964 
10 *70:38 *338:A2 10.675 
11 *70:6 *70:73 7.96429 
12 *70:73 *70:75 4.67857 
13 *70:75 *313:A2 16.3536 
14 *70:75 *314:C1 17.7643 
15 *70:73 *440:A1 14.3357 
*END

*D_NET *71 0.00673358
*CONN
*I *332:A2 I *D sky130_fd_sc_hd__o31a_2
*I *356:A2 I *D sky130_fd_sc_hd__o311ai_4
*I *389:A I *D sky130_fd_sc_hd__nor2_2
*I *307:Y O *D sky130_fd_sc_hd__inv_2
*CAP
1 *332:A2 0
2 *356:A2 2.13113e-05
3 *389:A 0.000306352
4 *307:Y 0.00069382
5 *71:18 0.00141648
6 *71:10 0.00178264
7 *389:A *353:A1 0.000378123
8 *389:A *411:A2 6.14514e-05
9 *389:A *114:10 0.000143633
10 *389:A *146:12 4.45753e-05
11 *389:A *159:24 5.74309e-05
12 *71:10 *337:A1 7.05249e-05
13 *71:10 *337:A3 4.58194e-05
14 *71:10 *337:B1 1.56e-05
15 *71:10 *337:C1 3.4879e-05
16 *71:10 *508:A 3.31535e-05
17 *71:10 *90:26 6.07232e-05
18 *71:10 *168:22 0
19 *71:18 *330:B1 2.24804e-05
20 *71:18 *332:A1 0.000124019
21 *71:18 *385:A1 2.57826e-06
22 *71:18 *508:A 0.000124019
23 *71:18 *85:55 0.000216196
24 *71:18 *85:66 0.000515843
25 *71:18 *117:10 0.000561929
*RES
1 *307:Y *71:10 22.8536 
2 *71:10 *71:18 20.25 
3 *71:18 *389:A 25.7107 
4 *71:18 *356:A2 9.72857 
5 *71:10 *332:A2 13.8 
*END

*D_NET *72 0.0052572
*CONN
*I *353:A2 I *D sky130_fd_sc_hd__o21a_2
*I *385:A2 I *D sky130_fd_sc_hd__o311a_4
*I *431:A2 I *D sky130_fd_sc_hd__a2111oi_2
*I *412:A2 I *D sky130_fd_sc_hd__o211a_2
*I *308:Y O *D sky130_fd_sc_hd__inv_2
*CAP
1 *353:A2 0.000154857
2 *385:A2 0
3 *431:A2 0.00018114
4 *412:A2 0.000371588
5 *308:Y 0.000144342
6 *72:46 0.000540439
7 *72:14 0.00075822
8 *72:10 0.000735415
9 *353:A2 *353:A1 5.50052e-05
10 *353:A2 *385:A1 0.000102948
11 *412:A2 *412:B1 0.000297476
12 *412:A2 *514:A 0.000175892
13 *431:A2 *308:A 1.65169e-05
14 *431:A2 *414:A1 2.45881e-05
15 *431:A2 *428:B 1.16543e-05
16 *431:A2 *431:A1 5.49995e-05
17 *431:A2 *447:A 5.51716e-05
18 *431:A2 *205:8 2.37005e-05
19 *431:A2 *215:10 0.000144132
20 *72:10 *308:A 7.83659e-05
21 *72:10 *310:A 0.000241668
22 *72:10 *159:45 9.9854e-06
23 *72:14 *412:B1 1.35465e-05
24 *72:14 *514:A 9.84729e-05
25 *72:14 *85:16 3.17123e-05
26 *72:46 *385:A1 1.8461e-05
27 *72:46 *85:16 0.000115984
28 *72:46 *85:31 8.51331e-05
29 *72:46 *145:10 0.000140488
30 *412:C1 *431:A2 0.000180195
31 *40:16 *72:10 0.000169233
32 *40:22 *431:A2 4.27842e-06
33 *42:8 *412:A2 9.58632e-05
34 *44:10 *72:10 0.000125731
*RES
1 *308:Y *72:10 22.675 
2 *72:10 *72:14 3.42857 
3 *72:14 *412:A2 16.5679 
4 *72:14 *431:A2 23.05 
5 *72:10 *72:46 7.125 
6 *72:46 *385:A2 9.3 
7 *72:46 *353:A2 12.7643 
*END

*D_NET *73 0.00281967
*CONN
*I *327:A2 I *D sky130_fd_sc_hd__o211ai_2
*I *382:A2 I *D sky130_fd_sc_hd__o311ai_4
*I *309:Y O *D sky130_fd_sc_hd__inv_2
*CAP
1 *327:A2 0.0003451
2 *382:A2 0.000754324
3 *309:Y 0.000409225
4 *327:A2 *324:A2 9.18347e-05
5 *327:A2 *327:A1 7.71751e-05
6 *327:A2 *353:B1 0.000311377
7 *327:A2 *382:B1 4.13122e-06
8 *327:A2 *141:10 5.80858e-06
9 *327:A2 *143:8 0.000163065
10 *327:A2 *166:58 0.000180066
11 *382:A2 *383:B 0.000229188
12 *382:A2 *383:C 0.000147588
13 *382:A2 *384:A1 0.000100789
*RES
1 *309:Y *382:A2 34.9214 
2 *382:A2 *327:A2 36.1179 
*END

*D_NET *74 0.00932058
*CONN
*I *330:A1 I *D sky130_fd_sc_hd__o21ai_4
*I *364:A2 I *D sky130_fd_sc_hd__a311oi_2
*I *365:A2 I *D sky130_fd_sc_hd__a311o_2
*I *411:A1 I *D sky130_fd_sc_hd__a21oi_2
*I *387:A1 I *D sky130_fd_sc_hd__a31o_4
*I *310:Y O *D sky130_fd_sc_hd__inv_4
*CAP
1 *330:A1 0.000137774
2 *364:A2 7.18083e-05
3 *365:A2 2.28689e-05
4 *411:A1 0
5 *387:A1 0.000440913
6 *310:Y 0.000244881
7 *74:55 0.000535524
8 *74:38 0.00145029
9 *74:12 0.000523302
10 *74:6 0.00142875
11 *330:A1 *343:A3 0.000301094
12 *330:A1 *343:B1 5.49995e-05
13 *330:A1 *85:55 6.74262e-05
14 *330:A1 *85:66 5.75774e-05
15 *330:A1 *165:78 9.41642e-05
16 *364:A2 *356:B1 0.000146991
17 *364:A2 *75:14 0.000119938
18 *364:A2 *83:10 2.69483e-05
19 *365:A2 *124:10 8.07951e-05
20 *365:A2 *127:8 8.07951e-05
21 *387:A1 *387:A3 3.41517e-06
22 *387:A1 *387:B1 0.000182592
23 *387:A1 *388:A2 0.000166093
24 *387:A1 *411:A2 0.00019306
25 *387:A1 *75:35 4.73286e-05
26 *387:A1 *147:12 0.000310326
27 *387:A1 *159:24 0.00020014
28 *387:A1 *159:93 9.58632e-05
29 *387:A1 *182:42 4.35597e-05
30 *387:A1 *182:83 1.2294e-05
31 *74:12 *147:23 7.03141e-05
32 *74:38 *146:12 5.91336e-05
33 *74:38 *162:10 4.08637e-05
34 *74:38 *162:16 0.000175892
35 *74:38 *204:27 7.2489e-05
36 *74:55 *363:A2 0.000147913
37 *74:55 *75:14 1.46689e-05
38 *74:55 *75:25 0.000103496
39 *74:55 *75:77 4.66203e-05
40 *74:55 *83:27 8.58889e-05
41 *74:55 *162:10 0.000219711
42 *393:B1 *74:38 7.64988e-05
43 *395:B1 *74:38 6.97494e-05
44 *410:B1 *387:A1 0.000152656
45 *19:24 *387:A1 0.0003477
46 *19:24 *74:12 4.43106e-05
47 *24:6 *74:6 0.000352832
48 *24:6 *74:38 9.83442e-05
*RES
1 *310:Y *74:6 12.7107 
2 *74:6 *74:12 10.9464 
3 *74:12 *387:A1 31.8536 
4 *74:12 *411:A1 9.3 
5 *74:6 *74:38 13.6786 
6 *74:38 *365:A2 19.3357 
7 *74:38 *74:55 11.0536 
8 *74:55 *364:A2 16.3536 
9 *74:55 *330:A1 17.6214 
*END

*D_NET *75 0.00931673
*CONN
*I *351:B I *D sky130_fd_sc_hd__nor2_2
*I *394:A2 I *D sky130_fd_sc_hd__o22ai_4
*I *389:B I *D sky130_fd_sc_hd__nor2_2
*I *411:B1 I *D sky130_fd_sc_hd__a21oi_2
*I *385:C1 I *D sky130_fd_sc_hd__o311a_4
*I *388:A1 I *D sky130_fd_sc_hd__a31o_4
*I *343:B1 I *D sky130_fd_sc_hd__o31a_2
*I *311:Y O *D sky130_fd_sc_hd__inv_2
*CAP
1 *351:B 0.000436265
2 *394:A2 4.22673e-05
3 *389:B 1.96443e-05
4 *411:B1 0
5 *385:C1 0
6 *388:A1 0.000192958
7 *343:B1 1.17665e-05
8 *311:Y 0.000289231
9 *75:77 0.000657961
10 *75:41 0.000354836
11 *75:35 0.000352229
12 *75:33 0.000914233
13 *75:25 0.000969828
14 *75:14 0.00038716
15 *343:B1 *85:55 5.49995e-05
16 *351:B *370:B1 0.000272371
17 *351:B *112:8 0.000164913
18 *351:B *161:10 0.000148196
19 *351:B *163:14 0
20 *388:A1 *385:B1 0.000168824
21 *388:A1 *388:A2 5.65955e-05
22 *388:A1 *388:A3 5.33005e-05
23 *388:A1 *447:A 9.16364e-05
24 *388:A1 *143:19 3.29297e-05
25 *388:A1 *147:23 9.58632e-05
26 *389:B *411:A2 1.02301e-05
27 *394:A2 *161:10 5.52238e-05
28 *394:A2 *204:46 4.43256e-05
29 *75:14 *344:A2 5.33005e-05
30 *75:14 *359:B1 0.000335382
31 *75:14 *83:10 4.41329e-06
32 *75:14 *165:23 7.14533e-05
33 *75:14 *168:43 0.000171105
34 *75:33 *362:A1 2.97578e-05
35 *75:33 *362:A2 6.63881e-05
36 *75:33 *362:B1 9.84729e-05
37 *75:33 *363:B2 0.000223385
38 *75:33 *365:A3 0.000154211
39 *75:33 *411:A2 2.12647e-05
40 *75:33 *505:A 5.68426e-05
41 *75:33 *83:27 0.000178847
42 *75:33 *124:10 9.90367e-05
43 *75:33 *159:24 4.04683e-05
44 *75:35 *411:A2 0.000164643
45 *75:35 *159:24 0.000108512
46 *75:41 *385:B1 5.37741e-06
47 *75:41 *145:10 0.000166093
48 *75:41 *147:23 4.16876e-06
49 *75:41 *159:24 5.33005e-05
50 *75:77 *363:A2 1.37292e-05
51 *75:77 *365:A3 0
52 *75:77 *127:8 0
53 *330:A1 *343:B1 5.49995e-05
54 *364:A2 *75:14 0.000119938
55 *387:A1 *75:35 4.73286e-05
56 *394:A1 *351:B 7.34455e-06
57 *394:A1 *394:A2 9.71197e-05
58 *394:A1 *75:77 1.52978e-05
59 *19:24 *388:A1 1.60212e-05
60 *20:10 *75:33 5.71472e-05
61 *20:10 *75:35 1.33343e-05
62 *70:12 *75:14 0.00019315
63 *70:12 *75:25 9.15842e-06
64 *70:23 *75:25 0.000207271
65 *70:23 *75:77 0.000315894
66 *74:55 *75:14 1.46689e-05
67 *74:55 *75:25 0.000103496
68 *74:55 *75:77 4.66203e-05
*RES
1 *311:Y *75:14 22.1036 
2 *75:14 *343:B1 14.3357 
3 *75:14 *75:25 2.85714 
4 *75:25 *75:33 19.1429 
5 *75:33 *75:35 4.23214 
6 *75:35 *75:41 7.58929 
7 *75:41 *388:A1 19.0857 
8 *75:41 *385:C1 13.8 
9 *75:35 *411:B1 9.3 
10 *75:33 *389:B 9.72857 
11 *75:25 *75:77 4.375 
12 *75:77 *394:A2 15.1571 
13 *75:77 *351:B 22.6571 
*END

*D_NET *76 6.75393e-05
*CONN
*I *315:B I *D sky130_fd_sc_hd__or2_4
*I *313:X O *D sky130_fd_sc_hd__o211a_4
*CAP
1 *315:B 2.23988e-05
2 *313:X 2.23988e-05
3 *315:B *464:A 2.27416e-05
*RES
1 *313:X *315:B 19.1357 
*END

*D_NET *77 0.000917533
*CONN
*I *315:A I *D sky130_fd_sc_hd__or2_4
*I *314:Y O *D sky130_fd_sc_hd__a211oi_2
*CAP
1 *315:A 0.000299716
2 *314:Y 0.000299716
3 *315:A *313:A1 0
4 *315:A *206:8 0.000318101
*RES
1 *314:Y *315:A 32.2429 
*END

*D_NET *78 0.00171614
*CONN
*I *325:A I *D sky130_fd_sc_hd__nor2_2
*I *440:B1 I *D sky130_fd_sc_hd__o31a_4
*I *316:X O *D sky130_fd_sc_hd__a211o_4
*CAP
1 *325:A 0
2 *440:B1 0.000187893
3 *316:X 0.000137934
4 *78:12 0.000325828
5 *440:B1 *312:B 0.000195578
6 *440:B1 *324:B1 1.57842e-05
7 *440:B1 *325:B 0.000149342
8 *440:B1 *441:A 4.18895e-05
9 *440:B1 *149:16 3.67279e-06
10 *440:B1 *194:6 0.000312215
11 *78:12 *312:A 5.86374e-05
12 *78:12 *312:B 0.000126409
13 *78:12 *106:14 0.000100248
14 *78:12 *149:16 4.40513e-06
15 *441:B *440:B1 5.62995e-05
*RES
1 *316:X *78:12 16.8179 
2 *78:12 *440:B1 19.7643 
3 *78:12 *325:A 13.8 
*END

*D_NET *79 0.000523049
*CONN
*I *320:B1 I *D sky130_fd_sc_hd__a21oi_4
*I *317:X O *D sky130_fd_sc_hd__and3b_2
*CAP
1 *320:B1 8.08623e-05
2 *317:X 8.08623e-05
3 *320:B1 *320:A2 5.52302e-05
4 *320:B1 *357:C 0.000153047
5 *320:B1 *170:27 0.000153047
*RES
1 *317:X *320:B1 30.0821 
*END

*D_NET *80 0.000405062
*CONN
*I *320:A1 I *D sky130_fd_sc_hd__a21oi_4
*I *318:Y O *D sky130_fd_sc_hd__nand2b_2
*CAP
1 *320:A1 0.000121045
2 *318:Y 0.000121045
3 *320:A1 *317:A_N 7.73758e-05
4 *320:A1 *318:B 0
5 *320:A1 *82:10 2.84494e-05
6 *320:A1 *183:54 5.71472e-05
*RES
1 *318:Y *320:A1 30.0821 
*END

*D_NET *81 0.00145776
*CONN
*I *320:A2 I *D sky130_fd_sc_hd__a21oi_4
*I *319:Y O *D sky130_fd_sc_hd__a21oi_2
*CAP
1 *320:A2 0.000245725
2 *319:Y 0.000245725
3 *320:A2 *317:B 5.33005e-05
4 *320:A2 *319:A2 0.000139907
5 *320:A2 *328:A1 4.53889e-05
6 *320:A2 *357:A 0.000146474
7 *320:A2 *357:C 0.000148196
8 *320:A2 *82:10 0.00026546
9 *320:A2 *183:41 6.71854e-05
10 *320:A2 *214:12 4.51726e-05
11 *320:B1 *320:A2 5.52302e-05
*RES
1 *319:Y *320:A2 34.725 
*END

*D_NET *82 0.00264222
*CONN
*I *344:A1 I *D sky130_fd_sc_hd__a31oi_4
*I *491:A I *D sky130_fd_sc_hd__buf_2
*I *320:Y O *D sky130_fd_sc_hd__a21oi_4
*CAP
1 *344:A1 0.000200831
2 *491:A 0
3 *320:Y 0.000492349
4 *82:10 0.00069318
5 *344:A1 *344:A2 0.000124749
6 *344:A1 *344:A3 0.000190067
7 *344:A1 *172:72 4.12167e-05
8 *82:10 *317:A_N 0
9 *82:10 *318:B 1.76135e-05
10 *82:10 *328:A1 8.25843e-06
11 *82:10 *344:A3 0.000129868
12 *82:10 *357:A 0
13 *82:10 *359:B1 0
14 *82:10 *168:45 0
15 *82:10 *172:35 6.9253e-05
16 *82:10 *172:37 0.000113877
17 *82:10 *172:72 0.000116193
18 *82:10 *214:12 7.83659e-05
19 *320:A1 *82:10 2.84494e-05
20 *320:A2 *82:10 0.00026546
21 *70:12 *344:A1 7.24871e-05
*RES
1 *320:Y *82:10 24.925 
2 *82:10 *491:A 13.8 
3 *82:10 *344:A1 18.9607 
*END

*D_NET *83 0.00755011
*CONN
*I *332:A3 I *D sky130_fd_sc_hd__o31a_2
*I *508:A I *D sky130_fd_sc_hd__buf_2
*I *385:A1 I *D sky130_fd_sc_hd__o311a_4
*I *321:X O *D sky130_fd_sc_hd__and2_4
*CAP
1 *332:A3 0
2 *508:A 0.000581897
3 *385:A1 0.00104616
4 *321:X 0.000213821
5 *83:27 0.00113046
6 *83:10 0.00180854
7 *385:A1 *353:A1 0.000413549
8 *385:A1 *356:B1 8.55871e-05
9 *385:A1 *117:10 9.01564e-05
10 *508:A *90:26 0.000147084
11 *508:A *165:78 4.82354e-05
12 *508:A *212:6 5.96159e-05
13 *83:10 *321:B 2.79421e-05
14 *83:10 *356:B1 9.96487e-05
15 *83:10 *364:A1 0.000219627
16 *83:10 *85:55 9.8126e-05
17 *83:10 *127:8 2.04535e-05
18 *83:10 *165:23 0.000220219
19 *83:27 *356:B1 5.5764e-05
20 *83:27 *363:A1 1.21258e-05
21 *83:27 *363:A2 3.31535e-05
22 *83:27 *85:55 6.88475e-05
23 *83:27 *94:10 9.21413e-05
24 *83:27 *127:8 9.35277e-05
25 *83:27 *168:22 0.000162322
26 *83:27 *168:32 4.84159e-05
27 p[2] *508:A 9.54275e-05
28 *353:A2 *385:A1 0.000102948
29 *364:A2 *83:10 2.69483e-05
30 *71:10 *508:A 3.31535e-05
31 *71:18 *385:A1 2.57826e-06
32 *71:18 *508:A 0.000124019
33 *72:46 *385:A1 1.8461e-05
34 *74:55 *83:27 8.58889e-05
35 *75:14 *83:10 4.41329e-06
36 *75:33 *83:27 0.000178847
*RES
1 *321:X *83:10 19.7286 
2 *83:10 *385:A1 27.6929 
3 *83:10 *83:27 16.3036 
4 *83:27 *508:A 27.2643 
5 *83:27 *332:A3 9.3 
*END

*D_NET *84 0.00563353
*CONN
*I *355:B I *D sky130_fd_sc_hd__nand2_2
*I *490:A I *D sky130_fd_sc_hd__buf_2
*I *358:A2 I *D sky130_fd_sc_hd__a21oi_4
*I *360:A2 I *D sky130_fd_sc_hd__a21oi_2
*I *489:A I *D sky130_fd_sc_hd__buf_2
*I *381:B I *D sky130_fd_sc_hd__nand2_2
*I *322:Y O *D sky130_fd_sc_hd__nand2_8
*CAP
1 *355:B 0.000124674
2 *490:A 0.000160651
3 *358:A2 0
4 *360:A2 0.000168863
5 *489:A 0.000270233
6 *381:B 1.54492e-05
7 *322:Y 0.000341098
8 *84:58 0.000239761
9 *84:52 0.00025974
10 *84:39 0.000324216
11 *84:12 0.000527383
12 *355:B *353:A1 1.25924e-05
13 *355:B *357:B 2.31791e-05
14 *355:B *365:A3 4.90023e-05
15 *355:B *170:16 0.000221006
16 *355:B *170:49 9.27562e-05
17 *355:B *172:8 0.00010326
18 *355:B *183:10 7.24596e-05
19 *360:A2 *357:B 0.00027338
20 *360:A2 *360:A1 2.23987e-05
21 *360:A2 *90:20 0.000102545
22 *360:A2 *170:16 8.07879e-05
23 *360:A2 *183:25 1.78447e-05
24 *381:B *381:A 5.52238e-05
25 *489:A *357:A 0
26 *489:A *381:A 0.000156207
27 *490:A *360:B1 3.17148e-05
28 *490:A *361:A1 5.33005e-05
29 *490:A *361:A2 5.71472e-05
30 *490:A *361:B1 0.000148196
31 *490:A *394:B1 0.000168939
32 *490:A *120:8 5.33005e-05
33 *490:A *157:38 5.17614e-05
34 *490:A *172:23 1.54142e-05
35 *84:12 *327:C1 0
36 *84:12 *353:B1 0.000125731
37 *84:12 *381:A 0.000127629
38 *84:12 *169:8 0
39 *84:12 *193:14 7.6644e-05
40 *84:39 *324:A2 0.0001399
41 *84:52 *357:B 0.00016384
42 *84:52 *170:16 0.000171375
43 *84:58 *157:38 1.02936e-05
44 *84:58 *172:23 0.00018077
45 *84:58 *183:25 6.57032e-05
46 *456:A *381:B 9.80173e-05
47 *456:A *489:A 8.01079e-05
48 *456:A *84:12 9.90367e-05
*RES
1 *322:Y *84:12 24.2286 
2 *84:12 *381:B 10.2464 
3 *84:12 *489:A 13.7643 
4 *322:Y *84:39 15.1571 
5 *84:39 *360:A2 18.2107 
6 *84:39 *84:52 2.25 
7 *84:52 *84:58 6.69643 
8 *84:58 *358:A2 9.3 
9 *84:58 *490:A 22.8536 
10 *84:52 *355:B 18.4786 
*END

*D_NET *85 0.0115882
*CONN
*I *408:A2 I *D sky130_fd_sc_hd__o21ai_2
*I *332:A1 I *D sky130_fd_sc_hd__o31a_2
*I *440:A3 I *D sky130_fd_sc_hd__o31a_4
*I *343:A1 I *D sky130_fd_sc_hd__o31a_2
*I *385:A3 I *D sky130_fd_sc_hd__o311a_4
*I *323:Y O *D sky130_fd_sc_hd__nor2_2
*CAP
1 *408:A2 0
2 *332:A1 8.05773e-05
3 *440:A3 0.000296206
4 *343:A1 1.59835e-05
5 *385:A3 0
6 *323:Y 0.000879259
7 *85:66 0.000504583
8 *85:55 0.000797248
9 *85:31 0.000898439
10 *85:16 0.00112423
11 *332:A1 *330:B1 2.45881e-05
12 *332:A1 *90:26 6.14702e-06
13 *332:A1 *168:22 3.67279e-06
14 *440:A3 *316:A1 1.18064e-05
15 *440:A3 *330:B1 8.67814e-06
16 *440:A3 *344:B1 0.000310847
17 *440:A3 *440:A2 0.000431601
18 *440:A3 *90:26 3.48222e-05
19 *440:A3 *157:80 0.000183928
20 *440:A3 *194:6 2.59355e-05
21 *440:A3 *212:17 9.8126e-05
22 *85:16 *412:B1 0.000262834
23 *85:16 *145:10 0.000267731
24 *85:16 *148:14 0.000289204
25 *85:16 *166:8 4.67124e-05
26 *85:16 *182:122 0.000381816
27 *85:31 *388:A2 9.58126e-05
28 *85:31 *408:B1 0.000137561
29 *85:31 *447:A 0.000305254
30 *85:31 *147:23 6.24653e-05
31 *85:55 *352:A_N 9.15842e-06
32 *85:55 *352:B 2.29112e-05
33 *85:55 *356:B1 9.41642e-05
34 *85:55 *408:A1 0.000725377
35 *85:55 *447:A 0.000421765
36 *85:55 *113:8 0.000477583
37 *85:55 *117:10 5.33005e-05
38 *85:55 *119:10 1.8441e-05
39 *85:55 *127:8 0.000168503
40 *85:55 *165:19 4.62334e-05
41 *85:66 *330:B1 0.000140243
42 *85:66 *165:78 0.000215297
43 *330:A1 *85:55 6.74262e-05
44 *330:A1 *85:66 5.75774e-05
45 *343:B1 *85:55 5.49995e-05
46 *364:B1 *85:55 4.97967e-05
47 *19:24 *85:31 0.00012347
48 *71:18 *332:A1 0.000124019
49 *71:18 *85:55 0.000216196
50 *71:18 *85:66 0.000515843
51 *72:14 *85:16 3.17123e-05
52 *72:46 *85:16 0.000115984
53 *72:46 *85:31 8.51331e-05
54 *83:10 *85:55 9.8126e-05
55 *83:27 *85:55 6.88475e-05
*RES
1 *323:Y *85:16 33.3 
2 *85:16 *385:A3 9.3 
3 *85:16 *85:31 15.8036 
4 *85:31 *85:55 36.6071 
5 *85:55 *343:A1 9.72857 
6 *85:55 *85:66 9.55357 
7 *85:66 *440:A3 23.0143 
8 *85:66 *332:A1 15.7464 
9 *85:31 *408:A2 9.3 
*END

*D_NET *86 0.00078876
*CONN
*I *344:A3 I *D sky130_fd_sc_hd__a31oi_4
*I *324:X O *D sky130_fd_sc_hd__o21a_2
*CAP
1 *344:A3 0.00011612
2 *324:X 0.00011612
3 *344:A3 *311:A 0.000223111
4 *344:A3 *344:A2 1.34741e-05
5 *344:A3 *359:B1 0
6 *344:A1 *344:A3 0.000190067
7 *82:10 *344:A3 0.000129868
*RES
1 *324:X *344:A3 31.975 
*END

*D_NET *87 0.00615931
*CONN
*I *349:A I *D sky130_fd_sc_hd__nor3_2
*I *376:B1 I *D sky130_fd_sc_hd__a31o_2
*I *378:B1 I *D sky130_fd_sc_hd__a221o_2
*I *348:B1 I *D sky130_fd_sc_hd__o21a_2
*I *325:Y O *D sky130_fd_sc_hd__nor2_2
*CAP
1 *349:A 2.62641e-05
2 *376:B1 0.000209699
3 *378:B1 5.99258e-05
4 *348:B1 0
5 *325:Y 0.000985694
6 *87:27 0.000408514
7 *87:25 0.000712451
8 *87:10 0.00153299
9 *349:A *378:C1 5.71472e-05
10 *376:B1 *376:A3 0
11 *376:B1 *377:A 0
12 *376:B1 *378:B2 0.000128154
13 *376:B1 *379:B 0
14 *376:B1 *103:31 0
15 *376:B1 *108:8 0.000188741
16 *378:B1 *378:B2 1.28809e-05
17 *87:10 *307:A 0.000102517
18 *87:10 *342:A1 0
19 *87:10 *342:A2 0.00018471
20 *87:10 *94:10 0.00029529
21 *87:10 *103:10 0.000175519
22 *87:10 *210:8 5.97719e-05
23 *87:10 *210:14 0.000100969
24 *87:25 *342:A1 0
25 *87:25 *345:A2 9.99644e-06
26 *87:25 *348:A1 0
27 *87:25 *349:B 6.42095e-05
28 *87:25 *350:A 0.00021646
29 *87:25 *378:C1 2.77173e-05
30 *87:25 *103:10 0.000421321
31 *87:25 *103:23 4.80729e-05
32 *87:27 *378:C1 0.000122159
33 p[0] *87:10 8.13261e-06
*RES
1 *325:Y *87:10 35.3357 
2 *87:10 *348:B1 13.8 
3 *87:10 *87:25 15.0536 
4 *87:25 *87:27 3 
5 *87:27 *378:B1 10.2464 
6 *87:27 *376:B1 23.1036 
7 *87:25 *349:A 10.2643 
*END

*D_NET *88 0.00122864
*CONN
*I *328:A2 I *D sky130_fd_sc_hd__o21a_4
*I *327:B1 I *D sky130_fd_sc_hd__o211ai_2
*I *326:Y O *D sky130_fd_sc_hd__nand2_2
*CAP
1 *328:A2 0
2 *327:B1 5.4956e-05
3 *326:Y 0.000212612
4 *88:12 0.000267568
5 *327:B1 *327:A1 6.97409e-05
6 *327:B1 *328:A1 0.00010096
7 *327:B1 *328:B1 0.000227532
8 *88:12 *327:C1 0
9 *88:12 *157:38 5.52238e-05
10 *88:12 *166:62 7.83462e-05
11 *88:12 *169:8 0.000161702
*RES
1 *326:Y *88:12 22.9071 
2 *88:12 *327:B1 11.8893 
3 *88:12 *328:A2 9.3 
*END

*D_NET *89 0.000693376
*CONN
*I *328:B1 I *D sky130_fd_sc_hd__o21a_4
*I *327:Y O *D sky130_fd_sc_hd__o211ai_2
*CAP
1 *328:B1 0.000198543
2 *327:Y 0.000198543
3 *328:B1 *328:A1 6.87574e-05
4 *327:B1 *328:B1 0.000227532
*RES
1 *327:Y *328:B1 22.4393 
*END

*D_NET *90 0.00863641
*CONN
*I *342:B1 I *D sky130_fd_sc_hd__o211ai_2
*I *340:B1_N I *D sky130_fd_sc_hd__o21ba_4
*I *372:A1 I *D sky130_fd_sc_hd__o22ai_4
*I *341:B1_N I *D sky130_fd_sc_hd__o21bai_4
*I *328:X O *D sky130_fd_sc_hd__o21a_4
*CAP
1 *342:B1 6.02601e-05
2 *340:B1_N 0.000238313
3 *372:A1 6.02601e-05
4 *341:B1_N 2.63024e-05
5 *328:X 0.000790786
6 *90:37 0.00031253
7 *90:26 0.00102191
8 *90:20 0.00171218
9 *340:B1_N *372:A2 1.41029e-05
10 *340:B1_N *375:C 5.52302e-05
11 *340:B1_N *106:14 0
12 *340:B1_N *133:8 0
13 *341:B1_N *506:A 5.03772e-05
14 *341:B1_N *149:72 9.71197e-05
15 *342:B1 *342:C1 2.89114e-05
16 *342:B1 *104:12 5.71472e-05
17 *90:20 *314:A2 5.33433e-05
18 *90:20 *324:A2 3.08694e-05
19 *90:20 *354:A2 5.52238e-05
20 *90:20 *360:A1 0.000102545
21 *90:20 *510:A 0.000357952
22 *90:20 *170:16 0.000306317
23 *90:20 *170:27 8.46829e-05
24 *90:20 *206:8 6.37237e-05
25 *90:26 *312:B 1.46624e-05
26 *90:26 *313:A1 5.59013e-05
27 *90:26 *316:A1 0
28 *90:26 *316:C1 0.000564448
29 *90:26 *338:A3 1.31516e-05
30 *90:26 *342:C1 8.00794e-05
31 *90:26 *344:B1 4.45753e-05
32 *90:26 *372:A2 5.86416e-05
33 *90:26 *450:A 0.000175512
34 *90:26 *502:A 0.000175519
35 *90:26 *506:A 0
36 *90:26 *92:8 0.000359589
37 *90:26 *92:27 0.000140375
38 *90:26 *149:72 0
39 *90:26 *157:55 4.25619e-05
40 *90:26 *157:80 0.000456381
41 *90:26 *165:78 1.81413e-05
42 *90:26 *168:22 0
43 *90:37 *342:C1 9.24491e-05
44 *90:37 *372:A2 0.00010209
45 *90:37 *106:14 0
46 *314:C1 *90:20 0.000103403
47 *332:A1 *90:26 6.14702e-06
48 *337:A2 *90:26 7.83366e-05
49 *351:A *90:26 0.000129175
50 *360:A2 *90:20 0.000102545
51 *440:A3 *90:26 3.48222e-05
52 *508:A *90:26 0.000147084
53 *71:10 *90:26 6.07232e-05
*RES
1 *328:X *90:20 37.5679 
2 *90:20 *90:26 25.6786 
3 *90:26 *341:B1_N 14.7464 
4 *90:26 *90:37 2.55357 
5 *90:37 *372:A1 13.8 
6 *90:37 *340:B1_N 18.1214 
7 *372:A1 *342:B1 19.9571 
*END

*D_NET *91 0.000960445
*CONN
*I *330:B1 I *D sky130_fd_sc_hd__o21ai_4
*I *329:X O *D sky130_fd_sc_hd__o21a_2
*CAP
1 *330:B1 0.000182227
2 *329:X 0.000182227
3 *330:B1 *363:A1 0.000113843
4 *330:B1 *157:80 1.00887e-05
5 *330:B1 *165:78 0.000180207
6 *330:B1 *168:22 9.58632e-05
7 *332:A1 *330:B1 2.45881e-05
8 *440:A3 *330:B1 8.67814e-06
9 *71:18 *330:B1 2.24804e-05
10 *85:66 *330:B1 0.000140243
*RES
1 *329:X *330:B1 31.9571 
*END

*D_NET *92 0.00254863
*CONN
*I *333:A1 I *D sky130_fd_sc_hd__a21oi_2
*I *338:C1 I *D sky130_fd_sc_hd__o311ai_2
*I *337:B1 I *D sky130_fd_sc_hd__o311a_4
*I *330:Y O *D sky130_fd_sc_hd__o21ai_4
*CAP
1 *333:A1 3.63457e-05
2 *338:C1 0
3 *337:B1 2.72621e-05
4 *330:Y 0.000114835
5 *92:27 0.000273983
6 *92:8 0.000379735
7 *333:A1 *333:A2 0.000169366
8 *333:A1 *338:B1 5.52238e-05
9 *333:A1 *210:16 0.000127476
10 *337:B1 *337:A1 9.60939e-05
11 *337:B1 *337:A3 5.33005e-05
12 *92:8 *338:A3 2.24646e-05
13 *92:8 *165:78 0.000147784
14 *92:8 *165:87 0.000187619
15 *92:27 *333:A2 1.91004e-05
16 *92:27 *338:A3 0.000148911
17 *92:27 *338:B1 0.00012935
18 *92:27 *450:A 3.69047e-06
19 *92:27 *168:22 4.05247e-05
20 *338:A2 *92:27 0
21 *71:10 *337:B1 1.56e-05
22 *90:26 *92:8 0.000359589
23 *90:26 *92:27 0.000140375
*RES
1 *330:Y *92:8 18.4786 
2 *92:8 *337:B1 14.7464 
3 *92:8 *92:27 10 
4 *92:27 *338:C1 9.3 
5 *92:27 *333:A1 11.0679 
*END

*D_NET *93 0.0016778
*CONN
*I *333:A2 I *D sky130_fd_sc_hd__a21oi_2
*I *332:B1 I *D sky130_fd_sc_hd__o31a_2
*I *331:Y O *D sky130_fd_sc_hd__nand3_2
*CAP
1 *333:A2 0.000241632
2 *332:B1 0.000121794
3 *331:Y 0.000363426
4 *332:B1 *94:10 8.95645e-05
5 *332:B1 *149:8 0
6 *333:A2 *331:A 7.38652e-05
7 *333:A2 *337:C1 0.000125731
8 *333:A2 *509:A 0
9 *333:A2 *106:14 0.000141366
10 *333:A2 *210:16 0.000106342
11 *333:A2 *213:10 0.000225609
12 *333:A1 *333:A2 0.000169366
13 *92:27 *333:A2 1.91004e-05
*RES
1 *331:Y *332:B1 20.7964 
2 *331:Y *333:A2 35.6625 
*END

*D_NET *94 0.00386084
*CONN
*I *342:A2 I *D sky130_fd_sc_hd__o211ai_2
*I *339:A2 I *D sky130_fd_sc_hd__o21a_2
*I *332:X O *D sky130_fd_sc_hd__o31a_2
*CAP
1 *342:A2 0.000417637
2 *339:A2 0
3 *332:X 0.000793128
4 *94:10 0.00121076
5 *342:A2 *342:A1 2.56694e-05
6 *342:A2 *348:A2 0.000226507
7 *342:A2 *493:A 0
8 *342:A2 *99:8 0
9 *342:A2 *104:12 1.74352e-05
10 *94:10 *307:A 0.000247157
11 *94:10 *331:A 5.66971e-05
12 *94:10 *99:8 0
13 *94:10 *149:8 0.000204144
14 *332:B1 *94:10 8.95645e-05
15 *83:27 *94:10 9.21413e-05
16 *87:10 *342:A2 0.00018471
17 *87:10 *94:10 0.00029529
*RES
1 *332:X *94:10 29.55 
2 *94:10 *339:A2 13.8 
3 *94:10 *342:A2 22.2286 
*END

*D_NET *95 0.00240429
*CONN
*I *340:A1 I *D sky130_fd_sc_hd__o21ba_4
*I *341:A2 I *D sky130_fd_sc_hd__o21bai_4
*I *333:Y O *D sky130_fd_sc_hd__a21oi_2
*CAP
1 *340:A1 0.000161564
2 *341:A2 0
3 *333:Y 0.000217149
4 *95:10 0.000378713
5 *340:A1 *348:A2 7.49332e-05
6 *340:A1 *493:A 0
7 *340:A1 *99:8 0
8 *340:A1 *106:14 0.000381325
9 *95:10 *338:B1 9.90367e-05
10 *95:10 *509:A 0.000301824
11 *95:10 *99:8 0
12 *95:10 *106:14 0.000339352
13 *95:10 *168:10 0.000125731
14 *95:10 *168:22 5.52302e-05
15 *95:10 *210:16 0.000269428
*RES
1 *333:Y *95:10 21.5857 
2 *95:10 *341:A2 13.8 
3 *95:10 *340:A1 18.7821 
*END

*D_NET *96 0.0013827
*CONN
*I *336:A I *D sky130_fd_sc_hd__nor2_2
*I *334:Y O *D sky130_fd_sc_hd__nor2_2
*CAP
1 *336:A 0.000436592
2 *334:Y 0.000436592
3 *336:A *305:A 7.02611e-05
4 *336:A *334:B 0.000265447
5 *336:A *171:12 0.000173804
6 *69:12 *336:A 0
*RES
1 *334:Y *336:A 35.3143 
*END

*D_NET *97 0.00290489
*CONN
*I *430:A1 I *D sky130_fd_sc_hd__o31a_2
*I *336:B I *D sky130_fd_sc_hd__nor2_2
*I *429:A2_N I *D sky130_fd_sc_hd__a2bb2o_2
*I *335:X O *D sky130_fd_sc_hd__and2_2
*CAP
1 *430:A1 0.00016164
2 *336:B 0.000200851
3 *429:A2_N 0
4 *335:X 0.000280901
5 *97:19 0.000462864
6 *97:8 0.000381274
7 *336:B *334:B 5.41794e-05
8 *336:B *384:A2 0
9 *336:B *409:A2 5.33005e-05
10 *336:B *409:B1_N 5.33005e-05
11 *336:B *159:97 0.00010545
12 *336:B *166:10 5.41794e-05
13 *430:A1 *335:B 0.00034127
14 *430:A1 *409:A1 5.33005e-05
15 *430:A1 *409:A2 9.41642e-05
16 *430:A1 *159:110 4.08637e-05
17 *97:8 *335:A 5.03772e-05
18 *97:8 *429:B2 4.32258e-05
19 *97:19 *334:B 2.24646e-05
20 *97:19 *429:B2 9.71197e-05
21 *97:19 *166:10 0.000148903
22 *97:19 *203:23 5.74562e-05
23 *429:A1_N *430:A1 1.98839e-05
24 *429:A1_N *97:8 2.13202e-05
25 *430:A2 *430:A1 5.33005e-05
26 *430:B1 *97:8 5.33005e-05
*RES
1 *335:X *97:8 13.55 
2 *97:8 *429:A2_N 9.3 
3 *97:8 *97:19 7.39286 
4 *97:19 *336:B 17.9607 
5 *97:19 *430:A1 18.05 
*END

*D_NET *98 0.00152739
*CONN
*I *410:B2 I *D sky130_fd_sc_hd__a22oi_2
*I *336:Y O *D sky130_fd_sc_hd__nor2_2
*CAP
1 *410:B2 0.000444889
2 *336:Y 0.000444889
3 *410:B2 *410:A2 2.50593e-05
4 *410:B2 *501:A 0.000165239
5 *410:B2 *143:19 0
6 *410:B2 *148:33 4.84853e-05
7 *410:B2 *159:97 0.000314132
8 *410:B2 *160:18 0
9 *410:B2 *182:36 5.33005e-05
10 *410:B1 *410:B2 3.13993e-05
*RES
1 *336:Y *410:B2 35.6357 
*END

*D_NET *99 0.00205219
*CONN
*I *493:A I *D sky130_fd_sc_hd__buf_6
*I *341:A1 I *D sky130_fd_sc_hd__o21bai_4
*I *337:X O *D sky130_fd_sc_hd__o311a_4
*CAP
1 *493:A 0.00022764
2 *341:A1 0
3 *337:X 0.000409033
4 *99:8 0.000636672
5 *493:A *340:A2 9.60875e-05
6 *493:A *342:A1 0.000149911
7 *493:A *348:A1 1.91414e-05
8 *493:A *348:A2 0.000198705
9 *493:A *104:12 0.000128154
10 *99:8 *331:A 9.25014e-06
11 *99:8 *337:C1 3.34687e-05
12 *99:8 *106:14 0
13 *99:8 *168:10 4.25809e-05
14 *99:8 *213:10 0.000101545
15 *340:A1 *493:A 0
16 *340:A1 *99:8 0
17 *342:A2 *493:A 0
18 *342:A2 *99:8 0
19 *94:10 *99:8 0
20 *95:10 *99:8 0
*RES
1 *337:X *99:8 20.6036 
2 *99:8 *341:A1 13.8 
3 *99:8 *493:A 19.7286 
*END

*D_NET *100 0.00210684
*CONN
*I *342:C1 I *D sky130_fd_sc_hd__o211ai_2
*I *339:B1 I *D sky130_fd_sc_hd__o21a_2
*I *338:Y O *D sky130_fd_sc_hd__o311ai_2
*CAP
1 *342:C1 0.000230484
2 *339:B1 0.000383901
3 *338:Y 5.409e-05
4 *100:8 0.000668475
5 *339:B1 *339:A1 0.000139907
6 *339:B1 *372:A2 0.000143189
7 *342:C1 *450:A 4.97876e-05
8 *342:C1 *106:14 0
9 *342:C1 *149:72 6.72715e-05
10 *100:8 *450:A 0.000125724
11 *100:8 *149:72 4.25716e-05
12 *342:B1 *342:C1 2.89114e-05
13 *90:26 *342:C1 8.00794e-05
14 *90:37 *342:C1 9.24491e-05
*RES
1 *338:Y *100:8 15.4429 
2 *100:8 *339:B1 20.6393 
3 *100:8 *342:C1 19.3179 
*END

*D_NET *101 0.00235008
*CONN
*I *372:A2 I *D sky130_fd_sc_hd__o22ai_4
*I *339:X O *D sky130_fd_sc_hd__o21a_2
*CAP
1 *372:A2 0.000896048
2 *339:X 0.000896048
3 *372:A2 *339:A1 0.000117553
4 *372:A2 *372:B1 0
5 *372:A2 *506:A 5.9483e-05
6 *372:A2 *133:8 3.40128e-05
7 *339:B1 *372:A2 0.000143189
8 *340:B1_N *372:A2 1.41029e-05
9 *351:A *372:A2 2.89114e-05
10 *90:26 *372:A2 5.86416e-05
11 *90:37 *372:A2 0.00010209
*RES
1 *339:X *372:A2 40.725 
*END

*D_NET *102 0.00256725
*CONN
*I *374:C I *D sky130_fd_sc_hd__and3_4
*I *499:A I *D sky130_fd_sc_hd__buf_2
*I *375:C I *D sky130_fd_sc_hd__nand3_4
*I *340:X O *D sky130_fd_sc_hd__o21ba_4
*CAP
1 *374:C 0.000193024
2 *499:A 0
3 *375:C 0.000493212
4 *340:X 0.000291288
5 *102:28 0.000394947
6 *374:C *373:A 0.000102197
7 *374:C *374:A 2.72859e-05
8 *374:C *402:A2 2.89114e-05
9 *374:C *404:C 4.22736e-05
10 *374:C *138:18 0.000690297
11 *375:C *373:B 0
12 *375:C *487:A 3.34366e-05
13 *375:C *133:8 0
14 *102:28 *373:B 0
15 *102:28 *487:A 0.000215147
16 *340:B1_N *375:C 5.52302e-05
*RES
1 *340:X *375:C 32.7429 
2 *375:C *102:28 23.2821 
3 *102:28 *499:A 9.3 
4 *102:28 *374:C 16.4429 
*END

*D_NET *103 0.00620173
*CONN
*I *373:A I *D sky130_fd_sc_hd__nor2_2
*I *347:A I *D sky130_fd_sc_hd__and3_4
*I *376:A1 I *D sky130_fd_sc_hd__a31o_2
*I *346:A1 I *D sky130_fd_sc_hd__a21o_4
*I *345:A1 I *D sky130_fd_sc_hd__a21oi_2
*I *341:Y O *D sky130_fd_sc_hd__o21bai_4
*CAP
1 *373:A 0.000291928
2 *347:A 0
3 *376:A1 0.00067136
4 *346:A1 0
5 *345:A1 0
6 *341:Y 0.000347751
7 *103:31 0.000591154
8 *103:23 0.000436863
9 *103:10 0.000572892
10 *373:A *376:A2 7.61963e-05
11 *373:A *376:A3 9.02846e-05
12 *373:A *377:D 0.000137983
13 *373:A *404:C 5.62995e-05
14 *373:A *138:18 5.91452e-05
15 *376:A1 *376:A2 0.000471232
16 *376:A1 *106:44 1.39726e-05
17 *103:10 *350:B 0.000371533
18 *103:10 *496:A 0.000113295
19 *103:10 *506:A 0.000578695
20 *103:23 *350:A 0.000103032
21 *103:23 *350:B 0.000252623
22 *103:31 *346:A2 6.74911e-05
23 *103:31 *347:C 2.27416e-05
24 *103:31 *106:44 0.000128154
25 p[3] *103:31 0
26 *374:C *373:A 0.000102197
27 *376:B1 *103:31 0
28 *87:10 *103:10 0.000175519
29 *87:25 *103:10 0.000421321
30 *87:25 *103:23 4.80729e-05
*RES
1 *341:Y *103:10 26.2643 
2 *103:10 *345:A1 13.8 
3 *103:10 *103:23 9.42857 
4 *103:23 *103:31 12.7143 
5 *103:31 *346:A1 9.3 
6 *103:31 *376:A1 15.0857 
7 *103:23 *347:A 9.3 
8 *376:A1 *373:A 25.6357 
*END

*D_NET *104 0.00374974
*CONN
*I *376:A2 I *D sky130_fd_sc_hd__a31o_2
*I *346:A2 I *D sky130_fd_sc_hd__a21o_4
*I *347:B I *D sky130_fd_sc_hd__and3_4
*I *345:A2 I *D sky130_fd_sc_hd__a21oi_2
*I *342:Y O *D sky130_fd_sc_hd__o211ai_2
*CAP
1 *376:A2 0.000132204
2 *346:A2 0.00026572
3 *347:B 0
4 *345:A2 0.000241879
5 *342:Y 0.000342037
6 *104:25 0.000269148
7 *104:12 0.000719548
8 *345:A2 *345:B1 9.60939e-05
9 *345:A2 *350:A 1.74352e-05
10 *345:A2 *107:6 2.44318e-05
11 *346:A2 *350:A 0
12 *346:A2 *106:44 2.50556e-05
13 *376:A2 *346:B1 5.7661e-06
14 *376:A2 *376:A3 0.000115988
15 *376:A2 *106:44 5.62995e-05
16 *104:12 *348:A1 0.000295137
17 *104:12 *348:A2 0.000131491
18 *104:25 *348:A1 5.41794e-05
19 *104:25 *348:A2 1.08359e-05
20 *104:25 *350:A 0
21 *104:25 *106:29 1.69115e-05
22 *104:25 *106:44 2.8266e-06
23 *104:25 *109:12 7.2754e-05
24 p[3] *346:A2 2.63433e-05
25 *342:A2 *104:12 1.74352e-05
26 *342:B1 *104:12 5.71472e-05
27 *373:A *376:A2 7.61963e-05
28 *376:A1 *376:A2 0.000471232
29 *493:A *104:12 0.000128154
30 *87:25 *345:A2 9.99644e-06
31 *103:31 *346:A2 6.74911e-05
*RES
1 *342:Y *104:12 21.4071 
2 *104:12 *345:A2 17.6393 
3 *104:12 *104:25 2.85714 
4 *104:25 *347:B 13.8 
5 *104:25 *346:A2 16.8893 
6 *346:A2 *376:A2 24.1 
*END

*D_NET *105 0.00189725
*CONN
*I *344:B1 I *D sky130_fd_sc_hd__a31oi_4
*I *343:X O *D sky130_fd_sc_hd__o31a_2
*CAP
1 *344:B1 0.000446939
2 *343:X 0.000446939
3 *344:B1 *343:A3 0.000348865
4 *344:B1 *157:80 0.000217361
5 *344:B1 *212:6 8.17274e-05
6 *440:A3 *344:B1 0.000310847
7 *90:26 *344:B1 4.45753e-05
*RES
1 *343:X *344:B1 35.9036 
*END

*D_NET *106 0.00702588
*CONN
*I *346:B1 I *D sky130_fd_sc_hd__a21o_4
*I *376:A3 I *D sky130_fd_sc_hd__a31o_2
*I *347:C I *D sky130_fd_sc_hd__and3_4
*I *345:B1 I *D sky130_fd_sc_hd__a21oi_2
*I *344:Y O *D sky130_fd_sc_hd__a31oi_4
*CAP
1 *346:B1 2.03441e-05
2 *376:A3 0.000297559
3 *347:C 4.61333e-05
4 *345:B1 0.000116575
5 *344:Y 0.00110746
6 *106:44 0.000479273
7 *106:29 0.000345382
8 *106:14 0.00136191
9 *345:B1 *349:B 0.000111512
10 *345:B1 *378:C1 5.33005e-05
11 *345:B1 *107:6 4.27935e-05
12 *347:C *109:12 2.59355e-05
13 *376:A3 *379:B 2.84494e-05
14 *106:14 *312:B 2.37944e-05
15 *106:14 *325:B 6.05161e-06
16 *106:14 *331:A 0
17 *106:14 *337:C1 2.1527e-05
18 *106:14 *348:A2 9.08128e-05
19 *106:14 *133:8 0
20 *106:14 *149:14 0.000198819
21 *106:14 *149:16 6.22576e-05
22 *106:14 *149:72 0.000738729
23 *106:29 *348:A2 3.17148e-05
24 *106:29 *378:B2 0
25 *106:29 *109:12 0.000137224
26 *106:44 *108:8 0
27 *333:A2 *106:14 0.000141366
28 *340:A1 *106:14 0.000381325
29 *340:B1_N *106:14 0
30 *342:C1 *106:14 0
31 *345:A2 *345:B1 9.60939e-05
32 *346:A2 *106:44 2.50556e-05
33 *373:A *376:A3 9.02846e-05
34 *376:A1 *106:44 1.39726e-05
35 *376:A2 *346:B1 5.7661e-06
36 *376:A2 *376:A3 0.000115988
37 *376:A2 *106:44 5.62995e-05
38 *376:B1 *376:A3 0
39 *70:6 *106:14 0.000141941
40 *78:12 *106:14 0.000100248
41 *90:37 *106:14 0
42 *95:10 *106:14 0.000339352
43 *99:8 *106:14 0
44 *103:31 *347:C 2.27416e-05
45 *103:31 *106:44 0.000128154
46 *104:25 *106:29 1.69115e-05
47 *104:25 *106:44 2.8266e-06
*RES
1 *344:Y *106:14 41.3714 
2 *106:14 *345:B1 16.5321 
3 *106:14 *106:29 2.85714 
4 *106:29 *347:C 14.7464 
5 *106:29 *106:44 8.41071 
6 *106:44 *376:A3 23.6929 
7 *106:44 *346:B1 9.72857 
*END

*D_NET *107 0.00150561
*CONN
*I *348:A1 I *D sky130_fd_sc_hd__o21a_2
*I *349:B I *D sky130_fd_sc_hd__nor3_2
*I *345:Y O *D sky130_fd_sc_hd__a21oi_2
*CAP
1 *348:A1 0.000239618
2 *349:B 5.54521e-05
3 *345:Y 1.55095e-05
4 *107:6 0.00031058
5 *348:A1 *342:A1 1.02504e-05
6 *348:A1 *348:A2 5.71472e-05
7 *349:B *350:A 5.33005e-05
8 *349:B *378:C1 5.33005e-05
9 *107:6 *350:A 9.90431e-05
10 *345:A2 *107:6 2.44318e-05
11 *345:B1 *349:B 0.000111512
12 *345:B1 *107:6 4.27935e-05
13 *493:A *348:A1 1.91414e-05
14 *87:25 *348:A1 0
15 *87:25 *349:B 6.42095e-05
16 *104:12 *348:A1 0.000295137
17 *104:25 *348:A1 5.41794e-05
*RES
1 *345:Y *107:6 10.2464 
2 *107:6 *349:B 11.0679 
3 *107:6 *348:A1 23.8179 
*END

*D_NET *108 0.0009716
*CONN
*I *377:B I *D sky130_fd_sc_hd__nand4_4
*I *378:B2 I *D sky130_fd_sc_hd__a221o_2
*I *346:X O *D sky130_fd_sc_hd__a21o_4
*CAP
1 *377:B 3.04135e-05
2 *378:B2 0.000158537
3 *346:X 0.000105312
4 *108:8 0.000294262
5 *377:B *377:A 5.33005e-05
6 *378:B2 *377:A 0
7 *376:B1 *378:B2 0.000128154
8 *376:B1 *108:8 0.000188741
9 *378:B1 *378:B2 1.28809e-05
10 *106:29 *378:B2 0
11 *106:44 *108:8 0
*RES
1 *346:X *108:8 16.3536 
2 *108:8 *378:B2 16.8402 
3 *108:8 *377:B 14.3357 
*END

*D_NET *109 0.00268741
*CONN
*I *349:C I *D sky130_fd_sc_hd__nor3_2
*I *378:C1 I *D sky130_fd_sc_hd__a221o_2
*I *348:A2 I *D sky130_fd_sc_hd__o21a_2
*I *347:X O *D sky130_fd_sc_hd__and3_4
*CAP
1 *349:C 0
2 *378:C1 0.000178886
3 *348:A2 0.000237597
4 *347:X 0.000241377
5 *109:25 0.000178886
6 *109:12 0.000478975
7 *378:C1 *378:A1 0
8 *340:A1 *348:A2 7.49332e-05
9 *342:A2 *348:A2 0.000226507
10 *345:B1 *378:C1 5.33005e-05
11 *347:C *109:12 2.59355e-05
12 *348:A1 *348:A2 5.71472e-05
13 *349:A *378:C1 5.71472e-05
14 *349:B *378:C1 5.33005e-05
15 *493:A *348:A2 0.000198705
16 *87:25 *378:C1 2.77173e-05
17 *87:27 *378:C1 0.000122159
18 *104:12 *348:A2 0.000131491
19 *104:25 *348:A2 1.08359e-05
20 *104:25 *109:12 7.2754e-05
21 *106:14 *348:A2 9.08128e-05
22 *106:29 *348:A2 3.17148e-05
23 *106:29 *109:12 0.000137224
*RES
1 *347:X *109:12 17.9429 
2 *109:12 *348:A2 20.9607 
3 *109:12 *109:25 4.5 
4 *109:25 *378:C1 13.55 
5 *109:25 *349:C 9.3 
*END

*D_NET *110 0.00176206
*CONN
*I *350:B I *D sky130_fd_sc_hd__or2_4
*I *348:X O *D sky130_fd_sc_hd__o21a_2
*CAP
1 *350:B 0.000545187
2 *348:X 0.000545187
3 *350:B *350:A 4.75311e-05
4 p[3] *350:B 0
5 *103:10 *350:B 0.000371533
6 *103:23 *350:B 0.000252623
*RES
1 *348:X *350:B 39.6179 
*END

*D_NET *111 0.00109078
*CONN
*I *350:A I *D sky130_fd_sc_hd__or2_4
*I *349:Y O *D sky130_fd_sc_hd__nor3_2
*CAP
1 *350:A 0.000229589
2 *349:Y 0.000229589
3 p[3] *350:A 9.48025e-05
4 *345:A2 *350:A 1.74352e-05
5 *346:A2 *350:A 0
6 *349:B *350:A 5.33005e-05
7 *350:B *350:A 4.75311e-05
8 *87:25 *350:A 0.00021646
9 *103:23 *350:A 0.000103032
10 *104:25 *350:A 0
11 *107:6 *350:A 9.90431e-05
*RES
1 *349:Y *350:A 34.0464 
*END

*D_NET *112 0.00169968
*CONN
*I *369:B1 I *D sky130_fd_sc_hd__o211a_4
*I *370:B1 I *D sky130_fd_sc_hd__o211ai_4
*I *351:Y O *D sky130_fd_sc_hd__nor2_2
*CAP
1 *369:B1 0
2 *370:B1 0.000191103
3 *351:Y 0.00012566
4 *112:8 0.000316763
5 *370:B1 *369:A1 0.000181351
6 *370:B1 *369:A2 0.000218087
7 *370:B1 *369:C1 2.28499e-05
8 *370:B1 *370:C1 9.71197e-05
9 *112:8 *369:C1 0.000109466
10 *351:B *370:B1 0.000272371
11 *351:B *112:8 0.000164913
*RES
1 *351:Y *112:8 12.7286 
2 *112:8 *370:B1 16.2821 
3 *112:8 *369:B1 9.3 
*END

*D_NET *113 0.00374265
*CONN
*I *364:C1 I *D sky130_fd_sc_hd__a311oi_2
*I *479:A I *D sky130_fd_sc_hd__buf_4
*I *365:C1 I *D sky130_fd_sc_hd__a311o_2
*I *352:X O *D sky130_fd_sc_hd__and2b_2
*CAP
1 *364:C1 0
2 *479:A 0.000184132
3 *365:C1 0
4 *352:X 0.00020562
5 *113:14 0.0004129
6 *113:8 0.000434388
7 *479:A *363:A2 2.89114e-05
8 *479:A *365:A1 3.99614e-06
9 *479:A *365:A3 5.33005e-05
10 *479:A *126:10 0.00031119
11 *479:A *162:10 5.01338e-05
12 *479:A *162:16 2.42516e-05
13 *113:8 *408:A1 0.000125142
14 *113:8 *447:A 0.000310612
15 *113:8 *165:6 2.85234e-05
16 *113:8 *165:19 2.85321e-05
17 *113:14 *356:A3 0.000193141
18 *113:14 *365:A3 2.89932e-05
19 *113:14 *505:A 5.51716e-05
20 *113:14 *507:A 0
21 *113:14 *162:16 0.000170378
22 *365:B1 *479:A 5.33005e-05
23 *365:B1 *113:14 0.000562447
24 *85:55 *113:8 0.000477583
*RES
1 *352:X *113:8 16.0143 
2 *113:8 *113:14 16.4107 
3 *113:14 *365:C1 9.3 
4 *113:14 *479:A 13.9786 
5 *113:8 *364:C1 9.3 
*END

*D_NET *114 0.00173946
*CONN
*I *396:A1 I *D sky130_fd_sc_hd__o21ai_2
*I *395:A1 I *D sky130_fd_sc_hd__o21a_4
*I *353:X O *D sky130_fd_sc_hd__o21a_2
*CAP
1 *396:A1 0.000185359
2 *395:A1 0
3 *353:X 0.000280537
4 *114:10 0.000465897
5 *396:A1 *356:A1 3.34295e-05
6 *396:A1 *396:A2 0.000120402
7 *396:A1 *159:24 0
8 *396:A1 *204:46 0.00011891
9 *114:10 *356:A1 0.000336125
10 *114:10 *362:A1 5.51716e-05
11 *114:10 *146:12 0
12 *389:A *114:10 0.000143633
*RES
1 *353:X *114:10 19.5321 
2 *114:10 *395:A1 13.8 
3 *114:10 *396:A1 18.4786 
*END

*D_NET *115 0.00244586
*CONN
*I *355:A I *D sky130_fd_sc_hd__nand2_2
*I *361:A1 I *D sky130_fd_sc_hd__a21o_2
*I *358:A1 I *D sky130_fd_sc_hd__a21oi_4
*I *360:A1 I *D sky130_fd_sc_hd__a21oi_2
*I *354:X O *D sky130_fd_sc_hd__o21a_4
*CAP
1 *355:A 8.63866e-05
2 *361:A1 0.000136377
3 *358:A1 0
4 *360:A1 0.000121376
5 *354:X 0
6 *115:30 0.000286321
7 *115:21 0.000125639
8 *115:6 0.000183458
9 *355:A *361:B1 1.19402e-05
10 *355:A *365:A3 5.74309e-05
11 *355:A *366:B 0.000150043
12 *355:A *394:B1 0
13 *355:A *170:16 9.52813e-05
14 *355:A *170:49 0.000100248
15 *360:A1 *327:A1 1.92789e-05
16 *360:A1 *328:A1 7.15309e-05
17 *360:A1 *170:16 3.34366e-05
18 *360:A1 *183:25 0.000172375
19 *115:21 *360:B1 9.11365e-06
20 *115:21 *170:16 0.000187026
21 *115:21 *183:25 0.00017309
22 *115:30 *360:B1 1.19309e-05
23 *115:30 *361:B1 3.75052e-05
24 *115:30 *170:16 0.000139653
25 *360:A2 *360:A1 2.23987e-05
26 *490:A *361:A1 5.33005e-05
27 *69:25 *355:A 7.47835e-06
28 *69:25 *361:A1 5.06983e-05
29 *90:20 *360:A1 0.000102545
*RES
1 *354:X *115:6 13.8 
2 *115:6 *360:A1 17.425 
3 *115:6 *115:21 2.55357 
4 *115:21 *358:A1 13.8 
5 *115:21 *115:30 1.94643 
6 *115:30 *361:A1 15.9786 
7 *115:30 *355:A 16.9607 
*END

*D_NET *116 0.00137303
*CONN
*I *356:C1 I *D sky130_fd_sc_hd__o311ai_4
*I *355:Y O *D sky130_fd_sc_hd__nand2_2
*CAP
1 *356:C1 0.000179426
2 *355:Y 0.000179426
3 *356:C1 *321:A 0.000177591
4 *356:C1 *364:A1 2.46609e-05
5 *356:C1 *366:A 5.33005e-05
6 *356:C1 *366:B 5.49995e-05
7 *356:C1 *394:B1 0.000350682
8 *356:C1 *127:8 0.000352941
*RES
1 *355:Y *356:C1 34.0464 
*END

*D_NET *117 0.00234981
*CONN
*I *507:A I *D sky130_fd_sc_hd__buf_2
*I *363:C1 I *D sky130_fd_sc_hd__o221ai_4
*I *356:Y O *D sky130_fd_sc_hd__o311ai_4
*CAP
1 *507:A 0.000278418
2 *363:C1 0
3 *356:Y 0.000278823
4 *117:10 0.000557241
5 *507:A *362:B1 0
6 *507:A *365:A3 3.02963e-05
7 *507:A *396:A2 0
8 *507:A *396:B1 2.27416e-05
9 *507:A *162:16 0
10 *507:A *204:46 0.00014285
11 *117:10 *356:B1 5.96516e-05
12 *117:10 *365:A3 4.13523e-05
13 *117:10 *119:10 5.92441e-05
14 *385:A1 *117:10 9.01564e-05
15 *395:B1 *507:A 0.000173804
16 *71:18 *117:10 0.000561929
17 *85:55 *117:10 5.33005e-05
18 *113:14 *507:A 0
*RES
1 *356:Y *117:10 21.2107 
2 *117:10 *363:C1 13.8 
3 *117:10 *507:A 20.1393 
*END

*D_NET *118 0.00213928
*CONN
*I *358:B1 I *D sky130_fd_sc_hd__a21oi_4
*I *357:X O *D sky130_fd_sc_hd__and3_2
*CAP
1 *358:B1 0.000355364
2 *357:X 0.000355364
3 *358:B1 *357:B 0.000622529
4 *358:B1 *169:8 0.000285464
5 *358:B1 *183:10 3.34366e-05
6 *358:B1 *193:14 0.000173888
7 *456:A *358:B1 0.000313235
*RES
1 *357:X *358:B1 39.7607 
*END

*D_NET *119 0.00320225
*CONN
*I *363:B2 I *D sky130_fd_sc_hd__o221ai_4
*I *362:A2 I *D sky130_fd_sc_hd__o21ai_2
*I *358:Y O *D sky130_fd_sc_hd__a21oi_4
*CAP
1 *363:B2 0.000177253
2 *362:A2 5.80203e-05
3 *358:Y 0.000402012
4 *119:10 0.000637286
5 *362:A2 *362:B1 0.000100165
6 *362:A2 *505:A 0.000245895
7 *363:B2 *505:A 0.000296484
8 *119:10 *352:A_N 7.70717e-05
9 *119:10 *353:A1 0.00034312
10 *119:10 *169:8 0.000179968
11 *119:10 *183:10 0.000317513
12 *75:33 *362:A2 6.63881e-05
13 *75:33 *363:B2 0.000223385
14 *85:55 *119:10 1.8441e-05
15 *117:10 *119:10 5.92441e-05
*RES
1 *358:Y *119:10 29.3536 
2 *119:10 *362:A2 11.9071 
3 *119:10 *363:B2 13.9607 
*END

*D_NET *120 0.0017202
*CONN
*I *361:B1 I *D sky130_fd_sc_hd__a21o_2
*I *360:B1 I *D sky130_fd_sc_hd__a21oi_2
*I *359:X O *D sky130_fd_sc_hd__a31o_2
*CAP
1 *361:B1 6.64476e-05
2 *360:B1 0.000255333
3 *359:X 5.19182e-05
4 *120:8 0.000373699
5 *360:B1 *319:B1 7.80714e-06
6 *360:B1 *328:A1 7.48091e-05
7 *360:B1 *394:B1 0.000181228
8 *360:B1 *183:25 0.000183384
9 *120:8 *157:38 2.95726e-05
10 *120:8 *157:55 1.15281e-05
11 *120:8 *172:23 0.00018077
12 *355:A *361:B1 1.19402e-05
13 *490:A *360:B1 3.17148e-05
14 *490:A *361:B1 0.000148196
15 *490:A *120:8 5.33005e-05
16 *115:21 *360:B1 9.11365e-06
17 *115:30 *360:B1 1.19309e-05
18 *115:30 *361:B1 3.75052e-05
*RES
1 *359:X *120:8 15.5679 
2 *120:8 *360:B1 20.4429 
3 *120:8 *361:B1 15.7464 
*END

*D_NET *121 0.0053268
*CONN
*I *370:A2 I *D sky130_fd_sc_hd__o211ai_4
*I *369:A1 I *D sky130_fd_sc_hd__o211a_4
*I *394:B1 I *D sky130_fd_sc_hd__o22ai_4
*I *360:Y O *D sky130_fd_sc_hd__a21oi_2
*CAP
1 *370:A2 1.65671e-05
2 *369:A1 0.000423236
3 *394:B1 0.000874772
4 *360:Y 0.000834309
5 *121:28 0.000480266
6 *369:A1 *370:C1 6.25963e-05
7 *370:A2 *369:A2 8.2958e-06
8 *370:A2 *370:C1 1.02504e-05
9 *370:A2 *126:19 3.17163e-05
10 *394:B1 *319:B1 0.000289571
11 *394:B1 *364:A1 2.11693e-05
12 *394:B1 *366:A 0.000120368
13 *394:B1 *124:10 0.000332064
14 *394:B1 *126:10 6.42338e-05
15 *394:B1 *126:19 5.80706e-06
16 *394:B1 *127:8 9.43668e-05
17 *394:B1 *165:23 0
18 *394:B1 *165:25 0
19 *394:B1 *172:33 0
20 *121:28 *126:19 6.74815e-05
21 *355:A *394:B1 0
22 *356:C1 *394:B1 0.000350682
23 *360:B1 *394:B1 0.000181228
24 *365:B1 *394:B1 0.000400075
25 *370:B1 *369:A1 0.000181351
26 *395:B1 *394:B1 0
27 *490:A *394:B1 0.000168939
28 *26:16 *370:A2 7.46814e-05
29 *26:16 *394:B1 0
30 *26:16 *121:28 0.000129868
31 *69:25 *394:B1 0.000102909
*RES
1 *360:Y *394:B1 49.6357 
2 *394:B1 *121:28 15.4429 
3 *121:28 *369:A1 19.5857 
4 *121:28 *370:A2 14.8357 
*END

*D_NET *122 0.000516702
*CONN
*I *366:B I *D sky130_fd_sc_hd__nand2_2
*I *361:X O *D sky130_fd_sc_hd__a21o_2
*CAP
1 *366:B 8.29023e-05
2 *361:X 8.29023e-05
3 *366:B *321:A 2.12733e-05
4 *366:B *364:A1 4.97967e-05
5 *355:A *366:B 0.000150043
6 *356:C1 *366:B 5.49995e-05
7 *69:25 *366:B 7.47852e-05
*RES
1 *361:X *366:B 30.4929 
*END

*D_NET *123 0.00118813
*CONN
*I *396:A2 I *D sky130_fd_sc_hd__o21ai_2
*I *395:A2 I *D sky130_fd_sc_hd__o21a_4
*I *362:Y O *D sky130_fd_sc_hd__o21ai_2
*CAP
1 *396:A2 0.000171508
2 *395:A2 0
3 *362:Y 4.53801e-05
4 *123:8 0.000216889
5 *396:A2 *356:A1 2.31791e-05
6 *396:A2 *362:B1 0.000129868
7 *396:A2 *396:B1 0
8 *396:A2 *204:46 0.000126446
9 *123:8 *356:A1 0.000177227
10 *123:8 *362:B1 0.000177227
11 *396:A1 *396:A2 0.000120402
12 *397:A2 *396:A2 0
13 *507:A *396:A2 0
14 *26:16 *396:A2 0
*RES
1 *362:Y *123:8 16.05 
2 *123:8 *395:A2 13.8 
3 *123:8 *396:A2 18.7821 
*END

*D_NET *124 0.00360838
*CONN
*I *368:B1 I *D sky130_fd_sc_hd__a22o_2
*I *485:A I *D sky130_fd_sc_hd__buf_6
*I *367:B2 I *D sky130_fd_sc_hd__a22oi_2
*I *478:A I *D sky130_fd_sc_hd__buf_6
*I *363:Y O *D sky130_fd_sc_hd__o221ai_4
*CAP
1 *368:B1 0.000227032
2 *485:A 0.000186395
3 *367:B2 0
4 *478:A 1.99394e-05
5 *363:Y 0.0003776
6 *124:12 0.000206335
7 *124:10 0.000604633
8 *368:B1 *368:A1 0
9 *368:B1 *368:A2 4.88637e-05
10 *368:B1 *368:B2 0.0001593
11 *368:B1 *127:8 4.46186e-06
12 *368:B1 *129:10 6.8646e-06
13 *478:A *368:A1 9.90367e-05
14 *478:A *445:A 3.30237e-05
15 *485:A *367:A1 0
16 *485:A *368:A1 0.000120045
17 *485:A *445:A 9.02331e-05
18 *485:A *128:12 0.000226507
19 *485:A *149:72 0.000179796
20 *124:10 *365:A3 9.71197e-05
21 *124:10 *369:A2 1.87955e-05
22 *124:10 *370:C1 0
23 *124:10 *126:19 7.07908e-05
24 *124:10 *127:8 0.000319715
25 *365:A2 *124:10 8.07951e-05
26 *394:B1 *124:10 0.000332064
27 *26:16 *368:B1 0
28 *26:16 *124:10 0
29 *75:33 *124:10 9.90367e-05
*RES
1 *363:Y *124:10 23.9786 
2 *124:10 *124:12 4.5 
3 *124:12 *478:A 10.2464 
4 *124:12 *367:B2 9.3 
5 *124:12 *485:A 15.2107 
6 *124:10 *368:B1 18.3179 
*END

*D_NET *125 0.000704779
*CONN
*I *366:A I *D sky130_fd_sc_hd__nand2_2
*I *364:Y O *D sky130_fd_sc_hd__a311oi_2
*CAP
1 *366:A 0.000143178
2 *364:Y 0.000143178
3 *366:A *364:A1 2.85234e-05
4 *366:A *165:19 9.58632e-05
5 *356:C1 *366:A 5.33005e-05
6 *394:B1 *366:A 0.000120368
7 *69:25 *366:A 0.000120368
*RES
1 *364:Y *366:A 30.725 
*END

*D_NET *126 0.00241922
*CONN
*I *369:A2 I *D sky130_fd_sc_hd__o211a_4
*I *370:A1 I *D sky130_fd_sc_hd__o211ai_4
*I *394:B2 I *D sky130_fd_sc_hd__o22ai_4
*I *365:X O *D sky130_fd_sc_hd__a311o_2
*CAP
1 *369:A2 0.000304746
2 *370:A1 0
3 *394:B2 0
4 *365:X 0.000278412
5 *126:19 0.000379695
6 *126:10 0.000353361
7 *369:A2 *369:C1 0
8 *369:A2 *370:C1 0.000259052
9 *370:A2 *369:A2 8.2958e-06
10 *370:A2 *126:19 3.17163e-05
11 *370:B1 *369:A2 0.000218087
12 *394:B1 *126:10 6.42338e-05
13 *394:B1 *126:19 5.80706e-06
14 *479:A *126:10 0.00031119
15 *26:16 *126:10 4.25716e-05
16 *26:16 *126:19 4.98055e-06
17 *121:28 *126:19 6.74815e-05
18 *124:10 *369:A2 1.87955e-05
19 *124:10 *126:19 7.07908e-05
*RES
1 *365:X *126:10 18.4429 
2 *126:10 *394:B2 13.8 
3 *126:10 *126:19 2.55357 
4 *126:19 *370:A1 13.8 
5 *126:19 *369:A2 20.0143 
*END

*D_NET *127 0.00345716
*CONN
*I *368:B2 I *D sky130_fd_sc_hd__a22o_2
*I *367:B1 I *D sky130_fd_sc_hd__a22oi_2
*I *366:Y O *D sky130_fd_sc_hd__nand2_2
*CAP
1 *368:B2 0.000164784
2 *367:B1 0
3 *366:Y 0.000651821
4 *127:8 0.000816604
5 *368:B2 *368:A2 0.000139907
6 *368:B2 *445:A 3.06406e-05
7 *368:B2 *129:10 5.41794e-05
8 *368:B2 *131:8 0
9 *127:8 *363:A2 1.09026e-05
10 *127:8 *364:A1 0.000147784
11 *127:8 *365:A3 0.000146474
12 *127:8 *131:8 0
13 *127:8 *161:10 0
14 *356:C1 *127:8 0.000352941
15 *365:A2 *127:8 8.07951e-05
16 *368:B1 *368:B2 0.0001593
17 *368:B1 *127:8 4.46186e-06
18 *394:A1 *127:8 0
19 *394:B1 *127:8 9.43668e-05
20 *75:77 *127:8 0
21 *83:10 *127:8 2.04535e-05
22 *83:27 *127:8 9.35277e-05
23 *85:55 *127:8 0.000168503
24 *124:10 *127:8 0.000319715
*RES
1 *366:Y *127:8 30.3179 
2 *127:8 *367:B1 13.8 
3 *127:8 *368:B2 18.0143 
*END

*D_NET *128 0.00119555
*CONN
*I *498:A I *D sky130_fd_sc_hd__buf_4
*I *486:A I *D sky130_fd_sc_hd__buf_4
*I *367:Y O *D sky130_fd_sc_hd__a22oi_2
*CAP
1 *498:A 3.75792e-05
2 *486:A 0
3 *367:Y 0.000295384
4 *128:12 0.000332963
5 *498:A *371:B 9.90431e-05
6 *128:12 *368:A2 7.92975e-05
7 *128:12 *371:B 0
8 *128:12 *372:B1 0
9 *128:12 *445:A 5.71472e-05
10 *128:12 *131:8 6.76272e-05
11 *128:12 *163:12 0
12 *485:A *128:12 0.000226507
*RES
1 *367:Y *128:12 24.8536 
2 *128:12 *486:A 9.3 
3 *128:12 *498:A 10.2464 
*END

*D_NET *129 0.0028347
*CONN
*I *374:A I *D sky130_fd_sc_hd__and3_4
*I *375:B I *D sky130_fd_sc_hd__nand3_4
*I *368:X O *D sky130_fd_sc_hd__a22o_2
*CAP
1 *374:A 0.000241865
2 *375:B 0.000194659
3 *368:X 0.000464214
4 *129:10 0.000900738
5 *374:A *374:B 0
6 *374:A *402:A1 0
7 *374:A *402:A2 0.000320738
8 *374:A *404:C 1.08359e-05
9 *375:B *402:A2 5.52302e-05
10 *129:10 *368:A2 0.000354407
11 *129:10 *404:C 9.34004e-05
12 *129:10 *445:A 2.84494e-05
13 *129:10 *131:8 6.25515e-05
14 *368:B1 *129:10 6.8646e-06
15 *368:B2 *129:10 5.41794e-05
16 *374:C *374:A 2.72859e-05
17 *403:C *374:A 0
18 *26:16 *129:10 1.92789e-05
*RES
1 *368:X *129:10 23.3179 
2 *129:10 *375:B 16.8179 
3 *129:10 *374:A 19.1214 
*END

*D_NET *130 0.00192308
*CONN
*I *371:B I *D sky130_fd_sc_hd__nor2_2
*I *372:B1 I *D sky130_fd_sc_hd__o22ai_4
*I *369:X O *D sky130_fd_sc_hd__o211a_4
*CAP
1 *371:B 0.000407156
2 *372:B1 0.000593041
3 *369:X 0.000185885
4 *371:B *371:A 0.000140933
5 *371:B *372:B2 0.000153047
6 *371:B *404:C 4.72818e-05
7 *371:B *133:8 0
8 *372:B1 *369:C1 0.000125731
9 *372:B1 *506:A 8.86717e-05
10 *372:B1 *133:8 0
11 *372:B1 *163:12 6.85604e-05
12 *372:B1 *163:14 1.37292e-05
13 *372:A2 *372:B1 0
14 *498:A *371:B 9.90431e-05
15 *128:12 *371:B 0
16 *128:12 *372:B1 0
*RES
1 *369:X *372:B1 32.5821 
2 *372:B1 *371:B 35.3321 
*END

*D_NET *131 0.00236049
*CONN
*I *492:A I *D sky130_fd_sc_hd__buf_6
*I *375:A I *D sky130_fd_sc_hd__nand3_4
*I *370:Y O *D sky130_fd_sc_hd__o211ai_4
*CAP
1 *492:A 8.5527e-05
2 *375:A 0
3 *370:Y 0.000377348
4 *131:8 0.000462875
5 *492:A *373:B 0.000177941
6 *492:A *404:C 0.000167691
7 *131:8 *368:A2 0.000187733
8 *131:8 *373:B 0.000202128
9 *131:8 *404:C 0.00020042
10 *131:8 *445:A 0.000148903
11 *131:8 *161:10 0.000219741
12 *368:B2 *131:8 0
13 *127:8 *131:8 0
14 *128:12 *131:8 6.76272e-05
15 *129:10 *131:8 6.25515e-05
*RES
1 *370:Y *131:8 24.2464 
2 *131:8 *375:A 13.8 
3 *131:8 *492:A 16.5857 
*END

*D_NET *132 0.000171741
*CONN
*I *404:D I *D sky130_fd_sc_hd__nand4_4
*I *371:Y O *D sky130_fd_sc_hd__nor2_2
*CAP
1 *404:D 3.53903e-05
2 *371:Y 3.53903e-05
3 *404:D *404:C 0.00010096
*RES
1 *371:Y *404:D 19.5464 
*END

*D_NET *133 0.00149057
*CONN
*I *377:A I *D sky130_fd_sc_hd__nand4_4
*I *378:A2 I *D sky130_fd_sc_hd__a221o_2
*I *372:Y O *D sky130_fd_sc_hd__o22ai_4
*CAP
1 *377:A 0.000319938
2 *378:A2 8.3637e-06
3 *372:Y 0.000324048
4 *133:8 0.00065235
5 *377:A *379:B 8.39e-05
6 *377:A *487:A 0
7 *378:A2 *378:A1 1.46576e-05
8 *133:8 *372:B2 0
9 *340:B1_N *133:8 0
10 *371:B *133:8 0
11 *372:A2 *133:8 3.40128e-05
12 *372:B1 *133:8 0
13 *375:C *133:8 0
14 *376:B1 *377:A 0
15 *377:B *377:A 5.33005e-05
16 *378:B2 *377:A 0
17 *106:14 *133:8 0
*RES
1 *372:Y *133:8 19.3893 
2 *133:8 *378:A2 13.9473 
3 *133:8 *377:A 19.7821 
*END

*D_NET *134 0.00117367
*CONN
*I *402:A2 I *D sky130_fd_sc_hd__a22oi_2
*I *373:Y O *D sky130_fd_sc_hd__nor2_2
*CAP
1 *402:A2 0.00021122
2 *373:Y 0.00021122
3 *402:A2 *373:B 1.78353e-05
4 *402:A2 *374:B 0
5 *402:A2 *404:C 0.000328512
6 *374:A *402:A2 0.000320738
7 *374:C *402:A2 2.89114e-05
8 *375:B *402:A2 5.52302e-05
*RES
1 *373:Y *402:A2 34.1714 
*END

*D_NET *135 0.00407113
*CONN
*I *403:A I *D sky130_fd_sc_hd__and3_2
*I *425:A1 I *D sky130_fd_sc_hd__o211ai_2
*I *435:A2 I *D sky130_fd_sc_hd__o211ai_2
*I *374:X O *D sky130_fd_sc_hd__and3_4
*CAP
1 *403:A 0.000148042
2 *425:A1 0.000184072
3 *435:A2 0.000215884
4 *374:X 0.000990955
5 *135:10 0.00124287
6 *403:A *374:B 0
7 *403:A *402:A1 9.15186e-06
8 *403:A *138:18 1.92905e-05
9 *435:A2 *423:A2 1.17968e-05
10 *135:10 *426:A2 2.89016e-05
11 *135:10 *138:18 6.70443e-05
12 *135:10 *138:22 4.43256e-05
13 *403:B *403:A 4.20435e-05
14 *405:A2 *403:A 0
15 *425:B1 *135:10 0.000311121
16 *426:A1 *135:10 0.000357048
17 *426:B1 *135:10 5.72899e-05
18 *426:C1 *435:A2 0.000148911
19 *435:B1 *435:A2 9.58181e-05
20 *435:C1 *135:10 1.40131e-05
21 *436:C1 *435:A2 2.59355e-05
22 *51:10 *435:A2 5.66157e-05
*RES
1 *374:X *135:10 25.4429 
2 *135:10 *435:A2 18.2107 
3 *135:10 *425:A1 16.4964 
4 *374:X *403:A 30.3857 
*END

*D_NET *136 0.00122483
*CONN
*I *378:A1 I *D sky130_fd_sc_hd__a221o_2
*I *487:A I *D sky130_fd_sc_hd__buf_2
*I *375:Y O *D sky130_fd_sc_hd__nand3_4
*CAP
1 *378:A1 0.000216965
2 *487:A 0.00016274
3 *375:Y 0
4 *136:4 0.000379704
5 *487:A *373:B 0
6 *487:A *377:D 0.000177227
7 *487:A *379:B 0
8 *487:A *138:10 2.49484e-05
9 *375:C *487:A 3.34366e-05
10 *377:A *487:A 0
11 *378:A2 *378:A1 1.46576e-05
12 *378:C1 *378:A1 0
13 *102:28 *487:A 0.000215147
*RES
1 *375:Y *136:4 9.3 
2 *136:4 *487:A 23.5857 
3 *136:4 *378:A1 12.7286 
*END

*D_NET *137 0.000739301
*CONN
*I *377:D I *D sky130_fd_sc_hd__nand4_4
*I *376:X O *D sky130_fd_sc_hd__a31o_2
*CAP
1 *377:D 0.000113949
2 *376:X 0.000113949
3 *377:D *377:C 9.46482e-05
4 *377:D *138:10 0.000101545
5 *373:A *377:D 0.000137983
6 *487:A *377:D 0.000177227
*RES
1 *376:X *377:D 31.2071 
*END

*D_NET *138 0.00559461
*CONN
*I *379:A I *D sky130_fd_sc_hd__and2_4
*I *424:A I *D sky130_fd_sc_hd__nand2_4
*I *406:A1 I *D sky130_fd_sc_hd__o21a_2
*I *405:B1 I *D sky130_fd_sc_hd__o21ai_2
*I *426:A2 I *D sky130_fd_sc_hd__o2111ai_2
*I *436:A2 I *D sky130_fd_sc_hd__o211ai_2
*I *377:Y O *D sky130_fd_sc_hd__nand4_4
*CAP
1 *379:A 7.33697e-05
2 *424:A 0
3 *406:A1 0.00016124
4 *405:B1 0
5 *426:A2 0.000309112
6 *436:A2 0.000175055
7 *377:Y 0.000175883
8 *138:37 0.000309112
9 *138:35 0.000249203
10 *138:22 0.000332288
11 *138:18 0.000802255
12 *138:10 0.000982238
13 *379:A *379:B 6.74911e-05
14 *406:A1 *469:A 0
15 *436:A2 *401:B1 0
16 *138:10 *377:C 7.6644e-05
17 *138:10 *379:B 6.07232e-05
18 *373:A *138:18 5.91452e-05
19 *374:C *138:18 0.000690297
20 *377:D *138:10 0.000101545
21 *403:A *138:18 1.92905e-05
22 *405:A1 *406:A1 3.34366e-05
23 *405:A1 *138:35 0.000114759
24 *406:B1 *406:A1 6.43589e-05
25 *425:C1 *426:A2 5.48488e-05
26 *426:A1 *138:22 5.33005e-05
27 *426:B1 *426:A2 5.71472e-05
28 *427:A *406:A1 0
29 *427:A *426:A2 0.000148911
30 *427:A *138:35 0
31 *487:A *138:10 2.49484e-05
32 *33:19 *436:A2 0.000226021
33 *33:19 *138:35 3.17148e-05
34 *35:19 *436:A2 0
35 *135:10 *426:A2 2.89016e-05
36 *135:10 *138:18 6.70443e-05
37 *135:10 *138:22 4.43256e-05
*RES
1 *377:Y *138:10 17.3 
2 *138:10 *138:18 16.1607 
3 *138:18 *138:22 5.85714 
4 *138:22 *436:A2 17.6036 
5 *138:22 *138:35 1.94643 
6 *138:35 *138:37 4.5 
7 *138:37 *426:A2 24.1929 
8 *138:37 *405:B1 9.3 
9 *138:35 *406:A1 17.6214 
10 *138:18 *424:A 9.3 
11 *138:10 *379:A 15.4429 
*END

*D_NET *139 0.000986695
*CONN
*I *379:B I *D sky130_fd_sc_hd__and2_4
*I *378:X O *D sky130_fd_sc_hd__a221o_2
*CAP
1 *379:B 0.000296545
2 *378:X 0.000296545
3 *379:B *377:C 0.00015304
4 *376:A3 *379:B 2.84494e-05
5 *376:B1 *379:B 0
6 *377:A *379:B 8.39e-05
7 *379:A *379:B 6.74911e-05
8 *487:A *379:B 0
9 *138:10 *379:B 6.07232e-05
*RES
1 *378:X *379:B 34.6357 
*END

*D_NET *140 0.00336286
*CONN
*I *384:A2 I *D sky130_fd_sc_hd__a21boi_2
*I *381:A I *D sky130_fd_sc_hd__nand2_2
*I *380:X O *D sky130_fd_sc_hd__o21a_4
*CAP
1 *384:A2 0.000516271
2 *381:A 0.000459156
3 *380:X 0.000100964
4 *140:10 0.00107639
5 *381:A *353:B1 0
6 *381:A *386:B1 0.000101545
7 *381:A *388:A2 1.81548e-05
8 *381:A *141:10 9.6778e-05
9 *381:A *160:18 0
10 *384:A2 *382:B1 2.12005e-05
11 *384:A2 *384:B1_N 0.000139202
12 *384:A2 *386:A1 7.09928e-05
13 *384:A2 *159:97 7.21968e-05
14 *384:A2 *159:140 3.08664e-05
15 *140:10 *353:B1 0
16 *140:10 *386:B1 2.41865e-05
17 *140:10 *388:A2 4.11482e-05
18 *140:10 *463:A 5.52238e-05
19 *140:10 *157:28 5.52238e-05
20 *140:10 *157:32 7.83174e-05
21 *140:10 *160:40 1.76135e-05
22 *336:B *384:A2 0
23 *381:B *381:A 5.52238e-05
24 *456:A *381:A 4.83648e-05
25 *489:A *381:A 0.000156207
26 *84:12 *381:A 0.000127629
*RES
1 *380:X *140:10 16.8893 
2 *140:10 *381:A 22.9964 
3 *140:10 *384:A2 22.1571 
*END

*D_NET *141 0.0027048
*CONN
*I *388:A2 I *D sky130_fd_sc_hd__a31o_4
*I *382:C1 I *D sky130_fd_sc_hd__o311ai_4
*I *381:Y O *D sky130_fd_sc_hd__nand2_2
*CAP
1 *388:A2 0.000505934
2 *382:C1 1.16062e-05
3 *381:Y 0.000237091
4 *141:10 0.000754632
5 *382:C1 *382:A3 5.52302e-05
6 *382:C1 *166:58 5.52302e-05
7 *388:A2 *382:B1 6.07964e-05
8 *388:A2 *386:B1 6.14594e-05
9 *388:A2 *447:A 1.64621e-05
10 *388:A2 *160:40 0.00017926
11 *141:10 *382:B1 3.4846e-06
12 *141:10 *143:8 0
13 *141:10 *160:18 0
14 *141:10 *193:14 5.52302e-05
15 *327:A2 *141:10 5.80858e-06
16 *381:A *388:A2 1.81548e-05
17 *381:A *141:10 9.6778e-05
18 *387:A1 *388:A2 0.000166093
19 *388:A1 *388:A2 5.65955e-05
20 *456:A *141:10 5.68722e-05
21 *19:24 *388:A2 0.000171126
22 *85:31 *388:A2 9.58126e-05
23 *140:10 *388:A2 4.11482e-05
*RES
1 *381:Y *141:10 18.7107 
2 *141:10 *382:C1 14.3357 
3 *141:10 *388:A2 25.1036 
*END

*D_NET *142 0.000526451
*CONN
*I *386:B1 I *D sky130_fd_sc_hd__o211ai_4
*I *382:Y O *D sky130_fd_sc_hd__o311ai_4
*CAP
1 *386:B1 0.000120621
2 *382:Y 0.000120621
3 *386:B1 *324:A2 9.80173e-05
4 *381:A *386:B1 0.000101545
5 *388:A2 *386:B1 6.14594e-05
6 *140:10 *386:B1 2.41865e-05
*RES
1 *382:Y *386:B1 30.1893 
*END

*D_NET *143 0.00319236
*CONN
*I *385:B1 I *D sky130_fd_sc_hd__o311a_4
*I *388:A3 I *D sky130_fd_sc_hd__a31o_4
*I *384:B1_N I *D sky130_fd_sc_hd__a21boi_2
*I *383:Y O *D sky130_fd_sc_hd__nand3_4
*CAP
1 *385:B1 6.24276e-05
2 *388:A3 1.69531e-05
3 *384:B1_N 3.35352e-05
4 *383:Y 0.00014089
5 *143:19 0.000399652
6 *143:8 0.000494696
7 *384:B1_N *386:A1 9.83388e-05
8 *384:B1_N *159:97 1.98839e-05
9 *385:B1 *147:23 0.000195126
10 *388:A3 *447:A 5.33005e-05
11 *143:8 *382:B1 6.44636e-05
12 *143:8 *160:18 0.000385724
13 *143:19 *382:B1 7.80714e-06
14 *143:19 *147:12 8.73535e-05
15 *143:19 *147:23 5.36422e-05
16 *143:19 *159:93 0.000378643
17 *143:19 *160:18 0.000137224
18 *327:A2 *143:8 0.000163065
19 *384:A2 *384:B1_N 0.000139202
20 *388:A1 *385:B1 0.000168824
21 *388:A1 *388:A3 5.33005e-05
22 *388:A1 *143:19 3.29297e-05
23 *410:B2 *143:19 0
24 *75:41 *385:B1 5.37741e-06
25 *141:10 *143:8 0
*RES
1 *383:Y *143:8 18.7821 
2 *143:8 *384:B1_N 15.1571 
3 *143:8 *143:19 7.71429 
4 *143:19 *388:A3 14.3357 
5 *143:19 *385:B1 16.3536 
*END

*D_NET *144 0.000475088
*CONN
*I *386:A1 I *D sky130_fd_sc_hd__o211ai_4
*I *384:Y O *D sky130_fd_sc_hd__a21boi_2
*CAP
1 *386:A1 3.86238e-05
2 *384:Y 3.86238e-05
3 *386:A1 *159:97 0.000228508
4 *384:A2 *386:A1 7.09928e-05
5 *384:B1_N *386:A1 9.83388e-05
*RES
1 *384:Y *386:A1 20.7786 
*END

*D_NET *145 0.00188689
*CONN
*I *392:A1 I *D sky130_fd_sc_hd__o211a_4
*I *415:B1 I *D sky130_fd_sc_hd__o2bb2ai_2
*I *393:A1 I *D sky130_fd_sc_hd__o211ai_4
*I *385:X O *D sky130_fd_sc_hd__o311a_4
*CAP
1 *392:A1 9.02664e-06
2 *415:B1 0.00020571
3 *393:A1 0
4 *385:X 0.00025328
5 *145:10 0.000449963
6 *392:A1 *146:24 3.08664e-05
7 *415:B1 *415:A2_N 2.15562e-05
8 *415:B1 *415:B2 8.50795e-06
9 *415:B1 *147:23 1.99099e-05
10 *415:B1 *147:36 6.07328e-05
11 *145:10 *147:23 0.000165061
12 *415:A1_N *392:A1 5.65955e-05
13 *415:A1_N *415:B1 3.1367e-05
14 *19:24 *415:B1 0
15 *44:10 *145:10 0
16 *72:46 *145:10 0.000140488
17 *75:41 *145:10 0.000166093
18 *85:16 *145:10 0.000267731
*RES
1 *385:X *145:10 20.7643 
2 *145:10 *393:A1 13.8 
3 *145:10 *415:B1 17.8536 
4 *415:B1 *392:A1 19.1357 
*END

*D_NET *146 0.00771858
*CONN
*I *393:C1 I *D sky130_fd_sc_hd__o211ai_4
*I *392:C1 I *D sky130_fd_sc_hd__o211a_4
*I *482:A I *D sky130_fd_sc_hd__buf_2
*I *391:B1 I *D sky130_fd_sc_hd__a22o_4
*I *390:B2 I *D sky130_fd_sc_hd__a22oi_2
*I *386:Y O *D sky130_fd_sc_hd__o211ai_4
*CAP
1 *393:C1 0
2 *392:C1 9.56455e-05
3 *482:A 0.000391841
4 *391:B1 2.62874e-05
5 *390:B2 0
6 *386:Y 0.00062746
7 *146:39 0.000714967
8 *146:24 0.000563481
9 *146:18 0.000464764
10 *146:12 0.000729937
11 *392:C1 *392:A2 0
12 *482:A *415:A2_N 0.000816916
13 *482:A *443:A 8.95675e-06
14 *482:A *216:14 0.000181803
15 *482:A *219:10 3.99614e-06
16 *146:12 *326:B 0.000200406
17 *146:12 *327:C1 1.41029e-05
18 *146:12 *352:B 0.000242597
19 *146:12 *353:B1 0.000756212
20 *146:12 *362:A1 1.95368e-05
21 *146:12 *159:24 0.000269944
22 *146:12 *204:27 0.00022266
23 *146:24 *391:A2 5.80706e-06
24 *146:24 *415:A2_N 6.07626e-05
25 *146:24 *415:B2 2.84026e-05
26 *146:39 *391:A1 0.000180073
27 *146:39 *391:A2 2.26327e-05
28 *389:A *146:12 4.45753e-05
29 *391:B2 *146:39 4.7812e-05
30 *392:A1 *146:24 3.08664e-05
31 *393:B1 *146:12 5.52238e-05
32 *397:A1 *146:18 6.8646e-06
33 *397:A1 *146:39 0
34 *415:A1_N *392:C1 4.08637e-05
35 *415:A1_N *146:24 0.000159625
36 *417:B1 *482:A 0.000140933
37 *19:24 *146:18 6.16561e-05
38 *20:23 *146:18 0.000198698
39 *24:21 *391:B1 5.87659e-05
40 *24:21 *482:A 0.000115204
41 *46:10 *482:A 1.0945e-05
42 *47:14 *482:A 3.82242e-05
43 *74:38 *146:12 5.91336e-05
44 *114:10 *146:12 0
*RES
1 *386:Y *146:12 35.4786 
2 *146:12 *146:18 11.8571 
3 *146:18 *146:24 9.75 
4 *146:24 *390:B2 13.8 
5 *146:24 *146:39 13.1429 
6 *146:39 *391:B1 14.5321 
7 *146:39 *482:A 24.1036 
8 *146:18 *392:C1 10.9786 
9 *146:12 *393:C1 9.3 
*END

*D_NET *147 0.00402417
*CONN
*I *392:A2 I *D sky130_fd_sc_hd__o211a_4
*I *415:B2 I *D sky130_fd_sc_hd__o2bb2ai_2
*I *393:A2 I *D sky130_fd_sc_hd__o211ai_4
*I *388:B1 I *D sky130_fd_sc_hd__a31o_4
*I *387:X O *D sky130_fd_sc_hd__a31o_4
*CAP
1 *392:A2 0.000158573
2 *415:B2 5.18582e-05
3 *393:A2 0
4 *388:B1 0
5 *387:X 0.000214063
6 *147:36 0.000359147
7 *147:23 0.000597546
8 *147:12 0.000662893
9 *147:12 *182:42 0.000311887
10 *147:23 *447:A 1.35553e-05
11 *385:B1 *147:23 0.000195126
12 *387:A1 *147:12 0.000310326
13 *388:A1 *147:23 9.58632e-05
14 *392:C1 *392:A2 0
15 *415:A1_N *392:A2 0.000189063
16 *415:A1_N *415:B2 5.49489e-05
17 *415:A1_N *147:36 9.63157e-05
18 *415:B1 *415:B2 8.50795e-06
19 *415:B1 *147:23 1.99099e-05
20 *415:B1 *147:36 6.07328e-05
21 *19:24 *415:B2 1.31517e-05
22 *19:24 *147:23 0.000139293
23 *74:12 *147:23 7.03141e-05
24 *75:41 *147:23 4.16876e-06
25 *85:31 *147:23 6.24653e-05
26 *143:19 *147:12 8.73535e-05
27 *143:19 *147:23 5.36422e-05
28 *145:10 *147:23 0.000165061
29 *146:24 *415:B2 2.84026e-05
*RES
1 *387:X *147:12 23.8536 
2 *147:12 *388:B1 9.3 
3 *147:12 *147:23 13.875 
4 *147:23 *393:A2 13.8 
5 *147:23 *147:36 7.08929 
6 *147:36 *415:B2 19.5679 
7 *147:36 *392:A2 11.8 
*END

*D_NET *148 0.0118378
*CONN
*I *310:A I *D sky130_fd_sc_hd__inv_4
*I *324:A2 I *D sky130_fd_sc_hd__o21a_2
*I *383:C I *D sky130_fd_sc_hd__nand3_4
*I *483:A I *D sky130_fd_sc_hd__buf_2
*I *514:X O *D sky130_fd_sc_hd__buf_6
*CAP
1 *310:A 0.00038404
2 *324:A2 0.00138681
3 *383:C 0.00017505
4 *483:A 0.0003523
5 *514:X 0.000284061
6 *148:33 0.00202693
7 *148:27 0.00111065
8 *148:14 0.000897908
9 *310:A *308:A 0.000221129
10 *310:A *164:24 0.000208072
11 *310:A *171:40 9.01583e-05
12 *310:A *204:27 2.85957e-05
13 *324:A2 *314:A2 5.52302e-05
14 *324:A2 *322:B 5.03772e-05
15 *324:A2 *354:A2 2.89016e-05
16 *324:A2 *382:A3 0.000483404
17 *324:A2 *510:A 0.000193814
18 *324:A2 *166:58 7.56746e-05
19 *324:A2 *170:16 0.000154354
20 *324:A2 *170:27 5.03772e-05
21 *324:A2 *172:35 0.00012401
22 *324:A2 *172:72 9.25014e-06
23 *324:A2 *186:16 0.000181796
24 *383:C *383:A 1.98839e-05
25 *383:C *383:B 5.49544e-05
26 *383:C *384:A1 0.000107503
27 *483:A *448:A 9.84673e-05
28 *148:14 *412:B1 0.000143939
29 *148:14 *449:A 7.60339e-05
30 *148:14 *166:8 5.74309e-05
31 *148:27 *447:A 9.17228e-05
32 *148:27 *501:A 5.33005e-05
33 *148:33 *382:A1 3.18676e-05
34 *148:33 *384:A1 9.57064e-05
35 *148:33 *501:A 7.99425e-05
36 *148:33 *160:18 0
37 *148:33 *164:24 0.000100248
38 *148:33 *166:58 3.69047e-06
39 *148:33 *171:27 0
40 *148:33 *171:40 2.37944e-05
41 *327:A2 *324:A2 9.18347e-05
42 *382:A2 *383:C 0.000147588
43 *386:B1 *324:A2 9.80173e-05
44 *410:B2 *148:33 4.84853e-05
45 *416:B1 *310:A 0.000222666
46 *24:6 *310:A 5.49544e-05
47 *40:16 *310:A 0.000183357
48 *40:16 *148:33 0.000170755
49 *40:22 *310:A 5.76278e-05
50 *46:10 *310:A 4.27437e-05
51 *69:12 *148:33 0.000342488
52 *70:75 *324:A2 6.42338e-05
53 *72:10 *310:A 0.000241668
54 *84:39 *324:A2 0.0001399
55 *85:16 *148:14 0.000289204
56 *90:20 *324:A2 3.08694e-05
*RES
1 *514:X *148:14 24.5679 
2 *148:14 *483:A 14.3714 
3 *148:14 *148:27 8.73214 
4 *148:27 *148:33 15.1964 
5 *148:33 *383:C 22.2286 
6 *148:33 *324:A2 43.8893 
7 *148:27 *310:A 25.1929 
*END

*D_NET *149 0.00908326
*CONN
*I *331:B I *D sky130_fd_sc_hd__nand3_2
*I *367:A1 I *D sky130_fd_sc_hd__a22oi_2
*I *368:A1 I *D sky130_fd_sc_hd__a22o_2
*I *312:A I *D sky130_fd_sc_hd__and2_2
*I *316:B1 I *D sky130_fd_sc_hd__a211o_4
*I *306:A I *D sky130_fd_sc_hd__inv_4
*I *324:B1 I *D sky130_fd_sc_hd__o21a_2
*I *452:X O *D sky130_fd_sc_hd__dlymetal6s2s_1
*CAP
1 *331:B 0
2 *367:A1 2.23854e-05
3 *368:A1 0.000365935
4 *312:A 5.74343e-05
5 *316:B1 0.00018749
6 *306:A 0
7 *324:B1 0.000600043
8 *452:X 0.00028345
9 *149:72 0.00117885
10 *149:40 0.000244924
11 *149:16 0.000694876
12 *149:14 0.000348336
13 *149:10 0.00104403
14 *149:8 0.00028345
15 *312:A *307:A 0.000139344
16 *316:B1 *307:A 0.000105278
17 *316:B1 *316:C1 9.41642e-05
18 *324:B1 *312:B 0
19 *324:B1 *316:C1 0
20 *324:B1 *324:A1 0.00014183
21 *324:B1 *325:B 7.83027e-05
22 *324:B1 *157:55 0.000152851
23 *324:B1 *172:33 5.52238e-05
24 *368:A1 *370:C1 1.24368e-05
25 *368:A1 *445:A 3.19626e-05
26 *149:8 *331:A 5.49995e-05
27 *149:14 *165:78 9.86588e-05
28 *149:14 *165:87 5.54817e-06
29 *149:72 *338:A3 6.63569e-05
30 *149:72 *496:A 0.00053196
31 *149:72 *506:A 0.000140206
32 *149:72 *165:87 6.50619e-05
33 *332:B1 *149:8 0
34 *341:B1_N *149:72 9.71197e-05
35 *342:C1 *149:72 6.72715e-05
36 *368:B1 *368:A1 0
37 *440:B1 *324:B1 1.57842e-05
38 *440:B1 *149:16 3.67279e-06
39 *478:A *368:A1 9.90367e-05
40 *485:A *367:A1 0
41 *485:A *368:A1 0.000120045
42 *485:A *149:72 0.000179796
43 *26:16 *368:A1 0.000105582
44 *78:12 *312:A 5.86374e-05
45 *78:12 *149:16 4.40513e-06
46 *90:26 *149:72 0
47 *94:10 *149:8 0.000204144
48 *100:8 *149:72 4.25716e-05
49 *106:14 *149:14 0.000198819
50 *106:14 *149:16 6.22576e-05
51 *106:14 *149:72 0.000738729
*RES
1 *452:X *149:8 14.7821 
2 *149:8 *149:10 4.5 
3 *149:10 *149:14 5.82143 
4 *149:14 *149:16 1.94643 
5 *149:16 *324:B1 25.6214 
6 *149:16 *306:A 13.8 
7 *149:14 *149:40 4.5 
8 *149:40 *316:B1 12.7286 
9 *149:40 *312:A 11.0857 
10 *149:10 *149:72 25.5357 
11 *149:72 *368:A1 25.6571 
12 *149:72 *367:A1 9.72857 
13 *149:8 *331:B 9.3 
*END

*D_NET *150 0.000682715
*CONN
*I *464:A I *D sky130_fd_sc_hd__buf_6
*I *315:X O *D sky130_fd_sc_hd__or2_4
*CAP
1 *464:A 0.000329987
2 *315:X 0.000329987
3 *464:A *316:A1 0
4 *464:A *183:69 0
5 *315:B *464:A 2.27416e-05
*RES
1 *315:X *464:A 32.1357 
*END

*D_NET *151 0.00123347
*CONN
*I *465:A I *D sky130_fd_sc_hd__buf_6
*I *441:X O *D sky130_fd_sc_hd__xor2_2
*CAP
1 *465:A 0.000516758
2 *441:X 0.000516758
3 *465:A *307:A 6.18755e-05
4 *465:A *312:B 0.000138076
*RES
1 *441:X *465:A 37.7964 
*END

*D_NET *152 0.000334543
*CONN
*I *466:A I *D sky130_fd_sc_hd__buf_6
*I *350:X O *D sky130_fd_sc_hd__or2_4
*CAP
1 *466:A 0.000139425
2 *350:X 0.000139425
3 p[3] *466:A 5.56943e-05
*RES
1 *350:X *466:A 30.1893 
*END

*D_NET *153 0.000408144
*CONN
*I *467:A I *D sky130_fd_sc_hd__buf_6
*I *379:X O *D sky130_fd_sc_hd__and2_4
*CAP
1 *467:A 0.000204072
2 *379:X 0.000204072
*RES
1 *379:X *467:A 31.1 
*END

*D_NET *154 0.00029888
*CONN
*I *468:A I *D sky130_fd_sc_hd__clkbuf_2
*I *406:X O *D sky130_fd_sc_hd__o21a_2
*CAP
1 *468:A 4.63784e-05
2 *406:X 4.63784e-05
3 *468:A *406:A2 0.000105163
4 p[5] *468:A 0.00010096
*RES
1 *406:X *468:A 20.3679 
*END

*D_NET *155 0.000216212
*CONN
*I *469:A I *D sky130_fd_sc_hd__buf_6
*I *427:Y O *D sky130_fd_sc_hd__nand2_2
*CAP
1 *469:A 0.000108106
2 *427:Y 0.000108106
3 *406:A1 *469:A 0
*RES
1 *427:Y *469:A 29.5464 
*END

*D_NET *156 0.000350708
*CONN
*I *470:A I *D sky130_fd_sc_hd__buf_6
*I *439:Y O *D sky130_fd_sc_hd__nand2_2
*CAP
1 *470:A 0.000175354
2 *439:Y 0.000175354
3 p[7] *470:A 0
4 *419:B *470:A 0
*RES
1 *439:Y *470:A 30.4929 
*END

*D_NET *157 0.0124193
*CONN
*I *387:B1 I *D sky130_fd_sc_hd__a31o_4
*I *386:C1 I *D sky130_fd_sc_hd__o211ai_4
*I *363:A1 I *D sky130_fd_sc_hd__o221ai_4
*I *330:A2 I *D sky130_fd_sc_hd__o21ai_4
*I *513:A I *D sky130_fd_sc_hd__buf_6
*I *319:B1 I *D sky130_fd_sc_hd__a21oi_2
*I *501:A I *D sky130_fd_sc_hd__buf_2
*I *442:X O *D sky130_fd_sc_hd__buf_12
*CAP
1 *387:B1 0.000188012
2 *386:C1 0
3 *363:A1 0.0004624
4 *330:A2 0
5 *513:A 0
6 *319:B1 0.000276353
7 *501:A 0.000314537
8 *442:X 0.000411054
9 *157:80 0.000960119
10 *157:55 0.0011807
11 *157:38 0.00163737
12 *157:32 0.000757708
13 *157:28 0.000364203
14 *319:B1 *317:C 1.76039e-05
15 *319:B1 *165:25 0
16 *319:B1 *170:27 0.000182179
17 *319:B1 *183:25 0
18 *319:B1 *183:31 0
19 *363:A1 *329:A1 1.19813e-05
20 *363:A1 *329:B1 4.54098e-05
21 *363:A1 *168:22 0.000164361
22 *363:A1 *168:32 9.58689e-05
23 *387:B1 *353:B1 0.000108188
24 *387:B1 *160:40 0
25 *387:B1 *164:37 4.11486e-05
26 *387:B1 *182:42 4.55973e-05
27 *387:B1 *182:48 0.000120755
28 *387:B1 *182:83 8.02652e-05
29 *501:A *410:A2 8.08608e-06
30 *501:A *447:A 6.57032e-05
31 *501:A *159:45 6.22714e-05
32 *157:28 *463:A 6.58013e-05
33 *157:28 *160:18 9.359e-05
34 *157:28 *182:48 5.52238e-05
35 *157:32 *353:B1 9.24299e-05
36 *157:32 *160:40 0
37 *157:38 *326:A 0.0001827
38 *157:38 *326:B 6.86693e-05
39 *157:38 *183:25 0.000249157
40 *157:55 *316:A1 2.88517e-05
41 *157:55 *172:23 8.81471e-06
42 *157:55 *172:33 0.000484518
43 *157:80 *307:A 0.000177591
44 *157:80 *316:A1 5.88598e-05
45 *157:80 *329:B1 1.17516e-05
46 *157:80 *408:A1 5.33005e-05
47 *157:80 *440:A2 3.14003e-05
48 *157:80 *212:17 8.89675e-05
49 *324:B1 *157:55 0.000152851
50 *330:B1 *363:A1 0.000113843
51 *330:B1 *157:80 1.00887e-05
52 *344:B1 *157:80 0.000217361
53 *360:B1 *319:B1 7.80714e-06
54 *387:A1 *387:B1 0.000182592
55 *394:B1 *319:B1 0.000289571
56 *410:B1 *387:B1 0.000268551
57 *410:B2 *501:A 0.000165239
58 *440:A3 *157:80 0.000183928
59 *490:A *157:38 5.17614e-05
60 *40:16 *501:A 0.000195257
61 *69:25 *501:A 0.000182598
62 *69:25 *157:28 0.000159903
63 *83:27 *363:A1 1.21258e-05
64 *84:58 *157:38 1.02936e-05
65 *88:12 *157:38 5.52238e-05
66 *90:26 *157:55 4.25619e-05
67 *90:26 *157:80 0.000456381
68 *120:8 *157:38 2.95726e-05
69 *120:8 *157:55 1.15281e-05
70 *140:10 *157:28 5.52238e-05
71 *140:10 *157:32 7.83174e-05
72 *148:27 *501:A 5.33005e-05
73 *148:33 *501:A 7.99425e-05
*RES
1 *442:X *501:A 35.4036 
2 *442:X *157:28 17.2107 
3 *157:28 *157:32 6.75 
4 *157:32 *157:38 11.5536 
5 *157:38 *319:B1 25.1036 
6 *157:38 *157:55 14.2857 
7 *157:55 *513:A 13.8 
8 *157:55 *157:80 22.0536 
9 *157:80 *330:A2 13.8 
10 *157:80 *363:A1 20.2464 
11 *157:32 *386:C1 9.3 
12 *157:28 *387:B1 20.0679 
*END

*D_NET *158 0.00240662
*CONN
*I *460:A I *D sky130_fd_sc_hd__buf_6
*I *391:A2 I *D sky130_fd_sc_hd__a22o_4
*I *443:X O *D sky130_fd_sc_hd__dlymetal6s2s_1
*CAP
1 *460:A 0.000372705
2 *391:A2 9.81873e-05
3 *443:X 0
4 *158:4 0.000470893
5 *391:A2 *415:A2_N 0.000169579
6 *460:A *398:A 0.000400677
7 *460:A *401:A1 0
8 *460:A *445:A 0.000222861
9 *401:A2 *460:A 0.000468475
10 *26:16 *460:A 0
11 *28:8 *460:A 0.000174805
12 *146:24 *391:A2 5.80706e-06
13 *146:39 *391:A2 2.26327e-05
*RES
1 *443:X *158:4 9.3 
2 *158:4 *391:A2 20.55 
3 *158:4 *460:A 29.3357 
*END

*D_NET *159 0.0148399
*CONN
*I *382:B1 I *D sky130_fd_sc_hd__o311ai_4
*I *386:A2 I *D sky130_fd_sc_hd__o211ai_4
*I *334:B I *D sky130_fd_sc_hd__nor2_2
*I *335:B I *D sky130_fd_sc_hd__and2_2
*I *409:A2 I *D sky130_fd_sc_hd__o21bai_2
*I *390:A2 I *D sky130_fd_sc_hd__a22oi_2
*I *387:A2 I *D sky130_fd_sc_hd__a31o_4
*I *410:A2 I *D sky130_fd_sc_hd__a22oi_2
*I *407:B I *D sky130_fd_sc_hd__and2_2
*I *460:X O *D sky130_fd_sc_hd__buf_6
*CAP
1 *382:B1 0.000160876
2 *386:A2 0
3 *334:B 0.000225792
4 *335:B 0.000315172
5 *409:A2 6.80186e-05
6 *390:A2 4.62133e-05
7 *387:A2 0.000300176
8 *410:A2 0.000456429
9 *407:B 0.000169594
10 *460:X 0.00029253
11 *159:140 0.000181502
12 *159:110 0.000636085
13 *159:97 0.000643584
14 *159:93 0.000773292
15 *159:45 0.00096974
16 *159:24 0.00157327
17 *159:10 0.00125706
18 *334:B *166:10 8.56716e-05
19 *334:B *203:23 0.000241198
20 *387:A2 *182:36 2.84109e-05
21 *387:A2 *182:42 2.21958e-05
22 *390:A2 *401:A1 6.05161e-06
23 *407:B *308:A 7.77652e-05
24 *407:B *414:A2 0.000152861
25 *410:A2 *171:27 1.67561e-05
26 *410:A2 *171:40 3.67279e-06
27 *410:A2 *182:36 0.000436642
28 *159:10 *401:A1 0.000315887
29 *159:24 *411:A2 0.000113574
30 *159:97 *409:B1_N 5.33005e-05
31 *327:A2 *382:B1 4.13122e-06
32 *336:A *334:B 0.000265447
33 *336:B *334:B 5.41794e-05
34 *336:B *409:A2 5.33005e-05
35 *336:B *159:97 0.00010545
36 *384:A2 *382:B1 2.12005e-05
37 *384:A2 *159:97 7.21968e-05
38 *384:A2 *159:140 3.08664e-05
39 *384:B1_N *159:97 1.98839e-05
40 *386:A1 *159:97 0.000228508
41 *387:A1 *159:24 0.00020014
42 *387:A1 *159:93 9.58632e-05
43 *388:A2 *382:B1 6.07964e-05
44 *389:A *159:24 5.74309e-05
45 *396:A1 *159:24 0
46 *397:A1 *159:10 0.000168698
47 *397:A1 *159:24 0.000198698
48 *397:A2 *159:10 2.49484e-05
49 *397:A2 *159:24 4.46186e-06
50 *401:A2 *159:10 9.97744e-05
51 *410:B1 *387:A2 0.000120039
52 *410:B1 *159:93 9.58632e-05
53 *410:B2 *410:A2 2.50593e-05
54 *410:B2 *159:97 0.000314132
55 *414:A3 *159:24 0.000149468
56 *429:A1_N *409:A2 5.33005e-05
57 *430:A1 *335:B 0.00034127
58 *430:A1 *409:A2 9.41642e-05
59 *430:A1 *159:110 4.08637e-05
60 *430:A3 *335:B 0.000125731
61 *432:A *335:B 0.000127446
62 *501:A *410:A2 8.08608e-06
63 *501:A *159:45 6.22714e-05
64 *20:10 *159:24 5.03787e-05
65 *20:23 *159:24 7.44918e-05
66 *21:8 *390:A2 9.60875e-05
67 *26:16 *159:10 0.000200699
68 *26:18 *159:10 9.60939e-05
69 *40:16 *159:45 0.000151916
70 *40:22 *407:B 2.24718e-05
71 *44:10 *407:B 9.71197e-05
72 *44:10 *159:24 0.000129297
73 *44:10 *159:45 1.52978e-05
74 *72:10 *159:45 9.9854e-06
75 *75:33 *159:24 4.04683e-05
76 *75:35 *159:24 0.000108512
77 *75:41 *159:24 5.33005e-05
78 *97:19 *334:B 2.24646e-05
79 *141:10 *382:B1 3.4846e-06
80 *143:8 *382:B1 6.44636e-05
81 *143:19 *382:B1 7.80714e-06
82 *143:19 *159:93 0.000378643
83 *146:12 *159:24 0.000269944
*RES
1 *460:X *159:10 22.3 
2 *159:10 *159:24 22.875 
3 *159:24 *407:B 13.2821 
4 *159:24 *159:45 12.875 
5 *159:45 *410:A2 29.1036 
6 *159:45 *387:A2 14.9518 
7 *159:10 *390:A2 14.7464 
8 *387:A2 *159:93 24.2286 
9 *159:93 *159:97 10 
10 *159:97 *409:A2 11.0857 
11 *159:97 *159:110 1.375 
12 *159:110 *335:B 23.3536 
13 *159:110 *334:B 24.4786 
14 *159:93 *159:140 0.535714 
15 *159:140 *386:A2 9.3 
16 *159:140 *382:B1 21.6929 
*END

*D_NET *160 0.00862486
*CONN
*I *463:A I *D sky130_fd_sc_hd__buf_6
*I *391:A1 I *D sky130_fd_sc_hd__a22o_4
*I *390:A1 I *D sky130_fd_sc_hd__a22oi_2
*I *453:X O *D sky130_fd_sc_hd__clkbuf_2
*CAP
1 *463:A 0.000475304
2 *391:A1 0.000207407
3 *390:A1 0
4 *453:X 0.000789295
5 *160:40 0.00211254
6 *160:18 0.00316973
7 *463:A *380:A1 5.52302e-05
8 *463:A *182:48 4.16984e-05
9 *463:A *182:57 1.21258e-05
10 *160:18 *384:A1 0.000141729
11 *160:40 *182:48 3.18146e-05
12 *381:A *160:18 0
13 *387:B1 *160:40 0
14 *388:A2 *160:40 0.00017926
15 *390:B1 *391:A1 3.41517e-06
16 *391:B2 *391:A1 0.000142418
17 *397:A1 *160:40 0
18 *410:B2 *160:18 0
19 *453:A *160:18 0.000143375
20 *19:24 *391:A1 3.08664e-05
21 *19:24 *160:40 2.05629e-05
22 *21:8 *391:A1 2.59355e-05
23 *69:25 *463:A 7.11255e-05
24 *69:25 *160:18 3.57843e-05
25 *140:10 *463:A 5.52238e-05
26 *140:10 *160:40 1.76135e-05
27 *141:10 *160:18 0
28 *143:8 *160:18 0.000385724
29 *143:19 *160:18 0.000137224
30 *146:39 *391:A1 0.000180073
31 *148:33 *160:18 0
32 *157:28 *463:A 6.58013e-05
33 *157:28 *160:18 9.359e-05
34 *157:32 *160:40 0
*RES
1 *453:X *160:18 32.6571 
2 *160:18 *160:40 28.4985 
3 *160:40 *390:A1 9.3 
4 *160:40 *391:A1 13.9786 
5 *160:18 *463:A 16.0321 
*END

*D_NET *161 0.00332839
*CONN
*I *461:A I *D sky130_fd_sc_hd__buf_6
*I *368:A2 I *D sky130_fd_sc_hd__a22o_2
*I *367:A2 I *D sky130_fd_sc_hd__a22oi_2
*I *444:X O *D sky130_fd_sc_hd__buf_6
*CAP
1 *461:A 0.000121676
2 *368:A2 0.000311403
3 *367:A2 0
4 *444:X 0
5 *161:10 0.000591952
6 *161:4 0.000402225
7 *368:A2 *445:A 5.52238e-05
8 *368:A2 *163:12 0
9 *461:A *163:14 2.31791e-05
10 *461:A *163:18 0.000177234
11 *461:A *204:46 5.52238e-05
12 *161:10 *163:12 0
13 *161:10 *163:14 0
14 *161:10 *204:46 0.000227532
15 *351:B *161:10 0.000148196
16 *368:B1 *368:A2 4.88637e-05
17 *368:B2 *368:A2 0.000139907
18 *394:A1 *161:10 3.01343e-05
19 *394:A2 *161:10 5.52238e-05
20 *70:23 *461:A 0
21 *70:38 *461:A 2.14658e-05
22 *70:38 *161:10 7.77751e-05
23 *127:8 *161:10 0
24 *128:12 *368:A2 7.92975e-05
25 *129:10 *368:A2 0.000354407
26 *131:8 *368:A2 0.000187733
27 *131:8 *161:10 0.000219741
*RES
1 *444:X *161:4 9.3 
2 *161:4 *161:10 11.3571 
3 *161:10 *367:A2 13.8 
4 *161:10 *368:A2 21.983 
5 *161:4 *461:A 21.3893 
*END

*D_NET *162 0.00915129
*CONN
*I *506:A I *D sky130_fd_sc_hd__buf_2
*I *311:A I *D sky130_fd_sc_hd__inv_2
*I *365:A1 I *D sky130_fd_sc_hd__a311o_2
*I *363:B1 I *D sky130_fd_sc_hd__o221ai_4
*I *505:A I *D sky130_fd_sc_hd__buf_2
*I *461:X O *D sky130_fd_sc_hd__buf_6
*CAP
1 *506:A 0.000898197
2 *311:A 0.000474717
3 *365:A1 3.64675e-05
4 *363:B1 0
5 *505:A 0.000483422
6 *461:X 0.00103738
7 *162:16 0.000645485
8 *162:10 0.000443444
9 *162:6 0.000858809
10 *311:A *329:A2 7.57466e-05
11 *311:A *344:A2 3.67142e-05
12 *311:A *359:B1 7.09603e-05
13 *311:A *163:18 6.50619e-05
14 *311:A *165:66 0.000116356
15 *311:A *168:32 0.000509089
16 *505:A *362:A1 5.49995e-05
17 *505:A *365:A3 2.72055e-05
18 *506:A *342:A1 0.00014285
19 *506:A *496:A 5.74499e-06
20 *506:A *163:14 0
21 *506:A *168:22 0.00022117
22 *162:10 *363:A2 0.000140933
23 *162:10 *365:A3 2.59355e-05
24 *162:16 *365:A3 3.65621e-05
25 *337:A2 *506:A 4.35141e-05
26 *341:B1_N *506:A 5.03772e-05
27 *344:A3 *311:A 0.000223111
28 *351:A *506:A 8.13657e-05
29 *362:A2 *505:A 0.000245895
30 *363:B2 *505:A 0.000296484
31 *365:B1 *162:16 2.59355e-05
32 *372:A2 *506:A 5.9483e-05
33 *372:B1 *506:A 8.86717e-05
34 *479:A *365:A1 3.99614e-06
35 *479:A *162:10 5.01338e-05
36 *479:A *162:16 2.42516e-05
37 *507:A *162:16 0
38 *70:23 *311:A 0.000113075
39 *74:38 *162:10 4.08637e-05
40 *74:38 *162:16 0.000175892
41 *74:55 *162:10 0.000219711
42 *75:33 *505:A 5.68426e-05
43 *90:26 *506:A 0
44 *103:10 *506:A 0.000578695
45 *113:14 *505:A 5.51716e-05
46 *113:14 *162:16 0.000170378
47 *149:72 *506:A 0.000140206
*RES
1 *461:X *162:6 11.4786 
2 *162:6 *162:10 5.07143 
3 *162:10 *162:16 8.51786 
4 *162:16 *505:A 21.8 
5 *162:16 *363:B1 13.8 
6 *162:10 *365:A1 10.0321 
7 *162:6 *311:A 31.5143 
8 *461:X *506:A 47.2071 
*END

*D_NET *163 0.00721207
*CONN
*I *496:A I *D sky130_fd_sc_hd__buf_2
*I *444:A I *D sky130_fd_sc_hd__buf_6
*I *497:A I *D sky130_fd_sc_hd__buf_2
*I *359:B1 I *D sky130_fd_sc_hd__a31o_2
*I *445:X O *D sky130_fd_sc_hd__buf_6
*CAP
1 *496:A 0.000796922
2 *444:A 3.16789e-05
3 *497:A 0
4 *359:B1 0.000308539
5 *445:X 0.000292062
6 *163:18 0.000673018
7 *163:14 0.000654612
8 *163:12 0.00134744
9 *359:B1 *408:A1 2.56723e-05
10 *359:B1 *165:66 0.000219366
11 *359:B1 *168:32 2.4741e-05
12 *359:B1 *168:43 9.21958e-05
13 *359:B1 *168:45 1.99099e-05
14 *359:B1 *200:6 8.81837e-05
15 *444:A *204:46 0.000102207
16 *163:12 *369:C1 1.76135e-05
17 *163:14 *369:C1 5.10822e-05
18 *163:14 *168:22 0
19 *163:18 *329:A2 0.000166381
20 *163:18 *329:B1 0.000338009
21 *163:18 *165:66 0.000213716
22 *163:18 *168:22 0
23 *163:18 *172:72 3.29297e-05
24 *311:A *359:B1 7.09603e-05
25 *311:A *163:18 6.50619e-05
26 *344:A3 *359:B1 0
27 *351:B *163:14 0
28 *368:A2 *163:12 0
29 *372:B1 *163:12 6.85604e-05
30 *372:B1 *163:14 1.37292e-05
31 *461:A *163:14 2.31791e-05
32 *461:A *163:18 0.000177234
33 *506:A *496:A 5.74499e-06
34 *506:A *163:14 0
35 *70:12 *359:B1 0.000124012
36 *70:23 *163:18 0
37 *70:38 *444:A 0.000186669
38 *75:14 *359:B1 0.000335382
39 *82:10 *359:B1 0
40 *103:10 *496:A 0.000113295
41 *128:12 *163:12 0
42 *149:72 *496:A 0.00053196
43 *161:10 *163:12 0
44 *161:10 *163:14 0
*RES
1 *445:X *163:12 18.8536 
2 *163:12 *163:14 4.375 
3 *163:14 *163:18 14.3393 
4 *163:18 *359:B1 27.6929 
5 *163:18 *497:A 9.3 
6 *163:14 *444:A 15.5679 
7 *163:12 *496:A 24.5143 
*END

*D_NET *164 0.00692952
*CONN
*I *321:A I *D sky130_fd_sc_hd__and2_4
*I *484:A I *D sky130_fd_sc_hd__buf_4
*I *323:B I *D sky130_fd_sc_hd__nor2_2
*I *514:A I *D sky130_fd_sc_hd__buf_6
*I *446:X O *D sky130_fd_sc_hd__buf_6
*CAP
1 *321:A 0.000898096
2 *484:A 3.64069e-05
3 *323:B 0.000296355
4 *514:A 9.88272e-05
5 *446:X 0.000200733
6 *164:37 0.0017486
7 *164:24 0.00121235
8 *321:A *327:C1 1.12954e-05
9 *321:A *364:A1 3.76143e-05
10 *321:A *186:10 4.04683e-05
11 *323:B *171:27 6.68466e-05
12 *323:B *171:40 5.23735e-05
13 *323:B *182:36 3.15382e-05
14 *514:A *412:B1 0.000166992
15 *164:24 *171:40 0.000310579
16 *164:37 *182:36 6.92966e-06
17 *164:37 *186:10 3.06035e-05
18 *310:A *164:24 0.000208072
19 *356:C1 *321:A 0.000177591
20 *366:B *321:A 2.12733e-05
21 *387:B1 *164:37 4.11486e-05
22 *410:B1 *164:37 0.000860218
23 *412:A2 *514:A 0.000175892
24 *72:14 *514:A 9.84729e-05
25 *148:33 *164:24 0.000100248
*RES
1 *446:X *514:A 21.6179 
2 *446:X *164:24 22.3714 
3 *164:24 *323:B 13.5679 
4 *164:24 *164:37 10.8036 
5 *164:37 *484:A 10.0321 
6 *164:37 *321:A 20.0143 
*END

*D_NET *165 0.0110904
*CONN
*I *329:A2 I *D sky130_fd_sc_hd__o21a_2
*I *338:A3 I *D sky130_fd_sc_hd__o311ai_2
*I *337:A3 I *D sky130_fd_sc_hd__o311a_4
*I *331:C I *D sky130_fd_sc_hd__nand3_2
*I *359:A3 I *D sky130_fd_sc_hd__a31o_2
*I *354:A2 I *D sky130_fd_sc_hd__o21a_4
*I *357:C I *D sky130_fd_sc_hd__and3_2
*I *356:A3 I *D sky130_fd_sc_hd__o311ai_4
*I *447:X O *D sky130_fd_sc_hd__buf_6
*CAP
1 *329:A2 7.78868e-05
2 *338:A3 8.45959e-05
3 *337:A3 5.94016e-05
4 *331:C 0
5 *359:A3 2.3932e-05
6 *354:A2 1.40568e-05
7 *357:C 0.00115673
8 *356:A3 9.60199e-05
9 *447:X 2.86946e-05
10 *165:87 0.000219444
11 *165:78 0.000329659
12 *165:66 0.000639123
13 *165:25 0.00128037
14 *165:23 0.000370387
15 *165:19 0.000762002
16 *165:6 0.000342827
17 *337:A3 *337:A1 2.388e-05
18 *356:A3 *365:A3 0.000121717
19 *357:C *317:C 2.61337e-05
20 *357:C *357:A 0.000629409
21 *357:C *170:27 0.000105028
22 *359:A3 *359:A2 1.98839e-05
23 *359:A3 *172:23 6.05161e-06
24 *359:A3 *172:33 2.59355e-05
25 *165:19 *356:B1 3.69047e-06
26 *165:19 *408:A1 1.40034e-05
27 *165:23 *168:43 0.000329545
28 *165:23 *168:45 5.66157e-05
29 *165:23 *172:33 4.73656e-05
30 *165:25 *357:A 1.18064e-05
31 *165:25 *168:45 0.000195555
32 *165:25 *172:33 5.66157e-05
33 *165:66 *356:B1 3.2033e-05
34 *165:66 *172:72 1.03904e-05
35 *165:66 *200:6 8.43535e-06
36 *165:78 *343:A3 0.000178403
37 *165:78 *212:6 0.000310611
38 *311:A *329:A2 7.57466e-05
39 *311:A *165:66 0.000116356
40 *319:B1 *165:25 0
41 *320:A2 *357:C 0.000148196
42 *320:B1 *357:C 0.000153047
43 *324:A2 *354:A2 2.89016e-05
44 *330:A1 *165:78 9.41642e-05
45 *330:B1 *165:78 0.000180207
46 *337:B1 *337:A3 5.33005e-05
47 *359:B1 *165:66 0.000219366
48 *364:B1 *165:19 9.67754e-05
49 *365:B1 *356:A3 6.97936e-06
50 *366:A *165:19 9.58632e-05
51 *394:B1 *165:23 0
52 *394:B1 *165:25 0
53 *456:A *357:C 0
54 *508:A *165:78 4.82354e-05
55 *69:25 *356:A3 1.6815e-05
56 *71:10 *337:A3 4.58194e-05
57 *75:14 *165:23 7.14533e-05
58 *83:10 *165:23 0.000220219
59 *85:55 *165:19 4.62334e-05
60 *85:66 *165:78 0.000215297
61 *90:20 *354:A2 5.52238e-05
62 *90:26 *338:A3 1.31516e-05
63 *90:26 *165:78 1.81413e-05
64 *92:8 *338:A3 2.24646e-05
65 *92:8 *165:78 0.000147784
66 *92:8 *165:87 0.000187619
67 *92:27 *338:A3 0.000148911
68 *113:8 *165:6 2.85234e-05
69 *113:8 *165:19 2.85321e-05
70 *113:14 *356:A3 0.000193141
71 *149:14 *165:78 9.86588e-05
72 *149:14 *165:87 5.54817e-06
73 *149:72 *338:A3 6.63569e-05
74 *149:72 *165:87 6.50619e-05
75 *163:18 *329:A2 0.000166381
76 *163:18 *165:66 0.000213716
*RES
1 *447:X *165:6 9.83571 
2 *165:6 *356:A3 21.4607 
3 *165:6 *165:19 3.82143 
4 *165:19 *165:23 11.3036 
5 *165:23 *165:25 2.85714 
6 *165:25 *357:C 41.1393 
7 *165:25 *354:A2 14.3357 
8 *165:23 *359:A3 14.3357 
9 *165:19 *165:66 11.0714 
10 *165:66 *165:78 17.9821 
11 *165:78 *331:C 13.8 
12 *165:78 *165:87 2.55357 
13 *165:87 *337:A3 15.175 
14 *165:87 *338:A3 16.3536 
15 *165:66 *329:A2 16.05 
*END

*D_NET *166 0.00576923
*CONN
*I *322:B I *D sky130_fd_sc_hd__nand2_8
*I *495:A I *D sky130_fd_sc_hd__buf_2
*I *380:A1 I *D sky130_fd_sc_hd__o21a_4
*I *382:A1 I *D sky130_fd_sc_hd__o311ai_4
*I *323:A I *D sky130_fd_sc_hd__nor2_2
*I *305:A I *D sky130_fd_sc_hd__inv_8
*I *494:A I *D sky130_fd_sc_hd__buf_2
*I *448:X O *D sky130_fd_sc_hd__buf_12
*CAP
1 *322:B 4.38378e-05
2 *495:A 0.00011518
3 *380:A1 1.16062e-05
4 *382:A1 0.000689982
5 *323:A 0
6 *305:A 0.000146576
7 *494:A 6.64291e-05
8 *448:X 6.76357e-05
9 *166:62 0.000356532
10 *166:58 0.000893277
11 *166:10 0.000414518
12 *166:8 0.000339438
13 *494:A *383:A 4.48113e-05
14 *494:A *182:10 9.56968e-05
15 *494:A *203:23 2.42082e-05
16 *495:A *352:B 8.08608e-06
17 *495:A *169:8 0
18 *495:A *186:10 0.000158825
19 *166:8 *449:A 9.84016e-05
20 *166:8 *182:122 2.19919e-05
21 *166:10 *449:A 5.54817e-06
22 *166:10 *182:10 0.000115082
23 *166:10 *182:21 7.05982e-05
24 *166:10 *182:32 0.000100369
25 *166:10 *182:122 2.69483e-05
26 *166:10 *203:23 7.44533e-05
27 *166:58 *322:A 0
28 *166:58 *382:A3 0.000227883
29 *166:58 *186:16 9.16173e-05
30 *166:62 *327:C1 1.3142e-05
31 *166:62 *169:8 0
32 *166:62 *186:10 3.51442e-05
33 *166:62 *186:16 0.000362545
34 *324:A2 *322:B 5.03772e-05
35 *324:A2 *166:58 7.56746e-05
36 *327:A2 *166:58 0.000180066
37 *334:B *166:10 8.56716e-05
38 *336:A *305:A 7.02611e-05
39 *336:B *166:10 5.41794e-05
40 *382:C1 *166:58 5.52302e-05
41 *463:A *380:A1 5.52302e-05
42 *69:25 *380:A1 5.52302e-05
43 *85:16 *166:8 4.67124e-05
44 *88:12 *166:62 7.83462e-05
45 *97:19 *166:10 0.000148903
46 *148:14 *166:8 5.74309e-05
47 *148:33 *382:A1 3.18676e-05
48 *148:33 *166:58 3.69047e-06
*RES
1 *448:X *166:8 16.3536 
2 *166:8 *166:10 7.71429 
3 *166:10 *494:A 16.05 
4 *166:10 *305:A 15.1571 
5 *166:8 *323:A 13.8 
6 *305:A *382:A1 19.9571 
7 *382:A1 *166:58 20.55 
8 *166:58 *166:62 9.78571 
9 *166:62 *380:A1 14.3357 
10 *166:62 *495:A 16.3536 
11 *166:58 *322:B 10.2464 
*END

*D_NET *167 0.00186601
*CONN
*I *448:A I *D sky130_fd_sc_hd__buf_12
*I *500:A I *D sky130_fd_sc_hd__buf_2
*I *449:X O *D sky130_fd_sc_hd__buf_8
*CAP
1 *448:A 0.000118571
2 *500:A 0.000210061
3 *449:X 3.68446e-05
4 *167:8 0.000365476
5 *448:A *203:23 9.95963e-05
6 *500:A *197:10 1.02504e-05
7 *500:A *197:19 0.000222878
8 *500:A *197:32 0.000191403
9 *500:A *203:23 0.000197299
10 *429:A1_N *500:A 0.00019484
11 *430:A2 *448:A 6.29506e-05
12 *430:A2 *500:A 5.73707e-05
13 *483:A *448:A 9.84673e-05
*RES
1 *449:X *167:8 14.3357 
2 *167:8 *500:A 21.2107 
3 *167:8 *448:A 17.3 
*END

*D_NET *168 0.0130965
*CONN
*I *509:A I *D sky130_fd_sc_hd__buf_2
*I *329:A1 I *D sky130_fd_sc_hd__o21a_2
*I *359:A1 I *D sky130_fd_sc_hd__a31o_2
*I *324:A1 I *D sky130_fd_sc_hd__o21a_2
*I *357:A I *D sky130_fd_sc_hd__and3_2
*I *354:A1 I *D sky130_fd_sc_hd__o21a_4
*I *510:A I *D sky130_fd_sc_hd__buf_2
*I *321:B I *D sky130_fd_sc_hd__and2_4
*I *450:X O *D sky130_fd_sc_hd__buf_8
*CAP
1 *509:A 0.000452488
2 *329:A1 1.08838e-05
3 *359:A1 0
4 *324:A1 0.000244022
5 *357:A 0.0011297
6 *354:A1 0
7 *510:A 9.37341e-05
8 *321:B 6.35394e-05
9 *450:X 5.40678e-05
10 *168:86 0.000244022
11 *168:47 9.37341e-05
12 *168:45 0.00129036
13 *168:43 0.000262424
14 *168:32 0.000510077
15 *168:22 0.00121959
16 *168:10 0.00137049
17 *324:A1 *172:33 0.00018796
18 *357:A *316:A1 9.47613e-05
19 *357:A *317:A_N 0.000136754
20 *357:A *193:14 0.000247216
21 *357:A *214:12 0
22 *509:A *210:14 0.00017227
23 *509:A *210:16 2.28598e-05
24 *509:A *213:10 5.33433e-05
25 *168:22 *338:B1 4.13595e-05
26 *168:22 *450:A 0.00018077
27 *168:22 *204:46 0.000139907
28 *311:A *168:32 0.000509089
29 *320:A2 *357:A 0.000146474
30 *324:A2 *510:A 0.000193814
31 *324:B1 *324:A1 0.00014183
32 *330:B1 *168:22 9.58632e-05
33 *332:A1 *168:22 3.67279e-06
34 *333:A2 *509:A 0
35 *337:A2 *168:22 0
36 *357:C *357:A 0.000629409
37 *359:B1 *168:32 2.4741e-05
38 *359:B1 *168:43 9.21958e-05
39 *359:B1 *168:45 1.99099e-05
40 *363:A1 *329:A1 1.19813e-05
41 *363:A1 *168:22 0.000164361
42 *363:A1 *168:32 9.58689e-05
43 *489:A *357:A 0
44 *506:A *168:22 0.00022117
45 *70:12 *168:32 0.000356963
46 *70:23 *168:32 0.000145662
47 *71:10 *168:22 0
48 *75:14 *168:43 0.000171105
49 *82:10 *357:A 0
50 *82:10 *168:45 0
51 *83:10 *321:B 2.79421e-05
52 *83:27 *168:22 0.000162322
53 *83:27 *168:32 4.84159e-05
54 *90:20 *510:A 0.000357952
55 *90:26 *168:22 0
56 *92:27 *168:22 4.05247e-05
57 *95:10 *509:A 0.000301824
58 *95:10 *168:10 0.000125731
59 *95:10 *168:22 5.52302e-05
60 *99:8 *168:10 4.25809e-05
61 *163:14 *168:22 0
62 *163:18 *168:22 0
63 *165:23 *168:43 0.000329545
64 *165:23 *168:45 5.66157e-05
65 *165:25 *357:A 1.18064e-05
66 *165:25 *168:45 0.000195555
*RES
1 *450:X *168:10 19.9429 
2 *168:10 *168:22 24.1964 
3 *168:22 *168:32 18.5179 
4 *168:32 *321:B 10.2464 
5 *168:32 *168:43 8.875 
6 *168:43 *168:45 3.16071 
7 *168:45 *168:47 4.5 
8 *168:47 *510:A 13.1393 
9 *168:47 *354:A1 9.3 
10 *168:45 *357:A 43.1393 
11 *168:43 *168:86 4.5 
12 *168:86 *324:A1 14.675 
13 *168:86 *359:A1 9.3 
14 *168:22 *329:A1 9.72857 
15 *168:10 *509:A 16.7464 
*END

*D_NET *169 0.00196256
*CONN
*I *352:A_N I *D sky130_fd_sc_hd__and2b_2
*I *481:A I *D sky130_fd_sc_hd__buf_4
*I *451:X O *D sky130_fd_sc_hd__buf_6
*CAP
1 *352:A_N 8.30019e-05
2 *481:A 0
3 *451:X 0.000532214
4 *169:8 0.000615216
5 *169:8 *327:C1 0
6 *169:8 *183:10 1.5942e-05
7 *169:8 *183:31 0
8 *358:B1 *169:8 0.000285464
9 *456:A *169:8 2.8266e-06
10 *495:A *169:8 0
11 *84:12 *169:8 0
12 *85:55 *352:A_N 9.15842e-06
13 *88:12 *169:8 0.000161702
14 *119:10 *352:A_N 7.70717e-05
15 *119:10 *169:8 0.000179968
16 *166:62 *169:8 0
*RES
1 *451:X *169:8 26.0679 
2 *169:8 *481:A 13.8 
3 *169:8 *352:A_N 15.7464 
*END

*D_NET *170 0.0120274
*CONN
*I *365:A3 I *D sky130_fd_sc_hd__a311o_2
*I *364:A1 I *D sky130_fd_sc_hd__a311oi_2
*I *319:A2 I *D sky130_fd_sc_hd__a21oi_2
*I *317:C I *D sky130_fd_sc_hd__and3b_2
*I *354:B1 I *D sky130_fd_sc_hd__o21a_4
*I *462:X O *D sky130_fd_sc_hd__buf_6
*CAP
1 *365:A3 0.000791469
2 *364:A1 0.000343778
3 *319:A2 0.000112546
4 *317:C 5.29989e-05
5 *354:B1 0
6 *462:X 0.00132093
7 *170:49 0.00116889
8 *170:27 0.000333339
9 *170:16 0.000405579
10 *170:10 0.00159235
11 *317:C *316:A1 7.86048e-05
12 *317:C *183:41 7.66879e-05
13 *319:A2 *316:A1 6.9276e-05
14 *319:A2 *183:41 0.000177383
15 *365:A3 *363:A2 6.09572e-05
16 *319:B1 *317:C 1.76039e-05
17 *319:B1 *170:27 0.000182179
18 *320:A2 *319:A2 0.000139907
19 *320:B1 *170:27 0.000153047
20 *321:A *364:A1 3.76143e-05
21 *324:A2 *170:16 0.000154354
22 *324:A2 *170:27 5.03772e-05
23 *355:A *365:A3 5.74309e-05
24 *355:A *170:16 9.52813e-05
25 *355:A *170:49 0.000100248
26 *355:B *365:A3 4.90023e-05
27 *355:B *170:16 0.000221006
28 *355:B *170:49 9.27562e-05
29 *356:A3 *365:A3 0.000121717
30 *356:C1 *364:A1 2.46609e-05
31 *357:C *317:C 2.61337e-05
32 *357:C *170:27 0.000105028
33 *360:A1 *170:16 3.34366e-05
34 *360:A2 *170:16 8.07879e-05
35 *366:A *364:A1 2.85234e-05
36 *366:B *364:A1 4.97967e-05
37 *394:B1 *364:A1 2.11693e-05
38 *479:A *365:A3 5.33005e-05
39 *505:A *365:A3 2.72055e-05
40 *507:A *365:A3 3.02963e-05
41 *69:12 *170:10 2.61099e-05
42 *69:25 *170:10 0.00167655
43 *75:33 *365:A3 0.000154211
44 *75:77 *365:A3 0
45 *83:10 *364:A1 0.000219627
46 *84:52 *170:16 0.000171375
47 *90:20 *170:16 0.000306317
48 *90:20 *170:27 8.46829e-05
49 *113:14 *365:A3 2.89932e-05
50 *115:21 *170:16 0.000187026
51 *115:30 *170:16 0.000139653
52 *117:10 *365:A3 4.13523e-05
53 *124:10 *365:A3 9.71197e-05
54 *127:8 *364:A1 0.000147784
55 *127:8 *365:A3 0.000146474
56 *162:10 *365:A3 2.59355e-05
57 *162:16 *365:A3 3.65621e-05
*RES
1 *462:X *170:10 31.9071 
2 *170:10 *170:16 13.3929 
3 *170:16 *354:B1 9.3 
4 *170:16 *170:27 10.125 
5 *170:27 *317:C 15.2732 
6 *170:27 *319:A2 17.2107 
7 *170:10 *170:49 1.33929 
8 *170:49 *364:A1 29.4786 
9 *170:49 *365:A3 37.7286 
*END

*D_NET *171 0.00630408
*CONN
*I *383:B I *D sky130_fd_sc_hd__nand3_4
*I *309:A I *D sky130_fd_sc_hd__inv_2
*I *414:A2 I *D sky130_fd_sc_hd__a31o_2
*I *407:A I *D sky130_fd_sc_hd__and2_2
*I *410:A1 I *D sky130_fd_sc_hd__a22oi_2
*I *462:A I *D sky130_fd_sc_hd__buf_6
*I *454:X O *D sky130_fd_sc_hd__clkbuf_2
*CAP
1 *383:B 0.00024043
2 *309:A 2.23854e-05
3 *414:A2 0.00011517
4 *407:A 0
5 *410:A1 0
6 *462:A 0
7 *454:X 0.000145185
8 *171:56 0.000391473
9 *171:40 0.00038633
10 *171:27 0.00043043
11 *171:12 0.000520387
12 *171:8 0.00063496
13 *383:B *383:A 0.000139215
14 *383:B *384:A1 0.000228314
15 *414:A2 *414:A1 2.24804e-05
16 *171:8 *182:10 5.62995e-05
17 *171:12 *384:A1 0
18 *171:12 *182:10 0.000530236
19 *171:12 *182:21 0.000148911
20 *171:12 *182:32 3.34366e-05
21 *171:27 *182:32 0.000166086
22 *171:27 *182:36 0.000182811
23 *171:27 *182:122 3.29297e-05
24 *171:40 *414:A1 9.8126e-05
25 *171:40 *182:36 4.77002e-05
26 *171:40 *205:8 0.000172877
27 *310:A *171:40 9.01583e-05
28 *323:B *171:27 6.68466e-05
29 *323:B *171:40 5.23735e-05
30 *336:A *171:12 0.000173804
31 *382:A2 *383:B 0.000229188
32 *383:C *383:B 5.49544e-05
33 *407:B *414:A2 0.000152861
34 *410:A2 *171:27 1.67561e-05
35 *410:A2 *171:40 3.67279e-06
36 *454:A *171:8 2.14658e-05
37 *455:A *171:8 5.52302e-05
38 *40:16 *414:A2 5.33005e-05
39 *40:22 *414:A2 0.000137639
40 *40:22 *171:40 1.6815e-05
41 *44:10 *414:A2 9.84673e-05
42 *69:12 *171:12 0
43 *69:12 *171:27 0
44 *148:33 *171:27 0
45 *148:33 *171:40 2.37944e-05
46 *164:24 *171:40 0.000310579
*RES
1 *454:X *171:8 12.3179 
2 *171:8 *171:12 14.0357 
3 *171:12 *462:A 13.8 
4 *171:12 *171:27 9.25 
5 *171:27 *410:A1 9.3 
6 *171:27 *171:40 17.0536 
7 *171:40 *407:A 9.3 
8 *171:40 *414:A2 12.6214 
9 *171:8 *171:56 2.17857 
10 *171:56 *309:A 9.72857 
11 *171:56 *383:B 24.8 
*END

*D_NET *172 0.01178
*CONN
*I *359:A2 I *D sky130_fd_sc_hd__a31o_2
*I *329:B1 I *D sky130_fd_sc_hd__o21a_2
*I *307:A I *D sky130_fd_sc_hd__inv_2
*I *316:A2 I *D sky130_fd_sc_hd__a211o_4
*I *314:A2 I *D sky130_fd_sc_hd__a211oi_2
*I *313:C1 I *D sky130_fd_sc_hd__o211a_4
*I *318:B I *D sky130_fd_sc_hd__nand2b_2
*I *357:B I *D sky130_fd_sc_hd__and3_2
*I *463:X O *D sky130_fd_sc_hd__buf_6
*CAP
1 *359:A2 4.43007e-05
2 *329:B1 0.000203395
3 *307:A 0.000765758
4 *316:A2 0
5 *314:A2 3.04486e-05
6 *313:C1 0.000165253
7 *318:B 0.000166146
8 *357:B 0.000614018
9 *463:X 3.44018e-05
10 *172:76 0.000821279
11 *172:72 0.00054883
12 *172:37 0.000436774
13 *172:35 0.000200716
14 *172:33 0.000518754
15 *172:23 0.000601037
16 *172:8 0.00104121
17 *307:A *312:B 5.50052e-05
18 *307:A *316:C1 9.41642e-05
19 *307:A *331:A 0
20 *307:A *408:A1 2.38501e-05
21 *307:A *471:A 9.84729e-05
22 *313:C1 *313:A1 0.000215623
23 *318:B *316:A1 4.01768e-05
24 *318:B *317:A_N 0
25 *318:B *183:54 9.90367e-05
26 *357:B *316:A1 2.27416e-05
27 *357:B *183:10 4.58192e-05
28 *357:B *183:25 0
29 *357:B *193:14 3.48705e-05
30 *172:8 *183:10 4.98872e-05
31 *172:23 *183:25 1.21258e-05
32 *172:37 *316:A1 0
33 *172:72 *344:A2 0.00014852
34 *172:76 *408:A1 7.62323e-05
35 *312:A *307:A 0.000139344
36 *313:A2 *172:35 2.8266e-06
37 *313:A2 *172:37 7.26935e-05
38 *316:B1 *307:A 0.000105278
39 *320:A1 *318:B 0
40 *324:A1 *172:33 0.00018796
41 *324:A2 *314:A2 5.52302e-05
42 *324:A2 *172:35 0.00012401
43 *324:A2 *172:72 9.25014e-06
44 *324:B1 *172:33 5.52238e-05
45 *344:A1 *172:72 4.12167e-05
46 *355:B *357:B 2.31791e-05
47 *355:B *172:8 0.00010326
48 *358:B1 *357:B 0.000622529
49 *359:A3 *359:A2 1.98839e-05
50 *359:A3 *172:23 6.05161e-06
51 *359:A3 *172:33 2.59355e-05
52 *360:A2 *357:B 0.00027338
53 *363:A1 *329:B1 4.54098e-05
54 *394:B1 *172:33 0
55 *465:A *307:A 6.18755e-05
56 *490:A *172:23 1.54142e-05
57 *70:73 *172:72 8.71271e-05
58 *70:75 *172:35 4.038e-06
59 *70:75 *172:72 7.67315e-05
60 *82:10 *318:B 1.76135e-05
61 *82:10 *172:35 6.9253e-05
62 *82:10 *172:37 0.000113877
63 *82:10 *172:72 0.000116193
64 *84:52 *357:B 0.00016384
65 *84:58 *172:23 0.00018077
66 *87:10 *307:A 0.000102517
67 *90:20 *314:A2 5.33433e-05
68 *94:10 *307:A 0.000247157
69 *120:8 *172:23 0.00018077
70 *157:55 *172:23 8.81471e-06
71 *157:55 *172:33 0.000484518
72 *157:80 *307:A 0.000177591
73 *157:80 *329:B1 1.17516e-05
74 *163:18 *329:B1 0.000338009
75 *163:18 *172:72 3.29297e-05
76 *165:23 *172:33 4.73656e-05
77 *165:25 *172:33 5.66157e-05
78 *165:66 *172:72 1.03904e-05
*RES
1 *463:X *172:8 15.1393 
2 *172:8 *357:B 26.675 
3 *172:8 *172:23 9.55357 
4 *172:23 *172:33 19.4821 
5 *172:33 *172:35 1.94643 
6 *172:35 *172:37 2.85714 
7 *172:37 *318:B 16.9964 
8 *172:37 *313:C1 17.3536 
9 *172:35 *314:A2 14.7464 
10 *172:33 *172:72 8.01786 
11 *172:72 *172:76 5.85714 
12 *172:76 *316:A2 9.3 
13 *172:76 *307:A 34.4607 
14 *172:72 *329:B1 18.4786 
15 *172:23 *359:A2 9.83571 
*END

*D_NET *173 0.00232701
*CONN
*I *421:A2 I *D sky130_fd_sc_hd__a31o_4
*I *399:B I *D sky130_fd_sc_hd__and3_2
*I *472:X O *D sky130_fd_sc_hd__buf_2
*CAP
1 *421:A2 0.000127383
2 *399:B 0
3 *472:X 0.000630055
4 *173:10 0.000757437
5 *421:A2 *421:A1 0.000150618
6 *173:10 *423:A2 0.000185401
7 *399:C *173:10 2.15245e-05
8 *404:B *173:10 1.24368e-05
9 *420:C1 *173:10 5.16779e-05
10 *421:A3 *421:A2 0
11 *472:A *173:10 9.53441e-05
12 *504:A *173:10 5.20669e-05
13 *22:17 *173:10 0.000103157
14 *31:6 *173:10 0.000139907
15 *46:10 *421:A2 0
16 *46:23 *421:A2 0
*RES
1 *472:X *173:10 21.3714 
2 *173:10 *399:B 9.3 
3 *173:10 *421:A2 20.7821 
*END

*D_NET *174 0.00152703
*CONN
*I *398:A I *D sky130_fd_sc_hd__nand2_2
*I *473:X O *D sky130_fd_sc_hd__buf_6
*CAP
1 *398:A 0.000265171
2 *473:X 0.000265171
3 *398:A *415:A2_N 0.0001826
4 *398:A *445:A 0.000231408
5 *401:A2 *398:A 0.000182003
6 *460:A *398:A 0.000400677
*RES
1 *473:X *398:A 36.1536 
*END

*D_NET *175 0.000743437
*CONN
*I *406:A2 I *D sky130_fd_sc_hd__o21a_2
*I *474:X O *D sky130_fd_sc_hd__buf_2
*CAP
1 *406:A2 0.000286915
2 *474:X 0.000286915
3 p[5] *406:A2 6.4443e-05
4 *406:B1 *406:A2 0
5 *468:A *406:A2 0.000105163
*RES
1 *474:X *406:A2 32.7607 
*END

*D_NET *176 0.000299384
*CONN
*I *422:B1 I *D sky130_fd_sc_hd__o21ai_4
*I *475:X O *D sky130_fd_sc_hd__buf_2
*CAP
1 *422:B1 0.000146809
2 *475:X 0.000146809
3 *31:16 *422:B1 5.7661e-06
*RES
1 *475:X *422:B1 21.1 
*END

*D_NET *177 0.00189061
*CONN
*I *401:A1 I *D sky130_fd_sc_hd__o21a_4
*I *476:X O *D sky130_fd_sc_hd__buf_2
*CAP
1 *401:A1 0.000406556
2 *476:X 0.000406556
3 *390:A2 *401:A1 6.05161e-06
4 *397:A2 *401:A1 0.000128154
5 *401:A2 *401:A1 0.000130197
6 *460:A *401:A1 0
7 *21:8 *401:A1 1.56e-05
8 *31:12 *401:A1 0.000197991
9 *35:8 *401:A1 1.00375e-05
10 *65:14 *401:A1 0.000273583
11 *159:10 *401:A1 0.000315887
*RES
1 *476:X *401:A1 39.4929 
*END

*D_NET *178 0.000321367
*CONN
*I *396:B1 I *D sky130_fd_sc_hd__o21ai_2
*I *477:X O *D sky130_fd_sc_hd__buf_2
*CAP
1 *396:B1 0.000149313
2 *477:X 0.000149313
3 *396:A2 *396:B1 0
4 *507:A *396:B1 2.27416e-05
5 *26:16 *396:B1 0
*RES
1 *477:X *396:B1 30.0821 
*END

*D_NET *179 0.000967336
*CONN
*I *370:C1 I *D sky130_fd_sc_hd__o211ai_4
*I *478:X O *D sky130_fd_sc_hd__buf_6
*CAP
1 *370:C1 0.000214285
2 *478:X 0.000214285
3 *370:C1 *445:A 2.15245e-05
4 *368:A1 *370:C1 1.24368e-05
5 *369:A1 *370:C1 6.25963e-05
6 *369:A2 *370:C1 0.000259052
7 *370:A2 *370:C1 1.02504e-05
8 *370:B1 *370:C1 9.71197e-05
9 *26:16 *370:C1 7.57869e-05
10 *124:10 *370:C1 0
*RES
1 *478:X *370:C1 33.0821 
*END

*D_NET *180 0.000712341
*CONN
*I *363:A2 I *D sky130_fd_sc_hd__o221ai_4
*I *479:X O *D sky130_fd_sc_hd__buf_4
*CAP
1 *363:A2 0.000137921
2 *479:X 0.000137921
3 *365:A3 *363:A2 6.09572e-05
4 *479:A *363:A2 2.89114e-05
5 *74:55 *363:A2 0.000147913
6 *75:77 *363:A2 1.37292e-05
7 *83:27 *363:A2 3.31535e-05
8 *127:8 *363:A2 1.09026e-05
9 *162:10 *363:A2 0.000140933
*RES
1 *479:X *363:A2 31.5107 
*END

*D_NET *181 0.000988119
*CONN
*I *401:B1 I *D sky130_fd_sc_hd__o21a_4
*I *480:X O *D sky130_fd_sc_hd__buf_2
*CAP
1 *401:B1 0.000284638
2 *480:X 0.000284638
3 *401:A2 *401:B1 5.52302e-05
4 *436:A2 *401:B1 0
5 *436:C1 *401:B1 0.000276211
6 *33:10 *401:B1 0
7 *33:19 *401:B1 0
8 *35:8 *401:B1 6.97972e-05
9 *35:19 *401:B1 1.76039e-05
*RES
1 *480:X *401:B1 33.7786 
*END

*D_NET *182 0.0137501
*CONN
*I *308:A I *D sky130_fd_sc_hd__inv_2
*I *428:B I *D sky130_fd_sc_hd__and3_2
*I *387:A3 I *D sky130_fd_sc_hd__a31o_4
*I *411:A2 I *D sky130_fd_sc_hd__a21oi_2
*I *408:B1 I *D sky130_fd_sc_hd__o21ai_2
*I *352:B I *D sky130_fd_sc_hd__and2b_2
*I *326:B I *D sky130_fd_sc_hd__nand2_2
*I *380:B1 I *D sky130_fd_sc_hd__o21a_4
*I *429:B1 I *D sky130_fd_sc_hd__a2bb2o_2
*I *409:B1_N I *D sky130_fd_sc_hd__o21bai_2
*I *455:X O *D sky130_fd_sc_hd__buf_2
*CAP
1 *308:A 0.000365278
2 *428:B 0.000482157
3 *387:A3 2.0674e-05
4 *411:A2 0.000288389
5 *408:B1 7.77596e-05
6 *352:B 0.000356741
7 *326:B 0.000137667
8 *380:B1 0
9 *429:B1 4.00453e-05
10 *409:B1_N 1.69531e-05
11 *455:X 0.000272831
12 *182:122 0.00118906
13 *182:83 0.000470635
14 *182:57 0.00051364
15 *182:48 0.000144359
16 *182:42 0.000724299
17 *182:36 0.000730723
18 *182:32 0.000616604
19 *182:21 0.000157204
20 *182:10 0.00034733
21 *326:B *327:C1 0.000198698
22 *352:B *327:C1 0.000122284
23 *352:B *186:10 2.47319e-05
24 *411:A2 *353:B1 6.60835e-05
25 *428:B *428:A 5.15086e-05
26 *428:B *431:A1 1.84776e-05
27 *182:10 *383:A 0
28 *182:83 *353:B1 4.23387e-05
29 *182:122 *431:A1 4.53676e-05
30 *182:122 *447:A 0.000172285
31 *182:122 *215:10 0.00022848
32 *310:A *308:A 0.000221129
33 *323:B *182:36 3.15382e-05
34 *336:B *409:B1_N 5.33005e-05
35 *387:A1 *387:A3 3.41517e-06
36 *387:A1 *411:A2 0.00019306
37 *387:A1 *182:42 4.35597e-05
38 *387:A1 *182:83 1.2294e-05
39 *387:A2 *182:36 2.84109e-05
40 *387:A2 *182:42 2.21958e-05
41 *387:B1 *182:42 4.55973e-05
42 *387:B1 *182:48 0.000120755
43 *387:B1 *182:83 8.02652e-05
44 *389:A *411:A2 6.14514e-05
45 *389:B *411:A2 1.02301e-05
46 *407:B *308:A 7.77652e-05
47 *410:A2 *182:36 0.000436642
48 *410:B1 *411:A2 6.8255e-05
49 *410:B1 *182:36 5.273e-05
50 *410:B1 *182:42 1.23046e-05
51 *410:B1 *182:83 0.00012249
52 *410:B2 *182:36 5.33005e-05
53 *412:C1 *308:A 3.89621e-06
54 *412:C1 *428:B 1.43078e-05
55 *431:A2 *308:A 1.65169e-05
56 *431:A2 *428:B 1.16543e-05
57 *431:C1 *428:B 2.59355e-05
58 *463:A *182:48 4.16984e-05
59 *463:A *182:57 1.21258e-05
60 *494:A *182:10 9.56968e-05
61 *495:A *352:B 8.08608e-06
62 *40:22 *308:A 9.45048e-06
63 *44:10 *308:A 3.34687e-05
64 *46:10 *308:A 9.71197e-05
65 *57:8 *428:B 5.03772e-05
66 *69:25 *182:48 0.000178847
67 *69:25 *182:57 5.33005e-05
68 *72:10 *308:A 7.83659e-05
69 *75:33 *411:A2 2.12647e-05
70 *75:35 *411:A2 0.000164643
71 *85:16 *182:122 0.000381816
72 *85:31 *408:B1 0.000137561
73 *85:55 *352:B 2.29112e-05
74 *146:12 *326:B 0.000200406
75 *146:12 *352:B 0.000242597
76 *147:12 *182:42 0.000311887
77 *157:28 *182:48 5.52238e-05
78 *157:38 *326:B 6.86693e-05
79 *159:24 *411:A2 0.000113574
80 *159:97 *409:B1_N 5.33005e-05
81 *160:40 *182:48 3.18146e-05
82 *164:37 *182:36 6.92966e-06
83 *166:8 *182:122 2.19919e-05
84 *166:10 *182:10 0.000115082
85 *166:10 *182:21 7.05982e-05
86 *166:10 *182:32 0.000100369
87 *166:10 *182:122 2.69483e-05
88 *171:8 *182:10 5.62995e-05
89 *171:12 *182:10 0.000530236
90 *171:12 *182:21 0.000148911
91 *171:12 *182:32 3.34366e-05
92 *171:27 *182:32 0.000166086
93 *171:27 *182:36 0.000182811
94 *171:27 *182:122 3.29297e-05
95 *171:40 *182:36 4.77002e-05
*RES
1 *455:X *182:10 21.55 
2 *182:10 *409:B1_N 14.3357 
3 *182:10 *182:21 1.94643 
4 *182:21 *429:B1 14.3357 
5 *182:21 *182:32 2.55357 
6 *182:32 *182:36 10.7857 
7 *182:36 *182:42 11.2143 
8 *182:42 *182:48 7.91071 
9 *182:48 *380:B1 9.3 
10 *182:48 *182:57 5.03571 
11 *182:57 *326:B 17.7107 
12 *182:57 *352:B 20.5679 
13 *182:42 *182:83 2.85714 
14 *182:83 *408:B1 15.1571 
15 *182:83 *411:A2 21.5143 
16 *182:36 *387:A3 9.72857 
17 *182:32 *182:122 13.7857 
18 *182:122 *428:B 15.175 
19 *182:122 *308:A 24.6036 
*END

*D_NET *183 0.0123505
*CONN
*I *353:A1 I *D sky130_fd_sc_hd__o21a_2
*I *327:A1 I *D sky130_fd_sc_hd__o211ai_2
*I *319:A1 I *D sky130_fd_sc_hd__a21oi_2
*I *312:B I *D sky130_fd_sc_hd__and2_2
*I *314:A1 I *D sky130_fd_sc_hd__a211oi_2
*I *313:B1 I *D sky130_fd_sc_hd__o211a_4
*I *318:A_N I *D sky130_fd_sc_hd__nand2b_2
*I *317:B I *D sky130_fd_sc_hd__and3b_2
*I *326:A I *D sky130_fd_sc_hd__nand2_2
*I *481:X O *D sky130_fd_sc_hd__buf_4
*CAP
1 *353:A1 0.000400738
2 *327:A1 0.000768333
3 *319:A1 0
4 *312:B 0.000757154
5 *314:A1 0
6 *313:B1 0
7 *318:A_N 0
8 *317:B 9.57787e-05
9 *326:A 0.000102123
10 *481:X 0
11 *183:78 0.00084856
12 *183:69 0.000303748
13 *183:54 0.000426577
14 *183:41 0.000457095
15 *183:31 0.000305963
16 *183:25 0.00123184
17 *183:10 0.000536173
18 *183:6 0.000530164
19 *312:B *313:A1 5.80706e-06
20 *312:B *316:A1 2.49484e-05
21 *312:B *316:C1 0
22 *312:B *502:A 0.000142856
23 *312:B *206:8 8.71761e-05
24 *327:A1 *328:A1 0.000246955
25 *327:A1 *353:B1 1.34703e-05
26 *183:41 *316:A1 0.000339399
27 *183:54 *316:A1 8.2991e-05
28 *183:69 *316:A1 0.000255706
29 *183:78 *313:A1 7.83462e-05
30 *183:78 *316:A1 9.55563e-05
31 p[1] *183:69 1.24368e-05
32 *307:A *312:B 5.50052e-05
33 *314:C1 *312:B 0.000156357
34 *317:C *183:41 7.66879e-05
35 *318:B *183:54 9.90367e-05
36 *319:A2 *183:41 0.000177383
37 *319:B1 *183:25 0
38 *319:B1 *183:31 0
39 *320:A1 *183:54 5.71472e-05
40 *320:A2 *317:B 5.33005e-05
41 *320:A2 *183:41 6.71854e-05
42 *324:B1 *312:B 0
43 *327:A2 *327:A1 7.71751e-05
44 *327:B1 *327:A1 6.97409e-05
45 *353:A2 *353:A1 5.50052e-05
46 *355:B *353:A1 1.25924e-05
47 *355:B *183:10 7.24596e-05
48 *357:B *183:10 4.58192e-05
49 *357:B *183:25 0
50 *358:B1 *183:10 3.34366e-05
51 *360:A1 *327:A1 1.92789e-05
52 *360:A1 *183:25 0.000172375
53 *360:A2 *183:25 1.78447e-05
54 *360:B1 *183:25 0.000183384
55 *385:A1 *353:A1 0.000413549
56 *389:A *353:A1 0.000378123
57 *440:B1 *312:B 0.000195578
58 *464:A *183:69 0
59 *465:A *312:B 0.000138076
60 *78:12 *312:B 0.000126409
61 *84:58 *183:25 6.57032e-05
62 *90:26 *312:B 1.46624e-05
63 *106:14 *312:B 2.37944e-05
64 *115:21 *183:25 0.00017309
65 *119:10 *353:A1 0.00034312
66 *119:10 *183:10 0.000317513
67 *157:38 *326:A 0.0001827
68 *157:38 *183:25 0.000249157
69 *169:8 *183:10 1.5942e-05
70 *169:8 *183:31 0
71 *172:8 *183:10 4.98872e-05
72 *172:23 *183:25 1.21258e-05
*RES
1 *481:X *183:6 13.8 
2 *183:6 *183:10 9.48214 
3 *183:10 *326:A 11.4964 
4 *183:10 *183:25 12.8304 
5 *183:25 *183:31 6.83036 
6 *183:31 *183:41 5.94643 
7 *183:41 *317:B 10.675 
8 *183:41 *183:54 4.55357 
9 *183:54 *318:A_N 9.3 
10 *183:54 *183:69 9.48214 
11 *183:69 *313:B1 13.8 
12 *183:69 *183:78 2.55357 
13 *183:78 *314:A1 13.8 
14 *183:78 *312:B 38.3536 
15 *183:31 *319:A1 9.3 
16 *183:25 *327:A1 24.5321 
17 *183:6 *353:A1 25.6214 
*END

*D_NET *184 0.00382918
*CONN
*I *415:A2_N I *D sky130_fd_sc_hd__o2bb2ai_2
*I *482:X O *D sky130_fd_sc_hd__buf_2
*CAP
1 *415:A2_N 0.000574341
2 *482:X 0.000574341
3 *415:A2_N *443:A 2.50137e-05
4 *415:A2_N *445:A 8.42609e-05
5 *415:A2_N *219:10 0.000356015
6 *415:A2_N *219:31 0.000678696
7 *391:A2 *415:A2_N 0.000169579
8 *398:A *415:A2_N 0.0001826
9 *415:A1_N *415:A2_N 0.000143375
10 *415:B1 *415:A2_N 2.15562e-05
11 *418:A *415:A2_N 0.000141729
12 *482:A *415:A2_N 0.000816916
13 *19:24 *415:A2_N 0
14 *24:53 *415:A2_N 0
15 *146:24 *415:A2_N 6.07626e-05
*RES
1 *482:X *415:A2_N 46.0107 
*END

*D_NET *185 0.000786881
*CONN
*I *428:C I *D sky130_fd_sc_hd__and3_2
*I *412:A1 I *D sky130_fd_sc_hd__o211a_2
*I *483:X O *D sky130_fd_sc_hd__buf_2
*CAP
1 *428:C 0.000120345
2 *412:A1 3.36204e-05
3 *483:X 8.21443e-05
4 *185:8 0.00023611
5 *432:A *428:C 0.000124749
6 *432:A *185:8 0.000148376
7 *42:8 *412:A1 2.57194e-05
8 *57:8 *428:C 1.58163e-05
*RES
1 *483:X *185:8 15.7464 
2 *185:8 *412:A1 14.3313 
3 *185:8 *428:C 15.9786 
*END

*D_NET *186 0.00319604
*CONN
*I *380:A2 I *D sky130_fd_sc_hd__o21a_4
*I *322:A I *D sky130_fd_sc_hd__nand2_8
*I *382:A3 I *D sky130_fd_sc_hd__o311ai_4
*I *484:X O *D sky130_fd_sc_hd__buf_4
*CAP
1 *380:A2 0
2 *322:A 2.23854e-05
3 *382:A3 0.000125411
4 *484:X 0.000190554
5 *186:16 0.000298545
6 *186:10 0.000341302
7 *186:10 *327:C1 0.000163049
8 *186:16 *327:C1 0.000362545
9 *321:A *186:10 4.04683e-05
10 *324:A2 *382:A3 0.000483404
11 *324:A2 *186:16 0.000181796
12 *352:B *186:10 2.47319e-05
13 *382:C1 *382:A3 5.52302e-05
14 *495:A *186:10 0.000158825
15 *164:37 *186:10 3.06035e-05
16 *166:58 *322:A 0
17 *166:58 *382:A3 0.000227883
18 *166:58 *186:16 9.16173e-05
19 *166:62 *186:10 3.51442e-05
20 *166:62 *186:16 0.000362545
*RES
1 *484:X *186:10 18.5321 
2 *186:10 *186:16 10.9464 
3 *186:16 *382:A3 14.3714 
4 *186:16 *322:A 9.72857 
5 *186:10 *380:A2 13.8 
*END

*D_NET *187 0.000613817
*CONN
*I *369:C1 I *D sky130_fd_sc_hd__o211a_4
*I *485:X O *D sky130_fd_sc_hd__buf_6
*CAP
1 *369:C1 0.000143537
2 *485:X 0.000143537
3 *369:A2 *369:C1 0
4 *370:B1 *369:C1 2.28499e-05
5 *372:B1 *369:C1 0.000125731
6 *112:8 *369:C1 0.000109466
7 *163:12 *369:C1 1.76135e-05
8 *163:14 *369:C1 5.10822e-05
*RES
1 *485:X *369:C1 31.0286 
*END

*D_NET *188 0.00137862
*CONN
*I *373:B I *D sky130_fd_sc_hd__nor2_2
*I *371:A I *D sky130_fd_sc_hd__nor2_2
*I *486:X O *D sky130_fd_sc_hd__buf_4
*CAP
1 *373:B 0.000297066
2 *371:A 3.58889e-05
3 *486:X 0.000332955
4 *371:A *404:C 9.90431e-05
5 *373:B *374:B 0
6 *373:B *404:C 7.4826e-05
7 *371:B *371:A 0.000140933
8 *375:C *373:B 0
9 *402:A2 *373:B 1.78353e-05
10 *487:A *373:B 0
11 *492:A *373:B 0.000177941
12 *102:28 *373:B 0
13 *131:8 *373:B 0.000202128
*RES
1 *486:X *371:A 19.9571 
2 *486:X *373:B 35.0107 
*END

*D_NET *189 0.000502203
*CONN
*I *377:C I *D sky130_fd_sc_hd__nand4_4
*I *487:X O *D sky130_fd_sc_hd__buf_2
*CAP
1 *377:C 8.89352e-05
2 *487:X 8.89352e-05
3 *377:D *377:C 9.46482e-05
4 *379:B *377:C 0.00015304
5 *138:10 *377:C 7.6644e-05
*RES
1 *487:X *377:C 30.0821 
*END

*D_NET *190 0.00095365
*CONN
*I *419:A I *D sky130_fd_sc_hd__nor2_2
*I *437:A1 I *D sky130_fd_sc_hd__o211ai_2
*I *488:X O *D sky130_fd_sc_hd__buf_2
*CAP
1 *419:A 0
2 *437:A1 0.000250751
3 *488:X 0.000141834
4 *190:8 0.000392584
5 *419:B *437:A1 0
6 *438:A2 *437:A1 5.26184e-05
7 *439:B *437:A1 9.60939e-05
8 *488:A *190:8 1.97695e-05
9 *46:23 *437:A1 0
*RES
1 *488:X *190:8 11.8 
2 *190:8 *437:A1 23.05 
3 *190:8 *419:A 9.3 
*END

*D_NET *191 0.00188116
*CONN
*I *384:A1 I *D sky130_fd_sc_hd__a21boi_2
*I *489:X O *D sky130_fd_sc_hd__buf_2
*CAP
1 *384:A1 0.000478431
2 *489:X 0.000478431
3 *384:A1 *193:14 0.000139631
4 *382:A2 *384:A1 0.000100789
5 *383:B *384:A1 0.000228314
6 *383:C *384:A1 0.000107503
7 *453:A *384:A1 6.8529e-05
8 *456:A *384:A1 3.20584e-05
9 *69:12 *384:A1 1.00375e-05
10 *148:33 *384:A1 9.57064e-05
11 *160:18 *384:A1 0.000141729
12 *171:12 *384:A1 0
*RES
1 *489:X *384:A1 38.9393 
*END

*D_NET *192 0.00148869
*CONN
*I *344:A2 I *D sky130_fd_sc_hd__a31oi_4
*I *361:A2 I *D sky130_fd_sc_hd__a21o_2
*I *490:X O *D sky130_fd_sc_hd__buf_2
*CAP
1 *344:A2 0.000430022
2 *361:A2 9.73687e-05
3 *490:X 0.000527391
4 *311:A *344:A2 3.67142e-05
5 *344:A1 *344:A2 0.000124749
6 *344:A3 *344:A2 1.34741e-05
7 *490:A *361:A2 5.71472e-05
8 *75:14 *344:A2 5.33005e-05
9 *172:72 *344:A2 0.00014852
*RES
1 *490:X *361:A2 20.3857 
2 *490:X *344:A2 33.7786 
*END

*D_NET *193 0.00751472
*CONN
*I *316:A1 I *D sky130_fd_sc_hd__a211o_4
*I *451:A I *D sky130_fd_sc_hd__buf_6
*I *456:X O *D sky130_fd_sc_hd__clkbuf_2
*CAP
1 *316:A1 0.00129078
2 *451:A 0
3 *456:X 0.000644623
4 *193:14 0.0019354
5 *316:A1 *317:A_N 0
6 *316:A1 *440:A2 0.000364283
7 p[1] *316:A1 3.34366e-05
8 *312:B *316:A1 2.49484e-05
9 *313:A2 *316:A1 0.000197991
10 *317:C *316:A1 7.86048e-05
11 *318:B *316:A1 4.01768e-05
12 *319:A2 *316:A1 6.9276e-05
13 *357:A *316:A1 9.47613e-05
14 *357:A *193:14 0.000247216
15 *357:B *316:A1 2.27416e-05
16 *357:B *193:14 3.48705e-05
17 *358:B1 *193:14 0.000173888
18 *384:A1 *193:14 0.000139631
19 *440:A3 *316:A1 1.18064e-05
20 *456:A *193:14 0.000483554
21 *464:A *316:A1 0
22 *70:73 *316:A1 0.000267815
23 *70:75 *316:A1 0.000365682
24 *84:12 *193:14 7.6644e-05
25 *90:26 *316:A1 0
26 *141:10 *193:14 5.52302e-05
27 *157:55 *316:A1 2.88517e-05
28 *157:80 *316:A1 5.88598e-05
29 *172:37 *316:A1 0
30 *183:41 *316:A1 0.000339399
31 *183:54 *316:A1 8.2991e-05
32 *183:69 *316:A1 0.000255706
33 *183:78 *316:A1 9.55563e-05
*RES
1 *456:X *193:14 31.0857 
2 *193:14 *451:A 9.3 
3 *193:14 *316:A1 46.0857 
*END

*D_NET *194 0.00203285
*CONN
*I *441:A I *D sky130_fd_sc_hd__xor2_2
*I *325:B I *D sky130_fd_sc_hd__nor2_2
*I *491:X O *D sky130_fd_sc_hd__buf_2
*CAP
1 *441:A 9.46539e-05
2 *325:B 0.000172836
3 *491:X 0.000419507
4 *194:6 0.000686997
5 *324:B1 *325:B 7.83027e-05
6 *440:A1 *194:6 2.59355e-05
7 *440:A3 *194:6 2.59355e-05
8 *440:B1 *325:B 0.000149342
9 *440:B1 *441:A 4.18895e-05
10 *440:B1 *194:6 0.000312215
11 *441:B *441:A 1.91842e-05
12 *106:14 *325:B 6.05161e-06
*RES
1 *491:X *194:6 15.9964 
2 *194:6 *325:B 22.0321 
3 *194:6 *441:A 10.9786 
*END

*D_NET *195 0.000609263
*CONN
*I *374:B I *D sky130_fd_sc_hd__and3_4
*I *402:A1 I *D sky130_fd_sc_hd__a22oi_2
*I *492:X O *D sky130_fd_sc_hd__buf_6
*CAP
1 *374:B 0.000139313
2 *402:A1 0.000160743
3 *492:X 0
4 *195:6 0.000300056
5 *373:B *374:B 0
6 *374:A *374:B 0
7 *374:A *402:A1 0
8 *402:A2 *374:B 0
9 *403:A *374:B 0
10 *403:A *402:A1 9.15186e-06
11 *403:B *402:A1 0
12 *403:C *402:A1 0
13 *405:A2 *374:B 0
*RES
1 *492:X *195:6 13.8 
2 *195:6 *402:A1 17.0143 
3 *195:6 *374:B 16.3536 
*END

*D_NET *196 0.000565445
*CONN
*I *340:A2 I *D sky130_fd_sc_hd__o21ba_4
*I *493:X O *D sky130_fd_sc_hd__buf_6
*CAP
1 *340:A2 0.000234679
2 *493:X 0.000234679
3 *493:A *340:A2 9.60875e-05
*RES
1 *493:X *340:A2 22.4393 
*END

*D_NET *197 0.00222029
*CONN
*I *429:B2 I *D sky130_fd_sc_hd__a2bb2o_2
*I *335:A I *D sky130_fd_sc_hd__and2_2
*I *409:A1 I *D sky130_fd_sc_hd__o21bai_2
*I *334:A I *D sky130_fd_sc_hd__nor2_2
*I *494:X O *D sky130_fd_sc_hd__buf_2
*CAP
1 *429:B2 0.000144524
2 *335:A 5.02952e-05
3 *409:A1 2.9238e-05
4 *334:A 0
5 *494:X 0.000230914
6 *197:32 0.000270753
7 *197:19 0.000220552
8 *197:10 0.000346294
9 *197:10 *383:A 4.49599e-05
10 *197:10 *203:23 1.5942e-05
11 *429:A1_N *429:B2 2.13202e-05
12 *430:A1 *409:A1 5.33005e-05
13 *430:A2 *197:32 3.67452e-05
14 *430:A3 *197:19 1.69115e-05
15 *430:B1 *197:19 1.02504e-05
16 *430:B1 *197:32 0.000113038
17 *500:A *197:10 1.02504e-05
18 *500:A *197:19 0.000222878
19 *500:A *197:32 0.000191403
20 *97:8 *335:A 5.03772e-05
21 *97:8 *429:B2 4.32258e-05
22 *97:19 *429:B2 9.71197e-05
*RES
1 *494:X *197:10 17.2107 
2 *197:10 *334:A 13.8 
3 *197:10 *197:19 2.85714 
4 *197:19 *409:A1 14.3357 
5 *197:19 *197:32 7.05357 
6 *197:32 *335:A 10.2464 
7 *197:32 *429:B2 11.8893 
*END

*D_NET *198 0.00193372
*CONN
*I *327:C1 I *D sky130_fd_sc_hd__o211ai_2
*I *495:X O *D sky130_fd_sc_hd__buf_2
*CAP
1 *327:C1 0.000472847
2 *495:X 0.000472847
3 *327:C1 *353:B1 0.000102911
4 *321:A *327:C1 1.12954e-05
5 *326:B *327:C1 0.000198698
6 *352:B *327:C1 0.000122284
7 *84:12 *327:C1 0
8 *88:12 *327:C1 0
9 *146:12 *327:C1 1.41029e-05
10 *166:62 *327:C1 1.3142e-05
11 *169:8 *327:C1 0
12 *186:10 *327:C1 0.000163049
13 *186:16 *327:C1 0.000362545
*RES
1 *495:X *327:C1 38.6 
*END

*D_NET *199 0.000662904
*CONN
*I *342:A1 I *D sky130_fd_sc_hd__o211ai_2
*I *496:X O *D sky130_fd_sc_hd__buf_2
*CAP
1 *342:A1 0.000167112
2 *496:X 0.000167112
3 *342:A2 *342:A1 2.56694e-05
4 *348:A1 *342:A1 1.02504e-05
5 *493:A *342:A1 0.000149911
6 *506:A *342:A1 0.00014285
7 *87:10 *342:A1 0
8 *87:25 *342:A1 0
*RES
1 *496:X *342:A1 30.9036 
*END

*D_NET *200 0.00163913
*CONN
*I *364:A3 I *D sky130_fd_sc_hd__a311oi_2
*I *356:B1 I *D sky130_fd_sc_hd__o311ai_4
*I *497:X O *D sky130_fd_sc_hd__buf_2
*CAP
1 *364:A3 4.2953e-05
2 *356:B1 0.000208887
3 *497:X 7.26363e-05
4 *200:6 0.000324476
5 *356:B1 *408:A1 9.58689e-05
6 *200:6 *408:A1 0.000220159
7 *359:B1 *200:6 8.81837e-05
8 *364:A2 *356:B1 0.000146991
9 *385:A1 *356:B1 8.55871e-05
10 *83:10 *356:B1 9.96487e-05
11 *83:27 *356:B1 5.5764e-05
12 *85:55 *356:B1 9.41642e-05
13 *117:10 *356:B1 5.96516e-05
14 *165:19 *356:B1 3.69047e-06
15 *165:66 *356:B1 3.2033e-05
16 *165:66 *200:6 8.43535e-06
*RES
1 *497:X *200:6 11.4786 
2 *200:6 *356:B1 23.8 
3 *200:6 *364:A3 10.0321 
*END

*D_NET *201 0.000301086
*CONN
*I *372:B2 I *D sky130_fd_sc_hd__o22ai_4
*I *498:X O *D sky130_fd_sc_hd__buf_4
*CAP
1 *372:B2 7.40192e-05
2 *498:X 7.40192e-05
3 *371:B *372:B2 0.000153047
4 *133:8 *372:B2 0
*RES
1 *498:X *372:B2 29.5464 
*END

*D_NET *202 0.00247042
*CONN
*I *404:C I *D sky130_fd_sc_hd__nand4_4
*I *499:X O *D sky130_fd_sc_hd__buf_2
*CAP
1 *404:C 0.000624438
2 *499:X 0.000624438
3 *371:A *404:C 9.90431e-05
4 *371:B *404:C 4.72818e-05
5 *373:A *404:C 5.62995e-05
6 *373:B *404:C 7.4826e-05
7 *374:A *404:C 1.08359e-05
8 *374:C *404:C 4.22736e-05
9 *402:A2 *404:C 0.000328512
10 *404:B *404:C 0
11 *404:D *404:C 0.00010096
12 *492:A *404:C 0.000167691
13 *129:10 *404:C 9.34004e-05
14 *131:8 *404:C 0.00020042
*RES
1 *499:X *404:C 42.1714 
*END

*D_NET *203 0.00829127
*CONN
*I *353:B1 I *D sky130_fd_sc_hd__o21a_2
*I *431:B1 I *D sky130_fd_sc_hd__a2111oi_2
*I *428:A I *D sky130_fd_sc_hd__and3_2
*I *383:A I *D sky130_fd_sc_hd__nand3_4
*I *500:X O *D sky130_fd_sc_hd__buf_2
*CAP
1 *353:B1 0.000930467
2 *431:B1 0
3 *428:A 0.000127386
4 *383:A 0.00165679
5 *500:X 0
6 *203:23 0.000665017
7 *203:6 0.00126395
8 *203:23 *449:A 0.000545817
9 *327:A1 *353:B1 1.34703e-05
10 *327:A2 *353:B1 0.000311377
11 *327:C1 *353:B1 0.000102911
12 *334:B *203:23 0.000241198
13 *381:A *353:B1 0
14 *383:B *383:A 0.000139215
15 *383:C *383:A 1.98839e-05
16 *387:B1 *353:B1 0.000108188
17 *411:A2 *353:B1 6.60835e-05
18 *412:C1 *428:A 0.000181107
19 *428:B *428:A 5.15086e-05
20 *429:A1_N *203:23 0.00019384
21 *431:C1 *428:A 1.98839e-05
22 *448:A *203:23 9.95963e-05
23 *494:A *383:A 4.48113e-05
24 *494:A *203:23 2.42082e-05
25 *500:A *203:23 0.000197299
26 *42:23 *203:23 6.80225e-05
27 *42:38 *203:23 3.67279e-06
28 *57:8 *428:A 6.05161e-06
29 *84:12 *353:B1 0.000125731
30 *97:19 *203:23 5.74562e-05
31 *140:10 *353:B1 0
32 *146:12 *353:B1 0.000756212
33 *157:32 *353:B1 9.24299e-05
34 *166:10 *203:23 7.44533e-05
35 *182:10 *383:A 0
36 *182:83 *353:B1 4.23387e-05
37 *197:10 *383:A 4.49599e-05
38 *197:10 *203:23 1.5942e-05
*RES
1 *500:X *203:6 13.8 
2 *203:6 *383:A 26.1571 
3 *203:6 *203:23 19.8036 
4 *203:23 *428:A 12.3179 
5 *203:23 *431:B1 9.3 
6 *383:A *353:B1 46.7607 
*END

*D_NET *204 0.0103143
*CONN
*I *450:A I *D sky130_fd_sc_hd__buf_8
*I *338:A1 I *D sky130_fd_sc_hd__o311ai_2
*I *356:A1 I *D sky130_fd_sc_hd__o311ai_4
*I *449:A I *D sky130_fd_sc_hd__buf_8
*I *457:X O *D sky130_fd_sc_hd__buf_12
*CAP
1 *450:A 0.00011182
2 *338:A1 3.64675e-05
3 *356:A1 0.000194837
4 *449:A 0.000370582
5 *457:X 5.34083e-05
6 *204:46 0.00116525
7 *204:27 0.00240489
8 *204:8 0.00161708
9 *356:A1 *362:B1 2.45065e-05
10 *449:A *431:A1 7.27634e-05
11 *310:A *204:27 2.85957e-05
12 *338:A2 *338:A1 3.99614e-06
13 *338:A2 *450:A 3.32631e-05
14 *342:C1 *450:A 4.97876e-05
15 *393:B1 *204:27 4.75972e-05
16 *394:A2 *204:46 4.43256e-05
17 *396:A1 *356:A1 3.34295e-05
18 *396:A1 *204:46 0.00011891
19 *396:A2 *356:A1 2.31791e-05
20 *396:A2 *204:46 0.000126446
21 *413:B *449:A 5.66157e-05
22 *413:B *204:8 0.00010326
23 *416:A1 *204:27 0.000324344
24 *416:B1 *204:27 4.05183e-05
25 *432:B *449:A 0
26 *444:A *204:46 0.000102207
27 *461:A *204:46 5.52238e-05
28 *507:A *204:46 0.00014285
29 *24:6 *204:27 0.0001524
30 *25:8 *204:46 9.71197e-05
31 *42:38 *449:A 0
32 *42:38 *204:27 2.59355e-05
33 *46:10 *204:27 0.000183713
34 *61:10 *204:8 0
35 *70:38 *450:A 1.39726e-05
36 *70:38 *204:46 6.7569e-05
37 *74:38 *204:27 7.2489e-05
38 *90:26 *450:A 0.000175512
39 *92:27 *450:A 3.69047e-06
40 *100:8 *450:A 0.000125724
41 *114:10 *356:A1 0.000336125
42 *123:8 *356:A1 0.000177227
43 *146:12 *204:27 0.00022266
44 *148:14 *449:A 7.60339e-05
45 *161:10 *204:46 0.000227532
46 *166:8 *449:A 9.84016e-05
47 *166:10 *449:A 5.54817e-06
48 *168:22 *450:A 0.00018077
49 *168:22 *204:46 0.000139907
50 *203:23 *449:A 0.000545817
*RES
1 *457:X *204:8 15.1393 
2 *204:8 *449:A 24.2464 
3 *204:8 *204:27 27.3393 
4 *204:27 *356:A1 19.0857 
5 *204:27 *204:46 23.0357 
6 *204:46 *338:A1 10.0321 
7 *204:46 *450:A 22.3179 
*END

*D_NET *205 0.00281045
*CONN
*I *414:A1 I *D sky130_fd_sc_hd__a31o_2
*I *412:B1 I *D sky130_fd_sc_hd__o211a_2
*I *501:X O *D sky130_fd_sc_hd__buf_2
*CAP
1 *414:A1 0.00025439
2 *412:B1 0.000343592
3 *501:X 8.42823e-05
4 *205:8 0.000682264
5 *412:A2 *412:B1 0.000297476
6 *414:A2 *414:A1 2.24804e-05
7 *431:A2 *414:A1 2.45881e-05
8 *431:A2 *205:8 2.37005e-05
9 *514:A *412:B1 0.000166992
10 *40:16 *414:A1 4.08637e-05
11 *40:22 *414:A1 0.000178503
12 *72:14 *412:B1 1.35465e-05
13 *85:16 *412:B1 0.000262834
14 *148:14 *412:B1 0.000143939
15 *171:40 *414:A1 9.8126e-05
16 *171:40 *205:8 0.000172877
*RES
1 *501:X *205:8 16.05 
2 *205:8 *412:B1 23.05 
3 *205:8 *414:A1 17.7286 
*END

*D_NET *206 0.00183757
*CONN
*I *314:B1 I *D sky130_fd_sc_hd__a211oi_2
*I *313:A1 I *D sky130_fd_sc_hd__o211a_4
*I *502:X O *D sky130_fd_sc_hd__buf_6
*CAP
1 *314:B1 0
2 *313:A1 0.000297741
3 *502:X 0.000119597
4 *206:8 0.000417338
5 *206:8 *502:A 4.88637e-05
6 *312:B *313:A1 5.80706e-06
7 *312:B *206:8 8.71761e-05
8 *313:C1 *313:A1 0.000215623
9 *314:C1 *206:8 0.00012935
10 *315:A *313:A1 0
11 *315:A *206:8 0.000318101
12 *90:20 *206:8 6.37237e-05
13 *90:26 *313:A1 5.59013e-05
14 *183:78 *313:A1 7.83462e-05
*RES
1 *502:X *206:8 13.9607 
2 *206:8 *313:A1 23.675 
3 *206:8 *314:B1 9.3 
*END

*D_NET *207 0.00046843
*CONN
*I *437:A2 I *D sky130_fd_sc_hd__o211ai_2
*I *503:X O *D sky130_fd_sc_hd__buf_2
*CAP
1 *437:A2 0.000129702
2 *503:X 0.000129702
3 *437:B1 *437:A2 4.57445e-05
4 *438:A2 *437:A2 0.000128154
5 *439:A *437:A2 1.57414e-05
6 *439:B *437:A2 6.05161e-06
7 *503:A *437:A2 1.33343e-05
*RES
1 *503:X *437:A2 30.1893 
*END

*D_NET *208 0.00166475
*CONN
*I *423:A2 I *D sky130_fd_sc_hd__o21ai_2
*I *504:X O *D sky130_fd_sc_hd__buf_2
*CAP
1 *423:A2 0.000547311
2 *504:X 0.000547311
3 *426:C1 *423:A2 0.000142082
4 *435:A2 *423:A2 1.17968e-05
5 *435:C1 *423:A2 3.28604e-05
6 *46:23 *423:A2 0
7 *51:10 *423:A2 0.000197991
8 *52:8 *423:A2 0
9 *173:10 *423:A2 0.000185401
*RES
1 *504:X *423:A2 37.1179 
*END

*D_NET *209 0.000429485
*CONN
*I *362:A1 I *D sky130_fd_sc_hd__o21ai_2
*I *505:X O *D sky130_fd_sc_hd__buf_2
*CAP
1 *362:A1 0.00013501
2 *505:X 0.00013501
3 *505:A *362:A1 5.49995e-05
4 *75:33 *362:A1 2.97578e-05
5 *114:10 *362:A1 5.51716e-05
6 *146:12 *362:A1 1.95368e-05
*RES
1 *505:X *362:A1 29.6893 
*END

*D_NET *210 0.00301866
*CONN
*I *339:A1 I *D sky130_fd_sc_hd__o21a_2
*I *333:B1 I *D sky130_fd_sc_hd__a21oi_2
*I *337:C1 I *D sky130_fd_sc_hd__o311a_4
*I *338:B1 I *D sky130_fd_sc_hd__o311ai_2
*I *506:X O *D sky130_fd_sc_hd__buf_2
*CAP
1 *339:A1 7.56215e-05
2 *333:B1 0
3 *337:C1 0.00012129
4 *338:B1 6.77637e-05
5 *506:X 7.79212e-05
6 *210:16 0.000249481
7 *210:14 0.000214305
8 *210:8 0.00030742
9 *337:C1 *331:A 3.17148e-05
10 *337:C1 *337:A1 9.60875e-05
11 *337:C1 *213:10 9.40167e-05
12 *210:14 *213:10 1.02821e-05
13 *210:16 *213:10 1.56e-05
14 *333:A1 *338:B1 5.52238e-05
15 *333:A1 *210:16 0.000127476
16 *333:A2 *337:C1 0.000125731
17 *333:A2 *210:16 0.000106342
18 *338:A2 *338:B1 0
19 *339:B1 *339:A1 0.000139907
20 *372:A2 *339:A1 0.000117553
21 *509:A *210:14 0.00017227
22 *509:A *210:16 2.28598e-05
23 *71:10 *337:C1 3.4879e-05
24 *87:10 *210:8 5.97719e-05
25 *87:10 *210:14 0.000100969
26 *92:27 *338:B1 0.00012935
27 *95:10 *338:B1 9.90367e-05
28 *95:10 *210:16 0.000269428
29 *99:8 *337:C1 3.34687e-05
30 *106:14 *337:C1 2.1527e-05
31 *168:22 *338:B1 4.13595e-05
*RES
1 *506:X *210:8 15.4429 
2 *210:8 *210:14 8.41071 
3 *210:14 *210:16 3 
4 *210:16 *338:B1 11.4964 
5 *210:16 *337:C1 21.8 
6 *210:14 *333:B1 9.3 
7 *210:8 *339:A1 15.9786 
*END

*D_NET *211 0.000911546
*CONN
*I *362:B1 I *D sky130_fd_sc_hd__o21ai_2
*I *507:X O *D sky130_fd_sc_hd__buf_2
*CAP
1 *362:B1 0.000190654
2 *507:X 0.000190654
3 *356:A1 *362:B1 2.45065e-05
4 *362:A2 *362:B1 0.000100165
5 *396:A2 *362:B1 0.000129868
6 *507:A *362:B1 0
7 *75:33 *362:B1 9.84729e-05
8 *123:8 *362:B1 0.000177227
*RES
1 *507:X *362:B1 32.9214 
*END

*D_NET *212 0.00839423
*CONN
*I *408:A1 I *D sky130_fd_sc_hd__o21ai_2
*I *440:A2 I *D sky130_fd_sc_hd__o31a_4
*I *343:A3 I *D sky130_fd_sc_hd__o31a_2
*I *508:X O *D sky130_fd_sc_hd__buf_2
*CAP
1 *408:A1 0.0013285
2 *440:A2 0.00013658
3 *343:A3 0.000181161
4 *508:X 0.000428849
5 *212:17 0.00150676
6 *212:6 0.000651696
7 *408:A1 *447:A 0.000150608
8 p[2] *212:6 0.000355777
9 *307:A *408:A1 2.38501e-05
10 *316:A1 *440:A2 0.000364283
11 *330:A1 *343:A3 0.000301094
12 *344:B1 *343:A3 0.000348865
13 *344:B1 *212:6 8.17274e-05
14 *356:B1 *408:A1 9.58689e-05
15 *359:B1 *408:A1 2.56723e-05
16 *440:A3 *440:A2 0.000431601
17 *440:A3 *212:17 9.8126e-05
18 *508:A *212:6 5.96159e-05
19 *85:55 *408:A1 0.000725377
20 *113:8 *408:A1 0.000125142
21 *157:80 *408:A1 5.33005e-05
22 *157:80 *440:A2 3.14003e-05
23 *157:80 *212:17 8.89675e-05
24 *165:19 *408:A1 1.40034e-05
25 *165:78 *343:A3 0.000178403
26 *165:78 *212:6 0.000310611
27 *172:76 *408:A1 7.62323e-05
28 *200:6 *408:A1 0.000220159
*RES
1 *508:X *212:6 18.05 
2 *212:6 *343:A3 14.3536 
3 *212:6 *212:17 5.83929 
4 *212:17 *440:A2 19.3893 
5 *212:17 *408:A1 32.0321 
*END

*D_NET *213 0.00269218
*CONN
*I *337:A1 I *D sky130_fd_sc_hd__o311a_4
*I *331:A I *D sky130_fd_sc_hd__nand3_2
*I *509:X O *D sky130_fd_sc_hd__buf_2
*CAP
1 *337:A1 0.000363148
2 *331:A 0.000162011
3 *509:X 0.000314176
4 *213:10 0.000839335
5 *307:A *331:A 0
6 *333:A2 *331:A 7.38652e-05
7 *333:A2 *213:10 0.000225609
8 *337:A3 *337:A1 2.388e-05
9 *337:B1 *337:A1 9.60939e-05
10 *337:C1 *331:A 3.17148e-05
11 *337:C1 *337:A1 9.60875e-05
12 *337:C1 *213:10 9.40167e-05
13 *509:A *213:10 5.33433e-05
14 *71:10 *337:A1 7.05249e-05
15 *94:10 *331:A 5.66971e-05
16 *99:8 *331:A 9.25014e-06
17 *99:8 *213:10 0.000101545
18 *106:14 *331:A 0
19 *149:8 *331:A 5.49995e-05
20 *210:14 *213:10 1.02821e-05
21 *210:16 *213:10 1.56e-05
*RES
1 *509:X *213:10 18.9607 
2 *213:10 *331:A 17.4964 
3 *213:10 *337:A1 19.6929 
*END

*D_NET *214 0.00305205
*CONN
*I *317:A_N I *D sky130_fd_sc_hd__and3b_2
*I *328:A1 I *D sky130_fd_sc_hd__o21a_4
*I *510:X O *D sky130_fd_sc_hd__buf_2
*CAP
1 *317:A_N 0.000130463
2 *328:A1 0.000767484
3 *510:X 0.000150914
4 *214:12 0.00104886
5 *316:A1 *317:A_N 0
6 *318:B *317:A_N 0
7 *320:A1 *317:A_N 7.73758e-05
8 *320:A2 *328:A1 4.53889e-05
9 *320:A2 *214:12 4.51726e-05
10 *327:A1 *328:A1 0.000246955
11 *327:B1 *328:A1 0.00010096
12 *328:B1 *328:A1 6.87574e-05
13 *357:A *317:A_N 0.000136754
14 *357:A *214:12 0
15 *360:A1 *328:A1 7.15309e-05
16 *360:B1 *328:A1 7.48091e-05
17 *82:10 *317:A_N 0
18 *82:10 *328:A1 8.25843e-06
19 *82:10 *214:12 7.83659e-05
*RES
1 *510:X *214:12 20.6929 
2 *214:12 *328:A1 21.2643 
3 *214:12 *317:A_N 21.7643 
*END

*D_NET *215 0.00512809
*CONN
*I *446:A I *D sky130_fd_sc_hd__buf_6
*I *447:A I *D sky130_fd_sc_hd__buf_6
*I *458:X O *D sky130_fd_sc_hd__clkbuf_2
*CAP
1 *446:A 0
2 *447:A 0.000964595
3 *458:X 0.000316747
4 *215:10 0.00128134
5 *215:10 *431:A1 3.06406e-05
6 *388:A1 *447:A 9.16364e-05
7 *388:A2 *447:A 1.64621e-05
8 *388:A3 *447:A 5.33005e-05
9 *408:A1 *447:A 0.000150608
10 *416:A1 *215:10 0.000166096
11 *416:B1 *215:10 9.90367e-05
12 *431:A2 *447:A 5.51716e-05
13 *431:A2 *215:10 0.000144132
14 *501:A *447:A 6.57032e-05
15 *19:24 *447:A 5.82384e-05
16 *40:22 *215:10 6.62741e-05
17 *42:38 *215:10 2.44318e-05
18 *85:31 *447:A 0.000305254
19 *85:55 *447:A 0.000421765
20 *113:8 *447:A 0.000310612
21 *147:23 *447:A 1.35553e-05
22 *148:27 *447:A 9.17228e-05
23 *182:122 *447:A 0.000172285
24 *182:122 *215:10 0.00022848
*RES
1 *458:X *215:10 21.5857 
2 *215:10 *447:A 34.5321 
3 *215:10 *446:A 13.8 
*END

*D_NET *216 0.00413241
*CONN
*I *421:A1 I *D sky130_fd_sc_hd__a31o_4
*I *417:A1 I *D sky130_fd_sc_hd__a21oi_4
*I *416:C1 I *D sky130_fd_sc_hd__o211a_4
*I *511:X O *D sky130_fd_sc_hd__buf_2
*CAP
1 *421:A1 0.000203164
2 *417:A1 0
3 *416:C1 0.000236781
4 *511:X 0.000418561
5 *216:14 0.000357337
6 *216:8 0.000742281
7 *416:C1 *431:A1 0.000232296
8 *421:A1 *420:A1 8.32242e-05
9 *216:14 *420:A1 0.000142974
10 *413:A *416:C1 4.56494e-05
11 *416:A1 *416:C1 5.52238e-05
12 *416:B1 *416:C1 5.71472e-05
13 *418:B *416:C1 0.000177227
14 *421:A2 *421:A1 0.000150618
15 *421:A3 *421:A1 0
16 *433:A *416:C1 0.000176226
17 *437:B1 *421:A1 0.000200413
18 *438:A1 *421:A1 6.65398e-05
19 *439:A *421:A1 0
20 *482:A *216:14 0.000181803
21 *511:A *416:C1 6.69211e-05
22 *511:A *421:A1 1.31516e-05
23 *511:A *216:8 0.00021527
24 *511:A *216:14 6.78048e-05
25 *512:A *416:C1 4.13477e-05
26 *22:10 *421:A1 7.15687e-05
27 *40:22 *416:C1 9.69119e-06
28 *47:14 *216:14 9.76689e-05
29 *65:14 *216:8 2.15245e-05
*RES
1 *511:X *216:8 19.2643 
2 *216:8 *216:14 8.21429 
3 *216:14 *416:C1 25.9429 
4 *216:14 *417:A1 9.3 
5 *216:8 *421:A1 19.6929 
*END

*D_NET *217 0.00116308
*CONN
*I *420:A1 I *D sky130_fd_sc_hd__o2111ai_4
*I *512:X O *D sky130_fd_sc_hd__buf_2
*CAP
1 *420:A1 0.000235847
2 *512:X 0.000235847
3 *413:A *420:A1 7.8327e-05
4 *421:A1 *420:A1 8.32242e-05
5 *511:A *420:A1 5.09196e-05
6 *22:10 *420:A1 0.000335938
7 *44:10 *420:A1 0
8 *216:14 *420:A1 0.000142974
*RES
1 *512:X *420:A1 34.4036 
*END

*D_NET *218 0.00211141
*CONN
*I *316:C1 I *D sky130_fd_sc_hd__a211o_4
*I *502:A I *D sky130_fd_sc_hd__buf_6
*I *513:X O *D sky130_fd_sc_hd__buf_6
*CAP
1 *316:C1 0.000331063
2 *502:A 0.000136058
3 *513:X 0
4 *218:6 0.000467122
5 *307:A *316:C1 9.41642e-05
6 *312:B *316:C1 0
7 *312:B *502:A 0.000142856
8 *314:C1 *502:A 5.71472e-05
9 *316:B1 *316:C1 9.41642e-05
10 *324:B1 *316:C1 0
11 *90:26 *316:C1 0.000564448
12 *90:26 *502:A 0.000175519
13 *206:8 *502:A 4.88637e-05
*RES
1 *513:X *218:6 13.8 
2 *218:6 *502:A 17.8357 
3 *218:6 *316:C1 22.1571 
*END

*D_NET *219 0.00898925
*CONN
*I *445:A I *D sky130_fd_sc_hd__buf_6
*I *443:A I *D sky130_fd_sc_hd__dlymetal6s2s_1
*I *431:A1 I *D sky130_fd_sc_hd__a2111oi_2
*I *459:X O *D sky130_fd_sc_hd__buf_4
*CAP
1 *445:A 0.00144278
2 *443:A 5.96789e-05
3 *431:A1 0.000517823
4 *459:X 0.000443037
5 *219:31 0.00198833
6 *219:10 0.00144674
7 *368:A1 *445:A 3.19626e-05
8 *368:A2 *445:A 5.52238e-05
9 *368:B2 *445:A 3.06406e-05
10 *370:C1 *445:A 2.15245e-05
11 *397:B1 *445:A 5.41494e-05
12 *398:A *445:A 0.000231408
13 *413:B *431:A1 0.000196432
14 *415:A2_N *443:A 2.50137e-05
15 *415:A2_N *445:A 8.42609e-05
16 *415:A2_N *219:10 0.000356015
17 *415:A2_N *219:31 0.000678696
18 *416:C1 *431:A1 0.000232296
19 *418:B *431:A1 9.80029e-05
20 *428:B *431:A1 1.84776e-05
21 *431:A2 *431:A1 5.49995e-05
22 *434:B *431:A1 0
23 *438:B1 *431:A1 3.57844e-05
24 *449:A *431:A1 7.27634e-05
25 *460:A *445:A 0.000222861
26 *478:A *445:A 3.30237e-05
27 *482:A *443:A 8.95675e-06
28 *482:A *219:10 3.99614e-06
29 *485:A *445:A 9.02331e-05
30 *511:A *431:A1 2.06075e-05
31 *24:53 *443:A 0
32 *40:22 *431:A1 0
33 *47:14 *431:A1 0.000123032
34 *128:12 *445:A 5.71472e-05
35 *129:10 *445:A 2.84494e-05
36 *131:8 *445:A 0.000148903
37 *182:122 *431:A1 4.53676e-05
38 *215:10 *431:A1 3.06406e-05
*RES
1 *459:X *219:10 16.0321 
2 *219:10 *431:A1 31.1929 
3 *219:10 *219:31 6.69643 
4 *219:31 *443:A 19.3357 
5 *219:31 *445:A 38.5679 
*END

*D_NET *220 0.000178964
*CONN
*I *471:A I *D sky130_fd_sc_hd__clkdlybuf4s25_1
*I *312:X O *D sky130_fd_sc_hd__and2_2
*CAP
1 *471:A 4.02457e-05
2 *312:X 4.02457e-05
3 *307:A *471:A 9.84729e-05
*RES
1 *312:X *471:A 19.5464 
*END
