*SPEF "ieee 1481-1999"
*DESIGN "all_nand_dup12_inv"
*DATE "14:50:23 Sunday September 06, 2026"
*VENDOR "The OpenROAD Project"
*PROGRAM "OpenROAD"
*VERSION "dcf36133a369abc8f3c5e5738cd4d82e4903c0e0"
*DESIGN_FLOW "NAME_SCOPE LOCAL" "PIN_CAP NONE"
*DIVIDER /
*DELIMITER :
*BUS_DELIMITER []
*T_UNIT 1 NS
*C_UNIT 1 PF
*R_UNIT 1 OHM
*L_UNIT 1 HENRY

*NAME_MAP
*3 a[0]
*4 a[1]
*5 a[2]
*6 a[3]
*7 b[0]
*8 b[1]
*9 b[2]
*10 b[3]
*11 p[0]
*12 p[1]
*13 p[2]
*14 p[3]
*15 p[4]
*16 p[5]
*17 p[6]
*18 p[7]
*19 n10
*20 n100
*21 n101
*22 n102
*23 n104
*24 n105
*25 n106
*26 n107
*27 n108
*28 n109
*29 n11
*30 n110
*31 n111
*32 n113
*33 n114
*34 n115
*35 n116
*36 n117
*37 n118
*38 n119
*39 n12
*40 n120
*41 n122
*42 n123
*43 n124
*44 n125
*45 n126
*46 n127
*47 n128
*48 n129
*49 n13
*50 n132
*51 n133
*52 n134
*53 n135
*54 n136
*55 n137
*56 n138
*57 n139
*58 n14
*59 n140
*60 n141
*61 n142
*62 n143
*63 n15
*64 n16
*65 n17
*66 n18
*67 n19
*68 n20
*69 n21
*70 n22
*71 n23
*72 n24
*73 n25
*74 n26
*75 n27
*76 n28
*77 n29
*78 n30
*79 n31
*80 n32
*81 n33
*82 n34
*83 n35
*84 n36
*85 n37
*86 n38
*87 n39
*88 n40
*89 n41
*90 n42
*91 n44
*92 n45
*93 n46
*94 n47
*95 n48
*96 n49
*97 n50
*98 n51
*99 n52
*100 n53
*101 n54
*102 n55
*103 n56
*104 n57
*105 n58
*106 n59
*107 n60
*108 n61
*109 n62
*110 n63
*111 n64
*112 n65
*113 n66
*114 n67
*115 n68
*116 n69
*117 n70
*118 n72
*119 n73
*120 n74
*121 n75
*122 n76
*123 n77
*124 n78
*125 n79
*126 n8
*127 n80
*128 n81
*129 n82
*130 n83
*131 n84
*132 n85
*133 n86
*134 n87
*135 n88
*136 n89
*137 n90
*138 n91
*139 n92
*140 n93
*141 n94
*142 n95
*143 n96
*144 n97
*145 n98
*146 n99
*147 PHY_EDGE_ROW_0_Left_13
*148 PHY_EDGE_ROW_0_Right_0
*149 PHY_EDGE_ROW_10_Left_23
*150 PHY_EDGE_ROW_10_Right_10
*151 PHY_EDGE_ROW_11_Left_24
*152 PHY_EDGE_ROW_11_Right_11
*153 PHY_EDGE_ROW_12_Left_25
*154 PHY_EDGE_ROW_12_Right_12
*155 PHY_EDGE_ROW_1_Left_14
*156 PHY_EDGE_ROW_1_Right_1
*157 PHY_EDGE_ROW_2_Left_15
*158 PHY_EDGE_ROW_2_Right_2
*159 PHY_EDGE_ROW_3_Left_16
*160 PHY_EDGE_ROW_3_Right_3
*161 PHY_EDGE_ROW_4_Left_17
*162 PHY_EDGE_ROW_4_Right_4
*163 PHY_EDGE_ROW_5_Left_18
*164 PHY_EDGE_ROW_5_Right_5
*165 PHY_EDGE_ROW_6_Left_19
*166 PHY_EDGE_ROW_6_Right_6
*167 PHY_EDGE_ROW_7_Left_20
*168 PHY_EDGE_ROW_7_Right_7
*169 PHY_EDGE_ROW_8_Left_21
*170 PHY_EDGE_ROW_8_Right_8
*171 PHY_EDGE_ROW_9_Left_22
*172 PHY_EDGE_ROW_9_Right_9
*173 TAP_TAPCELL_ROW_0_26
*174 TAP_TAPCELL_ROW_0_27
*175 TAP_TAPCELL_ROW_10_37
*176 TAP_TAPCELL_ROW_11_38
*177 TAP_TAPCELL_ROW_12_39
*178 TAP_TAPCELL_ROW_12_40
*179 TAP_TAPCELL_ROW_1_28
*180 TAP_TAPCELL_ROW_2_29
*181 TAP_TAPCELL_ROW_3_30
*182 TAP_TAPCELL_ROW_4_31
*183 TAP_TAPCELL_ROW_5_32
*184 TAP_TAPCELL_ROW_6_33
*185 TAP_TAPCELL_ROW_7_34
*186 TAP_TAPCELL_ROW_8_35
*187 TAP_TAPCELL_ROW_9_36
*188 g10
*189 g100
*190 g101
*191 g102
*192 g103
*193 g104
*194 g105
*195 g106
*196 g107
*197 g108
*198 g109
*199 g11
*200 g110
*201 g111
*202 g112
*203 g113
*204 g114
*205 g115
*206 g116
*207 g117
*208 g118
*209 g119
*210 g12
*211 g120
*212 g121
*213 g122
*214 g123
*215 g124
*216 g125
*217 g126
*218 g127
*219 g128
*220 g129
*221 g13
*222 g130
*223 g131
*224 g132
*225 g133
*226 g134
*227 g135
*228 g136
*229 g137
*230 g138
*231 g139
*232 g14
*233 g140
*234 g141
*235 g142
*236 g143
*237 g15
*238 g16
*239 g17
*240 g18
*241 g19
*242 g20
*243 g21
*244 g22
*245 g23
*246 g24
*247 g25
*248 g26
*249 g27
*250 g28
*251 g29
*252 g30
*253 g31
*254 g32
*255 g33
*256 g34
*257 g35
*258 g36
*259 g37
*260 g38
*261 g39
*262 g40
*263 g41
*264 g42
*265 g43
*266 g44
*267 g45
*268 g46
*269 g47
*270 g48
*271 g49
*272 g50
*273 g51
*274 g52
*275 g53
*276 g54
*277 g55
*278 g56
*279 g57
*280 g58
*281 g59
*282 g60
*283 g61
*284 g62
*285 g63
*286 g64
*287 g65
*288 g66
*289 g67
*290 g68
*291 g69
*292 g70
*293 g71
*294 g72
*295 g73
*296 g74
*297 g75
*298 g76
*299 g77
*300 g78
*301 g79
*302 g8
*303 g80
*304 g81
*305 g82
*306 g83
*307 g84
*308 g85
*309 g86
*310 g87
*311 g88
*312 g89
*313 g9
*314 g90
*315 g91
*316 g92
*317 g93
*318 g94
*319 g95
*320 g96
*321 g97
*322 g98
*323 g99

*PORTS
a[0] I
a[1] I
a[2] I
a[3] I
b[0] I
b[1] I
b[2] I
b[3] I
p[0] O
p[1] O
p[2] O
p[3] O
p[4] O
p[5] O
p[6] O
p[7] O

*D_NET *3 0.00593769
*CONN
*P a[0] I
*I *231:A I *D sky130_fd_sc_hd__nand2_1
*I *232:A I *D sky130_fd_sc_hd__nand2_1
*I *210:A I *D sky130_fd_sc_hd__nand2_1
*I *188:A I *D sky130_fd_sc_hd__nand2_1
*I *302:A I *D sky130_fd_sc_hd__nand2_1
*CAP
1 a[0] 0.000301937
2 *231:A 0.000139967
3 *232:A 0.000120563
4 *210:A 0
5 *188:A 2.54452e-05
6 *302:A 0.000132362
7 *3:37 0.000454187
8 *3:29 0.000889972
9 *3:9 0.000976102
10 *3:5 0.000703849
11 *188:A *233:B 1.8461e-05
12 *188:A *7:34 1.6215e-05
13 *231:A *231:B 3.17067e-05
14 *231:A *4:13 8.23597e-06
15 *231:A *9:11 1.94945e-05
16 *231:A *9:13 8.49773e-05
17 *232:A *276:B 5.80706e-06
18 *232:A *280:A 0
19 *232:A *9:11 0
20 *232:A *100:8 0
21 *232:A *101:10 0
22 *302:A *199:A 1.83136e-05
23 *302:A *302:B 6.32633e-05
24 *3:5 *4:7 0.000454147
25 *3:5 *9:11 2.33863e-05
26 *3:9 *9:11 1.61421e-05
27 *3:29 *229:A 5.83786e-05
28 *3:29 *230:A 4.41482e-05
29 *3:29 *240:B 0.000101569
30 *3:29 *267:A 3.33174e-05
31 *3:29 *267:B 0.000103735
32 *3:29 *4:21 0.000595655
33 *3:29 *100:8 0
34 *3:37 *199:A 2.07878e-05
35 *3:37 *210:B 0.000154831
36 *3:37 *233:B 0.000142152
37 *3:37 *267:B 0
38 *3:37 *302:B 0
39 *3:37 *8:23 7.92229e-06
40 *3:37 *9:51 0.000170661
*RES
1 a[0] *3:5 1.35673 
2 *3:5 *3:9 3.8894 
3 *3:9 *3:29 26.6161 
4 *3:29 *3:37 14.6429 
5 *3:37 *302:A 20.4786 
6 *3:37 *188:A 10.0321 
7 *3:29 *210:A 9.3 
8 *3:9 *232:A 15.8982 
9 *3:5 *231:A 20.2189 
*END

*D_NET *4 0.00667504
*CONN
*P a[1] I
*I *244:A I *D sky130_fd_sc_hd__nand2_1
*I *242:A I *D sky130_fd_sc_hd__nand2_1
*I *240:A I *D sky130_fd_sc_hd__nand2_1
*I *238:A I *D sky130_fd_sc_hd__nand2_1
*I *233:A I *D sky130_fd_sc_hd__nand2_1
*CAP
1 a[1] 0.00013292
2 *244:A 0.000382725
3 *242:A 0
4 *240:A 0.000123382
5 *238:A 0.000425537
6 *233:A 5.31306e-05
7 *4:34 0.000736298
8 *4:21 0.000663974
9 *4:13 0.000574308
10 *4:7 0.000666489
11 *233:A *267:A 2.56601e-05
12 *233:A *275:B 5.80706e-06
13 *233:A *100:8 2.8266e-06
14 *238:A *210:B 9.41642e-05
15 *238:A *233:B 1.9964e-05
16 *238:A *239:A 1.00332e-05
17 *238:A *302:B 4.46186e-06
18 *238:A *8:23 0.000141734
19 *238:A *9:26 0.000228514
20 *238:A *65:12 1.87097e-05
21 *240:A *267:B 7.54868e-05
22 *244:A *232:B 0.000153625
23 *244:A *243:A 6.05198e-05
24 *244:A *10:26 2.02339e-05
25 *244:A *10:35 5.78374e-05
26 *4:7 *9:11 0.000442215
27 *4:13 *243:A 0.000114714
28 *4:13 *9:11 7.49162e-06
29 *4:21 *242:B 5.52238e-05
30 *4:21 *267:A 2.05938e-05
31 *4:21 *100:8 4.35048e-05
32 *4:34 *9:26 0.000254922
33 *231:A *4:13 8.23597e-06
34 *3:5 *4:7 0.000454147
35 *3:29 *4:21 0.000595655
*RES
1 a[1] *4:7 4.6226 
2 *4:7 *4:13 7.34821 
3 *4:13 *4:21 14.0893 
4 *4:21 *233:A 14.8357 
5 *4:21 *4:34 7.08929 
6 *4:34 *238:A 24.3893 
7 *4:34 *240:A 20.2464 
8 *4:13 *242:A 9.3 
9 *4:7 *244:A 21.4339 
*END

*D_NET *5 0.00632509
*CONN
*P a[2] I
*I *252:A I *D sky130_fd_sc_hd__nand2_1
*I *250:A I *D sky130_fd_sc_hd__nand2_1
*I *248:A I *D sky130_fd_sc_hd__nand2_1
*I *246:A I *D sky130_fd_sc_hd__nand2_1
*CAP
1 a[2] 0.000414451
2 *252:A 0.000329171
3 *250:A 4.07732e-05
4 *248:A 0
5 *246:A 0.00014717
6 *5:47 0.00083253
7 *5:32 0.000690673
8 *5:13 0.000789709
9 *246:A *294:A 0
10 *246:A *7:15 0
11 *246:A *8:13 9.69119e-06
12 *246:A *118:10 0
13 *250:A *258:B 0.000108426
14 *250:A *259:A 2.84026e-05
15 *252:A *252:B 5.38444e-06
16 *252:A *259:A 0.000101777
17 *252:A *260:A 6.32484e-05
18 *252:A *260:B 2.95138e-05
19 *252:A *9:51 4.46431e-05
20 *5:13 *191:A 8.81971e-05
21 *5:13 *254:A 4.83079e-05
22 *5:13 *254:B 5.33005e-05
23 *5:13 *255:A 0.000124868
24 *5:13 *256:B 6.6002e-05
25 *5:13 *6:5 0.000410063
26 *5:13 *6:26 4.07684e-05
27 *5:13 *7:9 0.000381937
28 *5:13 *7:15 0
29 *5:13 *8:7 4.03814e-05
30 *5:13 *8:13 0.000302069
31 *5:13 *20:10 6.51263e-05
32 *5:32 *248:B 1.40034e-05
33 *5:32 *249:A 6.97409e-05
34 *5:32 *301:B 3.18676e-05
35 *5:32 *303:B 2.72859e-05
36 *5:32 *8:13 0.000532305
37 *5:47 *229:A 7.43578e-06
38 *5:47 *239:A 2.3541e-05
39 *5:47 *240:B 0.000152736
40 *5:47 *248:B 1.04232e-05
41 *5:47 *249:A 7.43578e-06
42 *5:47 *8:13 2.49182e-05
43 *5:47 *9:51 0.000166814
44 *5:47 *108:12 0
*RES
1 a[2] *5:13 15.5144 
2 *5:13 *246:A 20.55 
3 *5:13 *5:32 7.67857 
4 *5:32 *248:A 9.3 
5 *5:32 *5:47 14.3304 
6 *5:47 *250:A 15.0411 
7 *5:47 *252:A 18.9339 
*END

*D_NET *6 0.00493726
*CONN
*P a[3] I
*I *260:A I *D sky130_fd_sc_hd__nand2_1
*I *258:A I *D sky130_fd_sc_hd__nand2_1
*I *256:A I *D sky130_fd_sc_hd__nand2_1
*I *254:A I *D sky130_fd_sc_hd__nand2_1
*CAP
1 a[3] 0.000168898
2 *260:A 0.000287358
3 *258:A 3.33035e-06
4 *256:A 0
5 *254:A 0.000217093
6 *6:39 0.000772357
7 *6:26 0.000832912
8 *6:5 0.000737236
9 *254:A *191:A 0.000182964
10 *254:A *254:B 5.71472e-05
11 *254:A *255:A 0.000126582
12 *254:A *7:9 0.000110295
13 *258:A *258:B 5.76905e-06
14 *260:A *251:A 5.35932e-05
15 *260:A *260:B 5.38444e-06
16 *260:A *77:12 2.11079e-05
17 *6:5 p[3] 0.000373777
18 *6:26 *190:A 1.89507e-06
19 *6:26 *304:B 2.83284e-06
20 *6:39 *256:B 1.73088e-05
21 *6:39 *297:B 6.24018e-05
22 *6:39 *304:B 0.000228876
23 *6:39 *108:12 4.90514e-05
24 *6:39 *128:12 5.66971e-05
25 *252:A *260:A 6.32484e-05
26 *5:13 *254:A 4.83079e-05
27 *5:13 *6:5 0.000410063
28 *5:13 *6:26 4.07684e-05
*RES
1 a[3] *6:5 1.1656 
2 *6:5 *254:A 22.8796 
3 *6:5 *6:26 8.95445 
4 *6:26 *256:A 9.3 
5 *6:26 *6:39 9.32143 
6 *6:39 *258:A 9.43393 
7 *6:39 *260:A 23.2643 
*END

*D_NET *7 0.00440675
*CONN
*P b[0] I
*I *254:B I *D sky130_fd_sc_hd__nand2_1
*I *238:B I *D sky130_fd_sc_hd__nand2_1
*I *302:B I *D sky130_fd_sc_hd__nand2_1
*I *246:B I *D sky130_fd_sc_hd__nand2_1
*CAP
1 b[0] 0.000247936
2 *254:B 0.000144468
3 *238:B 0
4 *302:B 9.80719e-05
5 *246:B 0
6 *7:34 0.00069801
7 *7:15 0.000901019
8 *7:9 0.000693484
9 *302:B *65:12 0.000170654
10 *7:9 *8:7 0.000375849
11 *7:15 *8:13 0
12 *7:34 *199:A 0.000217971
13 *7:34 *247:A 8.28621e-05
14 *7:34 *294:A 2.3541e-05
15 *7:34 *8:23 0
16 *7:34 *29:12 3.60361e-05
17 *7:34 *73:12 1.05729e-05
18 *7:34 *118:10 1.96517e-05
19 *188:A *7:34 1.6215e-05
20 *238:A *302:B 4.46186e-06
21 *246:A *7:15 0
22 *254:A *254:B 5.71472e-05
23 *254:A *7:9 0.000110295
24 *302:A *302:B 6.32633e-05
25 *3:37 *302:B 0
26 *5:13 *254:B 5.33005e-05
27 *5:13 *7:9 0.000381937
28 *5:13 *7:15 0
*RES
1 b[0] *7:9 7.4404 
2 *7:9 *7:15 9.64286 
3 *7:15 *246:B 9.3 
4 *7:15 *7:34 11.9554 
5 *7:34 *302:B 20.55 
6 *7:34 *238:B 9.3 
7 *7:9 *254:B 16.4071 
*END

*D_NET *8 0.00775854
*CONN
*P b[1] I
*I *256:B I *D sky130_fd_sc_hd__nand2_1
*I *240:B I *D sky130_fd_sc_hd__nand2_1
*I *248:B I *D sky130_fd_sc_hd__nand2_1
*I *188:B I *D sky130_fd_sc_hd__nand2_1
*I *233:B I *D sky130_fd_sc_hd__nand2_1
*CAP
1 b[1] 0.000377255
2 *256:B 0.000321673
3 *240:B 0.000330854
4 *248:B 3.08845e-05
5 *188:B 0
6 *233:B 0.000277
7 *8:41 0.000384124
8 *8:23 0.000517514
9 *8:13 0.000985816
10 *8:7 0.00142185
11 *233:B *210:B 3.39021e-05
12 *233:B *241:A 0
13 *233:B *9:26 0.000108733
14 *233:B *92:8 5.62995e-05
15 *240:B *229:A 0.000113571
16 *240:B *239:A 1.14548e-05
17 *240:B *267:B 7.82904e-05
18 *240:B *65:12 7.66879e-05
19 *256:B *190:A 0.00014391
20 *256:B *192:A 6.05161e-06
21 *256:B *303:B 0
22 *256:B *304:B 0
23 *256:B *20:10 0.000147666
24 *256:B *20:19 3.27359e-05
25 *256:B *123:10 0
26 *8:13 *299:B 0
27 *8:13 *303:B 0
28 *8:13 *118:10 0
29 *8:23 *199:A 0.0002737
30 *8:23 *65:12 5.10822e-05
31 *188:A *233:B 1.8461e-05
32 *238:A *233:B 1.9964e-05
33 *238:A *8:23 0.000141734
34 *246:A *8:13 9.69119e-06
35 *3:29 *240:B 0.000101569
36 *3:37 *233:B 0.000142152
37 *3:37 *8:23 7.92229e-06
38 *5:13 *256:B 6.6002e-05
39 *5:13 *8:7 4.03814e-05
40 *5:13 *8:13 0.000302069
41 *5:32 *248:B 1.40034e-05
42 *5:32 *8:13 0.000532305
43 *5:47 *240:B 0.000152736
44 *5:47 *248:B 1.04232e-05
45 *5:47 *8:13 2.49182e-05
46 *6:39 *256:B 1.73088e-05
47 *7:9 *8:7 0.000375849
48 *7:15 *8:13 0
49 *7:34 *8:23 0
*RES
1 b[1] *8:7 4.7918 
2 *8:7 *8:13 15.6518 
3 *8:13 *8:23 14.4821 
4 *8:23 *233:B 15.6214 
5 *8:23 *188:B 9.3 
6 *8:13 *8:41 0.428571 
7 *8:41 *248:B 10.0321 
8 *8:41 *240:B 16.3179 
9 *8:7 *256:B 20.4518 
*END

*D_NET *9 0.00649756
*CONN
*P b[2] I
*I *242:B I *D sky130_fd_sc_hd__nand2_1
*I *250:B I *D sky130_fd_sc_hd__nand2_1
*I *258:B I *D sky130_fd_sc_hd__nand2_1
*I *210:B I *D sky130_fd_sc_hd__nand2_1
*I *231:B I *D sky130_fd_sc_hd__nand2_1
*CAP
1 b[2] 0.000508361
2 *242:B 2.52229e-05
3 *250:B 0
4 *258:B 8.54385e-05
5 *210:B 0.000176445
6 *231:B 2.90726e-05
7 *9:51 0.000471471
8 *9:26 0.00105709
9 *9:13 0.000630041
10 *9:11 0.000639936
11 *258:B *259:A 1.59373e-05
12 *258:B *108:12 0.000140443
13 *9:11 *232:B 8.99397e-05
14 *9:11 *243:A 3.34783e-05
15 *9:11 *10:7 0
16 *9:11 *101:10 8.78763e-05
17 *9:26 *241:A 7.58878e-05
18 *9:26 *67:12 7.40303e-06
19 *9:26 *92:8 0.000357952
20 *9:51 *108:12 1.35465e-05
21 *231:A *231:B 3.17067e-05
22 *231:A *9:11 1.94945e-05
23 *231:A *9:13 8.49773e-05
24 *232:A *9:11 0
25 *233:B *210:B 3.39021e-05
26 *233:B *9:26 0.000108733
27 *238:A *210:B 9.41642e-05
28 *238:A *9:26 0.000228514
29 *250:A *258:B 0.000108426
30 *252:A *9:51 4.46431e-05
31 *258:A *258:B 5.76905e-06
32 *3:5 *9:11 2.33863e-05
33 *3:9 *9:11 1.61421e-05
34 *3:37 *210:B 0.000154831
35 *3:37 *9:51 0.000170661
36 *4:7 *9:11 0.000442215
37 *4:13 *9:11 7.49162e-06
38 *4:21 *242:B 5.52238e-05
39 *4:34 *9:26 0.000254922
40 *5:47 *9:51 0.000166814
*RES
1 b[2] *9:11 8.07987 
2 *9:11 *9:13 2.25 
3 *9:13 *231:B 14.5321 
4 *9:13 *9:26 16.125 
5 *9:26 *210:B 22.1571 
6 *9:26 *9:51 16.6429 
7 *9:51 *258:B 12.1214 
8 *9:51 *250:B 9.3 
9 *9:11 *242:B 14.3357 
*END

*D_NET *10 0.00410486
*CONN
*P b[3] I
*I *252:B I *D sky130_fd_sc_hd__nand2_1
*I *260:B I *D sky130_fd_sc_hd__nand2_1
*I *244:B I *D sky130_fd_sc_hd__nand2_1
*I *232:B I *D sky130_fd_sc_hd__nand2_1
*CAP
1 b[3] 0.000454125
2 *252:B 1.47559e-05
3 *260:B 8.05849e-05
4 *244:B 0
5 *232:B 0.000419763
6 *10:35 0.000675997
7 *10:26 0.000625414
8 *10:7 0.000918646
9 *232:B *237:A 0.000148576
10 *232:B *243:A 5.7616e-05
11 *232:B *276:B 5.71472e-05
12 *232:B *284:A 2.50593e-05
13 *232:B *69:8 8.83076e-06
14 *232:B *101:10 0.000139613
15 *260:B *253:A 3.08664e-05
16 *10:35 *245:A 3.11088e-05
17 *10:35 *253:A 5.48394e-05
18 *244:A *232:B 0.000153625
19 *244:A *10:26 2.02339e-05
20 *244:A *10:35 5.78374e-05
21 *252:A *252:B 5.38444e-06
22 *252:A *260:B 2.95138e-05
23 *260:A *260:B 5.38444e-06
24 *9:11 *232:B 8.99397e-05
25 *9:11 *10:7 0
*RES
1 b[3] *10:7 4.76673 
2 *10:7 *232:B 22.8982 
3 *10:7 *10:26 5.38393 
4 *10:26 *244:B 9.3 
5 *10:26 *10:35 10.8214 
6 *10:35 *260:B 11.0857 
7 *10:35 *252:B 9.72857 
*END

*D_NET *11 0.00197565
*CONN
*P p[0] O
*I *313:Y O *D sky130_fd_sc_hd__inv_1
*CAP
1 p[0] 0.000772702
2 *313:Y 0.000772702
3 p[0] p[1] 1.11993e-05
4 p[0] *265:A 0.000205791
5 p[0] *266:A 8.48532e-05
6 p[0] *274:B 0
7 p[0] *91:8 1.59935e-05
8 p[0] *99:20 0.000112404
*RES
1 *313:Y p[0] 30.5946 
*END

*D_NET *12 0.00114285
*CONN
*P p[1] O
*I *265:Y O *D sky130_fd_sc_hd__nand2_1
*CAP
1 p[1] 0.000551625
2 *265:Y 0.000551625
3 p[1] *265:A 2.84026e-05
4 p[0] p[1] 1.11993e-05
*RES
1 *265:Y p[1] 24.4429 
*END

*D_NET *13 0.00154307
*CONN
*P p[2] O
*I *293:Y O *D sky130_fd_sc_hd__nand2_1
*CAP
1 p[2] 0.000683346
2 *293:Y 0.000683346
3 p[2] *264:B 6.05161e-06
4 p[2] *265:B 0.00015304
5 p[2] *293:A 1.72894e-05
*RES
1 *293:Y p[2] 27.2821 
*END

*D_NET *14 0.00111347
*CONN
*P p[3] O
*I *192:Y O *D sky130_fd_sc_hd__nand2_1
*CAP
1 p[3] 0.000359749
2 *192:Y 0.000359749
3 p[3] *191:A 1.65027e-05
4 p[3] *192:A 3.69047e-06
5 *6:5 p[3] 0.000373777
*RES
1 *192:Y p[3] 20.0618 
*END

*D_NET *15 0.00117305
*CONN
*P p[4] O
*I *202:Y O *D sky130_fd_sc_hd__nand2_1
*CAP
1 p[4] 0.000558629
2 *202:Y 0.000558629
3 p[4] *202:A 5.57914e-05
4 p[4] *23:10 0
*RES
1 *202:Y p[4] 22.7047 
*END

*D_NET *16 0.00115196
*CONN
*P p[5] O
*I *212:Y O *D sky130_fd_sc_hd__nand2_1
*CAP
1 p[5] 0.000573326
2 *212:Y 0.000573326
3 p[5] *212:A 5.30637e-06
*RES
1 *212:Y p[5] 24.7687 
*END

*D_NET *17 0.00136441
*CONN
*P p[6] O
*I *222:Y O *D sky130_fd_sc_hd__nand2_1
*CAP
1 p[6] 0.000435636
2 *222:Y 0.000435636
3 p[6] p[7] 0.000475852
4 p[6] *222:A 1.72894e-05
*RES
1 *222:Y p[6] 25.1795 
*END

*D_NET *18 0.00184934
*CONN
*P p[7] O
*I *223:Y O *D sky130_fd_sc_hd__nand2_1
*CAP
1 p[7] 0.000636264
2 *223:Y 0.000636264
3 p[7] *220:A 0
4 p[7] *220:B 0
5 p[7] *222:A 0
6 p[7] *45:6 0.00010096
7 p[6] p[7] 0.000475852
*RES
1 *223:Y p[7] 28.4295 
*END

*D_NET *19 0.000774779
*CONN
*I *199:A I *D sky130_fd_sc_hd__inv_1
*I *188:Y O *D sky130_fd_sc_hd__nand2_1
*CAP
1 *199:A 0.000122004
2 *188:Y 0.000122004
3 *302:A *199:A 1.83136e-05
4 *3:37 *199:A 2.07878e-05
5 *7:34 *199:A 0.000217971
6 *8:23 *199:A 0.0002737
*RES
1 *188:Y *199:A 22.7205 
*END

*D_NET *20 0.00114898
*CONN
*I *193:A I *D sky130_fd_sc_hd__inv_1
*I *191:B I *D sky130_fd_sc_hd__nand2_1
*I *190:B I *D sky130_fd_sc_hd__nand2_1
*I *189:Y O *D sky130_fd_sc_hd__nand2_1
*CAP
1 *193:A 0.000169469
2 *191:B 0
3 *190:B 0
4 *189:Y 0.000104454
5 *20:19 0.000249225
6 *20:10 0.000184209
7 *20:10 *189:B 7.43578e-06
8 *20:10 *191:A 3.60082e-05
9 *20:10 *192:B 9.54798e-06
10 *20:19 *191:A 2.69483e-05
11 *20:19 *192:B 0.000116155
12 *256:B *20:10 0.000147666
13 *256:B *20:19 3.27359e-05
14 *5:13 *20:10 6.51263e-05
*RES
1 *189:Y *20:10 16.2821 
2 *20:10 *190:B 13.8 
3 *20:10 *20:19 2.25 
4 *20:19 *191:B 13.8 
5 *20:19 *193:A 16.8937 
*END

*D_NET *21 0.000319783
*CONN
*I *192:A I *D sky130_fd_sc_hd__nand2_1
*I *190:Y O *D sky130_fd_sc_hd__nand2_1
*CAP
1 *192:A 0.000155021
2 *190:Y 0.000155021
3 p[3] *192:A 3.69047e-06
4 *256:B *192:A 6.05161e-06
*RES
1 *190:Y *192:A 20.7964 
*END

*D_NET *22 0.000330624
*CONN
*I *192:B I *D sky130_fd_sc_hd__nand2_1
*I *191:Y O *D sky130_fd_sc_hd__nand2_1
*CAP
1 *192:B 3.96087e-05
2 *191:Y 3.96087e-05
3 *192:B *191:A 0.000125703
4 *20:10 *192:B 9.54798e-06
5 *20:19 *192:B 0.000116155
*RES
1 *191:Y *192:B 29.2429 
*END

*D_NET *23 0.00119453
*CONN
*I *201:A I *D sky130_fd_sc_hd__nand2_1
*I *198:B I *D sky130_fd_sc_hd__nand2_1
*I *193:Y O *D sky130_fd_sc_hd__inv_1
*CAP
1 *201:A 8.25736e-05
2 *198:B 3.13769e-05
3 *193:Y 0.000193236
4 *23:10 0.000307186
5 *198:B *202:A 2.59355e-05
6 *201:A *201:B 2.82057e-05
7 *201:A *202:B 0.000128161
8 *23:10 *202:A 0.000175243
9 *23:10 *202:B 0.000222609
10 p[4] *23:10 0
*RES
1 *193:Y *23:10 18.5054 
2 *23:10 *198:B 14.3357 
3 *23:10 *201:A 16.05 
*END

*D_NET *24 0.0011249
*CONN
*I *196:B I *D sky130_fd_sc_hd__nand2_1
*I *195:B I *D sky130_fd_sc_hd__nand2_1
*I *203:A I *D sky130_fd_sc_hd__nand2_1
*I *194:Y O *D sky130_fd_sc_hd__nand2_1
*CAP
1 *196:B 9.01243e-05
2 *195:B 8.86325e-05
3 *203:A 9.97291e-05
4 *194:Y 7.59743e-05
5 *24:25 0.000259894
6 *24:10 0.00025684
7 *195:B *196:A 1.02301e-05
8 *195:B *312:A 0
9 *195:B *136:14 4.86123e-05
10 *196:B *196:A 4.71977e-05
11 *196:B *314:B 0
12 *196:B *136:14 2.11336e-05
13 *203:A *27:12 0
14 *24:10 *196:A 0.000114294
15 *24:25 *202:B 0
16 *24:25 *136:14 1.22353e-05
*RES
1 *194:Y *24:10 15.0232 
2 *24:10 *203:A 15.5946 
3 *24:10 *24:25 1.85714 
4 *24:25 *195:B 16.0768 
5 *24:25 *196:B 16.0589 
*END

*D_NET *25 0.000635295
*CONN
*I *197:A I *D sky130_fd_sc_hd__nand2_1
*I *195:Y O *D sky130_fd_sc_hd__nand2_1
*CAP
1 *197:A 0.000128144
2 *195:Y 0.000128144
3 *197:A *194:A 5.49995e-05
4 *197:A *194:B 5.49995e-05
5 *197:A *196:A 2.46609e-05
6 *197:A *197:B 0.000229146
7 *197:A *27:12 1.52013e-05
*RES
1 *195:Y *197:A 22.0286 
*END

*D_NET *26 0.000806166
*CONN
*I *197:B I *D sky130_fd_sc_hd__nand2_1
*I *196:Y O *D sky130_fd_sc_hd__nand2_1
*CAP
1 *197:B 0.000256579
2 *196:Y 0.000256579
3 *197:B *196:A 3.66562e-05
4 *197:B *83:12 2.72055e-05
5 *197:A *197:B 0.000229146
*RES
1 *196:Y *197:B 31.5018 
*END

*D_NET *27 0.00060849
*CONN
*I *200:A I *D sky130_fd_sc_hd__nand2_1
*I *198:A I *D sky130_fd_sc_hd__nand2_1
*I *197:Y O *D sky130_fd_sc_hd__nand2_1
*CAP
1 *200:A 0
2 *198:A 2.04426e-05
3 *197:Y 0.000161271
4 *27:12 0.000181714
5 *198:A *202:A 2.59355e-05
6 *198:A *28:10 5.33005e-05
7 *27:12 *202:B 0.000150625
8 *197:A *27:12 1.52013e-05
9 *203:A *27:12 0
*RES
1 *197:Y *27:12 21.1929 
2 *27:12 *198:A 9.83571 
3 *27:12 *200:A 9.3 
*END

*D_NET *28 0.000736557
*CONN
*I *201:B I *D sky130_fd_sc_hd__nand2_1
*I *203:B I *D sky130_fd_sc_hd__nand2_1
*I *200:B I *D sky130_fd_sc_hd__nand2_1
*I *198:Y O *D sky130_fd_sc_hd__nand2_1
*CAP
1 *201:B 0.000105636
2 *203:B 7.75533e-05
3 *200:B 0
4 *198:Y 0
5 *28:10 0.000174906
6 *28:4 0.000202989
7 *201:B *202:B 7.83659e-05
8 *201:B *211:B 0
9 *28:10 *202:A 1.56e-05
10 *198:A *28:10 5.33005e-05
11 *201:A *201:B 2.82057e-05
*RES
1 *198:Y *28:4 9.3 
2 *28:4 *28:10 2.21429 
3 *28:10 *200:B 9.3 
4 *28:10 *203:B 10.6571 
5 *28:4 *201:B 20.4786 
*END

*D_NET *29 0.000762149
*CONN
*I *262:B I *D sky130_fd_sc_hd__nand2_1
*I *264:A I *D sky130_fd_sc_hd__nand2_1
*I *199:Y O *D sky130_fd_sc_hd__inv_1
*CAP
1 *262:B 9.22974e-05
2 *264:A 0
3 *199:Y 0.000174494
4 *29:12 0.000266791
5 *262:B *263:A 4.80569e-05
6 *262:B *263:B 1.04232e-05
7 *262:B *264:B 3.76337e-05
8 *262:B *265:A 5.71472e-05
9 *262:B *293:A 9.7049e-06
10 *262:B *88:8 2.95641e-05
11 *29:12 *294:A 0
12 *29:12 *65:12 0
13 *7:34 *29:12 3.60361e-05
*RES
1 *199:Y *29:12 20.6839 
2 *29:12 *264:A 9.3 
3 *29:12 *262:B 11.925 
*END

*D_NET *30 0.000670358
*CONN
*I *202:A I *D sky130_fd_sc_hd__nand2_1
*I *200:Y O *D sky130_fd_sc_hd__nand2_1
*CAP
1 *202:A 0.000185926
2 *200:Y 0.000185926
3 p[4] *202:A 5.57914e-05
4 *198:A *202:A 2.59355e-05
5 *198:B *202:A 2.59355e-05
6 *23:10 *202:A 0.000175243
7 *28:10 *202:A 1.56e-05
*RES
1 *200:Y *202:A 31.6179 
*END

*D_NET *31 0.000869682
*CONN
*I *202:B I *D sky130_fd_sc_hd__nand2_1
*I *201:Y O *D sky130_fd_sc_hd__nand2_1
*CAP
1 *202:B 0.000144961
2 *201:Y 0.000144961
3 *201:A *202:B 0.000128161
4 *201:B *202:B 7.83659e-05
5 *23:10 *202:B 0.000222609
6 *24:25 *202:B 0
7 *27:12 *202:B 0.000150625
*RES
1 *201:Y *202:B 31.975 
*END

*D_NET *32 0.00107949
*CONN
*I *225:B I *D sky130_fd_sc_hd__nand2_1
*I *208:B I *D sky130_fd_sc_hd__nand2_1
*I *211:A I *D sky130_fd_sc_hd__nand2_1
*I *203:Y O *D sky130_fd_sc_hd__nand2_1
*CAP
1 *225:B 2.9238e-05
2 *208:B 0
3 *211:A 0
4 *203:Y 0.000254345
5 *32:21 0.000110505
6 *32:10 0.000335613
7 *225:B *36:12 5.33005e-05
8 *32:10 *211:B 5.80706e-06
9 *32:10 *213:B 5.80706e-06
10 *32:21 *211:B 9.21958e-05
11 *32:21 *212:B 0.000151333
12 *32:21 *213:B 4.13477e-05
*RES
1 *203:Y *32:10 17.2107 
2 *32:10 *211:A 13.8 
3 *32:10 *32:21 7.35714 
4 *32:21 *208:B 9.3 
5 *32:21 *225:B 9.83571 
*END

*D_NET *33 0.000873811
*CONN
*I *213:A I *D sky130_fd_sc_hd__nand2_1
*I *205:B I *D sky130_fd_sc_hd__nand2_1
*I *206:B I *D sky130_fd_sc_hd__nand2_1
*I *204:Y O *D sky130_fd_sc_hd__nand2_1
*CAP
1 *213:A 0.000173059
2 *205:B 0
3 *206:B 1.46425e-05
4 *204:Y 7.04721e-05
5 *33:10 6.23212e-05
6 *33:6 0.00029121
7 *206:B *207:A 5.71472e-05
8 *213:A *204:B 6.5185e-05
9 *213:A *206:A 0
10 *213:A *213:B 0
11 *213:A *41:8 5.52302e-05
12 *33:6 *205:A 5.12608e-05
13 *33:6 *207:A 6.05161e-06
14 *33:10 *205:A 5.7661e-06
15 *33:10 *207:A 2.14658e-05
16 *33:10 *207:B 0
*RES
1 *204:Y *33:6 10.6571 
2 *33:6 *33:10 0.964286 
3 *33:10 *206:B 9.83571 
4 *33:10 *205:B 9.3 
5 *33:6 *213:A 21.3893 
*END

*D_NET *34 0.000561235
*CONN
*I *207:A I *D sky130_fd_sc_hd__nand2_1
*I *205:Y O *D sky130_fd_sc_hd__nand2_1
*CAP
1 *207:A 0.000179774
2 *205:Y 0.000179774
3 *207:A *207:B 5.75275e-05
4 *207:A *225:A 3.57366e-05
5 *207:A *36:8 2.37575e-05
6 *206:B *207:A 5.71472e-05
7 *33:6 *207:A 6.05161e-06
8 *33:10 *207:A 2.14658e-05
*RES
1 *205:Y *207:A 22.0286 
*END

*D_NET *35 0.000192975
*CONN
*I *207:B I *D sky130_fd_sc_hd__nand2_1
*I *206:Y O *D sky130_fd_sc_hd__nand2_1
*CAP
1 *207:B 6.77239e-05
2 *206:Y 6.77239e-05
3 *207:A *207:B 5.75275e-05
4 *33:10 *207:B 0
*RES
1 *206:Y *207:B 19.975 
*END

*D_NET *36 0.000671298
*CONN
*I *225:A I *D sky130_fd_sc_hd__nand2_1
*I *208:A I *D sky130_fd_sc_hd__nand2_1
*I *209:A I *D sky130_fd_sc_hd__nand2_1
*I *207:Y O *D sky130_fd_sc_hd__nand2_1
*CAP
1 *225:A 2.96519e-06
2 *208:A 0
3 *209:A 1.75613e-05
4 *207:Y 5.66384e-05
5 *36:12 0.000170193
6 *36:8 0.000212236
7 *209:A *209:B 5.71472e-05
8 *209:A *37:6 1.33343e-05
9 *36:12 *209:B 3.99614e-06
10 *36:12 *37:6 2.44318e-05
11 *207:A *225:A 3.57366e-05
12 *207:A *36:8 2.37575e-05
13 *225:B *36:12 5.33005e-05
*RES
1 *207:Y *36:8 10.2643 
2 *36:8 *36:12 2.60714 
3 *36:12 *209:A 9.83571 
4 *36:12 *208:A 9.3 
5 *36:8 *225:A 9.72857 
*END

*D_NET *37 0.00063972
*CONN
*I *211:B I *D sky130_fd_sc_hd__nand2_1
*I *209:B I *D sky130_fd_sc_hd__nand2_1
*I *208:Y O *D sky130_fd_sc_hd__nand2_1
*CAP
1 *211:B 0.000112642
2 *209:B 9.02755e-05
3 *208:Y 1.84863e-05
4 *37:6 0.000221404
5 *201:B *211:B 0
6 *209:A *209:B 5.71472e-05
7 *209:A *37:6 1.33343e-05
8 *32:10 *211:B 5.80706e-06
9 *32:21 *211:B 9.21958e-05
10 *36:12 *209:B 3.99614e-06
11 *36:12 *37:6 2.44318e-05
*RES
1 *208:Y *37:6 9.83571 
2 *37:6 *209:B 11.0857 
3 *37:6 *211:B 20.9786 
*END

*D_NET *38 0.000319906
*CONN
*I *212:A I *D sky130_fd_sc_hd__nand2_1
*I *209:Y O *D sky130_fd_sc_hd__nand2_1
*CAP
1 *212:A 0.0001573
2 *209:Y 0.0001573
3 *212:A *212:B 0
4 p[5] *212:A 5.30637e-06
*RES
1 *209:Y *212:A 30.1893 
*END

*D_NET *39 0.000297815
*CONN
*I *229:A I *D sky130_fd_sc_hd__inv_1
*I *210:Y O *D sky130_fd_sc_hd__nand2_1
*CAP
1 *229:A 5.92149e-05
2 *210:Y 5.92149e-05
3 *240:B *229:A 0.000113571
4 *3:29 *229:A 5.83786e-05
5 *5:47 *229:A 7.43578e-06
*RES
1 *210:Y *229:A 20.2563 
*END

*D_NET *40 0.000786807
*CONN
*I *212:B I *D sky130_fd_sc_hd__nand2_1
*I *211:Y O *D sky130_fd_sc_hd__nand2_1
*CAP
1 *212:B 0.000278554
2 *211:Y 0.000278554
3 *212:B *206:A 0
4 *212:B *213:B 7.83659e-05
5 *212:A *212:B 0
6 *32:21 *212:B 0.000151333
*RES
1 *211:Y *212:B 32.6179 
*END

*D_NET *41 0.00217864
*CONN
*I *227:B I *D sky130_fd_sc_hd__nand2_1
*I *220:A I *D sky130_fd_sc_hd__nand2_1
*I *218:B I *D sky130_fd_sc_hd__nand2_1
*I *213:Y O *D sky130_fd_sc_hd__nand2_1
*CAP
1 *227:B 0.000111107
2 *220:A 0.000334148
3 *218:B 0
4 *213:Y 0.000243275
5 *41:12 0.000484716
6 *41:8 0.00050495
7 *220:A *220:B 0.000133053
8 *227:B *214:B 3.41517e-06
9 *41:8 *206:A 5.28427e-05
10 *41:8 *259:A 9.00031e-05
11 *41:8 *322:A 9.90367e-05
12 *41:8 *85:6 3.54964e-05
13 *41:8 *145:14 3.13687e-05
14 *41:12 *145:14 0
15 p[7] *220:A 0
16 *213:A *41:8 5.52302e-05
*RES
1 *213:Y *41:8 14.7821 
2 *41:8 *41:12 7.05357 
3 *41:12 *218:B 13.8 
4 *41:12 *220:A 19.925 
5 *41:8 *227:B 11.0857 
*END

*D_NET *42 0.000844008
*CONN
*I *215:B I *D sky130_fd_sc_hd__nand2_1
*I *216:B I *D sky130_fd_sc_hd__nand2_1
*I *223:A I *D sky130_fd_sc_hd__nand2_1
*I *214:Y O *D sky130_fd_sc_hd__nand2_1
*CAP
1 *215:B 0
2 *216:B 0
3 *223:A 9.32365e-05
4 *214:Y 7.81864e-05
5 *42:10 0.000105589
6 *42:8 9.05389e-05
7 *223:A *217:B 0.000153047
8 *223:A *227:A 8.08376e-05
9 *223:A *87:12 5.80706e-06
10 *223:A *146:12 2.8266e-06
11 *42:8 *214:A 5.52302e-05
12 *42:8 *214:B 6.8274e-05
13 *42:8 *217:A 3.18676e-05
14 *42:8 *217:B 7.43578e-06
15 *42:10 *214:B 5.71472e-05
16 *42:10 *217:B 1.39841e-05
*RES
1 *214:Y *42:8 11.4964 
2 *42:8 *42:10 0.535714 
3 *42:10 *223:A 21.1571 
4 *42:10 *216:B 9.3 
5 *42:8 *215:B 9.3 
*END

*D_NET *43 0.00035595
*CONN
*I *217:A I *D sky130_fd_sc_hd__nand2_1
*I *215:Y O *D sky130_fd_sc_hd__nand2_1
*CAP
1 *217:A 0.000121244
2 *215:Y 0.000121244
3 *217:A *217:B 8.15939e-05
4 *42:8 *217:A 3.18676e-05
*RES
1 *215:Y *217:A 30.0821 
*END

*D_NET *44 0.000512684
*CONN
*I *217:B I *D sky130_fd_sc_hd__nand2_1
*I *216:Y O *D sky130_fd_sc_hd__nand2_1
*CAP
1 *217:B 0.000121684
2 *216:Y 0.000121684
3 *217:B *214:B 1.32552e-05
4 *217:A *217:B 8.15939e-05
5 *223:A *217:B 0.000153047
6 *42:8 *217:B 7.43578e-06
7 *42:10 *217:B 1.39841e-05
*RES
1 *216:Y *217:B 30.4929 
*END

*D_NET *45 0.00111009
*CONN
*I *219:A I *D sky130_fd_sc_hd__nand2_1
*I *227:A I *D sky130_fd_sc_hd__nand2_1
*I *218:A I *D sky130_fd_sc_hd__nand2_1
*I *217:Y O *D sky130_fd_sc_hd__nand2_1
*CAP
1 *219:A 0
2 *227:A 0.000102099
3 *218:A 9.30787e-05
4 *217:Y 0.000111248
5 *45:17 0.000114506
6 *45:6 0.000216734
7 *218:A *219:B 1.02132e-05
8 *218:A *223:B 4.82865e-05
9 *218:A *46:6 3.08664e-05
10 *227:A *220:B 0.00015234
11 *227:A *87:12 1.02504e-05
12 *45:6 *223:B 2.28598e-05
13 *45:17 *219:B 5.38444e-06
14 *45:17 *223:B 1.04232e-05
15 p[7] *45:6 0.00010096
16 *223:A *227:A 8.08376e-05
*RES
1 *217:Y *45:6 11.4786 
2 *45:6 *218:A 11.0857 
3 *45:6 *45:17 0.428571 
4 *45:17 *227:A 21.1571 
5 *45:17 *219:A 9.3 
*END

*D_NET *46 0.00041475
*CONN
*I *223:B I *D sky130_fd_sc_hd__nand2_1
*I *219:B I *D sky130_fd_sc_hd__nand2_1
*I *218:Y O *D sky130_fd_sc_hd__nand2_1
*CAP
1 *223:B 8.40673e-05
2 *219:B 1.25174e-05
3 *218:Y 4.67733e-05
4 *46:6 0.000143358
5 *218:A *219:B 1.02132e-05
6 *218:A *223:B 4.82865e-05
7 *218:A *46:6 3.08664e-05
8 *45:6 *223:B 2.28598e-05
9 *45:17 *219:B 5.38444e-06
10 *45:17 *223:B 1.04232e-05
*RES
1 *218:Y *46:6 10.2464 
2 *46:6 *219:B 9.72857 
3 *46:6 *223:B 11.0857 
*END

*D_NET *47 0.000524108
*CONN
*I *222:A I *D sky130_fd_sc_hd__nand2_1
*I *219:Y O *D sky130_fd_sc_hd__nand2_1
*CAP
1 *222:A 0.000171368
2 *219:Y 0.000171368
3 *222:A *220:B 0.000104974
4 *222:A *222:B 5.91094e-05
5 p[6] *222:A 1.72894e-05
6 p[7] *222:A 0
*RES
1 *219:Y *222:A 31.1357 
*END

*D_NET *48 0.000190588
*CONN
*I *222:B I *D sky130_fd_sc_hd__nand2_1
*I *220:Y O *D sky130_fd_sc_hd__nand2_1
*CAP
1 *222:B 6.57393e-05
2 *220:Y 6.57393e-05
3 *222:A *222:B 5.91094e-05
*RES
1 *220:Y *222:B 19.975 
*END

*D_NET *49 0.00047097
*CONN
*I *269:A I *D sky130_fd_sc_hd__nand2_1
*I *228:B I *D sky130_fd_sc_hd__nand2_1
*I *221:Y O *D sky130_fd_sc_hd__inv_1
*CAP
1 *269:A 1.24159e-05
2 *228:B 5.29104e-05
3 *221:Y 7.95672e-05
4 *49:8 0.000144893
5 *228:B *228:A 5.7661e-06
6 *228:B *269:B 4.22908e-05
7 *228:B *94:8 0.000110665
8 *269:A *269:B 5.7661e-06
9 *49:8 *221:A 1.66955e-05
10 *49:8 *94:8 0
*RES
1 *221:Y *49:8 10.4696 
2 *49:8 *228:B 11.0857 
3 *49:8 *269:A 9.72857 
*END

*D_NET *50 0.000223676
*CONN
*I *275:B I *D sky130_fd_sc_hd__nand2_1
*I *224:Y O *D sky130_fd_sc_hd__nand2_1
*CAP
1 *275:B 7.56648e-05
2 *224:Y 7.56648e-05
3 *275:B *268:B 6.65398e-05
4 *233:A *275:B 5.80706e-06
*RES
1 *224:Y *275:B 29.2429 
*END

*D_NET *51 0.000707839
*CONN
*I *213:B I *D sky130_fd_sc_hd__nand2_1
*I *225:Y O *D sky130_fd_sc_hd__nand2_1
*CAP
1 *213:B 0.000262353
2 *225:Y 0.000262353
3 *213:B *206:A 5.76121e-05
4 *212:B *213:B 7.83659e-05
5 *213:A *213:B 0
6 *32:10 *213:B 5.80706e-06
7 *32:21 *213:B 4.13477e-05
*RES
1 *225:Y *213:B 32.9571 
*END

*D_NET *52 0.000684321
*CONN
*I *224:A I *D sky130_fd_sc_hd__nand2_1
*I *226:Y O *D sky130_fd_sc_hd__nand2_1
*CAP
1 *224:A 0.000228261
2 *226:Y 0.000228261
3 *224:A *224:B 0
4 *224:A *226:A 9.80173e-05
5 *224:A *268:B 0.000126902
6 *224:A *270:A 2.88018e-06
7 *224:A *94:8 0
*RES
1 *226:Y *224:A 22.4571 
*END

*D_NET *53 0.000727956
*CONN
*I *220:B I *D sky130_fd_sc_hd__nand2_1
*I *227:Y O *D sky130_fd_sc_hd__nand2_1
*CAP
1 *220:B 0.000168794
2 *227:Y 0.000168794
3 p[7] *220:B 0
4 *220:A *220:B 0.000133053
5 *222:A *220:B 0.000104974
6 *227:A *220:B 0.00015234
*RES
1 *227:Y *220:B 31.6714 
*END

*D_NET *54 0.00017963
*CONN
*I *269:B I *D sky130_fd_sc_hd__nand2_1
*I *228:Y O *D sky130_fd_sc_hd__nand2_1
*CAP
1 *269:B 5.22164e-05
2 *228:Y 5.22164e-05
3 *269:B *228:A 9.7049e-06
4 *269:B *94:8 1.74352e-05
5 *228:B *269:B 4.22908e-05
6 *269:A *269:B 5.7661e-06
*RES
1 *228:Y *269:B 19.975 
*END

*D_NET *55 0.000779382
*CONN
*I *267:B I *D sky130_fd_sc_hd__nand2_1
*I *229:Y O *D sky130_fd_sc_hd__inv_1
*CAP
1 *267:B 0.00022341
2 *229:Y 0.00022341
3 *267:B *267:A 7.50505e-05
4 *240:A *267:B 7.54868e-05
5 *240:B *267:B 7.82904e-05
6 *3:29 *267:B 0.000103735
7 *3:37 *267:B 0
*RES
1 *229:Y *267:B 31.5196 
*END

*D_NET *56 0.000375111
*CONN
*I *267:A I *D sky130_fd_sc_hd__nand2_1
*I *230:Y O *D sky130_fd_sc_hd__inv_1
*CAP
1 *267:A 0.000110244
2 *230:Y 0.000110244
3 *233:A *267:A 2.56601e-05
4 *267:B *267:A 7.50505e-05
5 *3:29 *267:A 3.33174e-05
6 *4:21 *267:A 2.05938e-05
*RES
1 *230:Y *267:A 29.8768 
*END

*D_NET *57 0.000333414
*CONN
*I *221:A I *D sky130_fd_sc_hd__inv_1
*I *231:Y O *D sky130_fd_sc_hd__nand2_1
*CAP
1 *221:A 0.000158359
2 *231:Y 0.000158359
3 *221:A *270:B 0
4 *221:A *67:12 0
5 *49:8 *221:A 1.66955e-05
*RES
1 *231:Y *221:A 29.8902 
*END

*D_NET *58 0.000563096
*CONN
*I *237:A I *D sky130_fd_sc_hd__inv_1
*I *232:Y O *D sky130_fd_sc_hd__nand2_1
*CAP
1 *237:A 0.000130412
2 *232:Y 0.000130412
3 *237:A *276:B 5.52238e-05
4 *237:A *63:8 1.98839e-05
5 *237:A *69:8 7.85876e-05
6 *232:B *237:A 0.000148576
*RES
1 *232:Y *237:A 21.8545 
*END

*D_NET *59 0.000607562
*CONN
*I *241:A I *D sky130_fd_sc_hd__inv_1
*I *233:Y O *D sky130_fd_sc_hd__nand2_1
*CAP
1 *241:A 0.00019958
2 *233:Y 0.00019958
3 *241:A *92:8 0.000132514
4 *233:B *241:A 0
5 *9:26 *241:A 7.58878e-05
*RES
1 *233:Y *241:A 22.7205 
*END

*D_NET *60 0.000317222
*CONN
*I *307:B I *D sky130_fd_sc_hd__nand2_1
*I *234:Y O *D sky130_fd_sc_hd__nand2_1
*CAP
1 *307:B 0.00011124
2 *234:Y 0.00011124
3 *307:B *307:A 5.66971e-05
4 *307:B *308:A 6.05161e-06
5 *307:B *308:B 1.16543e-05
6 *307:B *309:B 3.49456e-06
7 *307:B *311:B 3.49456e-06
8 *307:B *77:16 1.33506e-05
*RES
1 *234:Y *307:B 20.7964 
*END

*D_NET *61 0.000186667
*CONN
*I *282:B I *D sky130_fd_sc_hd__nand2_1
*I *235:Y O *D sky130_fd_sc_hd__nand2_1
*CAP
1 *282:B 5.89157e-05
2 *235:Y 5.89157e-05
3 *282:B *282:A 4.68028e-05
4 *282:B *283:A 1.35465e-05
5 *282:B *283:B 8.48678e-06
*RES
1 *235:Y *282:B 19.975 
*END

*D_NET *62 0.000779228
*CONN
*I *286:B I *D sky130_fd_sc_hd__nand2_1
*I *236:Y O *D sky130_fd_sc_hd__nand2_1
*CAP
1 *286:B 0.000152307
2 *236:Y 0.000152307
3 *286:B *236:A 0
4 *286:B *236:B 0.000103267
5 *286:B *245:A 3.67279e-06
6 *286:B *285:B 1.43369e-05
7 *286:B *288:A 2.37944e-05
8 *286:B *109:10 0.000172147
9 *286:B *109:19 5.56181e-05
10 *286:B *113:12 0.000101777
*RES
1 *236:Y *286:B 31.6714 
*END

*D_NET *63 0.000899384
*CONN
*I *278:A I *D sky130_fd_sc_hd__nand2_1
*I *276:B I *D sky130_fd_sc_hd__nand2_1
*I *237:Y O *D sky130_fd_sc_hd__inv_1
*CAP
1 *278:A 8.25694e-05
2 *276:B 4.81086e-05
3 *237:Y 9.60098e-05
4 *63:8 0.000226688
5 *276:B *276:A 5.59013e-05
6 *276:B *277:A 2.30219e-05
7 *276:B *280:A 0
8 *278:A *277:A 7.74135e-05
9 *278:A *101:10 3.72685e-05
10 *278:A *109:10 4.06094e-05
11 *63:8 *69:8 7.37323e-05
12 *232:A *276:B 5.80706e-06
13 *232:B *276:B 5.71472e-05
14 *237:A *276:B 5.52238e-05
15 *237:A *63:8 1.98839e-05
*RES
1 *237:Y *63:8 14.9518 
2 *63:8 *276:B 15.3714 
3 *63:8 *278:A 15.7464 
*END

*D_NET *64 0.000324113
*CONN
*I *239:A I *D sky130_fd_sc_hd__inv_1
*I *238:Y O *D sky130_fd_sc_hd__nand2_1
*CAP
1 *239:A 0.000119904
2 *238:Y 0.000119904
3 *239:A *65:12 3.92757e-05
4 *238:A *239:A 1.00332e-05
5 *240:B *239:A 1.14548e-05
6 *5:47 *239:A 2.3541e-05
*RES
1 *238:Y *239:A 29.783 
*END

*D_NET *65 0.00119441
*CONN
*I *262:A I *D sky130_fd_sc_hd__nand2_1
*I *263:A I *D sky130_fd_sc_hd__nand2_1
*I *239:Y O *D sky130_fd_sc_hd__inv_1
*CAP
1 *262:A 0
2 *263:A 5.55852e-05
3 *239:Y 0.000255113
4 *65:12 0.000310698
5 *263:A *263:B 1.85443e-05
6 *263:A *265:A 1.21289e-05
7 *263:A *266:A 3.18676e-05
8 *263:A *313:A 0
9 *263:A *88:8 0.000106008
10 *238:A *65:12 1.87097e-05
11 *239:A *65:12 3.92757e-05
12 *240:B *65:12 7.66879e-05
13 *262:B *263:A 4.80569e-05
14 *302:B *65:12 0.000170654
15 *8:23 *65:12 5.10822e-05
16 *29:12 *65:12 0
*RES
1 *239:Y *65:12 23.1125 
2 *65:12 *263:A 11.5143 
3 *65:12 *262:A 9.3 
*END

*D_NET *66 0.000254453
*CONN
*I *230:A I *D sky130_fd_sc_hd__inv_1
*I *240:Y O *D sky130_fd_sc_hd__nand2_1
*CAP
1 *230:A 0.000105152
2 *240:Y 0.000105152
3 *3:29 *230:A 4.41482e-05
*RES
1 *240:Y *230:A 20.4884 
*END

*D_NET *67 0.000636349
*CONN
*I *268:A I *D sky130_fd_sc_hd__nand2_1
*I *228:A I *D sky130_fd_sc_hd__nand2_1
*I *241:Y O *D sky130_fd_sc_hd__inv_1
*CAP
1 *268:A 0
2 *228:A 0.000113589
3 *241:Y 0.000145195
4 *67:12 0.000258784
5 *228:A *226:A 4.22908e-05
6 *228:A *268:B 1.97695e-05
7 *228:A *94:8 2.97137e-05
8 *67:12 *268:B 0
9 *67:12 *270:B 4.1331e-06
10 *221:A *67:12 0
11 *228:B *228:A 5.7661e-06
12 *269:B *228:A 9.7049e-06
13 *9:26 *67:12 7.40303e-06
*RES
1 *241:Y *67:12 20.2732 
2 *67:12 *228:A 11.925 
3 *67:12 *268:A 9.3 
*END

*D_NET *68 0.00062074
*CONN
*I *243:A I *D sky130_fd_sc_hd__inv_1
*I *242:Y O *D sky130_fd_sc_hd__nand2_1
*CAP
1 *243:A 0.000169209
2 *242:Y 0.000169209
3 *243:A *69:8 1.59935e-05
4 *232:B *243:A 5.7616e-05
5 *244:A *243:A 6.05198e-05
6 *4:13 *243:A 0.000114714
7 *9:11 *243:A 3.34783e-05
*RES
1 *242:Y *243:A 30.8366 
*END

*D_NET *69 0.00127872
*CONN
*I *277:A I *D sky130_fd_sc_hd__nand2_1
*I *276:A I *D sky130_fd_sc_hd__nand2_1
*I *243:Y O *D sky130_fd_sc_hd__inv_1
*CAP
1 *277:A 0.00024619
2 *276:A 1.92308e-05
3 *243:Y 0.000110243
4 *69:8 0.000375664
5 *276:A *101:10 5.58941e-05
6 *277:A *277:B 1.84865e-05
7 *277:A *279:A 1.51881e-05
8 *277:A *279:B 6.05161e-06
9 *277:A *101:10 9.82903e-05
10 *232:B *69:8 8.83076e-06
11 *237:A *69:8 7.85876e-05
12 *243:A *69:8 1.59935e-05
13 *276:B *276:A 5.59013e-05
14 *276:B *277:A 2.30219e-05
15 *278:A *277:A 7.74135e-05
16 *63:8 *69:8 7.37323e-05
*RES
1 *243:Y *69:8 15.7732 
2 *69:8 *276:A 14.5321 
3 *69:8 *277:A 17.9429 
*END

*D_NET *70 0.00039568
*CONN
*I *245:A I *D sky130_fd_sc_hd__inv_1
*I *244:Y O *D sky130_fd_sc_hd__nand2_1
*CAP
1 *245:A 0.000166412
2 *244:Y 0.000166412
3 *245:A *286:A 2.80741e-05
4 *286:B *245:A 3.67279e-06
5 *10:35 *245:A 3.11088e-05
*RES
1 *244:Y *245:A 30.3634 
*END

*D_NET *71 0.00102689
*CONN
*I *236:A I *D sky130_fd_sc_hd__nand2_1
*I *285:A I *D sky130_fd_sc_hd__nand2_1
*I *286:A I *D sky130_fd_sc_hd__nand2_1
*I *245:Y O *D sky130_fd_sc_hd__inv_1
*CAP
1 *236:A 0.000260417
2 *285:A 0
3 *286:A 9.376e-05
4 *245:Y 0
5 *71:19 0.000372144
6 *71:4 0.000205486
7 *236:A *236:B 0
8 *236:A *285:B 2.24497e-05
9 *71:19 *285:B 5.54817e-06
10 *71:19 *288:A 3.90086e-05
11 *245:A *286:A 2.80741e-05
12 *286:B *236:A 0
*RES
1 *245:Y *71:4 9.3 
2 *71:4 *286:A 10.8804 
3 *71:4 *71:19 6.77679 
4 *71:19 *285:A 13.8 
5 *71:19 *236:A 18.425 
*END

*D_NET *72 0.000225115
*CONN
*I *247:A I *D sky130_fd_sc_hd__inv_1
*I *246:Y O *D sky130_fd_sc_hd__nand2_1
*CAP
1 *247:A 7.11267e-05
2 *246:Y 7.11267e-05
3 *7:34 *247:A 8.28621e-05
*RES
1 *246:Y *247:A 20.2563 
*END

*D_NET *73 0.000426795
*CONN
*I *290:B I *D sky130_fd_sc_hd__nand2_1
*I *292:A I *D sky130_fd_sc_hd__nand2_1
*I *247:Y O *D sky130_fd_sc_hd__inv_1
*CAP
1 *290:B 1.03267e-05
2 *292:A 0
3 *247:Y 0.000141406
4 *73:12 0.000151732
5 *290:B *292:B 5.52302e-05
6 *290:B *293:B 3.18676e-05
7 *73:12 *294:A 2.56601e-05
8 *7:34 *73:12 1.05729e-05
*RES
1 *247:Y *73:12 20.2732 
2 *73:12 *292:A 9.3 
3 *73:12 *290:B 9.83571 
*END

*D_NET *74 0.000607961
*CONN
*I *249:A I *D sky130_fd_sc_hd__inv_1
*I *248:Y O *D sky130_fd_sc_hd__nand2_1
*CAP
1 *249:A 0.000233647
2 *248:Y 0.000233647
3 *249:A *297:A 2.8266e-06
4 *249:A *298:A 3.25792e-05
5 *249:A *298:B 2.80853e-05
6 *249:A *301:B 0
7 *5:32 *249:A 6.97409e-05
8 *5:47 *249:A 7.43578e-06
*RES
1 *248:Y *249:A 31.292 
*END

*D_NET *75 0.000717048
*CONN
*I *295:B I *D sky130_fd_sc_hd__nand2_1
*I *297:A I *D sky130_fd_sc_hd__nand2_1
*I *249:Y O *D sky130_fd_sc_hd__inv_1
*CAP
1 *295:B 0
2 *297:A 0.000142031
3 *249:Y 1.32762e-05
4 *75:6 0.000155307
5 *297:A *298:B 0.000124714
6 *297:A *304:A 5.74309e-05
7 *297:A *304:B 0
8 *297:A *119:10 0.000100248
9 *297:A *123:10 0
10 *75:6 *298:A 4.40835e-05
11 *75:6 *298:B 7.71303e-05
12 *249:A *297:A 2.8266e-06
*RES
1 *249:Y *75:6 10.0411 
2 *75:6 *297:A 21.1571 
3 *75:6 *295:B 9.3 
*END

*D_NET *76 0.000328257
*CONN
*I *251:A I *D sky130_fd_sc_hd__inv_1
*I *250:Y O *D sky130_fd_sc_hd__nand2_1
*CAP
1 *251:A 7.21633e-05
2 *250:Y 7.21633e-05
3 *251:A *259:A 0.000123352
4 *251:A *77:12 6.98553e-06
5 *260:A *251:A 5.35932e-05
*RES
1 *250:Y *251:A 29.4795 
*END

*D_NET *77 0.00136537
*CONN
*I *305:B I *D sky130_fd_sc_hd__nand2_1
*I *234:B I *D sky130_fd_sc_hd__nand2_1
*I *307:A I *D sky130_fd_sc_hd__nand2_1
*I *251:Y O *D sky130_fd_sc_hd__inv_1
*CAP
1 *305:B 5.18868e-05
2 *234:B 0
3 *307:A 1.05494e-05
4 *251:Y 0.000150339
5 *77:16 0.000228121
6 *77:12 0.000419797
7 *305:B *305:A 5.38444e-06
8 *305:B *113:12 7.25873e-06
9 *305:B *113:25 9.86486e-06
10 *305:B *129:8 3.86158e-05
11 *307:A *308:B 1.47872e-05
12 *77:12 *259:A 0.000100248
13 *77:12 *261:A 4.88537e-05
14 *77:16 *308:A 0.000141734
15 *77:16 *308:B 1.24368e-05
16 *77:16 *113:25 1.14168e-05
17 *77:16 *129:8 1.59373e-05
18 *251:A *77:12 6.98553e-06
19 *260:A *77:12 2.11079e-05
20 *307:B *307:A 5.66971e-05
21 *307:B *77:16 1.33506e-05
*RES
1 *251:Y *77:12 20.7911 
2 *77:12 *77:16 4.14286 
3 *77:16 *307:A 9.83571 
4 *77:16 *234:B 9.3 
5 *77:12 *305:B 11.1036 
*END

*D_NET *78 0.000567221
*CONN
*I *253:A I *D sky130_fd_sc_hd__inv_1
*I *252:Y O *D sky130_fd_sc_hd__nand2_1
*CAP
1 *253:A 0.000225455
2 *252:Y 0.000225455
3 *253:A *79:12 2.53112e-06
4 *253:A *113:12 2.80741e-05
5 *260:B *253:A 3.08664e-05
6 *10:35 *253:A 5.48394e-05
*RES
1 *252:Y *253:A 31.1848 
*END

*D_NET *79 0.00121367
*CONN
*I *315:B I *D sky130_fd_sc_hd__nand2_1
*I *317:A I *D sky130_fd_sc_hd__nand2_1
*I *253:Y O *D sky130_fd_sc_hd__inv_1
*CAP
1 *315:B 6.09842e-05
2 *317:A 4.41326e-05
3 *253:Y 0.00016671
4 *79:12 0.000271827
5 *315:B *316:A 4.68028e-05
6 *315:B *317:B 9.71197e-05
7 *315:B *318:A 5.4959e-05
8 *315:B *110:8 0
9 *315:B *138:6 0.000130419
10 *317:A *317:B 0.000132527
11 *317:A *318:B 3.87621e-05
12 *79:12 *316:B 1.71619e-05
13 *79:12 *87:12 7.3004e-05
14 *79:12 *113:12 7.67334e-05
15 *253:A *79:12 2.53112e-06
*RES
1 *253:Y *79:12 21.5946 
2 *79:12 *317:A 10.675 
3 *79:12 *315:B 11.9071 
*END

*D_NET *80 0.00038555
*CONN
*I *255:A I *D sky130_fd_sc_hd__inv_1
*I *254:Y O *D sky130_fd_sc_hd__nand2_1
*CAP
1 *255:A 5.52795e-05
2 *254:Y 5.52795e-05
3 *255:A *189:B 2.3541e-05
4 *254:A *255:A 0.000126582
5 *5:13 *255:A 0.000124868
*RES
1 *254:Y *255:A 29.4795 
*END

*D_NET *81 0.00105007
*CONN
*I *191:A I *D sky130_fd_sc_hd__nand2_1
*I *189:B I *D sky130_fd_sc_hd__nand2_1
*I *255:Y O *D sky130_fd_sc_hd__inv_1
*CAP
1 *191:A 0.000146963
2 *189:B 9.13238e-05
3 *255:Y 2.32136e-05
4 *81:6 0.0002615
5 *189:B *189:A 1.97695e-05
6 p[3] *191:A 1.65027e-05
7 *192:B *191:A 0.000125703
8 *254:A *191:A 0.000182964
9 *255:A *189:B 2.3541e-05
10 *5:13 *191:A 8.81971e-05
11 *20:10 *189:B 7.43578e-06
12 *20:10 *191:A 3.60082e-05
13 *20:19 *191:A 2.69483e-05
*RES
1 *255:Y *81:6 9.63036 
2 *81:6 *189:B 11.1036 
3 *81:6 *191:A 22.675 
*END

*D_NET *82 0.000524068
*CONN
*I *257:A I *D sky130_fd_sc_hd__inv_1
*I *256:Y O *D sky130_fd_sc_hd__nand2_1
*CAP
1 *257:A 0.000256307
2 *256:Y 0.000256307
3 *257:A *83:12 1.14548e-05
*RES
1 *256:Y *257:A 32.2116 
*END

*D_NET *83 0.00103069
*CONN
*I *196:A I *D sky130_fd_sc_hd__nand2_1
*I *194:B I *D sky130_fd_sc_hd__nand2_1
*I *257:Y O *D sky130_fd_sc_hd__inv_1
*CAP
1 *196:A 0.0001549
2 *194:B 1.00353e-05
3 *257:Y 0.000160269
4 *83:12 0.000325205
5 *196:A *194:A 2.85234e-05
6 *83:12 *136:14 2.50593e-05
7 *195:B *196:A 1.02301e-05
8 *196:B *196:A 4.71977e-05
9 *197:A *194:B 5.49995e-05
10 *197:A *196:A 2.46609e-05
11 *197:B *196:A 3.66562e-05
12 *197:B *83:12 2.72055e-05
13 *257:A *83:12 1.14548e-05
14 *24:10 *196:A 0.000114294
*RES
1 *257:Y *83:12 20.6839 
2 *83:12 *194:B 9.83571 
3 *83:12 *196:A 14.3893 
*END

*D_NET *84 0.00220574
*CONN
*I *259:A I *D sky130_fd_sc_hd__inv_1
*I *258:Y O *D sky130_fd_sc_hd__nand2_1
*CAP
1 *259:A 0.000773896
2 *258:Y 0.000773896
3 *259:A *261:A 1.42331e-05
4 *259:A *314:A 8.24449e-05
5 *259:A *322:A 5.49258e-05
6 *259:A *322:B 3.6337e-05
7 *259:A *87:12 0
8 *259:A *108:12 1.02911e-05
9 *250:A *259:A 2.84026e-05
10 *251:A *259:A 0.000123352
11 *252:A *259:A 0.000101777
12 *258:B *259:A 1.59373e-05
13 *41:8 *259:A 9.00031e-05
14 *77:12 *259:A 0.000100248
*RES
1 *258:Y *259:A 42.5062 
*END

*D_NET *85 0.00112874
*CONN
*I *204:B I *D sky130_fd_sc_hd__nand2_1
*I *206:A I *D sky130_fd_sc_hd__nand2_1
*I *259:Y O *D sky130_fd_sc_hd__inv_1
*CAP
1 *204:B 9.19965e-05
2 *206:A 0.000314738
3 *259:Y 5.2066e-05
4 *85:6 0.0004588
5 *212:B *206:A 0
6 *213:A *204:B 6.5185e-05
7 *213:A *206:A 0
8 *213:B *206:A 5.76121e-05
9 *41:8 *206:A 5.28427e-05
10 *41:8 *85:6 3.54964e-05
*RES
1 *259:Y *85:6 10.0411 
2 *85:6 *206:A 22.8357 
3 *85:6 *204:B 20.2464 
*END

*D_NET *86 0.00052938
*CONN
*I *261:A I *D sky130_fd_sc_hd__inv_1
*I *260:Y O *D sky130_fd_sc_hd__nand2_1
*CAP
1 *261:A 0.000154026
2 *260:Y 0.000154026
3 *261:A *113:12 0.000158241
4 *259:A *261:A 1.42331e-05
5 *77:12 *261:A 4.88537e-05
*RES
1 *260:Y *261:A 31.0598 
*END

*D_NET *87 0.00195521
*CONN
*I *216:A I *D sky130_fd_sc_hd__nand2_1
*I *214:B I *D sky130_fd_sc_hd__nand2_1
*I *261:Y O *D sky130_fd_sc_hd__inv_1
*CAP
1 *216:A 0
2 *214:B 0.000227506
3 *261:Y 0.000458205
4 *87:12 0.000685712
5 *214:B *214:A 5.52302e-05
6 *87:12 *323:A 0
7 *87:12 *113:12 0.000121888
8 *87:12 *141:16 0.000175512
9 *87:12 *146:12 0
10 *217:B *214:B 1.32552e-05
11 *223:A *87:12 5.80706e-06
12 *227:A *87:12 1.02504e-05
13 *227:B *214:B 3.41517e-06
14 *259:A *87:12 0
15 *42:8 *214:B 6.8274e-05
16 *42:10 *214:B 5.71472e-05
17 *79:12 *87:12 7.3004e-05
*RES
1 *261:Y *87:12 25.9518 
2 *87:12 *214:B 13.5679 
3 *87:12 *216:A 9.3 
*END

*D_NET *88 0.00136565
*CONN
*I *266:A I *D sky130_fd_sc_hd__inv_1
*I *263:B I *D sky130_fd_sc_hd__nand2_1
*I *264:B I *D sky130_fd_sc_hd__nand2_1
*I *262:Y O *D sky130_fd_sc_hd__nand2_1
*CAP
1 *266:A 0.000111431
2 *263:B 6.66696e-06
3 *264:B 8.00564e-05
4 *262:Y 0.000212035
5 *88:8 0.000187328
6 *264:B *293:A 1.04232e-05
7 *264:B *293:B 8.14744e-06
8 *266:A *265:A 0.000342191
9 *266:A *313:A 8.24256e-05
10 p[0] *266:A 8.48532e-05
11 p[2] *264:B 6.05161e-06
12 *262:B *263:B 1.04232e-05
13 *262:B *264:B 3.76337e-05
14 *262:B *88:8 2.95641e-05
15 *263:A *263:B 1.85443e-05
16 *263:A *266:A 3.18676e-05
17 *263:A *88:8 0.000106008
*RES
1 *262:Y *88:8 11.4964 
2 *88:8 *264:B 11.0857 
3 *88:8 *263:B 9.72857 
4 *262:Y *266:A 22.7205 
*END

*D_NET *89 0.0019103
*CONN
*I *265:A I *D sky130_fd_sc_hd__nand2_1
*I *263:Y O *D sky130_fd_sc_hd__nand2_1
*CAP
1 *265:A 0.000632317
2 *263:Y 0.000632317
3 p[0] *265:A 0.000205791
4 p[1] *265:A 2.84026e-05
5 *262:B *265:A 5.71472e-05
6 *263:A *265:A 1.21289e-05
7 *266:A *265:A 0.000342191
*RES
1 *263:Y *265:A 37.8857 
*END

*D_NET *90 0.000717293
*CONN
*I *265:B I *D sky130_fd_sc_hd__nand2_1
*I *264:Y O *D sky130_fd_sc_hd__nand2_1
*CAP
1 *265:B 0.000282127
2 *264:Y 0.000282127
3 p[2] *265:B 0.00015304
*RES
1 *264:Y *265:B 32.9571 
*END

*D_NET *91 0.00138676
*CONN
*I *224:B I *D sky130_fd_sc_hd__nand2_1
*I *271:B I *D sky130_fd_sc_hd__nand2_1
*I *273:A I *D sky130_fd_sc_hd__nand2_1
*I *266:Y O *D sky130_fd_sc_hd__inv_1
*CAP
1 *224:B 0.000258605
2 *271:B 8.14827e-06
3 *273:A 0
4 *266:Y 0.000189855
5 *91:17 0.000346001
6 *91:8 0.000269103
7 *224:B *271:A 0.000169927
8 *224:B *272:B 1.74352e-05
9 *224:B *273:B 1.69175e-05
10 *271:B *271:A 1.8461e-05
11 *271:B *273:B 1.02132e-05
12 *91:8 *273:B 1.8461e-05
13 *91:17 *273:B 3.62509e-05
14 *91:17 *274:B 1.13883e-05
15 p[0] *91:8 1.59935e-05
16 *224:A *224:B 0
*RES
1 *266:Y *91:8 11.8982 
2 *91:8 *273:A 9.3 
3 *91:8 *91:17 1.78571 
4 *91:17 *271:B 9.72857 
5 *91:17 *224:B 13.4607 
*END

*D_NET *92 0.00138465
*CONN
*I *275:A I *D sky130_fd_sc_hd__nand2_1
*I *268:B I *D sky130_fd_sc_hd__nand2_1
*I *267:Y O *D sky130_fd_sc_hd__nand2_1
*CAP
1 *275:A 0
2 *268:B 0.000217337
3 *267:Y 9.19769e-05
4 *92:8 0.000309313
5 *268:B *270:A 6.05161e-06
6 *268:B *95:12 0
7 *224:A *268:B 0.000126902
8 *228:A *268:B 1.97695e-05
9 *233:B *92:8 5.62995e-05
10 *241:A *92:8 0.000132514
11 *275:B *268:B 6.65398e-05
12 *9:26 *92:8 0.000357952
13 *67:12 *268:B 0
*RES
1 *267:Y *92:8 13.1393 
2 *92:8 *268:B 22.6393 
3 *92:8 *275:A 9.3 
*END

*D_NET *93 0.000565799
*CONN
*I *226:A I *D sky130_fd_sc_hd__nand2_1
*I *270:A I *D sky130_fd_sc_hd__nand2_1
*I *268:Y O *D sky130_fd_sc_hd__nand2_1
*CAP
1 *226:A 3.47493e-05
2 *270:A 0.000163646
3 *268:Y 0.000198395
4 *226:A *94:8 1.97695e-05
5 *270:A *270:B 0
6 *270:A *274:A 0
7 *270:A *95:12 0
8 *224:A *226:A 9.80173e-05
9 *224:A *270:A 2.88018e-06
10 *228:A *226:A 4.22908e-05
11 *268:B *270:A 6.05161e-06
*RES
1 *268:Y *270:A 30.0821 
2 *268:Y *226:A 19.975 
*END

*D_NET *94 0.00106494
*CONN
*I *226:B I *D sky130_fd_sc_hd__nand2_1
*I *270:B I *D sky130_fd_sc_hd__nand2_1
*I *269:Y O *D sky130_fd_sc_hd__nand2_1
*CAP
1 *226:B 0
2 *270:B 0.000261073
3 *269:Y 0.00018054
4 *94:8 0.000441613
5 *221:A *270:B 0
6 *224:A *94:8 0
7 *226:A *94:8 1.97695e-05
8 *228:A *94:8 2.97137e-05
9 *228:B *94:8 0.000110665
10 *269:B *94:8 1.74352e-05
11 *270:A *270:B 0
12 *49:8 *94:8 0
13 *67:12 *270:B 4.1331e-06
*RES
1 *269:Y *94:8 12.2107 
2 *94:8 *270:B 22.5143 
3 *94:8 *226:B 9.3 
*END

*D_NET *95 0.00130499
*CONN
*I *271:A I *D sky130_fd_sc_hd__nand2_1
*I *272:A I *D sky130_fd_sc_hd__nand2_1
*I *270:Y O *D sky130_fd_sc_hd__nand2_1
*CAP
1 *271:A 5.85226e-05
2 *272:A 0
3 *270:Y 0.000435709
4 *95:12 0.000494232
5 *271:A *272:B 4.80569e-05
6 *95:12 *274:A 8.00806e-05
7 *95:12 *99:20 0
8 *224:B *271:A 0.000169927
9 *268:B *95:12 0
10 *270:A *95:12 0
11 *271:B *271:A 1.8461e-05
*RES
1 *270:Y *95:12 24.0679 
2 *95:12 *272:A 9.3 
3 *95:12 *271:A 11.5143 
*END

*D_NET *96 0.00036121
*CONN
*I *272:B I *D sky130_fd_sc_hd__nand2_1
*I *273:B I *D sky130_fd_sc_hd__nand2_1
*I *271:Y O *D sky130_fd_sc_hd__nand2_1
*CAP
1 *272:B 4.86035e-05
2 *273:B 4.41329e-05
3 *271:Y 0
4 *96:4 9.27364e-05
5 *273:B *274:B 2.84026e-05
6 *224:B *272:B 1.74352e-05
7 *224:B *273:B 1.69175e-05
8 *271:A *272:B 4.80569e-05
9 *271:B *273:B 1.02132e-05
10 *91:8 *273:B 1.8461e-05
11 *91:17 *273:B 3.62509e-05
*RES
1 *271:Y *96:4 9.3 
2 *96:4 *273:B 10.675 
3 *96:4 *272:B 10.675 
*END

*D_NET *97 0.000394201
*CONN
*I *274:A I *D sky130_fd_sc_hd__nand2_1
*I *272:Y O *D sky130_fd_sc_hd__nand2_1
*CAP
1 *274:A 0.00015706
2 *272:Y 0.00015706
3 *270:A *274:A 0
4 *95:12 *274:A 8.00806e-05
*RES
1 *272:Y *274:A 30.4929 
*END

*D_NET *98 0.000425799
*CONN
*I *274:B I *D sky130_fd_sc_hd__nand2_1
*I *273:Y O *D sky130_fd_sc_hd__nand2_1
*CAP
1 *274:B 0.000193004
2 *273:Y 0.000193004
3 p[0] *274:B 0
4 *273:B *274:B 2.84026e-05
5 *91:17 *274:B 1.13883e-05
*RES
1 *273:Y *274:B 30.4929 
*END

*D_NET *99 0.00306129
*CONN
*I *291:A I *D sky130_fd_sc_hd__nand2_1
*I *290:A I *D sky130_fd_sc_hd__nand2_1
*I *274:Y O *D sky130_fd_sc_hd__nand2_1
*CAP
1 *291:A 0
2 *290:A 4.8182e-05
3 *274:Y 0.00129971
4 *99:20 0.00134789
5 *290:A *291:B 4.52782e-05
6 *290:A *292:B 7.43578e-06
7 *290:A *293:A 5.52238e-05
8 *290:A *293:B 0.000145161
9 p[0] *99:20 0.000112404
10 *95:12 *99:20 0
*RES
1 *274:Y *99:20 31.4132 
2 *99:20 *290:A 11.6393 
3 *99:20 *291:A 9.3 
*END

*D_NET *100 0.00126604
*CONN
*I *282:A I *D sky130_fd_sc_hd__nand2_1
*I *235:B I *D sky130_fd_sc_hd__nand2_1
*I *280:B I *D sky130_fd_sc_hd__nand2_1
*I *275:Y O *D sky130_fd_sc_hd__nand2_1
*CAP
1 *282:A 4.88037e-05
2 *235:B 0
3 *280:B 0
4 *275:Y 0.000220593
5 *100:21 0.000210543
6 *100:8 0.000382333
7 *282:A *283:A 0.000156902
8 *282:A *283:B 4.13389e-05
9 *100:8 *280:A 5.80706e-06
10 *100:21 *280:A 0.000106589
11 *232:A *100:8 0
12 *233:A *100:8 2.8266e-06
13 *282:B *282:A 4.68028e-05
14 *3:29 *100:8 0
15 *4:21 *100:8 4.35048e-05
*RES
1 *275:Y *100:8 17.8714 
2 *100:8 *280:B 13.8 
3 *100:8 *100:21 7.89286 
4 *100:21 *235:B 9.3 
5 *100:21 *282:A 11.5143 
*END

*D_NET *101 0.00167449
*CONN
*I *284:A I *D sky130_fd_sc_hd__nand2_1
*I *277:B I *D sky130_fd_sc_hd__nand2_1
*I *278:B I *D sky130_fd_sc_hd__nand2_1
*I *276:Y O *D sky130_fd_sc_hd__nand2_1
*CAP
1 *284:A 0.000247003
2 *277:B 1.58368e-05
3 *278:B 0
4 *276:Y 0.000176882
5 *101:12 1.58368e-05
6 *101:10 0.000423885
7 *277:B *279:A 5.50052e-05
8 *284:A *279:A 0.000261348
9 *284:A *104:6 1.62025e-05
10 *232:A *101:10 0
11 *232:B *284:A 2.50593e-05
12 *232:B *101:10 0.000139613
13 *276:A *101:10 5.58941e-05
14 *277:A *277:B 1.84865e-05
15 *277:A *101:10 9.82903e-05
16 *278:A *101:10 3.72685e-05
17 *9:11 *101:10 8.78763e-05
*RES
1 *276:Y *101:10 17.8 
2 *101:10 *101:12 4.5 
3 *101:12 *278:B 9.3 
4 *101:12 *277:B 9.83571 
5 *101:10 *284:A 17.8536 
*END

*D_NET *102 0.00065598
*CONN
*I *279:A I *D sky130_fd_sc_hd__nand2_1
*I *277:Y O *D sky130_fd_sc_hd__nand2_1
*CAP
1 *279:A 0.000119724
2 *277:Y 0.000119724
3 *279:A *279:B 5.64677e-05
4 *279:A *104:6 2.85234e-05
5 *277:A *279:A 1.51881e-05
6 *277:B *279:A 5.50052e-05
7 *284:A *279:A 0.000261348
*RES
1 *277:Y *279:A 22.0286 
*END

*D_NET *103 0.000196821
*CONN
*I *279:B I *D sky130_fd_sc_hd__nand2_1
*I *278:Y O *D sky130_fd_sc_hd__nand2_1
*CAP
1 *279:B 6.71508e-05
2 *278:Y 6.71508e-05
3 *277:A *279:B 6.05161e-06
4 *279:A *279:B 5.64677e-05
*RES
1 *278:Y *279:B 19.975 
*END

*D_NET *104 0.000953613
*CONN
*I *281:A I *D sky130_fd_sc_hd__nand2_1
*I *235:A I *D sky130_fd_sc_hd__nand2_1
*I *280:A I *D sky130_fd_sc_hd__nand2_1
*I *279:Y O *D sky130_fd_sc_hd__nand2_1
*CAP
1 *281:A 0
2 *235:A 2.45343e-05
3 *280:A 0.000113173
4 *279:Y 0.000125109
5 *104:21 4.74869e-05
6 *104:6 0.000261234
7 *235:A *283:A 5.4959e-05
8 *280:A *105:12 3.87671e-05
9 *104:6 *284:B 5.50052e-05
10 *104:6 *109:10 7.62237e-05
11 *232:A *280:A 0
12 *276:B *280:A 0
13 *279:A *104:6 2.85234e-05
14 *284:A *104:6 1.62025e-05
15 *100:8 *280:A 5.80706e-06
16 *100:21 *280:A 0.000106589
*RES
1 *279:Y *104:6 12.3 
2 *104:6 *280:A 21.3893 
3 *104:6 *104:21 0.428571 
4 *104:21 *235:A 10.2464 
5 *104:21 *281:A 9.3 
*END

*D_NET *105 0.00066646
*CONN
*I *284:B I *D sky130_fd_sc_hd__nand2_1
*I *281:B I *D sky130_fd_sc_hd__nand2_1
*I *280:Y O *D sky130_fd_sc_hd__nand2_1
*CAP
1 *284:B 2.50801e-05
2 *281:B 0
3 *280:Y 0.000261264
4 *105:12 0.000286344
5 *280:A *105:12 3.87671e-05
6 *104:6 *284:B 5.50052e-05
*RES
1 *280:Y *105:12 22.0143 
2 *105:12 *281:B 9.3 
3 *105:12 *284:B 9.83571 
*END

*D_NET *106 0.000915323
*CONN
*I *283:A I *D sky130_fd_sc_hd__nand2_1
*I *281:Y O *D sky130_fd_sc_hd__nand2_1
*CAP
1 *283:A 0.000321175
2 *281:Y 0.000321175
3 *283:A *283:B 2.64325e-05
4 *283:A *108:12 2.11336e-05
5 *235:A *283:A 5.4959e-05
6 *282:A *283:A 0.000156902
7 *282:B *283:A 1.35465e-05
*RES
1 *281:Y *283:A 23.6893 
*END

*D_NET *107 0.000179726
*CONN
*I *283:B I *D sky130_fd_sc_hd__nand2_1
*I *282:Y O *D sky130_fd_sc_hd__nand2_1
*CAP
1 *283:B 5.17338e-05
2 *282:Y 5.17338e-05
3 *282:A *283:B 4.13389e-05
4 *282:B *283:B 8.48678e-06
5 *283:A *283:B 2.64325e-05
*RES
1 *282:Y *283:B 19.975 
*END

*D_NET *108 0.00202723
*CONN
*I *296:A I *D sky130_fd_sc_hd__nand2_1
*I *295:A I *D sky130_fd_sc_hd__nand2_1
*I *283:Y O *D sky130_fd_sc_hd__nand2_1
*CAP
1 *296:A 0
2 *295:A 8.80136e-05
3 *283:Y 0.000710126
4 *108:12 0.00079814
5 *295:A *296:B 5.1709e-05
6 *295:A *298:A 0.000144773
7 *295:A *298:B 0
8 *108:12 *298:B 0
9 *258:B *108:12 0.000140443
10 *259:A *108:12 1.02911e-05
11 *283:A *108:12 2.11336e-05
12 *5:47 *108:12 0
13 *6:39 *108:12 4.90514e-05
14 *9:51 *108:12 1.35465e-05
*RES
1 *283:Y *108:12 27.3536 
2 *108:12 *295:A 11.925 
3 *108:12 *296:A 9.3 
*END

*D_NET *109 0.00227194
*CONN
*I *236:B I *D sky130_fd_sc_hd__nand2_1
*I *285:B I *D sky130_fd_sc_hd__nand2_1
*I *287:A I *D sky130_fd_sc_hd__nand2_1
*I *284:Y O *D sky130_fd_sc_hd__nand2_1
*CAP
1 *236:B 0.000102335
2 *285:B 0.000122969
3 *287:A 0
4 *284:Y 0.000532758
5 *109:19 0.000262169
6 *109:10 0.000569624
7 *285:B *288:A 1.00887e-05
8 *285:B *110:8 0.000181796
9 *236:A *236:B 0
10 *236:A *285:B 2.24497e-05
11 *278:A *109:10 4.06094e-05
12 *286:B *236:B 0.000103267
13 *286:B *285:B 1.43369e-05
14 *286:B *109:10 0.000172147
15 *286:B *109:19 5.56181e-05
16 *71:19 *285:B 5.54817e-06
17 *104:6 *109:10 7.62237e-05
*RES
1 *284:Y *109:10 23.175 
2 *109:10 *287:A 13.8 
3 *109:10 *109:19 0.732143 
4 *109:19 *285:B 25.3 
5 *109:19 *236:B 16.05 
*END

*D_NET *110 0.00063387
*CONN
*I *287:B I *D sky130_fd_sc_hd__nand2_1
*I *289:A I *D sky130_fd_sc_hd__inv_1
*I *285:Y O *D sky130_fd_sc_hd__nand2_1
*CAP
1 *287:B 0
2 *289:A 3.70272e-05
3 *285:Y 0.000163059
4 *110:8 0.000200086
5 *110:8 *288:B 5.19019e-05
6 *285:B *110:8 0.000181796
7 *315:B *110:8 0
*RES
1 *285:Y *110:8 12.7286 
2 *110:8 *289:A 9.99196 
3 *110:8 *287:B 9.3 
*END

*D_NET *111 0.000249642
*CONN
*I *288:A I *D sky130_fd_sc_hd__nand2_1
*I *286:Y O *D sky130_fd_sc_hd__nand2_1
*CAP
1 *288:A 4.89072e-05
2 *286:Y 4.89072e-05
3 *288:A *113:12 7.89362e-05
4 *285:B *288:A 1.00887e-05
5 *286:B *288:A 2.37944e-05
6 *71:19 *288:A 3.90086e-05
*RES
1 *286:Y *288:A 29.2429 
*END

*D_NET *112 0.000210127
*CONN
*I *288:B I *D sky130_fd_sc_hd__nand2_1
*I *287:Y O *D sky130_fd_sc_hd__nand2_1
*CAP
1 *288:B 7.91124e-05
2 *287:Y 7.91124e-05
3 *110:8 *288:B 5.19019e-05
*RES
1 *287:Y *288:B 19.975 
*END

*D_NET *113 0.00266039
*CONN
*I *306:A I *D sky130_fd_sc_hd__nand2_1
*I *234:A I *D sky130_fd_sc_hd__nand2_1
*I *305:A I *D sky130_fd_sc_hd__nand2_1
*I *288:Y O *D sky130_fd_sc_hd__nand2_1
*CAP
1 *306:A 0
2 *234:A 1.73215e-05
3 *305:A 1.6432e-05
4 *288:Y 0.000696645
5 *113:25 0.000219336
6 *113:12 0.000915092
7 *234:A *308:A 5.65955e-05
8 *305:A *129:8 8.29398e-06
9 *113:25 *308:A 1.59373e-05
10 *113:25 *129:8 0.000115159
11 *253:A *113:12 2.80741e-05
12 *261:A *113:12 0.000158241
13 *286:B *113:12 0.000101777
14 *288:A *113:12 7.89362e-05
15 *305:B *305:A 5.38444e-06
16 *305:B *113:12 7.25873e-06
17 *305:B *113:25 9.86486e-06
18 *77:16 *113:25 1.14168e-05
19 *79:12 *113:12 7.67334e-05
20 *87:12 *113:12 0.000121888
*RES
1 *288:Y *113:12 30.8536 
2 *113:12 *305:A 9.72857 
3 *113:12 *113:25 3.33929 
4 *113:25 *234:A 9.83571 
5 *113:25 *306:A 9.3 
*END

*D_NET *114 0.000382885
*CONN
*I *315:A I *D sky130_fd_sc_hd__nand2_1
*I *316:A I *D sky130_fd_sc_hd__nand2_1
*I *289:Y O *D sky130_fd_sc_hd__inv_1
*CAP
1 *315:A 0
2 *316:A 9.07892e-05
3 *289:Y 6.31598e-05
4 *114:6 0.000153949
5 *316:A *318:A 1.19813e-05
6 *316:A *138:6 1.62025e-05
7 *315:B *316:A 4.68028e-05
*RES
1 *289:Y *114:6 10.4518 
2 *114:6 *316:A 11.5143 
3 *114:6 *315:A 9.3 
*END

*D_NET *115 0.00079305
*CONN
*I *294:A I *D sky130_fd_sc_hd__inv_1
*I *291:B I *D sky130_fd_sc_hd__nand2_1
*I *292:B I *D sky130_fd_sc_hd__nand2_1
*I *290:Y O *D sky130_fd_sc_hd__nand2_1
*CAP
1 *294:A 0.000105963
2 *291:B 3.35834e-05
3 *292:B 0.000138185
4 *290:Y 0
5 *115:6 0.000188489
6 *115:4 0.000122685
7 *291:B *293:A 0
8 *292:B *293:B 4.69993e-05
9 *246:A *294:A 0
10 *290:A *291:B 4.52782e-05
11 *290:A *292:B 7.43578e-06
12 *290:B *292:B 5.52302e-05
13 *7:34 *294:A 2.3541e-05
14 *29:12 *294:A 0
15 *73:12 *294:A 2.56601e-05
*RES
1 *290:Y *115:4 9.3 
2 *115:4 *115:6 0.428571 
3 *115:6 *292:B 11.9071 
4 *115:6 *291:B 10.2643 
5 *115:4 *294:A 20.1795 
*END

*D_NET *116 0.000326112
*CONN
*I *293:A I *D sky130_fd_sc_hd__nand2_1
*I *291:Y O *D sky130_fd_sc_hd__nand2_1
*CAP
1 *293:A 0.000105135
2 *291:Y 0.000105135
3 *293:A *293:B 2.32013e-05
4 p[2] *293:A 1.72894e-05
5 *262:B *293:A 9.7049e-06
6 *264:B *293:A 1.04232e-05
7 *290:A *293:A 5.52238e-05
8 *291:B *293:A 0
*RES
1 *291:Y *293:A 20.7964 
*END

*D_NET *117 0.000628106
*CONN
*I *293:B I *D sky130_fd_sc_hd__nand2_1
*I *292:Y O *D sky130_fd_sc_hd__nand2_1
*CAP
1 *293:B 0.000186364
2 *292:Y 0.000186364
3 *264:B *293:B 8.14744e-06
4 *290:A *293:B 0.000145161
5 *290:B *293:B 3.18676e-05
6 *292:B *293:B 4.69993e-05
7 *293:A *293:B 2.32013e-05
*RES
1 *292:Y *293:B 22.7429 
*END

*D_NET *118 0.000754644
*CONN
*I *299:B I *D sky130_fd_sc_hd__nand2_1
*I *301:A I *D sky130_fd_sc_hd__nand2_1
*I *294:Y O *D sky130_fd_sc_hd__inv_1
*CAP
1 *299:B 0.000118248
2 *301:A 0
3 *294:Y 0.00015469
4 *118:10 0.000272938
5 *299:B *301:B 5.94737e-05
6 *299:B *303:A 5.52238e-05
7 *299:B *303:B 6.42338e-05
8 *299:B *123:8 6.05161e-06
9 *118:10 *301:B 4.1331e-06
10 *246:A *118:10 0
11 *7:34 *118:10 1.96517e-05
12 *8:13 *299:B 0
13 *8:13 *118:10 0
*RES
1 *294:Y *118:10 16.0768 
2 *118:10 *301:A 13.8 
3 *118:10 *299:B 16.5857 
*END

*D_NET *119 0.00112906
*CONN
*I *296:B I *D sky130_fd_sc_hd__nand2_1
*I *304:A I *D sky130_fd_sc_hd__nand2_1
*I *297:B I *D sky130_fd_sc_hd__nand2_1
*I *295:Y O *D sky130_fd_sc_hd__nand2_1
*CAP
1 *296:B 0.000115301
2 *304:A 3.35896e-05
3 *297:B 0.000112584
4 *295:Y 0
5 *119:10 0.000281138
6 *119:4 0.000250265
7 *296:B *298:A 9.22103e-06
8 *296:B *298:B 1.24368e-05
9 *119:10 *298:B 4.27338e-05
10 *295:A *296:B 5.1709e-05
11 *297:A *304:A 5.74309e-05
12 *297:A *119:10 0.000100248
13 *6:39 *297:B 6.24018e-05
*RES
1 *295:Y *119:4 9.3 
2 *119:4 *119:10 6.78571 
3 *119:10 *297:B 15.9116 
4 *119:10 *304:A 14.6661 
5 *119:4 *296:B 11.8179 
*END

*D_NET *120 0.00107898
*CONN
*I *298:A I *D sky130_fd_sc_hd__nand2_1
*I *296:Y O *D sky130_fd_sc_hd__nand2_1
*CAP
1 *298:A 0.000354646
2 *296:Y 0.000354646
3 *298:A *298:B 4.72372e-05
4 *298:A *301:B 3.07555e-05
5 *298:A *122:8 5.52302e-05
6 *298:A *123:10 5.80706e-06
7 *249:A *298:A 3.25792e-05
8 *295:A *298:A 0.000144773
9 *296:B *298:A 9.22103e-06
10 *75:6 *298:A 4.40835e-05
*RES
1 *296:Y *298:A 32.975 
*END

*D_NET *121 0.000710282
*CONN
*I *298:B I *D sky130_fd_sc_hd__nand2_1
*I *297:Y O *D sky130_fd_sc_hd__nand2_1
*CAP
1 *298:B 0.000188972
2 *297:Y 0.000188972
3 *298:B *122:8 0
4 *249:A *298:B 2.80853e-05
5 *295:A *298:B 0
6 *296:B *298:B 1.24368e-05
7 *297:A *298:B 0.000124714
8 *298:A *298:B 4.72372e-05
9 *75:6 *298:B 7.71303e-05
10 *108:12 *298:B 0
11 *119:10 *298:B 4.27338e-05
*RES
1 *297:Y *298:B 31.85 
*END

*D_NET *122 0.000411713
*CONN
*I *300:A I *D sky130_fd_sc_hd__nand2_1
*I *299:A I *D sky130_fd_sc_hd__nand2_1
*I *298:Y O *D sky130_fd_sc_hd__nand2_1
*CAP
1 *300:A 0
2 *299:A 7.67061e-06
3 *298:Y 0.000120607
4 *122:8 0.000128277
5 *299:A *303:A 3.03304e-05
6 *299:A *123:8 3.18676e-05
7 *122:8 *303:A 2.37575e-05
8 *122:8 *123:8 1.39726e-05
9 *298:A *122:8 5.52302e-05
10 *298:B *122:8 0
*RES
1 *298:Y *122:8 11.4964 
2 *122:8 *299:A 9.83571 
3 *122:8 *300:A 9.3 
*END

*D_NET *123 0.00137305
*CONN
*I *304:B I *D sky130_fd_sc_hd__nand2_1
*I *300:B I *D sky130_fd_sc_hd__nand2_1
*I *301:B I *D sky130_fd_sc_hd__nand2_1
*I *299:Y O *D sky130_fd_sc_hd__nand2_1
*CAP
1 *304:B 0.000202137
2 *300:B 3.13277e-05
3 *301:B 0.000132021
4 *299:Y 7.50613e-05
5 *123:10 0.00019636
6 *123:8 0.000310209
7 *304:B *190:A 0
8 *123:8 *303:A 1.02936e-05
9 *249:A *301:B 0
10 *256:B *304:B 0
11 *256:B *123:10 0
12 *297:A *304:B 0
13 *297:A *123:10 0
14 *298:A *301:B 3.07555e-05
15 *298:A *123:10 5.80706e-06
16 *299:A *123:8 3.18676e-05
17 *299:B *301:B 5.94737e-05
18 *299:B *123:8 6.05161e-06
19 *5:32 *301:B 3.18676e-05
20 *6:26 *304:B 2.83284e-06
21 *6:39 *304:B 0.000228876
22 *118:10 *301:B 4.1331e-06
23 *122:8 *123:8 1.39726e-05
*RES
1 *299:Y *123:8 15.1571 
2 *123:8 *123:10 0.732143 
3 *123:10 *301:B 16.5857 
4 *123:10 *300:B 14.3357 
5 *123:8 *304:B 18.2286 
*END

*D_NET *124 0.000556121
*CONN
*I *303:A I *D sky130_fd_sc_hd__nand2_1
*I *300:Y O *D sky130_fd_sc_hd__nand2_1
*CAP
1 *303:A 0.000197112
2 *300:Y 0.000197112
3 *303:A *189:A 4.22908e-05
4 *299:A *303:A 3.03304e-05
5 *299:B *303:A 5.52238e-05
6 *122:8 *303:A 2.37575e-05
7 *123:8 *303:A 1.02936e-05
*RES
1 *300:Y *303:A 22.1714 
*END

*D_NET *125 0.000402771
*CONN
*I *303:B I *D sky130_fd_sc_hd__nand2_1
*I *301:Y O *D sky130_fd_sc_hd__nand2_1
*CAP
1 *303:B 0.000155626
2 *301:Y 0.000155626
3 *256:B *303:B 0
4 *299:B *303:B 6.42338e-05
5 *5:32 *303:B 2.72859e-05
6 *8:13 *303:B 0
*RES
1 *301:Y *303:B 30.1893 
*END

*D_NET *126 0.000231514
*CONN
*I *313:A I *D sky130_fd_sc_hd__inv_1
*I *302:Y O *D sky130_fd_sc_hd__nand2_1
*CAP
1 *313:A 7.45443e-05
2 *302:Y 7.45443e-05
3 *263:A *313:A 0
4 *266:A *313:A 8.24256e-05
*RES
1 *302:Y *313:A 20.2563 
*END

*D_NET *127 0.000591447
*CONN
*I *190:A I *D sky130_fd_sc_hd__nand2_1
*I *189:A I *D sky130_fd_sc_hd__nand2_1
*I *303:Y O *D sky130_fd_sc_hd__nand2_1
*CAP
1 *190:A 0.000132956
2 *189:A 5.88353e-05
3 *303:Y 0.000191791
4 *189:B *189:A 1.97695e-05
5 *256:B *190:A 0.00014391
6 *303:A *189:A 4.22908e-05
7 *304:B *190:A 0
8 *6:26 *190:A 1.89507e-06
*RES
1 *303:Y *189:A 19.975 
2 *303:Y *190:A 30.4929 
*END

*D_NET *128 0.000903112
*CONN
*I *311:A I *D sky130_fd_sc_hd__nand2_1
*I *309:B I *D sky130_fd_sc_hd__nand2_1
*I *304:Y O *D sky130_fd_sc_hd__nand2_1
*CAP
1 *311:A 0
2 *309:B 0.000100584
3 *304:Y 0.000297475
4 *128:12 0.000398059
5 *309:B *311:B 4.68028e-05
6 *307:B *309:B 3.49456e-06
7 *6:39 *128:12 5.66971e-05
*RES
1 *304:Y *128:12 23.2107 
2 *128:12 *309:B 11.5143 
3 *128:12 *311:A 9.3 
*END

*D_NET *129 0.000692472
*CONN
*I *306:B I *D sky130_fd_sc_hd__nand2_1
*I *314:A I *D sky130_fd_sc_hd__nand2_1
*I *305:Y O *D sky130_fd_sc_hd__nand2_1
*CAP
1 *306:B 0
2 *314:A 0.000180724
3 *305:Y 3.52873e-05
4 *129:8 0.000216011
5 *259:A *314:A 8.24449e-05
6 *305:A *129:8 8.29398e-06
7 *305:B *129:8 3.86158e-05
8 *77:16 *129:8 1.59373e-05
9 *113:25 *129:8 0.000115159
*RES
1 *305:Y *129:8 10.675 
2 *129:8 *314:A 21.4964 
3 *129:8 *306:B 9.3 
*END

*D_NET *130 0.000715819
*CONN
*I *308:A I *D sky130_fd_sc_hd__nand2_1
*I *306:Y O *D sky130_fd_sc_hd__nand2_1
*CAP
1 *308:A 0.000181695
2 *306:Y 0.000181695
3 *308:A *308:B 0.00013211
4 *234:A *308:A 5.65955e-05
5 *307:B *308:A 6.05161e-06
6 *77:16 *308:A 0.000141734
7 *113:25 *308:A 1.59373e-05
*RES
1 *306:Y *308:A 32.1714 
*END

*D_NET *131 0.000474549
*CONN
*I *308:B I *D sky130_fd_sc_hd__nand2_1
*I *307:Y O *D sky130_fd_sc_hd__nand2_1
*CAP
1 *308:B 0.00015178
2 *307:Y 0.00015178
3 *307:A *308:B 1.47872e-05
4 *307:B *308:B 1.16543e-05
5 *308:A *308:B 0.00013211
6 *77:16 *308:B 1.24368e-05
*RES
1 *307:Y *308:B 30.4929 
*END

*D_NET *132 0.000898959
*CONN
*I *310:A I *D sky130_fd_sc_hd__nand2_1
*I *309:A I *D sky130_fd_sc_hd__nand2_1
*I *308:Y O *D sky130_fd_sc_hd__nand2_1
*CAP
1 *310:A 0.000112113
2 *309:A 0
3 *308:Y 0.000306671
4 *132:10 0.000418784
5 *310:A *133:23 6.13903e-05
*RES
1 *308:Y *132:10 17.925 
2 *132:10 *309:A 13.8 
3 *132:10 *310:A 16.05 
*END

*D_NET *133 0.000958249
*CONN
*I *314:B I *D sky130_fd_sc_hd__nand2_1
*I *310:B I *D sky130_fd_sc_hd__nand2_1
*I *311:B I *D sky130_fd_sc_hd__nand2_1
*I *309:Y O *D sky130_fd_sc_hd__nand2_1
*CAP
1 *314:B 0.000205468
2 *310:B 0
3 *311:B 5.2554e-05
4 *309:Y 4.39727e-05
5 *133:23 0.000287419
6 *133:6 0.000178477
7 *314:B *312:A 3.87621e-05
8 *133:23 *312:B 3.99088e-05
9 *196:B *314:B 0
10 *307:B *311:B 3.49456e-06
11 *309:B *311:B 4.68028e-05
12 *310:A *133:23 6.13903e-05
*RES
1 *309:Y *133:6 9.83571 
2 *133:6 *311:B 10.6929 
3 *133:6 *133:23 10.6429 
4 *133:23 *310:B 9.3 
5 *133:23 *314:B 13.1571 
*END

*D_NET *134 0.000197254
*CONN
*I *312:A I *D sky130_fd_sc_hd__nand2_1
*I *310:Y O *D sky130_fd_sc_hd__nand2_1
*CAP
1 *312:A 7.92458e-05
2 *310:Y 7.92458e-05
3 *195:B *312:A 0
4 *314:B *312:A 3.87621e-05
*RES
1 *310:Y *312:A 19.975 
*END

*D_NET *135 0.000214282
*CONN
*I *312:B I *D sky130_fd_sc_hd__nand2_1
*I *311:Y O *D sky130_fd_sc_hd__nand2_1
*CAP
1 *312:B 8.71868e-05
2 *311:Y 8.71868e-05
3 *133:23 *312:B 3.99088e-05
*RES
1 *311:Y *312:B 29.2429 
*END

*D_NET *136 0.000852977
*CONN
*I *195:A I *D sky130_fd_sc_hd__nand2_1
*I *194:A I *D sky130_fd_sc_hd__nand2_1
*I *312:Y O *D sky130_fd_sc_hd__nand2_1
*CAP
1 *195:A 0
2 *194:A 1.42517e-05
3 *312:Y 0.000316955
4 *136:14 0.000331207
5 *195:B *136:14 4.86123e-05
6 *196:A *194:A 2.85234e-05
7 *196:B *136:14 2.11336e-05
8 *197:A *194:A 5.49995e-05
9 *24:25 *136:14 1.22353e-05
10 *83:12 *136:14 2.50593e-05
*RES
1 *312:Y *136:14 22.5679 
2 *136:14 *194:A 9.83571 
3 *136:14 *195:A 9.3 
*END

*D_NET *137 0.000660975
*CONN
*I *319:B I *D sky130_fd_sc_hd__nand2_1
*I *321:A I *D sky130_fd_sc_hd__nand2_1
*I *314:Y O *D sky130_fd_sc_hd__nand2_1
*CAP
1 *319:B 8.48766e-05
2 *321:A 0
3 *314:Y 0.000188227
4 *137:18 0.000273103
5 *319:B *321:B 4.64641e-05
6 *319:B *322:B 5.65955e-05
7 *319:B *141:16 1.17091e-05
*RES
1 *314:Y *137:18 21.9786 
2 *137:18 *321:A 9.3 
3 *137:18 *319:B 11.5143 
*END

*D_NET *138 0.00142043
*CONN
*I *323:A I *D sky130_fd_sc_hd__nand2_1
*I *316:B I *D sky130_fd_sc_hd__nand2_1
*I *317:B I *D sky130_fd_sc_hd__nand2_1
*I *315:Y O *D sky130_fd_sc_hd__nand2_1
*CAP
1 *323:A 0.000143809
2 *316:B 4.27136e-05
3 *317:B 0.00016091
4 *315:Y 8.29333e-05
5 *138:19 0.000186523
6 *138:6 0.000243843
7 *317:B *141:16 5.71472e-05
8 *323:A *141:16 5.5782e-05
9 *323:A *146:12 5.33334e-05
10 *315:B *317:B 9.71197e-05
11 *315:B *138:6 0.000130419
12 *316:A *138:6 1.62025e-05
13 *317:A *317:B 0.000132527
14 *79:12 *316:B 1.71619e-05
15 *87:12 *323:A 0
*RES
1 *315:Y *138:6 11.0679 
2 *138:6 *317:B 12.7464 
3 *138:6 *138:19 4.5 
4 *138:19 *316:B 14.5321 
5 *138:19 *323:A 16.9964 
*END

*D_NET *139 0.000194435
*CONN
*I *318:A I *D sky130_fd_sc_hd__nand2_1
*I *316:Y O *D sky130_fd_sc_hd__nand2_1
*CAP
1 *318:A 5.43808e-05
2 *316:Y 5.43808e-05
3 *318:A *318:B 1.87331e-05
4 *315:B *318:A 5.4959e-05
5 *316:A *318:A 1.19813e-05
*RES
1 *316:Y *318:A 19.975 
*END

*D_NET *140 0.000177316
*CONN
*I *318:B I *D sky130_fd_sc_hd__nand2_1
*I *317:Y O *D sky130_fd_sc_hd__nand2_1
*CAP
1 *318:B 5.99106e-05
2 *317:Y 5.99106e-05
3 *317:A *318:B 3.87621e-05
4 *318:A *318:B 1.87331e-05
*RES
1 *317:Y *318:B 19.9929 
*END

*D_NET *141 0.00133555
*CONN
*I *320:A I *D sky130_fd_sc_hd__nand2_1
*I *319:A I *D sky130_fd_sc_hd__nand2_1
*I *318:Y O *D sky130_fd_sc_hd__nand2_1
*CAP
1 *320:A 0
2 *319:A 1.68213e-05
3 *318:Y 0.000313315
4 *141:16 0.000330136
5 *319:A *142:17 5.68713e-05
6 *141:16 *323:B 0.000272744
7 *141:16 *142:17 4.55108e-05
8 *317:B *141:16 5.71472e-05
9 *319:B *141:16 1.17091e-05
10 *323:A *141:16 5.5782e-05
11 *87:12 *141:16 0.000175512
*RES
1 *318:Y *141:16 25.3357 
2 *141:16 *319:A 9.83571 
3 *141:16 *320:A 9.3 
*END

*D_NET *142 0.000928832
*CONN
*I *323:B I *D sky130_fd_sc_hd__nand2_1
*I *320:B I *D sky130_fd_sc_hd__nand2_1
*I *321:B I *D sky130_fd_sc_hd__nand2_1
*I *319:Y O *D sky130_fd_sc_hd__nand2_1
*CAP
1 *323:B 9.17678e-05
2 *320:B 0
3 *321:B 6.69168e-05
4 *319:Y 0
5 *142:17 0.000186704
6 *142:4 0.000161853
7 *319:A *142:17 5.68713e-05
8 *319:B *321:B 4.64641e-05
9 *141:16 *323:B 0.000272744
10 *141:16 *142:17 4.55108e-05
*RES
1 *319:Y *142:4 9.3 
2 *142:4 *321:B 10.675 
3 *142:4 *142:17 2.19643 
4 *142:17 *320:B 9.3 
5 *142:17 *323:B 11.8893 
*END

*D_NET *143 0.000401582
*CONN
*I *322:A I *D sky130_fd_sc_hd__nand2_1
*I *320:Y O *D sky130_fd_sc_hd__nand2_1
*CAP
1 *322:A 0.00012381
2 *320:Y 0.00012381
3 *259:A *322:A 5.49258e-05
4 *41:8 *322:A 9.90367e-05
*RES
1 *320:Y *322:A 30.1893 
*END

*D_NET *144 0.000387303
*CONN
*I *322:B I *D sky130_fd_sc_hd__nand2_1
*I *321:Y O *D sky130_fd_sc_hd__nand2_1
*CAP
1 *322:B 0.000147185
2 *321:Y 0.000147185
3 *259:A *322:B 3.6337e-05
4 *319:B *322:B 5.65955e-05
*RES
1 *321:Y *322:B 29.7786 
*END

*D_NET *145 0.000823276
*CONN
*I *205:A I *D sky130_fd_sc_hd__nand2_1
*I *204:A I *D sky130_fd_sc_hd__nand2_1
*I *322:Y O *D sky130_fd_sc_hd__nand2_1
*CAP
1 *205:A 0.000100372
2 *204:A 0
3 *322:Y 0.000267068
4 *145:14 0.00036744
5 *33:6 *205:A 5.12608e-05
6 *33:10 *205:A 5.7661e-06
7 *41:8 *145:14 3.13687e-05
8 *41:12 *145:14 0
*RES
1 *322:Y *145:14 22.55 
2 *145:14 *204:A 9.3 
3 *145:14 *205:A 11.5143 
*END

*D_NET *146 0.000610738
*CONN
*I *214:A I *D sky130_fd_sc_hd__nand2_1
*I *215:A I *D sky130_fd_sc_hd__nand2_1
*I *323:Y O *D sky130_fd_sc_hd__nand2_1
*CAP
1 *214:A 1.16062e-05
2 *215:A 0
3 *323:Y 0.000210452
4 *146:12 0.000222059
5 *214:B *214:A 5.52302e-05
6 *223:A *146:12 2.8266e-06
7 *323:A *146:12 5.33334e-05
8 *42:8 *214:A 5.52302e-05
9 *87:12 *146:12 0
*RES
1 *323:Y *146:12 21.3 
2 *146:12 *215:A 9.3 
3 *146:12 *214:A 9.83571 
*END
