*SPEF "ieee 1481-1999"
*DESIGN "behav"
*DATE "14:54:00 Sunday September 06, 2026"
*VENDOR "The OpenROAD Project"
*PROGRAM "OpenROAD"
*VERSION "dcf36133a369abc8f3c5e5738cd4d82e4903c0e0"
*DESIGN_FLOW "NAME_SCOPE LOCAL" "PIN_CAP NONE"
*DIVIDER /
*DELIMITER :
*BUS_DELIMITER []
*T_UNIT 1 NS
*C_UNIT 1 PF
*R_UNIT 1 OHM
*L_UNIT 1 HENRY

*NAME_MAP
*3 a[0]
*4 a[1]
*5 a[2]
*6 a[3]
*7 b[0]
*8 b[1]
*9 b[2]
*10 b[3]
*11 p[0]
*12 p[1]
*13 p[2]
*14 p[3]
*15 p[4]
*16 p[5]
*17 p[6]
*18 p[7]
*19 _000_
*20 _001_
*21 _002_
*22 _003_
*23 _004_
*24 _005_
*25 _006_
*26 _007_
*27 _008_
*28 _009_
*29 _010_
*30 _011_
*31 _012_
*32 _013_
*33 _014_
*34 _015_
*35 _016_
*36 _017_
*37 _018_
*38 _019_
*39 _020_
*40 _021_
*41 _022_
*42 _023_
*43 _024_
*44 _025_
*45 _026_
*46 _027_
*47 _028_
*48 _029_
*49 _030_
*50 _031_
*51 _032_
*52 _033_
*53 _034_
*54 _035_
*55 _036_
*56 _037_
*57 _038_
*58 _039_
*59 _040_
*60 _041_
*61 _042_
*62 _043_
*63 _044_
*64 _045_
*65 _046_
*66 _047_
*67 _048_
*68 _049_
*69 _050_
*70 _051_
*71 _052_
*72 _053_
*73 _054_
*74 _055_
*75 _056_
*76 _057_
*77 _058_
*78 _059_
*79 _060_
*80 _061_
*81 _062_
*82 _063_
*83 _064_
*84 _065_
*85 _066_
*86 _067_
*87 _068_
*88 _069_
*89 _070_
*90 _071_
*91 _072_
*92 _073_
*93 _074_
*94 _075_
*95 _076_
*96 _077_
*97 _078_
*98 _079_
*99 _080_
*100 _081_
*101 _082_
*102 _083_
*103 _084_
*104 _085_
*105 _086_
*106 _087_
*107 _088_
*108 _089_
*109 _090_
*110 _091_
*111 _092_
*112 net1
*113 net10
*114 net11
*115 net12
*116 net13
*117 net14
*118 net15
*119 net16
*120 net17
*121 net18
*122 net19
*123 net2
*124 net20
*125 net21
*126 net22
*127 net23
*128 net24
*129 net25
*130 net3
*131 net4
*132 net5
*133 net6
*134 net7
*135 net8
*136 net9
*137 PHY_EDGE_ROW_0_Left_18
*138 PHY_EDGE_ROW_0_Right_0
*139 PHY_EDGE_ROW_10_Left_28
*140 PHY_EDGE_ROW_10_Right_10
*141 PHY_EDGE_ROW_11_Left_29
*142 PHY_EDGE_ROW_11_Right_11
*143 PHY_EDGE_ROW_12_Left_30
*144 PHY_EDGE_ROW_12_Right_12
*145 PHY_EDGE_ROW_13_Left_31
*146 PHY_EDGE_ROW_13_Right_13
*147 PHY_EDGE_ROW_14_Left_32
*148 PHY_EDGE_ROW_14_Right_14
*149 PHY_EDGE_ROW_15_Left_33
*150 PHY_EDGE_ROW_15_Right_15
*151 PHY_EDGE_ROW_16_Left_34
*152 PHY_EDGE_ROW_16_Right_16
*153 PHY_EDGE_ROW_17_Left_35
*154 PHY_EDGE_ROW_17_Right_17
*155 PHY_EDGE_ROW_1_Left_19
*156 PHY_EDGE_ROW_1_Right_1
*157 PHY_EDGE_ROW_2_Left_20
*158 PHY_EDGE_ROW_2_Right_2
*159 PHY_EDGE_ROW_3_Left_21
*160 PHY_EDGE_ROW_3_Right_3
*161 PHY_EDGE_ROW_4_Left_22
*162 PHY_EDGE_ROW_4_Right_4
*163 PHY_EDGE_ROW_5_Left_23
*164 PHY_EDGE_ROW_5_Right_5
*165 PHY_EDGE_ROW_6_Left_24
*166 PHY_EDGE_ROW_6_Right_6
*167 PHY_EDGE_ROW_7_Left_25
*168 PHY_EDGE_ROW_7_Right_7
*169 PHY_EDGE_ROW_8_Left_26
*170 PHY_EDGE_ROW_8_Right_8
*171 PHY_EDGE_ROW_9_Left_27
*172 PHY_EDGE_ROW_9_Right_9
*173 TAP_TAPCELL_ROW_0_36
*174 TAP_TAPCELL_ROW_0_37
*175 TAP_TAPCELL_ROW_0_38
*176 TAP_TAPCELL_ROW_10_52
*177 TAP_TAPCELL_ROW_10_53
*178 TAP_TAPCELL_ROW_11_54
*179 TAP_TAPCELL_ROW_12_55
*180 TAP_TAPCELL_ROW_12_56
*181 TAP_TAPCELL_ROW_13_57
*182 TAP_TAPCELL_ROW_14_58
*183 TAP_TAPCELL_ROW_14_59
*184 TAP_TAPCELL_ROW_15_60
*185 TAP_TAPCELL_ROW_16_61
*186 TAP_TAPCELL_ROW_16_62
*187 TAP_TAPCELL_ROW_17_63
*188 TAP_TAPCELL_ROW_17_64
*189 TAP_TAPCELL_ROW_17_65
*190 TAP_TAPCELL_ROW_1_39
*191 TAP_TAPCELL_ROW_2_40
*192 TAP_TAPCELL_ROW_2_41
*193 TAP_TAPCELL_ROW_3_42
*194 TAP_TAPCELL_ROW_4_43
*195 TAP_TAPCELL_ROW_4_44
*196 TAP_TAPCELL_ROW_5_45
*197 TAP_TAPCELL_ROW_6_46
*198 TAP_TAPCELL_ROW_6_47
*199 TAP_TAPCELL_ROW_7_48
*200 TAP_TAPCELL_ROW_8_49
*201 TAP_TAPCELL_ROW_8_50
*202 TAP_TAPCELL_ROW_9_51
*203 _093_
*204 _094_
*205 _095_
*206 _096_
*207 _097_
*208 _098_
*209 _099_
*210 _100_
*211 _101_
*212 _102_
*213 _103_
*214 _104_
*215 _105_
*216 _106_
*217 _107_
*218 _108_
*219 _109_
*220 _110_
*221 _111_
*222 _112_
*223 _113_
*224 _114_
*225 _115_
*226 _116_
*227 _117_
*228 _118_
*229 _119_
*230 _120_
*231 _121_
*232 _122_
*233 _123_
*234 _124_
*235 _125_
*236 _126_
*237 _127_
*238 _128_
*239 _129_
*240 _130_
*241 _131_
*242 _132_
*243 _133_
*244 _134_
*245 _135_
*246 _136_
*247 _137_
*248 _138_
*249 _139_
*250 _140_
*251 _141_
*252 _142_
*253 _143_
*254 _144_
*255 _145_
*256 _146_
*257 _147_
*258 _148_
*259 _149_
*260 _150_
*261 _151_
*262 _152_
*263 _153_
*264 _154_
*265 _155_
*266 _156_
*267 _157_
*268 _158_
*269 _159_
*270 _160_
*271 _161_
*272 _162_
*273 _163_
*274 _164_
*275 _165_
*276 _166_
*277 _167_
*278 _168_
*279 _169_
*280 _170_
*281 _171_
*282 _172_
*283 _173_
*284 _174_
*285 _175_
*286 _176_
*287 _177_
*288 _178_
*289 _179_
*290 _180_
*291 _181_
*292 _182_
*293 _183_
*294 _184_
*295 _185_
*296 _186_
*297 _187_
*298 _188_
*299 _189_
*300 _190_
*301 _191_
*302 _192_
*303 _193_
*304 fanout17
*305 fanout18
*306 fanout19
*307 fanout20
*308 fanout21
*309 fanout22
*310 fanout23
*311 fanout24
*312 fanout25
*313 input1
*314 input2
*315 input3
*316 input4
*317 input5
*318 input6
*319 input7
*320 input8
*321 output10
*322 output11
*323 output12
*324 output13
*325 output14
*326 output15
*327 output16
*328 output9

*PORTS
a[0] I
a[1] I
a[2] I
a[3] I
b[0] I
b[1] I
b[2] I
b[3] I
p[0] O
p[1] O
p[2] O
p[3] O
p[4] O
p[5] O
p[6] O
p[7] O

*D_NET *3 0.00134479
*CONN
*P a[0] I
*I *313:A I *D sky130_fd_sc_hd__clkdlybuf4s25_1
*CAP
1 a[0] 0.000400934
2 *313:A 0.000400934
3 *313:A p[0] 0.000487967
4 *313:A *321:A 5.49544e-05
*RES
1 a[0] *313:A 25.05 
*END

*D_NET *4 0.00151642
*CONN
*P a[1] I
*I *314:A I *D sky130_fd_sc_hd__clkdlybuf4s25_1
*CAP
1 a[1] 0.000717789
2 *314:A 0.000717789
3 *314:A *315:A 8.08429e-05
*RES
1 a[1] *314:A 29.3424 
*END

*D_NET *5 0.00222682
*CONN
*P a[2] I
*I *315:A I *D sky130_fd_sc_hd__clkdlybuf4s25_1
*CAP
1 a[2] 0.00102321
2 *315:A 0.00102321
3 *315:A p[2] 0
4 *315:A *247:B1 0
5 *315:A *317:A 0
6 *315:A *70:25 5.59013e-05
7 *315:A *73:8 0
8 *315:A *132:36 4.36556e-05
9 *314:A *315:A 8.08429e-05
*RES
1 a[2] *315:A 21.9305 
*END

*D_NET *6 0.000829221
*CONN
*P a[3] I
*I *316:A I *D sky130_fd_sc_hd__clkdlybuf4s25_1
*CAP
1 a[3] 0.000414611
2 *316:A 0.000414611
*RES
1 a[3] *316:A 19.2345 
*END

*D_NET *7 0.00118089
*CONN
*P b[0] I
*I *317:A I *D sky130_fd_sc_hd__clkdlybuf4s25_1
*CAP
1 b[0] 0.000562812
2 *317:A 0.000562812
3 *317:A p[2] 5.52631e-05
4 *315:A *317:A 0
*RES
1 b[0] *317:A 27.0542 
*END

*D_NET *8 0.00155635
*CONN
*P b[1] I
*I *318:A I *D sky130_fd_sc_hd__clkdlybuf4s25_1
*CAP
1 b[1] 0.000548041
2 *318:A 0.000548041
3 *318:A p[1] 0.000229794
4 *318:A *319:A 0
5 *318:A *321:A 0.000230475
*RES
1 b[1] *318:A 26.6929 
*END

*D_NET *9 0.00141209
*CONN
*P b[2] I
*I *319:A I *D sky130_fd_sc_hd__clkdlybuf4s25_1
*CAP
1 b[2] 0.000321859
2 *319:A 0.000321859
3 *319:A p[0] 0.000485661
4 *319:A p[1] 0.000227488
5 *319:A *321:A 5.52238e-05
6 *318:A *319:A 0
*RES
1 b[2] *319:A 25.05 
*END

*D_NET *10 0.00095256
*CONN
*P b[3] I
*I *320:A I *D sky130_fd_sc_hd__clkdlybuf4s25_1
*CAP
1 b[3] 0.00047628
2 *320:A 0.00047628
*RES
1 b[3] *320:A 20.7523 
*END

*D_NET *11 0.00175822
*CONN
*P p[0] O
*I *328:X O *D sky130_fd_sc_hd__clkdlybuf4s25_1
*CAP
1 p[0] 0.000338658
2 *328:X 0.000338658
3 p[0] *217:B1 2.89114e-05
4 p[0] *134:10 7.83659e-05
5 *313:A p[0] 0.000487967
6 *319:A p[0] 0.000485661
*RES
1 *328:X p[0] 26.8714 
*END

*D_NET *12 0.0022188
*CONN
*P p[1] O
*I *321:X O *D sky130_fd_sc_hd__clkdlybuf4s25_1
*CAP
1 p[1] 0.000880761
2 *321:X 0.000880761
3 *318:A p[1] 0.000229794
4 *319:A p[1] 0.000227488
*RES
1 *321:X p[1] 42.1929 
*END

*D_NET *13 0.00196243
*CONN
*P p[2] O
*I *322:X O *D sky130_fd_sc_hd__clkdlybuf4s25_1
*CAP
1 p[2] 0.000558471
2 *322:X 0.000558471
3 p[2] p[3] 0.000627497
4 p[2] *322:A 0
5 p[2] *38:25 0
6 p[2] *49:14 0.000162728
7 *315:A p[2] 0
8 *317:A p[2] 5.52631e-05
*RES
1 *322:X p[2] 25.2595 
*END

*D_NET *14 0.00127244
*CONN
*P p[3] O
*I *323:X O *D sky130_fd_sc_hd__clkdlybuf4s25_1
*CAP
1 p[3] 0.000322472
2 *323:X 0.000322472
3 p[2] p[3] 0.000627497
*RES
1 *323:X p[3] 21.0089 
*END

*D_NET *15 0.00112589
*CONN
*P p[4] O
*I *324:X O *D sky130_fd_sc_hd__clkdlybuf4s25_1
*CAP
1 p[4] 0.000562946
2 *324:X 0.000562946
3 p[4] *273:B1 0
4 p[4] *324:A 0
*RES
1 *324:X p[4] 22.5267 
*END

*D_NET *16 0.00167894
*CONN
*P p[5] O
*I *325:X O *D sky130_fd_sc_hd__clkdlybuf4s25_1
*CAP
1 p[5] 0.000829076
2 *325:X 0.000829076
3 p[5] *325:A 2.07878e-05
*RES
1 *325:X p[5] 27.9027 
*END

*D_NET *17 0.000808487
*CONN
*P p[6] O
*I *326:X O *D sky130_fd_sc_hd__clkdlybuf4s25_1
*CAP
1 p[6] 0.000365776
2 *326:X 0.000365776
3 p[6] p[7] 7.6934e-05
4 p[6] *327:A 0
*RES
1 *326:X p[6] 18.6273 
*END

*D_NET *18 0.00125825
*CONN
*P p[7] O
*I *327:X O *D sky130_fd_sc_hd__clkdlybuf4s25_1
*CAP
1 p[7] 0.00059066
2 *327:X 0.00059066
3 p[6] p[7] 7.6934e-05
*RES
1 *327:X p[7] 26.7976 
*END

*D_NET *19 0.000509421
*CONN
*I *288:A I *D sky130_fd_sc_hd__nand2_2
*I *286:Y O *D sky130_fd_sc_hd__o2bb2ai_2
*CAP
1 *288:A 0.000215287
2 *286:Y 0.000215287
3 *288:A *286:B2 7.43578e-06
4 *288:A *287:C 1.64616e-05
5 *288:A *325:A 5.49489e-05
*RES
1 *286:Y *288:A 31.3321 
*END

*D_NET *20 0.000798516
*CONN
*I *288:B I *D sky130_fd_sc_hd__nand2_2
*I *287:Y O *D sky130_fd_sc_hd__nand3_2
*CAP
1 *288:B 0.000304195
2 *287:Y 0.000304195
3 *288:B *286:A2_N 9.4736e-05
4 *288:B *287:C 4.62179e-05
5 *288:B *93:10 0
6 *288:B *94:10 1.83053e-05
7 *288:B *97:40 3.08681e-05
*RES
1 *287:Y *288:B 34.7429 
*END

*D_NET *21 0.00316814
*CONN
*I *298:B1 I *D sky130_fd_sc_hd__o2bb2ai_2
*I *293:B1 I *D sky130_fd_sc_hd__a31o_2
*I *289:X O *D sky130_fd_sc_hd__and4_2
*CAP
1 *298:B1 0.000118502
2 *293:B1 0.000222738
3 *289:X 0.00038128
4 *21:10 0.000722521
5 *293:B1 *297:B2 0.000125724
6 *293:B1 *298:B2 5.33005e-05
7 *293:B1 *299:B1 0.000127439
8 *293:B1 *26:21 2.59355e-05
9 *298:B1 *298:B2 0.000186669
10 *298:B1 *301:A 2.44318e-05
11 *21:10 *289:B 0
12 *21:10 *290:C 1.42331e-05
13 *21:10 *297:A1 0.000505417
14 *21:10 *298:B2 0.000292708
15 *21:10 *301:B 0
16 *21:10 *79:20 0.00012342
17 *21:10 *79:41 0.000198705
18 *21:10 *100:12 2.22156e-05
19 *21:10 *100:18 0
20 *21:10 *100:40 0
21 *21:10 *135:26 2.29031e-05
*RES
1 *289:X *21:10 29.3536 
2 *21:10 *293:B1 22.5321 
3 *21:10 *298:B1 11.9071 
*END

*D_NET *22 0.00141179
*CONN
*I *297:A1 I *D sky130_fd_sc_hd__a22oi_2
*I *290:Y O *D sky130_fd_sc_hd__nand4_2
*CAP
1 *297:A1 0.000241135
2 *290:Y 0.000241135
3 *297:A1 *289:B 1.99099e-05
4 *297:A1 *297:A2 0
5 *297:A1 *300:A1 0.000166276
6 *297:A1 *79:45 0.000176234
7 *297:A1 *125:120 6.1684e-05
8 *21:10 *297:A1 0.000505417
*RES
1 *290:Y *297:A1 35.6714 
*END

*D_NET *23 0.00118804
*CONN
*I *298:B2 I *D sky130_fd_sc_hd__o2bb2ai_2
*I *291:X O *D sky130_fd_sc_hd__and3_2
*CAP
1 *298:B2 0.000183995
2 *291:X 0.000183995
3 *298:B2 *297:B1 9.14786e-05
4 *298:B2 *301:A 0.000144773
5 *298:B2 *27:10 5.80706e-06
6 *298:B2 *100:40 4.53124e-05
7 *293:B1 *298:B2 5.33005e-05
8 *298:B1 *298:B2 0.000186669
9 *21:10 *298:B2 0.000292708
*RES
1 *291:X *298:B2 33.85 
*END

*D_NET *24 0.00154002
*CONN
*I *297:A2 I *D sky130_fd_sc_hd__a22oi_2
*I *292:X O *D sky130_fd_sc_hd__a31o_2
*CAP
1 *297:A2 0.000505154
2 *292:X 0.000505154
3 *297:A2 *289:B 5.4646e-05
4 *297:A2 *290:A 0.000121897
5 *297:A2 *290:B 9.87983e-06
6 *297:A2 *300:A1 0.00014285
7 *297:A2 *300:B1 7.77652e-05
8 *297:A2 *308:A 6.64346e-05
9 *297:A2 *79:45 0
10 *297:A2 *125:120 4.35141e-05
11 *297:A2 *131:10 8.07792e-06
12 *297:A2 *131:19 4.64571e-06
13 *297:A1 *297:A2 0
*RES
1 *292:X *297:A2 38.4929 
*END

*D_NET *25 0.000820993
*CONN
*I *296:B1 I *D sky130_fd_sc_hd__a41oi_2
*I *293:X O *D sky130_fd_sc_hd__a31o_2
*CAP
1 *296:B1 0.000248748
2 *293:X 0.000248748
3 *296:B1 *293:A3 0.000183726
4 *296:B1 *296:A1 9.25014e-06
5 *296:B1 *102:21 6.30292e-05
6 *296:B1 *103:47 6.74911e-05
*RES
1 *293:X *296:B1 31.8321 
*END

*D_NET *26 0.00289433
*CONN
*I *298:A1_N I *D sky130_fd_sc_hd__o2bb2ai_2
*I *297:B2 I *D sky130_fd_sc_hd__a22oi_2
*I *299:A1 I *D sky130_fd_sc_hd__a21oi_2
*I *294:Y O *D sky130_fd_sc_hd__a31oi_2
*CAP
1 *298:A1_N 0
2 *297:B2 6.76864e-05
3 *299:A1 0
4 *294:Y 0.000860222
5 *26:21 0.000252127
6 *26:12 0.00104466
7 *297:B2 *297:B1 5.97719e-05
8 *297:B2 *299:B1 2.82057e-05
9 *297:B2 *27:10 1.17968e-05
10 *297:B2 *100:40 5.83233e-05
11 *26:12 *299:B1 0
12 *26:12 *326:A 4.57445e-05
13 *26:12 *27:10 0
14 *26:12 *72:27 0.000280705
15 *26:12 *103:47 0
16 *26:12 *104:27 3.34295e-05
17 *293:B1 *297:B2 0.000125724
18 *293:B1 *26:21 2.59355e-05
*RES
1 *294:Y *26:12 32.9964 
2 *26:12 *299:A1 9.3 
3 *26:12 *26:21 3.01786 
4 *26:21 *297:B2 20.8536 
5 *26:21 *298:A1_N 9.3 
*END

*D_NET *27 0.0018399
*CONN
*I *298:A2_N I *D sky130_fd_sc_hd__o2bb2ai_2
*I *297:B1 I *D sky130_fd_sc_hd__a22oi_2
*I *295:Y O *D sky130_fd_sc_hd__o211ai_2
*CAP
1 *298:A2_N 0
2 *297:B1 6.70613e-05
3 *295:Y 0.000712629
4 *27:10 0.000779691
5 *297:B1 *100:40 5.83233e-05
6 *27:10 *295:A1 5.33433e-05
7 *27:10 *326:A 0
8 *27:10 *327:A 0
9 *297:B2 *297:B1 5.97719e-05
10 *297:B2 *27:10 1.17968e-05
11 *298:B2 *297:B1 9.14786e-05
12 *298:B2 *27:10 5.80706e-06
13 *26:12 *27:10 0
*RES
1 *295:Y *27:10 25.9607 
2 *27:10 *297:B1 16.05 
3 *27:10 *298:A2_N 13.8 
*END

*D_NET *28 0.00025921
*CONN
*I *299:A2 I *D sky130_fd_sc_hd__a21oi_2
*I *296:Y O *D sky130_fd_sc_hd__a41oi_2
*CAP
1 *299:A2 5.869e-05
2 *296:Y 5.869e-05
3 *299:A2 *104:27 0.00014183
*RES
1 *296:Y *299:A2 19.9571 
*END

*D_NET *29 0.000637833
*CONN
*I *299:B1 I *D sky130_fd_sc_hd__a21oi_2
*I *297:Y O *D sky130_fd_sc_hd__a22oi_2
*CAP
1 *299:B1 0.000116359
2 *297:Y 0.000116359
3 *299:B1 *293:A1 5.06983e-05
4 *299:B1 *293:A2 4.81157e-05
5 *299:B1 *300:A2 0.00014285
6 *299:B1 *100:40 7.80714e-06
7 *299:B1 *104:27 0
8 *293:B1 *299:B1 0.000127439
9 *297:B2 *299:B1 2.82057e-05
10 *26:12 *299:B1 0
*RES
1 *297:Y *299:B1 31.5107 
*END

*D_NET *30 0.000596368
*CONN
*I *301:A I *D sky130_fd_sc_hd__nand2_2
*I *298:Y O *D sky130_fd_sc_hd__o2bb2ai_2
*CAP
1 *301:A 0.000157817
2 *298:Y 0.000157817
3 *301:A *301:B 5.52302e-05
4 *301:A *327:A 5.62995e-05
5 *298:B1 *301:A 2.44318e-05
6 *298:B2 *301:A 0.000144773
*RES
1 *298:Y *301:A 22.4393 
*END

*D_NET *31 0.000380552
*CONN
*I *301:B I *D sky130_fd_sc_hd__nand2_2
*I *300:X O *D sky130_fd_sc_hd__a21o_2
*CAP
1 *301:B 0.000162661
2 *300:X 0.000162661
3 *301:A *301:B 5.52302e-05
4 *21:10 *301:B 0
*RES
1 *300:X *301:B 30.0821 
*END

*D_NET *32 0.0010984
*CONN
*I *303:B I *D sky130_fd_sc_hd__and2_2
*I *302:X O *D sky130_fd_sc_hd__a32o_2
*CAP
1 *303:B 0.000294111
2 *302:X 0.000294111
3 *303:B *303:A 1.02504e-05
4 *303:B *38:25 0.000272189
5 *303:B *49:14 0.000227736
*RES
1 *302:X *303:B 34.9393 
*END

*D_NET *33 0.00118764
*CONN
*I *228:A1 I *D sky130_fd_sc_hd__o211ai_2
*I *230:A1 I *D sky130_fd_sc_hd__o22ai_2
*I *203:Y O *D sky130_fd_sc_hd__inv_2
*CAP
1 *228:A1 8.43873e-05
2 *230:A1 5.77353e-05
3 *203:Y 0.000211221
4 *33:6 0.000353343
5 *230:A1 *204:A 0.0001098
6 *230:A1 *228:A2 0.000201127
7 *33:6 *228:C1 5.33005e-05
8 *33:6 *229:A2 1.98839e-05
9 *33:6 *55:23 5.33005e-05
10 *33:6 *56:12 4.35421e-05
*RES
1 *203:Y *33:6 12.7107 
2 *33:6 *230:A1 20.8536 
3 *33:6 *228:A1 10.675 
*END

*D_NET *34 0.000924261
*CONN
*I *228:A2 I *D sky130_fd_sc_hd__o211ai_2
*I *230:A2 I *D sky130_fd_sc_hd__o22ai_2
*I *204:Y O *D sky130_fd_sc_hd__inv_2
*CAP
1 *228:A2 8.14299e-05
2 *230:A2 0
3 *204:Y 0.000156705
4 *34:8 0.000238135
5 *228:A2 *204:A 9.11365e-06
6 *228:A2 *129:121 0.000225314
7 *34:8 *129:102 1.24368e-05
8 *230:A1 *228:A2 0.000201127
*RES
1 *204:Y *34:8 11.9071 
2 *34:8 *230:A2 9.3 
3 *34:8 *228:A2 21.6929 
*END

*D_NET *35 0.00548825
*CONN
*I *234:A1 I *D sky130_fd_sc_hd__a22oi_2
*I *208:C I *D sky130_fd_sc_hd__and3_2
*I *302:A3 I *D sky130_fd_sc_hd__a32o_2
*I *206:X O *D sky130_fd_sc_hd__and2_2
*CAP
1 *234:A1 0.000296499
2 *208:C 4.91769e-05
3 *302:A3 0.000127016
4 *206:X 6.02383e-05
5 *35:22 0.000793221
6 *35:10 0.000973766
7 *208:C *302:A1 1.19813e-05
8 *208:C *124:92 4.67985e-05
9 *234:A1 *255:B 4.2538e-05
10 *234:A1 *62:12 0.000195547
11 *234:A1 *130:31 4.88894e-05
12 *234:A1 *134:43 5.33005e-05
13 *234:A1 *134:56 5.33005e-05
14 *302:A3 *247:B1 2.56723e-05
15 *302:A3 *302:A1 0.000113926
16 *302:A3 *302:A2 0.000141935
17 *302:A3 *124:92 0.000435807
18 *35:10 *254:B1 7.17717e-05
19 *35:10 *77:8 0.000148514
20 *35:22 *235:A 0.000266851
21 *35:22 *235:B 7.09928e-05
22 *35:22 *235:C 0.000182755
23 *35:22 *239:A 9.58632e-05
24 *35:22 *245:A2 4.58624e-05
25 *35:22 *255:A 0.000139344
26 *35:22 *44:14 0.000226274
27 *35:22 *62:12 0.000390032
28 *35:22 *127:22 0.000100248
29 *35:22 *130:12 0.000146392
30 *35:22 *130:31 0.000133737
*RES
1 *206:X *35:10 20.2464 
2 *35:10 *35:22 25.5893 
3 *35:22 *302:A3 13.9429 
4 *35:22 *208:C 10.5679 
5 *35:10 *234:A1 15.6036 
*END

*D_NET *36 0.00216528
*CONN
*I *236:B1 I *D sky130_fd_sc_hd__a311oi_2
*I *218:A1 I *D sky130_fd_sc_hd__o21ai_2
*I *219:A1 I *D sky130_fd_sc_hd__o2111ai_2
*I *207:Y O *D sky130_fd_sc_hd__nand2_2
*CAP
1 *236:B1 0.000208474
2 *218:A1 0.000271651
3 *219:A1 1.60352e-05
4 *207:Y 6.79491e-05
5 *36:12 0.000147161
6 *218:A1 *205:A 0.000180777
7 *218:A1 *244:A2 4.58194e-05
8 *218:A1 *43:23 3.16598e-05
9 *219:A1 *205:A 9.7049e-06
10 *219:A1 *219:A2 5.7661e-06
11 *236:B1 *236:C1 0.000487842
12 *236:B1 *64:8 9.77414e-05
13 *236:B1 *121:8 6.7491e-05
14 *236:B1 *129:49 0.000175526
15 *236:B1 *133:35 0.000101703
16 *36:12 *205:A 5.33005e-05
17 *36:12 *219:A2 1.92789e-05
18 *36:12 *43:10 0.000125724
19 *36:12 *43:23 3.69047e-06
20 *36:12 *122:23 4.79842e-05
*RES
1 *207:Y *36:12 20.4786 
2 *36:12 *219:A1 9.72857 
3 *36:12 *218:A1 11.4964 
4 *218:A1 *236:B1 34.5107 
*END

*D_NET *37 0.00147239
*CONN
*I *247:B1 I *D sky130_fd_sc_hd__o2111a_2
*I *208:X O *D sky130_fd_sc_hd__and3_2
*CAP
1 *247:B1 0.000471316
2 *208:X 0.000471316
3 *247:B1 *302:A1 0.000310612
4 *247:B1 *73:8 0.000158028
5 *247:B1 *127:10 3.54498e-05
6 *247:B1 *132:36 0
7 *302:A3 *247:B1 2.56723e-05
8 *315:A *247:B1 0
*RES
1 *208:X *247:B1 35.4929 
*END

*D_NET *38 0.00466372
*CONN
*I *270:A1 I *D sky130_fd_sc_hd__o22ai_2
*I *222:A I *D sky130_fd_sc_hd__or2_2
*I *211:A I *D sky130_fd_sc_hd__and2_2
*I *209:Y O *D sky130_fd_sc_hd__nand4_2
*CAP
1 *270:A1 0.000103086
2 *222:A 2.10932e-05
3 *211:A 0.000326135
4 *209:Y 0.000131841
5 *38:25 0.000975466
6 *38:8 0.00130926
7 *211:A *209:B 0
8 *211:A *211:B 0.000154762
9 *211:A *45:10 0
10 *222:A *49:14 5.52238e-05
11 *270:A1 *222:B 1.61893e-05
12 *270:A1 *270:A2 5.45515e-05
13 *270:A1 *49:14 2.28598e-05
14 *270:A1 *97:12 9.7049e-06
15 *38:8 *209:A 5.37963e-05
16 *38:25 *219:C1 0.00011292
17 *38:25 *220:A1 0.000195126
18 *38:25 *248:B 6.98669e-05
19 *38:25 *303:A 0.000150611
20 *38:25 *322:A 7.6021e-05
21 *38:25 *45:10 0
22 *38:25 *45:27 0
23 *38:25 *47:10 0
24 *38:25 *47:23 0
25 *38:25 *48:10 0.000150917
26 *38:25 *48:21 0.000355916
27 *38:25 *49:14 1.78353e-05
28 *38:25 *73:8 0
29 *38:25 *126:32 6.93626e-06
30 *38:25 *126:55 2.14108e-05
31 p[2] *38:25 0
32 *303:B *38:25 0.000272189
*RES
1 *209:Y *38:8 15.5679 
2 *38:8 *211:A 20.3536 
3 *38:8 *38:25 25.875 
4 *38:25 *222:A 9.83571 
5 *38:25 *270:A1 11.5143 
*END

*D_NET *39 0.000408812
*CONN
*I *211:B I *D sky130_fd_sc_hd__and2_2
*I *210:X O *D sky130_fd_sc_hd__a22o_2
*CAP
1 *211:B 0.000127025
2 *210:X 0.000127025
3 *211:B *133:14 0
4 *211:A *211:B 0.000154762
*RES
1 *210:X *211:B 30.0821 
*END

*D_NET *40 0.00124451
*CONN
*I *245:C1 I *D sky130_fd_sc_hd__o2111ai_2
*I *212:X O *D sky130_fd_sc_hd__and2_2
*CAP
1 *245:C1 0.000429803
2 *212:X 0.000429803
3 *245:C1 *212:B 6.62058e-05
4 *245:C1 *45:38 5.92441e-05
5 *245:C1 *124:8 0.000124019
6 *245:C1 *124:64 3.86552e-05
7 *245:C1 *126:17 9.67754e-05
*RES
1 *212:X *245:C1 33.8857 
*END

*D_NET *41 0.00103072
*CONN
*I *244:A1 I *D sky130_fd_sc_hd__o22ai_2
*I *213:Y O *D sky130_fd_sc_hd__nand2_2
*CAP
1 *244:A1 0.000214141
2 *213:Y 0.000214141
3 *244:A1 *244:A2 0.000124723
4 *244:A1 *311:A 0.000141036
5 *244:A1 *70:14 7.2754e-05
6 *244:A1 *125:70 0
7 *244:A1 *125:76 0
8 *244:A1 *126:55 0.000139913
9 *244:A1 *130:12 0.00012401
*RES
1 *213:Y *244:A1 33.6357 
*END

*D_NET *42 0.000382965
*CONN
*I *234:A2 I *D sky130_fd_sc_hd__a22oi_2
*I *214:X O *D sky130_fd_sc_hd__and2_2
*CAP
1 *234:A2 0.000143628
2 *214:X 0.000143628
3 *234:A2 *225:B1 5.4959e-05
4 *234:A2 *252:B 4.07505e-05
*RES
1 *214:X *234:A2 30.1893 
*END

*D_NET *43 0.00282984
*CONN
*I *236:C1 I *D sky130_fd_sc_hd__a311oi_2
*I *218:A2 I *D sky130_fd_sc_hd__o21ai_2
*I *219:A2 I *D sky130_fd_sc_hd__o2111ai_2
*I *215:Y O *D sky130_fd_sc_hd__nand2_2
*CAP
1 *236:C1 0.000213751
2 *218:A2 0
3 *219:A2 5.40001e-05
4 *215:Y 0.000104166
5 *43:23 0.000354134
6 *43:10 0.000298549
7 *219:A2 *205:A 2.36784e-05
8 *219:A2 *218:B1 0.00010096
9 *236:C1 *205:A 2.89016e-05
10 *236:C1 *127:43 0
11 *236:C1 *129:49 2.36032e-05
12 *236:C1 *133:35 0.000356857
13 *236:C1 *134:10 1.02504e-05
14 *236:C1 *134:43 0.000167527
15 *43:10 *218:B1 1.18064e-05
16 *43:10 *244:A2 0.000174797
17 *43:10 *122:23 0
18 *43:23 *205:A 2.82423e-05
19 *43:23 *218:B1 8.57023e-05
20 *43:23 *244:A2 9.60875e-05
21 *43:23 *134:43 2.286e-05
22 *218:A1 *43:23 3.16598e-05
23 *219:A1 *219:A2 5.7661e-06
24 *236:B1 *236:C1 0.000487842
25 *36:12 *219:A2 1.92789e-05
26 *36:12 *43:10 0.000125724
27 *36:12 *43:23 3.69047e-06
*RES
1 *215:Y *43:10 20.8536 
2 *43:10 *219:A2 10.9786 
3 *43:10 *43:23 3.32143 
4 *43:23 *218:A2 9.3 
5 *43:23 *236:C1 25.1036 
*END

*D_NET *44 0.00275789
*CONN
*I *235:A I *D sky130_fd_sc_hd__nand3_2
*I *245:B1 I *D sky130_fd_sc_hd__o2111ai_2
*I *220:B1 I *D sky130_fd_sc_hd__a22o_2
*I *216:Y O *D sky130_fd_sc_hd__nand4_2
*CAP
1 *235:A 7.61233e-05
2 *245:B1 0
3 *220:B1 0.000263088
4 *216:Y 0.000222776
5 *44:14 0.000465783
6 *44:10 0.000501594
7 *220:B1 *220:A2 5.49995e-05
8 *220:B1 *220:B2 5.33005e-05
9 *220:B1 *245:A2 1.19813e-05
10 *220:B1 *309:A 5.50052e-05
11 *235:A *245:A2 0.000140681
12 *44:10 *216:A 8.67814e-06
13 *44:10 *239:B 3.2923e-05
14 *44:14 *245:A1 0.000267143
15 *44:14 *245:A2 7.10812e-05
16 *44:14 *309:A 3.96138e-05
17 *35:22 *235:A 0.000266851
18 *35:22 *44:14 0.000226274
*RES
1 *216:Y *44:10 21.1571 
2 *44:10 *44:14 5.48214 
3 *44:14 *220:B1 13.55 
4 *44:14 *245:B1 9.3 
5 *44:10 *235:A 12.3179 
*END

*D_NET *45 0.00412155
*CONN
*I *245:D1 I *D sky130_fd_sc_hd__o2111ai_2
*I *220:B2 I *D sky130_fd_sc_hd__a22o_2
*I *219:D1 I *D sky130_fd_sc_hd__o2111ai_2
*I *218:B1 I *D sky130_fd_sc_hd__o21ai_2
*I *217:X O *D sky130_fd_sc_hd__a22o_2
*CAP
1 *245:D1 0
2 *220:B2 2.9238e-05
3 *219:D1 0
4 *218:B1 0.000410458
5 *217:X 0.000267614
6 *45:38 0.000230665
7 *45:27 0.000235832
8 *45:10 0.000712476
9 *218:B1 *205:A 3.31889e-05
10 *218:B1 *219:C1 1.32552e-05
11 *218:B1 *244:A2 3.34366e-05
12 *218:B1 *47:10 2.89114e-05
13 *218:B1 *122:23 0
14 *218:B1 *124:40 3.67257e-05
15 *218:B1 *127:43 7.83659e-05
16 *45:10 *209:B 0.000177234
17 *45:10 *210:A2 0.000317082
18 *45:10 *210:B2 7.81196e-05
19 *45:10 *124:12 6.07532e-05
20 *45:10 *129:24 0.000315165
21 *45:10 *133:14 0
22 *45:27 *47:10 3.34366e-05
23 *45:27 *124:12 2.88517e-05
24 *45:38 *47:10 0.000539821
25 *45:38 *124:8 3.03305e-05
26 *45:38 *124:10 0.000115445
27 *45:38 *124:12 4.1331e-06
28 *211:A *45:10 0
29 *219:A2 *218:B1 0.00010096
30 *220:B1 *220:B2 5.33005e-05
31 *245:C1 *45:38 5.92441e-05
32 *38:25 *45:10 0
33 *38:25 *45:27 0
34 *43:10 *218:B1 1.18064e-05
35 *43:23 *218:B1 8.57023e-05
*RES
1 *217:X *45:10 21.4786 
2 *45:10 *218:B1 28.8893 
3 *45:10 *45:27 1.03571 
4 *45:27 *219:D1 13.8 
5 *45:27 *45:38 11.6071 
6 *45:38 *220:B2 9.83571 
7 *45:38 *245:D1 9.3 
*END

*D_NET *46 0.00312483
*CONN
*I *244:A2 I *D sky130_fd_sc_hd__o22ai_2
*I *218:Y O *D sky130_fd_sc_hd__o21ai_2
*CAP
1 *244:A2 0.000594118
2 *218:Y 0.000594118
3 *244:A2 *270:B1 4.1331e-06
4 *244:A2 *70:25 6.67126e-05
5 *244:A2 *122:23 0
6 *244:A2 *122:38 0
7 *244:A2 *123:12 0.000160808
8 *244:A2 *127:22 4.95608e-05
9 *244:A2 *127:28 0.000176296
10 *244:A2 *127:43 7.56271e-05
11 *244:A2 *130:12 0.000563973
12 *244:A2 *132:12 0.000146254
13 *244:A2 *132:36 0.000218361
14 *218:A1 *244:A2 4.58194e-05
15 *218:B1 *244:A2 3.34366e-05
16 *244:A1 *244:A2 0.000124723
17 *43:10 *244:A2 0.000174797
18 *43:23 *244:A2 9.60875e-05
*RES
1 *218:Y *244:A2 45.6714 
*END

*D_NET *47 0.00339528
*CONN
*I *247:C1 I *D sky130_fd_sc_hd__o2111a_2
*I *221:A I *D sky130_fd_sc_hd__nand2_2
*I *302:B1 I *D sky130_fd_sc_hd__a32o_2
*I *219:Y O *D sky130_fd_sc_hd__o2111ai_2
*CAP
1 *247:C1 6.00746e-05
2 *221:A 0.000123178
3 *302:B1 1.60119e-05
4 *219:Y 0.000291057
5 *47:23 0.000356656
6 *47:10 0.000480472
7 *221:A *221:B 3.17016e-05
8 *221:A *247:D1 7.48091e-05
9 *247:C1 *247:D1 2.28598e-05
10 *47:10 *219:C1 0.000436855
11 *47:10 *73:8 6.44649e-05
12 *47:10 *126:32 0.000144732
13 *47:10 *126:55 0.000199782
14 *47:23 *48:21 5.76092e-05
15 *47:23 *73:8 0.000221899
16 *47:23 *126:55 0.000210946
17 *218:B1 *47:10 2.89114e-05
18 *38:25 *47:10 0
19 *38:25 *47:23 0
20 *45:27 *47:10 3.34366e-05
21 *45:38 *47:10 0.000539821
*RES
1 *219:Y *47:10 24.5857 
2 *47:10 *302:B1 14.0009 
3 *47:10 *47:23 10.0893 
4 *47:23 *221:A 11.4964 
5 *47:23 *247:C1 10.2464 
*END

*D_NET *48 0.00185505
*CONN
*I *247:D1 I *D sky130_fd_sc_hd__o2111a_2
*I *221:B I *D sky130_fd_sc_hd__nand2_2
*I *302:B2 I *D sky130_fd_sc_hd__a32o_2
*I *220:X O *D sky130_fd_sc_hd__a22o_2
*CAP
1 *247:D1 8.13139e-05
2 *221:B 0.000108264
3 *302:B2 0
4 *220:X 0.000165992
5 *48:21 0.000307083
6 *48:10 0.000283498
7 *221:B *49:14 1.24368e-05
8 *48:10 *220:A2 1.91455e-05
9 *48:10 *126:55 7.80183e-05
10 *48:21 *126:55 0.000105484
11 *221:A *221:B 3.17016e-05
12 *221:A *247:D1 7.48091e-05
13 *247:C1 *247:D1 2.28598e-05
14 *38:25 *48:10 0.000150917
15 *38:25 *48:21 0.000355916
16 *47:23 *48:21 5.76092e-05
*RES
1 *220:X *48:10 17.1036 
2 *48:10 *302:B2 13.8 
3 *48:10 *48:21 9.17857 
4 *48:21 *221:B 11.0857 
5 *48:21 *247:D1 11.0679 
*END

*D_NET *49 0.0015864
*CONN
*I *270:A2 I *D sky130_fd_sc_hd__o22ai_2
*I *222:B I *D sky130_fd_sc_hd__or2_2
*I *221:Y O *D sky130_fd_sc_hd__nand2_2
*CAP
1 *270:A2 0.000101421
2 *222:B 1.79444e-05
3 *221:Y 0.000304871
4 *49:14 0.000424236
5 *270:A2 *97:12 6.46382e-05
6 *49:14 *303:A 0.000103728
7 p[2] *49:14 0.000162728
8 *221:B *49:14 1.24368e-05
9 *222:A *49:14 5.52238e-05
10 *270:A1 *222:B 1.61893e-05
11 *270:A1 *270:A2 5.45515e-05
12 *270:A1 *49:14 2.28598e-05
13 *303:B *49:14 0.000227736
14 *38:25 *49:14 1.78353e-05
*RES
1 *221:Y *49:14 25.8893 
2 *49:14 *222:B 9.72857 
3 *49:14 *270:A2 11.4964 
*END

*D_NET *50 0.000728681
*CONN
*I *246:B1 I *D sky130_fd_sc_hd__o211a_2
*I *303:A I *D sky130_fd_sc_hd__and2_2
*I *222:X O *D sky130_fd_sc_hd__or2_2
*CAP
1 *246:B1 6.53705e-05
2 *303:A 0.000157956
3 *222:X 9.2586e-05
4 *246:B1 *246:A2 3.57366e-05
5 *246:B1 *246:C1 5.90995e-05
6 *246:B1 *322:A 5.33433e-05
7 *303:B *303:A 1.02504e-05
8 *38:25 *303:A 0.000150611
9 *49:14 *303:A 0.000103728
*RES
1 *222:X *303:A 30.0821 
2 *303:A *246:B1 20.3857 
*END

*D_NET *51 0.00208003
*CONN
*I *229:B1_N I *D sky130_fd_sc_hd__o21bai_2
*I *250:A1 I *D sky130_fd_sc_hd__o21ai_2
*I *231:B1 I *D sky130_fd_sc_hd__a41o_2
*I *236:A1 I *D sky130_fd_sc_hd__a311oi_2
*I *223:Y O *D sky130_fd_sc_hd__nand2_2
*CAP
1 *229:B1_N 0
2 *250:A1 0
3 *231:B1 9.65704e-05
4 *236:A1 0.000136299
5 *223:Y 3.66135e-05
6 *51:18 0.00035801
7 *51:12 0.000224261
8 *51:6 0.000135735
9 *231:B1 *231:A2 0
10 *231:B1 *236:A3 3.17148e-05
11 *231:B1 *59:8 2.39779e-05
12 *231:B1 *128:12 0
13 *231:B1 *129:96 7.6644e-05
14 *236:A1 *237:B1 0.000112486
15 *236:A1 *129:102 5.33005e-05
16 *236:A1 *133:35 1.17091e-05
17 *51:6 *223:A 9.60875e-05
18 *51:6 *238:A1 6.05161e-06
19 *51:6 *134:43 2.42516e-05
20 *51:12 *229:A1 0
21 *51:12 *57:12 1.76039e-05
22 *51:12 *77:8 0
23 *51:12 *128:12 0.000198698
24 *51:18 *237:A2 6.73527e-05
25 *51:18 *237:B1 7.77751e-05
26 *51:18 *238:A1 5.33005e-05
27 *51:18 *52:16 5.52302e-05
28 *51:18 *129:102 0.000186361
*RES
1 *223:Y *51:6 10.2464 
2 *51:6 *51:12 11.5536 
3 *51:12 *51:18 3.85714 
4 *51:18 *236:A1 11.9071 
5 *51:18 *231:B1 20.2464 
6 *51:12 *250:A1 9.3 
7 *51:6 *229:B1_N 9.3 
*END

*D_NET *52 0.00311557
*CONN
*I *230:B1 I *D sky130_fd_sc_hd__o22ai_2
*I *229:A1 I *D sky130_fd_sc_hd__o21bai_2
*I *250:A2 I *D sky130_fd_sc_hd__o21ai_2
*I *237:A1 I *D sky130_fd_sc_hd__o21a_2
*I *238:A1 I *D sky130_fd_sc_hd__o21ai_2
*I *224:Y O *D sky130_fd_sc_hd__a22oi_2
*CAP
1 *230:B1 0
2 *229:A1 0.000107443
3 *250:A2 0
4 *237:A1 0
5 *238:A1 0.000228521
6 *224:Y 0.000144785
7 *52:16 0.000269691
8 *52:14 0.000120992
9 *52:12 0.000306035
10 *52:10 0.000263554
11 *229:A1 *224:B2 0
12 *229:A1 *55:23 6.35892e-05
13 *229:A1 *77:8 3.2871e-05
14 *229:A1 *134:43 8.07951e-05
15 *238:A1 *223:A 1.55885e-05
16 *238:A1 *236:A3 0
17 *238:A1 *242:B 0
18 *238:A1 *56:12 4.47762e-05
19 *238:A1 *59:8 0
20 *238:A1 *128:12 0.000168939
21 *238:A1 *129:102 2.89016e-05
22 *238:A1 *134:43 0.000225609
23 *52:10 *224:B1 4.29179e-05
24 *52:10 *224:B2 0.000337644
25 *52:10 *227:C 2.84494e-05
26 *52:10 *54:10 6.42242e-05
27 *52:10 *121:94 1.27784e-05
28 *52:12 *250:B1 0.000129515
29 *52:12 *129:102 6.42095e-05
30 *52:14 *250:B1 5.71472e-05
31 *52:14 *129:102 9.02916e-05
32 *52:16 *129:102 7.17235e-05
33 *51:6 *238:A1 6.05161e-06
34 *51:12 *229:A1 0
35 *51:18 *238:A1 5.33005e-05
36 *51:18 *52:16 5.52302e-05
*RES
1 *224:Y *52:10 22.675 
2 *52:10 *52:12 2.58929 
3 *52:12 *52:14 2.17857 
4 *52:14 *52:16 1.35714 
5 *52:16 *238:A1 23.6929 
6 *52:16 *237:A1 9.3 
7 *52:14 *250:A2 9.3 
8 *52:12 *229:A1 21.1571 
9 *52:10 *230:B1 9.3 
*END

*D_NET *53 0.00102587
*CONN
*I *232:A I *D sky130_fd_sc_hd__nand4_2
*I *228:B1 I *D sky130_fd_sc_hd__o211ai_2
*I *225:X O *D sky130_fd_sc_hd__a22o_2
*CAP
1 *232:A 0
2 *228:B1 6.37122e-05
3 *225:X 0.000205348
4 *53:10 0.00026906
5 *228:B1 *121:94 0.000174797
6 *228:B1 *129:121 0.000123062
7 *53:10 *225:A1 9.60939e-05
8 *53:10 *225:A2 3.02036e-05
9 *53:10 *225:B2 3.93346e-05
10 *53:10 *126:106 2.42547e-05
*RES
1 *225:X *53:10 13.1571 
2 *53:10 *228:B1 20.55 
3 *53:10 *232:A 9.3 
*END

*D_NET *54 0.00260968
*CONN
*I *229:A2 I *D sky130_fd_sc_hd__o21bai_2
*I *230:B2 I *D sky130_fd_sc_hd__o22ai_2
*I *226:X O *D sky130_fd_sc_hd__and4_2
*CAP
1 *229:A2 0.000384849
2 *230:B2 0
3 *226:X 0.000369637
4 *54:10 0.000754486
5 *229:A2 *203:A 2.49182e-05
6 *229:A2 *223:A 4.70048e-05
7 *229:A2 *224:B2 4.98055e-06
8 *229:A2 *228:C1 4.18895e-05
9 *229:A2 *234:B1 0.000126439
10 *229:A2 *55:23 0.000139913
11 *229:A2 *121:94 0.000150618
12 *229:A2 *134:43 5.52238e-05
13 *54:10 *226:B 0.00027032
14 *54:10 *226:D 2.95726e-05
15 *54:10 *121:94 0.000125724
16 *33:6 *229:A2 1.98839e-05
17 *52:10 *54:10 6.42242e-05
*RES
1 *226:X *54:10 19.675 
2 *54:10 *230:B2 13.8 
3 *54:10 *229:A2 21.2643 
*END

*D_NET *55 0.0020975
*CONN
*I *228:C1 I *D sky130_fd_sc_hd__o211ai_2
*I *232:B I *D sky130_fd_sc_hd__nand4_2
*I *250:B1 I *D sky130_fd_sc_hd__o21ai_2
*I *227:Y O *D sky130_fd_sc_hd__nand4_2
*CAP
1 *228:C1 1.35541e-05
2 *232:B 7.73561e-05
3 *250:B1 2.61022e-05
4 *227:Y 0.000102248
5 *55:23 0.000233698
6 *55:8 0.000271138
7 *232:B *224:B2 0.000193833
8 *232:B *234:B1 0.000218019
9 *232:B *127:99 3.34366e-05
10 *250:B1 *129:102 0.000186662
11 *55:8 *224:B2 7.50601e-05
12 *55:23 *203:A 1.92905e-05
13 *55:23 *224:B2 0.00010096
14 *55:23 *56:12 7.48301e-06
15 *229:A1 *55:23 6.35892e-05
16 *229:A2 *228:C1 4.18895e-05
17 *229:A2 *55:23 0.000139913
18 *33:6 *228:C1 5.33005e-05
19 *33:6 *55:23 5.33005e-05
20 *52:12 *250:B1 0.000129515
21 *52:14 *250:B1 5.71472e-05
*RES
1 *227:Y *55:8 15.7464 
2 *55:8 *250:B1 15.5679 
3 *55:8 *55:23 8.41071 
4 *55:23 *232:B 21.1571 
5 *55:23 *228:C1 9.83571 
*END

*D_NET *56 0.00417041
*CONN
*I *235:B I *D sky130_fd_sc_hd__nand3_2
*I *233:A I *D sky130_fd_sc_hd__nand2_2
*I *228:Y O *D sky130_fd_sc_hd__o211ai_2
*CAP
1 *235:B 0.000137724
2 *233:A 1.69531e-05
3 *228:Y 0.00104012
4 *56:12 0.0011948
5 *233:A *121:58 5.33005e-05
6 *233:A *122:53 5.33005e-05
7 *235:B *235:C 0.000165447
8 *235:B *66:8 0.000134857
9 *235:B *130:31 0.000224686
10 *56:12 *203:A 0.000142856
11 *56:12 *223:A 0.000481581
12 *56:12 *235:C 4.27842e-06
13 *56:12 *66:8 0.00033579
14 *56:12 *133:35 0
15 *56:12 *134:43 1.79279e-05
16 *238:A1 *56:12 4.47762e-05
17 *33:6 *56:12 4.35421e-05
18 *35:22 *235:B 7.09928e-05
19 *55:23 *56:12 7.48301e-06
*RES
1 *228:Y *56:12 29.4071 
2 *56:12 *233:A 14.3357 
3 *56:12 *235:B 18.3536 
*END

*D_NET *57 0.00277521
*CONN
*I *235:C I *D sky130_fd_sc_hd__nand3_2
*I *233:B I *D sky130_fd_sc_hd__nand2_2
*I *229:Y O *D sky130_fd_sc_hd__o21bai_2
*CAP
1 *235:C 0.000135441
2 *233:B 9.17364e-06
3 *229:Y 0.000279613
4 *57:12 0.000424228
5 *233:B *121:58 5.66971e-05
6 *233:B *122:53 5.49995e-05
7 *235:C *66:8 5.79582e-06
8 *235:C *130:31 4.37451e-05
9 *235:C *133:35 8.30385e-05
10 *57:12 *254:B1 3.14003e-05
11 *57:12 *77:8 0.000210403
12 *57:12 *121:58 0.000425182
13 *57:12 *121:83 5.33005e-05
14 *57:12 *122:53 0.000477583
15 *57:12 *128:12 0.000114528
16 *235:B *235:C 0.000165447
17 *35:22 *235:C 0.000182755
18 *51:12 *57:12 1.76039e-05
19 *56:12 *235:C 4.27842e-06
*RES
1 *229:Y *57:12 28.2286 
2 *57:12 *233:B 9.83571 
3 *57:12 *235:C 22.3179 
*END

*D_NET *58 0.0017891
*CONN
*I *234:B1 I *D sky130_fd_sc_hd__a22oi_2
*I *230:Y O *D sky130_fd_sc_hd__o22ai_2
*CAP
1 *234:B1 0.000381149
2 *230:Y 0.000381149
3 *234:B1 *224:B2 7.38556e-05
4 *234:B1 *234:B2 0.000312377
5 *234:B1 *121:94 0.000228391
6 *234:B1 *127:99 3.63166e-05
7 *234:B1 *129:102 3.14048e-05
8 *229:A2 *234:B1 0.000126439
9 *232:B *234:B1 0.000218019
*RES
1 *230:Y *234:B1 38.0821 
*END

*D_NET *59 0.00144761
*CONN
*I *238:A2 I *D sky130_fd_sc_hd__o21ai_2
*I *237:A2 I *D sky130_fd_sc_hd__o21a_2
*I *231:X O *D sky130_fd_sc_hd__a41o_2
*CAP
1 *238:A2 0.000105157
2 *237:A2 0.000113082
3 *231:X 0.000105178
4 *59:8 0.000323417
5 *237:A2 *237:B1 0.000230482
6 *237:A2 *133:35 9.90431e-05
7 *238:A2 *66:8 3.4846e-06
8 *238:A2 *133:35 7.8327e-05
9 *59:8 *236:A2 0.000172375
10 *59:8 *236:A3 4.73656e-05
11 *59:8 *129:96 7.83659e-05
12 *231:B1 *59:8 2.39779e-05
13 *238:A1 *59:8 0
14 *51:18 *237:A2 6.73527e-05
*RES
1 *231:X *59:8 16.6571 
2 *59:8 *237:A2 16.8 
3 *59:8 *238:A2 16.05 
*END

*D_NET *60 0.000755642
*CONN
*I *234:B2 I *D sky130_fd_sc_hd__a22oi_2
*I *232:Y O *D sky130_fd_sc_hd__nand4_2
*CAP
1 *234:B2 0.00014299
2 *232:Y 0.00014299
3 *234:B2 *255:B 6.94441e-06
4 *234:B2 *275:A2 5.54817e-06
5 *234:B2 *121:83 2.07809e-05
6 *234:B2 *127:99 0.000124012
7 *234:B1 *234:B2 0.000312377
*RES
1 *232:Y *234:B2 31.6714 
*END

*D_NET *61 0.00218552
*CONN
*I *245:A2 I *D sky130_fd_sc_hd__o2111ai_2
*I *233:Y O *D sky130_fd_sc_hd__nand2_2
*CAP
1 *245:A2 0.00031666
2 *233:Y 0.00031666
3 *245:A2 *245:A1 0.000267143
4 *245:A2 *309:A 0.000139331
5 *245:A2 *121:58 7.8195e-05
6 *245:A2 *122:53 0.000141734
7 *245:A2 *130:31 0.000656196
8 *220:B1 *245:A2 1.19813e-05
9 *235:A *245:A2 0.000140681
10 *35:22 *245:A2 4.58624e-05
11 *44:14 *245:A2 7.10812e-05
*RES
1 *233:Y *245:A2 38.5464 
*END

*D_NET *62 0.00330934
*CONN
*I *242:C I *D sky130_fd_sc_hd__nor3_2
*I *249:A2 I *D sky130_fd_sc_hd__o21ai_2
*I *234:Y O *D sky130_fd_sc_hd__a22oi_2
*CAP
1 *242:C 0
2 *249:A2 0.000247252
3 *234:Y 0.00091339
4 *62:12 0.00116064
5 *249:A2 *242:B 5.49489e-05
6 *249:A2 *249:A1 0.00016317
7 *249:A2 *311:A 5.65955e-05
8 *249:A2 *63:8 1.25275e-05
9 *249:A2 *126:70 5.49544e-05
10 *62:12 *66:8 6.02811e-05
11 *234:A1 *62:12 0.000195547
12 *35:22 *62:12 0.000390032
*RES
1 *234:Y *62:12 30.7464 
2 *62:12 *249:A2 23.4071 
3 *62:12 *242:C 9.3 
*END

*D_NET *63 0.00154255
*CONN
*I *243:A I *D sky130_fd_sc_hd__nand4_2
*I *241:B1 I *D sky130_fd_sc_hd__a22oi_2
*I *235:Y O *D sky130_fd_sc_hd__nand3_2
*CAP
1 *243:A 0.00010867
2 *241:B1 9.77366e-05
3 *235:Y 0.00035948
4 *63:8 0.000565887
5 *241:B1 *66:27 5.49489e-05
6 *241:B1 *132:36 0
7 *243:A *66:33 0.000172679
8 *243:A *76:8 0
9 *243:A *125:76 0
10 *63:8 *249:A1 0.000170625
11 *63:8 *66:27 0
12 *63:8 *76:8 0
13 *63:8 *125:76 0
14 *249:A2 *63:8 1.25275e-05
*RES
1 *235:Y *63:8 20.3 
2 *63:8 *241:B1 15.5857 
3 *63:8 *243:A 16.3536 
*END

*D_NET *64 0.00183087
*CONN
*I *238:B1 I *D sky130_fd_sc_hd__o21ai_2
*I *237:B1 I *D sky130_fd_sc_hd__o21a_2
*I *236:Y O *D sky130_fd_sc_hd__a311oi_2
*CAP
1 *238:B1 0.000178479
2 *237:B1 0.00023559
3 *236:Y 3.48443e-05
4 *64:8 0.000448913
5 *237:B1 *121:12 2.30711e-05
6 *237:B1 *133:35 0.000116088
7 *238:B1 *121:12 2.21254e-05
8 *238:B1 *121:34 0.000147862
9 *238:B1 *134:43 5.01883e-05
10 *64:8 *121:8 5.52238e-05
11 *236:A1 *237:B1 0.000112486
12 *236:B1 *64:8 9.77414e-05
13 *237:A2 *237:B1 0.000230482
14 *51:18 *237:B1 7.77751e-05
*RES
1 *236:Y *64:8 14.7464 
2 *64:8 *237:B1 19.5321 
3 *64:8 *238:B1 17.4071 
*END

*D_NET *65 0.00256705
*CONN
*I *242:B I *D sky130_fd_sc_hd__nor3_2
*I *237:X O *D sky130_fd_sc_hd__o21a_2
*CAP
1 *242:B 0.000684916
2 *237:X 0.000684916
3 *242:B *223:B 0.00020212
4 *242:B *254:A1 6.65698e-05
5 *242:B *254:A2 2.57147e-05
6 *242:B *128:12 0
7 *242:B *133:35 0.000847868
8 *238:A1 *242:B 0
9 *249:A2 *242:B 5.49489e-05
*RES
1 *237:X *242:B 43.3321 
*END

*D_NET *66 0.00673208
*CONN
*I *241:B2 I *D sky130_fd_sc_hd__a22oi_2
*I *266:A1 I *D sky130_fd_sc_hd__a22o_2
*I *268:C I *D sky130_fd_sc_hd__nand3_2
*I *243:B I *D sky130_fd_sc_hd__nand4_2
*I *249:B1 I *D sky130_fd_sc_hd__o21ai_2
*I *238:Y O *D sky130_fd_sc_hd__o21ai_2
*CAP
1 *241:B2 0
2 *266:A1 1.90564e-05
3 *268:C 0.000218113
4 *243:B 4.33566e-05
5 *249:B1 2.84971e-05
6 *238:Y 0.000567377
7 *66:52 0.000959753
8 *66:33 0.000862265
9 *66:27 0.000473995
10 *66:8 0.000973544
11 *243:B *125:66 4.60153e-05
12 *249:B1 *311:A 5.50052e-05
13 *266:A1 *264:B 3.41517e-06
14 *266:A1 *268:B 3.99614e-06
15 *268:C *264:B 2.49454e-05
16 *268:C *266:A2 7.42425e-05
17 *268:C *268:B 0.000118849
18 *268:C *273:A1 8.40168e-05
19 *268:C *93:10 3.18676e-05
20 *268:C *95:6 5.71472e-05
21 *66:8 *81:8 9.84629e-05
22 *66:8 *121:47 0
23 *66:27 *76:8 0.000149959
24 *66:27 *81:8 0.000191507
25 *66:27 *81:23 4.80729e-05
26 *66:33 *243:C 0
27 *66:52 *261:C 1.41029e-05
28 *66:52 *264:B 3.91648e-05
29 *66:52 *84:10 8.15939e-05
30 *66:52 *89:12 0.000367389
31 *66:52 *90:12 0.000185964
32 *66:52 *125:66 0.000142575
33 *235:B *66:8 0.000134857
34 *235:C *66:8 5.79582e-06
35 *238:A2 *66:8 3.4846e-06
36 *241:B1 *66:27 5.49489e-05
37 *243:A *66:33 0.000172679
38 *56:12 *66:8 0.00033579
39 *62:12 *66:8 6.02811e-05
40 *63:8 *66:27 0
*RES
1 *238:Y *66:8 25.4607 
2 *66:8 *249:B1 14.3357 
3 *66:8 *66:27 12.1429 
4 *66:27 *66:33 11.25 
5 *66:33 *243:B 10.2464 
6 *66:33 *66:52 23.625 
7 *66:52 *268:C 14.9071 
8 *66:52 *266:A1 9.72857 
9 *66:27 *241:B2 9.3 
*END

*D_NET *67 0.000640009
*CONN
*I *245:A1 I *D sky130_fd_sc_hd__o2111ai_2
*I *239:X O *D sky130_fd_sc_hd__and2_2
*CAP
1 *245:A1 5.28615e-05
2 *239:X 5.28615e-05
3 *245:A2 *245:A1 0.000267143
4 *44:14 *245:A1 0.000267143
*RES
1 *239:X *245:A1 21.1893 
*END

*D_NET *68 0.00074281
*CONN
*I *242:A I *D sky130_fd_sc_hd__nor3_2
*I *249:A1 I *D sky130_fd_sc_hd__o21ai_2
*I *240:Y O *D sky130_fd_sc_hd__nand2_2
*CAP
1 *242:A 0
2 *249:A1 7.48844e-05
3 *240:Y 5.13528e-05
4 *68:6 0.000126237
5 *249:A1 *311:A 5.33005e-05
6 *249:A1 *126:70 5.49544e-05
7 *68:6 *70:14 4.82865e-05
8 *249:A2 *249:A1 0.00016317
9 *63:8 *249:A1 0.000170625
*RES
1 *240:Y *68:6 10.2464 
2 *68:6 *249:A1 21.0857 
3 *68:6 *242:A 9.3 
*END

*D_NET *69 0.00139666
*CONN
*I *247:A1 I *D sky130_fd_sc_hd__o2111a_2
*I *244:B1 I *D sky130_fd_sc_hd__o22ai_2
*I *241:Y O *D sky130_fd_sc_hd__a22oi_2
*CAP
1 *247:A1 6.18592e-05
2 *244:B1 0.000145748
3 *241:Y 0.000292336
4 *69:6 0.000499943
5 *244:B1 *247:A2 1.51611e-06
6 *244:B1 *70:25 7.83462e-05
7 *244:B1 *73:8 0
8 *247:A1 *247:A2 9.22777e-05
9 *247:A1 *70:14 1.24368e-05
10 *69:6 *70:14 2.58821e-05
11 *69:6 *132:36 0.00018631
*RES
1 *241:Y *69:6 14.3536 
2 *69:6 *244:B1 21.1929 
3 *69:6 *247:A1 10.9429 
*END

*D_NET *70 0.00433396
*CONN
*I *270:B1 I *D sky130_fd_sc_hd__o22ai_2
*I *246:A2 I *D sky130_fd_sc_hd__o211a_2
*I *244:B2 I *D sky130_fd_sc_hd__o22ai_2
*I *247:A2 I *D sky130_fd_sc_hd__o2111a_2
*I *242:Y O *D sky130_fd_sc_hd__nor3_2
*CAP
1 *270:B1 0.000235567
2 *246:A2 0.000166746
3 *244:B2 0
4 *247:A2 0.000105257
5 *242:Y 0.000665926
6 *70:27 0.000166746
7 *70:25 0.000371213
8 *70:14 0.000906828
9 *246:A2 *246:A1 5.47476e-05
10 *246:A2 *246:C1 0.000206414
11 *246:A2 *248:A 0.00014183
12 *270:B1 *270:B2 0
13 *270:B1 *72:21 0
14 *70:14 *213:A 3.87671e-05
15 *70:14 *240:A 0.000182598
16 *70:14 *124:92 5.66971e-05
17 *70:14 *124:99 9.84673e-05
18 *70:14 *125:76 6.55133e-05
19 *70:14 *130:12 0.000138699
20 *70:14 *132:36 0.000222666
21 *70:25 *73:8 0
22 *70:25 *132:36 1.52978e-05
23 *244:A1 *70:14 7.2754e-05
24 *244:A2 *270:B1 4.1331e-06
25 *244:A2 *70:25 6.67126e-05
26 *244:B1 *247:A2 1.51611e-06
27 *244:B1 *70:25 7.83462e-05
28 *246:B1 *246:A2 3.57366e-05
29 *247:A1 *247:A2 9.22777e-05
30 *247:A1 *70:14 1.24368e-05
31 *315:A *70:25 5.59013e-05
32 *68:6 *70:14 4.82865e-05
33 *69:6 *70:14 2.58821e-05
*RES
1 *242:Y *70:14 29.7107 
2 *70:14 *247:A2 11.0679 
3 *70:14 *70:25 7.35714 
4 *70:25 *70:27 4.5 
5 *70:27 *244:B2 9.3 
6 *70:27 *246:A2 13.9786 
7 *70:25 *270:B1 17.6036 
*END

*D_NET *71 0.00170736
*CONN
*I *266:A2 I *D sky130_fd_sc_hd__a22o_2
*I *268:B I *D sky130_fd_sc_hd__nand3_2
*I *243:Y O *D sky130_fd_sc_hd__nand4_2
*CAP
1 *266:A2 1.48798e-05
2 *268:B 0.0001337
3 *243:Y 0.000481763
4 *71:10 0.000630343
5 *266:A2 *264:B 3.34156e-05
6 *268:B *264:B 5.33005e-05
7 *268:B *273:A1 1.24368e-05
8 *71:10 *261:C 0
9 *71:10 *264:B 0.000125717
10 *71:10 *266:B1 0
11 *71:10 *268:A 2.47186e-05
12 *71:10 *72:21 0
13 *71:10 *84:10 0
14 *71:10 *89:12 0
15 *266:A1 *268:B 3.99614e-06
16 *268:C *266:A2 7.42425e-05
17 *268:C *268:B 0.000118849
*RES
1 *243:Y *71:10 27.2286 
2 *71:10 *268:B 12.3357 
3 *71:10 *266:A2 10.0143 
*END

*D_NET *72 0.00975498
*CONN
*I *272:A1 I *D sky130_fd_sc_hd__a21boi_2
*I *271:C I *D sky130_fd_sc_hd__nand3_2
*I *273:A1 I *D sky130_fd_sc_hd__a41o_2
*I *295:B1 I *D sky130_fd_sc_hd__o211ai_2
*I *296:A1 I *D sky130_fd_sc_hd__a41oi_2
*I *246:C1 I *D sky130_fd_sc_hd__o211a_2
*I *244:Y O *D sky130_fd_sc_hd__o22ai_2
*CAP
1 *272:A1 0.000232458
2 *271:C 0
3 *273:A1 0.00029091
4 *295:B1 0.000174642
5 *296:A1 0.000140822
6 *246:C1 0.000376771
7 *244:Y 0
8 *72:64 0.000451337
9 *72:49 0.000568458
10 *72:27 0.00186967
11 *72:21 0.00209867
12 *72:4 0.00086257
13 *246:C1 *246:A1 5.47476e-05
14 *246:C1 *125:66 0
15 *272:A1 *271:A 5.52302e-05
16 *272:A1 *271:B 0
17 *272:A1 *272:A2 2.89016e-05
18 *272:A1 *94:10 0.000402784
19 *272:A1 *97:32 0.000183422
20 *272:A1 *97:40 9.22103e-06
21 *272:A1 *98:8 7.77652e-05
22 *273:A1 *95:6 8.71761e-05
23 *295:B1 *296:A2 5.53499e-05
24 *295:B1 *102:21 0.000116481
25 *295:B1 *103:47 4.25809e-05
26 *295:B1 *106:26 6.48957e-05
27 *296:A1 *102:21 0.000270958
28 *296:A1 *103:47 9.45762e-05
29 *296:A1 *104:27 9.60875e-05
30 *72:21 *268:A 4.58096e-05
31 *72:27 *264:A 7.62318e-05
32 *72:27 *268:A 6.09919e-05
33 *72:27 *294:A3 2.67489e-05
34 *72:27 *89:12 0.000121372
35 *72:49 *268:A 3.69697e-05
36 *72:64 *268:A 2.84494e-05
37 *72:64 *273:A2 0
38 *72:64 *93:10 0
39 *246:A2 *246:C1 0.000206414
40 *246:B1 *246:C1 5.90995e-05
41 *268:B *273:A1 1.24368e-05
42 *268:C *273:A1 8.40168e-05
43 *270:B1 *72:21 0
44 *296:B1 *296:A1 9.25014e-06
45 *26:12 *72:27 0.000280705
46 *71:10 *72:21 0
*RES
1 *244:Y *72:4 9.3 
2 *72:4 *246:C1 16.3357 
3 *72:4 *72:21 13.4643 
4 *72:21 *72:27 28.4286 
5 *72:27 *296:A1 18.2107 
6 *72:27 *295:B1 18.175 
7 *72:21 *72:49 1.03571 
8 *72:49 *273:A1 18.05 
9 *72:49 *72:64 7.96429 
10 *72:64 *271:C 9.3 
11 *72:64 *272:A1 16.0321 
*END

*D_NET *73 0.0019584
*CONN
*I *270:B2 I *D sky130_fd_sc_hd__o22ai_2
*I *246:A1 I *D sky130_fd_sc_hd__o211a_2
*I *245:Y O *D sky130_fd_sc_hd__o2111ai_2
*CAP
1 *270:B2 0.000190333
2 *246:A1 1.15715e-05
3 *245:Y 0.000363922
4 *73:8 0.000565826
5 *270:B2 *248:A 0.000175526
6 *270:B2 *248:B 1.27784e-05
7 *73:8 *248:B 4.48206e-05
8 *73:8 *124:8 3.9733e-05
9 *244:B1 *73:8 0
10 *246:A2 *246:A1 5.47476e-05
11 *246:C1 *246:A1 5.47476e-05
12 *247:B1 *73:8 0.000158028
13 *270:B1 *270:B2 0
14 *315:A *73:8 0
15 *38:25 *73:8 0
16 *47:10 *73:8 6.44649e-05
17 *47:23 *73:8 0.000221899
18 *70:25 *73:8 0
*RES
1 *245:Y *73:8 22.7286 
2 *73:8 *246:A1 14.3313 
3 *73:8 *270:B2 17.7286 
*END

*D_NET *74 0.000976341
*CONN
*I *248:A I *D sky130_fd_sc_hd__or2_2
*I *246:X O *D sky130_fd_sc_hd__o211a_2
*CAP
1 *248:A 0.000214372
2 *246:X 0.000214372
3 *248:A *248:B 0.000102081
4 *248:A *97:12 0.000128161
5 *246:A2 *248:A 0.00014183
6 *270:B2 *248:A 0.000175526
*RES
1 *246:X *248:A 33.0286 
*END

*D_NET *75 0.00106059
*CONN
*I *248:B I *D sky130_fd_sc_hd__or2_2
*I *247:X O *D sky130_fd_sc_hd__o2111a_2
*CAP
1 *248:B 0.000205085
2 *247:X 0.000205085
3 *248:B *322:A 0.000292715
4 *248:B *97:12 0.000128161
5 *248:A *248:B 0.000102081
6 *270:B2 *248:B 1.27784e-05
7 *38:25 *248:B 6.98669e-05
8 *73:8 *248:B 4.48206e-05
*RES
1 *247:X *248:B 33.7964 
*END

*D_NET *76 0.00298337
*CONN
*I *267:A I *D sky130_fd_sc_hd__nand2_2
*I *294:A1 I *D sky130_fd_sc_hd__a31oi_2
*I *249:Y O *D sky130_fd_sc_hd__o21ai_2
*CAP
1 *267:A 0.000401893
2 *294:A1 0
3 *249:Y 0.000511364
4 *76:8 0.000913256
5 *267:A *265:A 2.84026e-05
6 *267:A *265:B 0.000405787
7 *267:A *267:B 5.65955e-05
8 *267:A *94:10 5.38444e-06
9 *267:A *97:40 4.33047e-05
10 *76:8 *261:B 5.03945e-05
11 *76:8 *265:B 0.000149372
12 *76:8 *294:A2 0.000125736
13 *76:8 *81:23 5.82567e-05
14 *76:8 *81:40 2.09177e-05
15 *76:8 *83:8 6.27456e-05
16 *243:A *76:8 0
17 *63:8 *76:8 0
18 *66:27 *76:8 0.000149959
*RES
1 *249:Y *76:8 25.1571 
2 *76:8 *294:A1 13.8 
3 *76:8 *267:A 22.4071 
*END

*D_NET *77 0.00813255
*CONN
*I *260:C I *D sky130_fd_sc_hd__nand3_2
*I *263:A_N I *D sky130_fd_sc_hd__nand3b_2
*I *282:A1 I *D sky130_fd_sc_hd__a311oi_2
*I *283:A3 I *D sky130_fd_sc_hd__a32o_2
*I *261:A_N I *D sky130_fd_sc_hd__nand3b_2
*I *262:B I *D sky130_fd_sc_hd__nand3_2
*I *250:Y O *D sky130_fd_sc_hd__o21ai_2
*CAP
1 *260:C 9.56275e-05
2 *263:A_N 6.28868e-05
3 *282:A1 0
4 *283:A3 0
5 *261:A_N 0.000272027
6 *262:B 0.000206665
7 *250:Y 0.000841979
8 *77:60 0.000353539
9 *77:49 0.000548635
10 *77:38 0.000433708
11 *77:12 0.00081853
12 *77:8 0.00126191
13 *260:C *260:B 1.31516e-05
14 *260:C *87:10 9.30093e-05
15 *260:C *108:12 5.52302e-05
16 *261:A_N *261:B 0.000250376
17 *261:A_N *261:C 4.10796e-05
18 *261:A_N *294:A2 0.000121592
19 *261:A_N *86:8 0
20 *261:A_N *86:19 0
21 *262:B *262:C 0.000140933
22 *263:A_N *265:A 5.33005e-05
23 *263:A_N *282:A3 2.28598e-05
24 *263:A_N *85:18 2.8266e-06
25 *263:A_N *85:27 9.41642e-05
26 *263:A_N *87:10 5.59013e-05
27 *77:8 *254:B1 7.41127e-05
28 *77:8 *279:A1 3.67452e-05
29 *77:8 *78:21 1.18358e-05
30 *77:8 *82:8 0.00018787
31 *77:8 *82:22 0
32 *77:8 *82:64 7.38748e-05
33 *77:8 *85:12 0.000177941
34 *77:8 *86:8 0
35 *77:8 *126:70 0
36 *77:8 *126:83 0.000565217
37 *77:8 *134:43 0.000138816
38 *77:38 *85:12 0.000101545
39 *77:38 *85:18 2.61337e-05
40 *77:38 *86:8 0
41 *77:38 *105:12 1.59782e-05
42 *77:49 *296:A2 0
43 *77:49 *85:18 0.000315732
44 *77:49 *105:12 4.1331e-06
45 *77:49 *107:26 0
46 *77:60 *85:27 0.000162625
47 *77:60 *97:40 8.27184e-06
48 *229:A1 *77:8 3.2871e-05
49 *35:10 *77:8 0.000148514
50 *51:12 *77:8 0
51 *57:12 *77:8 0.000210403
*RES
1 *250:Y *77:8 35.7821 
2 *77:8 *77:12 9.55357 
3 *77:12 *262:B 12.7286 
4 *77:12 *261:A_N 24.3893 
5 *77:8 *77:38 1.94643 
6 *77:38 *283:A3 13.8 
7 *77:38 *77:49 12.2143 
8 *77:49 *282:A1 9.3 
9 *77:49 *77:60 7.41071 
10 *77:60 *263:A_N 15.4786 
11 *77:60 *260:C 15.9786 
*END

*D_NET *78 0.00427669
*CONN
*I *277:A1 I *D sky130_fd_sc_hd__o21ai_2
*I *257:B1 I *D sky130_fd_sc_hd__a21o_2
*I *279:A1 I *D sky130_fd_sc_hd__o211ai_2
*I *256:A I *D sky130_fd_sc_hd__nand3_2
*I *251:Y O *D sky130_fd_sc_hd__nand2_2
*CAP
1 *277:A1 0
2 *257:B1 0.000423912
3 *279:A1 0.000107757
4 *256:A 0.000547573
5 *251:Y 2.23854e-05
6 *78:34 0.000423912
7 *78:21 0.000225576
8 *78:6 0.000687778
9 *256:A *256:B 4.24918e-05
10 *256:A *82:14 0.000148157
11 *256:A *82:22 7.77751e-05
12 *257:B1 *257:A1 5.12625e-05
13 *257:B1 *257:A2 4.16984e-05
14 *257:B1 *258:A1 0.000304047
15 *257:B1 *82:24 1.55885e-05
16 *257:B1 *125:39 0.000164955
17 *257:B1 *125:45 1.57155e-05
18 *257:B1 *125:66 0.000496559
19 *257:B1 *133:35 4.59075e-05
20 *279:A1 *279:A2 5.88692e-05
21 *279:A1 *85:12 0.000154762
22 *279:A1 *105:12 6.0038e-05
23 *78:21 *279:A2 4.46186e-06
24 *78:21 *82:64 7.6644e-05
25 *78:21 *125:39 3.0285e-05
26 *77:8 *279:A1 3.67452e-05
27 *77:8 *78:21 1.18358e-05
*RES
1 *251:Y *78:6 9.72857 
2 *78:6 *256:A 16.7286 
3 *78:6 *78:21 6.67857 
4 *78:21 *279:A1 17.1929 
5 *78:21 *78:34 4.5 
6 *78:34 *257:B1 20.3 
7 *78:34 *277:A1 9.3 
*END

*D_NET *79 0.00518687
*CONN
*I *289:D I *D sky130_fd_sc_hd__and4_2
*I *292:A3 I *D sky130_fd_sc_hd__a31o_2
*I *278:A1 I *D sky130_fd_sc_hd__o211ai_2
*I *300:A1 I *D sky130_fd_sc_hd__a21o_2
*I *276:A1 I *D sky130_fd_sc_hd__o21ai_2
*I *290:D I *D sky130_fd_sc_hd__nand4_2
*I *252:Y O *D sky130_fd_sc_hd__nand2_2
*CAP
1 *289:D 0
2 *292:A3 0.000104189
3 *278:A1 0
4 *300:A1 0.00018376
5 *276:A1 0.000187628
6 *290:D 0
7 *252:Y 0.000346669
8 *79:45 0.000461349
9 *79:41 0.000349886
10 *79:20 0.000374518
11 *79:12 0.000565451
12 *276:A1 *276:A2 0.000140933
13 *276:A1 *291:B 9.76689e-05
14 *276:A1 *291:C 5.52302e-05
15 *292:A3 *274:A 0.000167666
16 *292:A3 *292:B1 1.853e-05
17 *292:A3 *104:51 9.00645e-05
18 *292:A3 *104:60 3.24049e-05
19 *300:A1 *300:A2 0.000394714
20 *300:A1 *300:B1 5.27855e-05
21 *79:12 *135:17 0.000193596
22 *79:20 *274:A 4.71921e-05
23 *79:20 *100:12 3.29297e-05
24 *79:20 *104:51 0.000196085
25 *79:41 *290:B 0
26 *79:41 *290:C 1.32293e-05
27 *79:41 *100:12 0.000216676
28 *79:41 *104:51 1.08359e-05
29 *79:41 *125:8 4.53889e-05
30 *297:A1 *300:A1 0.000166276
31 *297:A1 *79:45 0.000176234
32 *297:A2 *300:A1 0.00014285
33 *297:A2 *79:45 0
34 *21:10 *79:20 0.00012342
35 *21:10 *79:41 0.000198705
*RES
1 *252:Y *79:12 24.675 
2 *79:12 *79:20 12.6071 
3 *79:20 *290:D 9.3 
4 *79:20 *79:41 15.6607 
5 *79:41 *79:45 6.75 
6 *79:45 *276:A1 17.6214 
7 *79:45 *300:A1 19.8893 
8 *79:41 *278:A1 9.3 
9 *79:12 *292:A3 13.1571 
10 *79:12 *289:D 9.3 
*END

*D_NET *80 0.00140804
*CONN
*I *277:A2 I *D sky130_fd_sc_hd__o21ai_2
*I *279:A2 I *D sky130_fd_sc_hd__o211ai_2
*I *253:Y O *D sky130_fd_sc_hd__a22oi_2
*CAP
1 *277:A2 0
2 *279:A2 0.000117197
3 *253:Y 0.000352068
4 *80:12 0.000469265
5 *279:A2 *279:B1 0
6 *279:A2 *105:12 3.17163e-05
7 *80:12 *251:A 0.000131144
8 *80:12 *278:C1 0
9 *80:12 *279:B1 1.76039e-05
10 *80:12 *82:64 1.98839e-05
11 *80:12 *103:10 0
12 *80:12 *125:39 0.000205835
13 *279:A1 *279:A2 5.88692e-05
14 *78:21 *279:A2 4.46186e-06
*RES
1 *253:Y *80:12 26.05 
2 *80:12 *279:A2 21.1571 
3 *80:12 *277:A2 9.3 
*END

*D_NET *81 0.00298363
*CONN
*I *259:A I *D sky130_fd_sc_hd__nand4_2
*I *257:A1 I *D sky130_fd_sc_hd__a21o_2
*I *258:B1 I *D sky130_fd_sc_hd__a22o_2
*I *256:B I *D sky130_fd_sc_hd__nand3_2
*I *254:X O *D sky130_fd_sc_hd__a22o_2
*CAP
1 *259:A 0
2 *257:A1 3.67039e-05
3 *258:B1 0.00034994
4 *256:B 8.37557e-05
5 *254:X 0.000185822
6 *81:40 0.000108006
7 *81:23 0.000532952
8 *81:8 0.000381286
9 *256:B *82:14 0
10 *257:A1 *257:A2 5.52302e-05
11 *258:B1 *257:A2 9.60939e-05
12 *258:B1 *258:A1 3.6906e-05
13 *258:B1 *258:B2 0.000202351
14 *258:B1 *82:24 8.27532e-05
15 *258:B1 *125:39 3.99614e-06
16 *81:8 *133:35 0.000133189
17 *81:23 *83:8 0.000100823
18 *81:23 *133:35 2.6949e-05
19 *81:40 *83:8 5.59013e-05
20 *256:A *256:B 4.24918e-05
21 *257:B1 *257:A1 5.12625e-05
22 *66:8 *81:8 9.84629e-05
23 *66:27 *81:8 0.000191507
24 *66:27 *81:23 4.80729e-05
25 *76:8 *81:23 5.82567e-05
26 *76:8 *81:40 2.09177e-05
*RES
1 *254:X *81:8 18.7821 
2 *81:8 *256:B 15.6036 
3 *81:8 *81:23 2.25 
4 *81:23 *258:B1 18.8714 
5 *81:23 *81:40 5.76786 
6 *81:40 *257:A1 10.2464 
7 *81:40 *259:A 9.3 
*END

*D_NET *82 0.00481431
*CONN
*I *277:B1 I *D sky130_fd_sc_hd__o21ai_2
*I *279:B1 I *D sky130_fd_sc_hd__o211ai_2
*I *256:C I *D sky130_fd_sc_hd__nand3_2
*I *258:B2 I *D sky130_fd_sc_hd__a22o_2
*I *259:B I *D sky130_fd_sc_hd__nand4_2
*I *257:A2 I *D sky130_fd_sc_hd__a21o_2
*I *255:Y O *D sky130_fd_sc_hd__nand4_2
*CAP
1 *277:B1 0
2 *279:B1 0.000176202
3 *256:C 0
4 *258:B2 4.58096e-05
5 *259:B 2.05965e-05
6 *257:A2 7.86214e-05
7 *255:Y 0.000188181
8 *82:64 0.000512915
9 *82:24 0.000125769
10 *82:22 0.000213158
11 *82:14 0.000339571
12 *82:8 0.000723668
13 *258:B2 *258:A1 0.000101017
14 *258:B2 *259:D 5.71472e-05
15 *258:B2 *125:39 0
16 *258:B2 *133:35 5.52302e-05
17 *259:B *258:A1 3.99614e-06
18 *279:B1 *102:10 0.000104974
19 *279:B1 *102:21 4.80729e-05
20 *279:B1 *103:10 0
21 *279:B1 *103:34 0
22 *82:8 *251:A 0.000208651
23 *82:8 *254:A2 0.000126272
24 *82:8 *126:83 0.000170755
25 *82:22 *133:35 0.000148182
26 *82:24 *133:35 5.33005e-05
27 *82:64 *251:A 1.76135e-05
28 *82:64 *103:8 1.72894e-05
29 *82:64 *125:39 0.000181796
30 *256:A *82:14 0.000148157
31 *256:A *82:22 7.77751e-05
32 *256:B *82:14 0
33 *257:A1 *257:A2 5.52302e-05
34 *257:B1 *257:A2 4.16984e-05
35 *257:B1 *82:24 1.55885e-05
36 *258:B1 *257:A2 9.60939e-05
37 *258:B1 *258:B2 0.000202351
38 *258:B1 *82:24 8.27532e-05
39 *279:A2 *279:B1 0
40 *77:8 *82:8 0.00018787
41 *77:8 *82:22 0
42 *77:8 *82:64 7.38748e-05
43 *78:21 *82:64 7.6644e-05
44 *80:12 *279:B1 1.76039e-05
45 *80:12 *82:64 1.98839e-05
*RES
1 *255:Y *82:8 20.6036 
2 *82:8 *82:14 8.75 
3 *82:14 *82:22 12.3036 
4 *82:22 *82:24 0.946429 
5 *82:24 *257:A2 11.0679 
6 *82:24 *259:B 9.72857 
7 *82:22 *258:B2 12.175 
8 *82:14 *256:C 9.3 
9 *82:8 *82:64 9.875 
10 *82:64 *279:B1 21.9964 
11 *82:64 *277:B1 9.3 
*END

*D_NET *83 0.00148893
*CONN
*I *261:B I *D sky130_fd_sc_hd__nand3b_2
*I *262:C I *D sky130_fd_sc_hd__nand3_2
*I *256:Y O *D sky130_fd_sc_hd__nand3_2
*CAP
1 *261:B 0.000115314
2 *262:C 5.70358e-05
3 *256:Y 0.000204477
4 *83:8 0.000376827
5 *83:8 *86:8 0
6 *83:8 *125:66 0
7 *83:8 *133:35 7.40992e-05
8 *261:A_N *261:B 0.000250376
9 *262:B *262:C 0.000140933
10 *76:8 *261:B 5.03945e-05
11 *76:8 *83:8 6.27456e-05
12 *81:23 *83:8 0.000100823
13 *81:40 *83:8 5.59013e-05
*RES
1 *256:Y *83:8 18.4786 
2 *83:8 *262:C 15.1571 
3 *83:8 *261:B 16.9964 
*END

*D_NET *84 0.0011106
*CONN
*I *261:C I *D sky130_fd_sc_hd__nand3b_2
*I *262:A I *D sky130_fd_sc_hd__nand3_2
*I *257:X O *D sky130_fd_sc_hd__a21o_2
*CAP
1 *261:C 0.000224628
2 *262:A 0
3 *257:X 0.000148688
4 *84:10 0.000373316
5 *261:C *89:12 0.000128154
6 *84:10 *125:66 9.90367e-05
7 *261:A_N *261:C 4.10796e-05
8 *66:52 *261:C 1.41029e-05
9 *66:52 *84:10 8.15939e-05
10 *71:10 *261:C 0
11 *71:10 *84:10 0
*RES
1 *257:X *84:10 16.6929 
2 *84:10 *262:A 13.8 
3 *84:10 *261:C 17.9429 
*END

*D_NET *85 0.00316699
*CONN
*I *283:A1 I *D sky130_fd_sc_hd__a32o_2
*I *260:A I *D sky130_fd_sc_hd__nand3_2
*I *263:B I *D sky130_fd_sc_hd__nand3b_2
*I *282:A2 I *D sky130_fd_sc_hd__a311oi_2
*I *258:X O *D sky130_fd_sc_hd__a22o_2
*CAP
1 *283:A1 0
2 *260:A 6.49859e-05
3 *263:B 4.95899e-05
4 *282:A2 0
5 *258:X 0.00018358
6 *85:27 0.000252891
7 *85:18 0.000544888
8 *85:12 0.000590152
9 *260:A *260:B 8.16036e-05
10 *260:A *110:25 4.57445e-05
11 *263:B *265:A 3.18676e-05
12 *263:B *282:A3 0
13 *85:12 *283:B2 0.000137983
14 *85:12 *105:12 6.16744e-05
15 *85:18 *284:B1_N 0
16 *85:18 *86:8 0
17 *85:18 *86:19 0
18 *85:27 *265:A 3.9846e-05
19 *85:27 *282:A3 2.32013e-05
20 *85:27 *97:40 2.32517e-05
21 *263:A_N *85:18 2.8266e-06
22 *263:A_N *85:27 9.41642e-05
23 *279:A1 *85:12 0.000154762
24 *77:8 *85:12 0.000177941
25 *77:38 *85:12 0.000101545
26 *77:38 *85:18 2.61337e-05
27 *77:49 *85:18 0.000315732
28 *77:60 *85:27 0.000162625
*RES
1 *258:X *85:12 23.1214 
2 *85:12 *85:18 17.3214 
3 *85:18 *282:A2 9.3 
4 *85:18 *85:27 3.42857 
5 *85:27 *263:B 10.2643 
6 *85:27 *260:A 20.2464 
7 *85:12 *283:A1 9.3 
*END

*D_NET *86 0.00286139
*CONN
*I *260:B I *D sky130_fd_sc_hd__nand3_2
*I *263:C I *D sky130_fd_sc_hd__nand3b_2
*I *282:A3 I *D sky130_fd_sc_hd__a311oi_2
*I *283:A2 I *D sky130_fd_sc_hd__a32o_2
*I *259:Y O *D sky130_fd_sc_hd__nand4_2
*CAP
1 *260:B 6.0184e-05
2 *263:C 4.02315e-05
3 *282:A3 6.90595e-05
4 *283:A2 8.91527e-05
5 *259:Y 0.000241157
6 *86:32 0.000130262
7 *86:19 0.000483698
8 *86:8 0.000715101
9 *260:B *87:10 0.000148911
10 *260:B *110:25 0
11 *282:A3 *265:A 5.33005e-05
12 *282:A3 *97:40 0.000139907
13 *283:A2 *283:B1 0.000106113
14 *283:A2 *283:B2 0.000229456
15 *86:8 *125:66 9.25014e-06
16 *86:19 *265:B 0
17 *86:19 *284:B1_N 0.000150611
18 *86:19 *294:B1 0
19 *86:19 *110:25 0
20 *86:32 *284:B1_N 3.17148e-05
21 *86:32 *87:10 2.24646e-05
22 *86:32 *110:25 0
23 *260:A *260:B 8.16036e-05
24 *260:C *260:B 1.31516e-05
25 *261:A_N *86:8 0
26 *261:A_N *86:19 0
27 *263:A_N *282:A3 2.28598e-05
28 *263:B *282:A3 0
29 *77:8 *86:8 0
30 *77:38 *86:8 0
31 *83:8 *86:8 0
32 *85:18 *86:8 0
33 *85:18 *86:19 0
34 *85:27 *282:A3 2.32013e-05
*RES
1 *259:Y *86:8 17.8714 
2 *86:8 *283:A2 16.3893 
3 *86:8 *86:19 7.10714 
4 *86:19 *282:A3 15.8893 
5 *86:19 *86:32 0.732143 
6 *86:32 *263:C 14.3357 
7 *86:32 *260:B 16.05 
*END

*D_NET *87 0.00182466
*CONN
*I *265:A I *D sky130_fd_sc_hd__nand2_2
*I *284:B1_N I *D sky130_fd_sc_hd__o21ba_2
*I *260:Y O *D sky130_fd_sc_hd__nand3_2
*CAP
1 *265:A 0.00019598
2 *284:B1_N 0.00010014
3 *260:Y 0.000125122
4 *87:10 0.000421242
5 *265:A *97:40 0.000224065
6 *87:10 *108:12 4.87854e-05
7 *260:B *87:10 0.000148911
8 *260:C *87:10 9.30093e-05
9 *263:A_N *265:A 5.33005e-05
10 *263:A_N *87:10 5.59013e-05
11 *263:B *265:A 3.18676e-05
12 *267:A *265:A 2.84026e-05
13 *282:A3 *265:A 5.33005e-05
14 *85:18 *284:B1_N 0
15 *85:27 *265:A 3.9846e-05
16 *86:19 *284:B1_N 0.000150611
17 *86:32 *284:B1_N 3.17148e-05
18 *86:32 *87:10 2.24646e-05
*RES
1 *260:Y *87:10 16.9964 
2 *87:10 *284:B1_N 16.05 
3 *87:10 *265:A 18.8714 
*END

*D_NET *88 0.00124889
*CONN
*I *265:B I *D sky130_fd_sc_hd__nand2_2
*I *261:Y O *D sky130_fd_sc_hd__nand3b_2
*CAP
1 *265:B 0.000220739
2 *261:Y 0.000220739
3 *265:B *294:B1 4.48113e-05
4 *265:B *90:12 0.000175519
5 *265:B *110:25 3.19202e-05
6 *267:A *265:B 0.000405787
7 *76:8 *265:B 0.000149372
8 *86:19 *265:B 0
*RES
1 *261:Y *265:B 34.7071 
*END

*D_NET *89 0.00175529
*CONN
*I *266:B1 I *D sky130_fd_sc_hd__a22o_2
*I *264:A I *D sky130_fd_sc_hd__nand2_2
*I *262:Y O *D sky130_fd_sc_hd__nand3_2
*CAP
1 *266:B1 0.000124736
2 *264:A 2.63756e-05
3 *262:Y 0.000193668
4 *89:12 0.00034478
5 *264:A *268:A 5.68713e-05
6 *264:A *294:A3 9.99853e-05
7 *89:12 *294:A3 0.000215726
8 *261:C *89:12 0.000128154
9 *66:52 *89:12 0.000367389
10 *71:10 *266:B1 0
11 *71:10 *89:12 0
12 *72:27 *264:A 7.62318e-05
13 *72:27 *89:12 0.000121372
*RES
1 *262:Y *89:12 25.1571 
2 *89:12 *264:A 10.6571 
3 *89:12 *266:B1 20.2464 
*END

*D_NET *90 0.0020967
*CONN
*I *266:B2 I *D sky130_fd_sc_hd__a22o_2
*I *264:B I *D sky130_fd_sc_hd__nand2_2
*I *263:Y O *D sky130_fd_sc_hd__nand3b_2
*CAP
1 *266:B2 0
2 *264:B 0.000312079
3 *263:Y 0.000336063
4 *90:12 0.000648142
5 *264:B *268:A 6.65302e-05
6 *90:12 *110:25 9.24395e-05
7 *265:B *90:12 0.000175519
8 *266:A1 *264:B 3.41517e-06
9 *266:A2 *264:B 3.34156e-05
10 *268:B *264:B 5.33005e-05
11 *268:C *264:B 2.49454e-05
12 *66:52 *264:B 3.91648e-05
13 *66:52 *90:12 0.000185964
14 *71:10 *264:B 0.000125717
*RES
1 *263:Y *90:12 25.1929 
2 *90:12 *264:B 23.675 
3 *90:12 *266:B2 9.3 
*END

*D_NET *91 0.00141625
*CONN
*I *294:A3 I *D sky130_fd_sc_hd__a31oi_2
*I *268:A I *D sky130_fd_sc_hd__nand3_2
*I *264:Y O *D sky130_fd_sc_hd__nand2_2
*CAP
1 *294:A3 0.00018412
2 *268:A 0.000192606
3 *264:Y 0
4 *91:4 0.000376726
5 *264:A *268:A 5.68713e-05
6 *264:A *294:A3 9.99853e-05
7 *264:B *268:A 6.65302e-05
8 *71:10 *268:A 2.47186e-05
9 *72:21 *268:A 4.58096e-05
10 *72:27 *268:A 6.09919e-05
11 *72:27 *294:A3 2.67489e-05
12 *72:49 *268:A 3.69697e-05
13 *72:64 *268:A 2.84494e-05
14 *89:12 *294:A3 0.000215726
*RES
1 *264:Y *91:4 9.3 
2 *91:4 *268:A 23.0321 
3 *91:4 *294:A3 13.1214 
*END

*D_NET *92 9.79068e-05
*CONN
*I *267:B I *D sky130_fd_sc_hd__nand2_2
*I *265:Y O *D sky130_fd_sc_hd__nand2_2
*CAP
1 *267:B 1.02618e-05
2 *265:Y 1.02618e-05
3 *267:B *97:40 2.07878e-05
4 *267:A *267:B 5.65955e-05
*RES
1 *265:Y *267:B 19.1357 
*END

*D_NET *93 0.000635344
*CONN
*I *286:A1_N I *D sky130_fd_sc_hd__o2bb2ai_2
*I *287:A I *D sky130_fd_sc_hd__nand3_2
*I *266:X O *D sky130_fd_sc_hd__a22o_2
*CAP
1 *286:A1_N 9.23037e-05
2 *287:A 0
3 *266:X 0.000159163
4 *93:10 0.000251467
5 *286:A1_N *286:A2_N 9.4736e-05
6 *93:10 *286:A2_N 5.80706e-06
7 *268:C *93:10 3.18676e-05
8 *288:B *93:10 0
9 *72:64 *93:10 0
*RES
1 *266:X *93:10 16.2821 
2 *93:10 *287:A 13.8 
3 *93:10 *286:A1_N 16.05 
*END

*D_NET *94 0.00273559
*CONN
*I *269:A I *D sky130_fd_sc_hd__nand2_2
*I *273:A2 I *D sky130_fd_sc_hd__a41o_2
*I *267:Y O *D sky130_fd_sc_hd__nand2_2
*CAP
1 *269:A 4.43289e-05
2 *273:A2 0.000160464
3 *267:Y 0.00067213
4 *94:10 0.000876924
5 *269:A *269:B 6.39901e-05
6 *269:A *96:10 0.00010326
7 *273:A2 *269:B 0.00020609
8 *273:A2 *96:10 5.58941e-05
9 *273:A2 *97:12 1.00375e-05
10 *94:10 *97:40 1.85179e-05
11 *94:10 *98:8 9.74783e-05
12 *267:A *94:10 5.38444e-06
13 *272:A1 *94:10 0.000402784
14 *288:B *94:10 1.83053e-05
15 *72:64 *273:A2 0
*RES
1 *267:Y *94:10 22.9786 
2 *94:10 *273:A2 17.925 
3 *94:10 *269:A 15.4429 
*END

*D_NET *95 0.0011599
*CONN
*I *273:A3 I *D sky130_fd_sc_hd__a41o_2
*I *269:B I *D sky130_fd_sc_hd__nand2_2
*I *268:Y O *D sky130_fd_sc_hd__nand3_2
*CAP
1 *273:A3 0
2 *269:B 0.000162463
3 *268:Y 0.000161166
4 *95:6 0.000323629
5 *269:B *324:A 0
6 *269:B *97:12 5.80706e-06
7 *269:B *97:23 9.24299e-05
8 *268:C *95:6 5.71472e-05
9 *269:A *269:B 6.39901e-05
10 *273:A1 *95:6 8.71761e-05
11 *273:A2 *269:B 0.00020609
*RES
1 *268:Y *95:6 12.7107 
2 *95:6 *269:B 22.9786 
3 *95:6 *273:A3 9.3 
*END

*D_NET *96 0.000466853
*CONN
*I *271:A I *D sky130_fd_sc_hd__nand3_2
*I *272:B1_N I *D sky130_fd_sc_hd__a21boi_2
*I *269:Y O *D sky130_fd_sc_hd__nand2_2
*CAP
1 *271:A 8.95055e-06
2 *272:B1_N 0
3 *269:Y 8.87106e-05
4 *96:10 9.76611e-05
5 *271:A *97:32 5.71472e-05
6 *269:A *96:10 0.00010326
7 *272:A1 *271:A 5.52302e-05
8 *273:A2 *96:10 5.58941e-05
*RES
1 *269:Y *96:10 20.2464 
2 *96:10 *272:B1_N 9.3 
3 *96:10 *271:A 9.83571 
*END

*D_NET *97 0.00748107
*CONN
*I *271:B I *D sky130_fd_sc_hd__nand3_2
*I *295:C1 I *D sky130_fd_sc_hd__o211ai_2
*I *296:A2 I *D sky130_fd_sc_hd__a41oi_2
*I *272:A2 I *D sky130_fd_sc_hd__a21boi_2
*I *273:A4 I *D sky130_fd_sc_hd__a41o_2
*I *270:Y O *D sky130_fd_sc_hd__o22ai_2
*CAP
1 *271:B 2.23854e-05
2 *295:C1 0
3 *296:A2 0.000330902
4 *272:A2 4.79091e-05
5 *273:A4 0
6 *270:Y 0.000369024
7 *97:40 0.00187434
8 *97:32 0.0017126
9 *97:23 0.000252776
10 *97:12 0.000427113
11 *272:A2 *273:B1 5.33005e-05
12 *296:A2 *102:21 0.000203059
13 *296:A2 *104:27 5.52238e-05
14 *296:A2 *107:26 0.000101545
15 *97:12 *273:B1 3.51442e-05
16 *97:12 *322:A 0.000131247
17 *97:23 *273:B1 0.000142797
18 *97:23 *324:A 1.17968e-05
19 *97:32 *273:B1 8.46829e-05
20 *97:40 *282:B1 7.17136e-05
21 *97:40 *295:A2 5.33005e-05
22 *97:40 *98:8 0.000218246
23 *248:A *97:12 0.000128161
24 *248:B *97:12 0.000128161
25 *265:A *97:40 0.000224065
26 *267:A *97:40 4.33047e-05
27 *267:B *97:40 2.07878e-05
28 *269:B *97:12 5.80706e-06
29 *269:B *97:23 9.24299e-05
30 *270:A1 *97:12 9.7049e-06
31 *270:A2 *97:12 6.46382e-05
32 *271:A *97:32 5.71472e-05
33 *272:A1 *271:B 0
34 *272:A1 *272:A2 2.89016e-05
35 *272:A1 *97:32 0.000183422
36 *272:A1 *97:40 9.22103e-06
37 *273:A2 *97:12 1.00375e-05
38 *282:A3 *97:40 0.000139907
39 *288:B *97:40 3.08681e-05
40 *295:B1 *296:A2 5.53499e-05
41 *77:49 *296:A2 0
42 *77:60 *97:40 8.27184e-06
43 *85:27 *97:40 2.32517e-05
44 *94:10 *97:40 1.85179e-05
*RES
1 *270:Y *97:12 22.5857 
2 *97:12 *273:A4 13.8 
3 *97:12 *97:23 6.75 
4 *97:23 *272:A2 10.2464 
5 *97:23 *97:32 3.82143 
6 *97:32 *97:40 21.125 
7 *97:40 *296:A2 25.9429 
8 *97:40 *295:C1 9.3 
9 *97:32 *271:B 9.72857 
*END

*D_NET *98 0.000949609
*CONN
*I *287:B I *D sky130_fd_sc_hd__nand3_2
*I *286:A2_N I *D sky130_fd_sc_hd__o2bb2ai_2
*I *271:Y O *D sky130_fd_sc_hd__nand3_2
*CAP
1 *287:B 0
2 *286:A2_N 6.50636e-05
3 *271:Y 0.000115356
4 *98:8 0.00018042
5 *272:A1 *98:8 7.77652e-05
6 *286:A1_N *286:A2_N 9.4736e-05
7 *288:B *286:A2_N 9.4736e-05
8 *93:10 *286:A2_N 5.80706e-06
9 *94:10 *98:8 9.74783e-05
10 *97:40 *98:8 0.000218246
*RES
1 *271:Y *98:8 13.55 
2 *98:8 *286:A2_N 20.55 
3 *98:8 *287:B 9.3 
*END

*D_NET *99 0.00069907
*CONN
*I *273:B1 I *D sky130_fd_sc_hd__a41o_2
*I *272:Y O *D sky130_fd_sc_hd__a21boi_2
*CAP
1 *273:B1 0.000139943
2 *272:Y 0.000139943
3 *273:B1 *324:A 0.00010326
4 p[4] *273:B1 0
5 *272:A2 *273:B1 5.33005e-05
6 *97:12 *273:B1 3.51442e-05
7 *97:23 *273:B1 0.000142797
8 *97:32 *273:B1 8.46829e-05
*RES
1 *272:Y *273:B1 31.2071 
*END

*D_NET *100 0.00464701
*CONN
*I *278:A2 I *D sky130_fd_sc_hd__o211ai_2
*I *300:B1 I *D sky130_fd_sc_hd__a21o_2
*I *293:A1 I *D sky130_fd_sc_hd__a31o_2
*I *291:C I *D sky130_fd_sc_hd__and3_2
*I *276:A2 I *D sky130_fd_sc_hd__o21ai_2
*I *274:Y O *D sky130_fd_sc_hd__nand2_2
*CAP
1 *278:A2 0
2 *300:B1 0.000435212
3 *293:A1 0.000141552
4 *291:C 4.0431e-05
5 *276:A2 7.04266e-05
6 *274:Y 0.000205469
7 *100:40 0.000725592
8 *100:20 0.000110858
9 *100:18 0.000326662
10 *100:12 0.000383304
11 *276:A2 *276:B1 9.90367e-05
12 *276:A2 *291:A 4.72917e-05
13 *291:C *291:A 5.7661e-06
14 *293:A1 *300:A2 1.32552e-05
15 *300:B1 *300:A2 5.70416e-05
16 *100:12 *274:B 1.35553e-05
17 *100:12 *275:A1 0.00022367
18 *100:12 *290:B 9.47378e-05
19 *100:12 *290:C 9.84673e-05
20 *100:12 *292:A1 0.000264539
21 *100:12 *104:51 0.000249532
22 *100:18 *101:8 2.8266e-06
23 *100:18 *101:19 4.71964e-05
24 *100:18 *101:30 9.69119e-06
25 *100:18 *104:51 8.50152e-05
26 *100:18 *125:8 3.97677e-05
27 *100:18 *125:27 1.33343e-05
28 *100:40 *293:A2 0
29 *100:40 *101:30 2.37761e-05
30 *276:A1 *276:A2 0.000140933
31 *276:A1 *291:C 5.52302e-05
32 *297:A2 *300:B1 7.77652e-05
33 *297:B1 *100:40 5.83233e-05
34 *297:B2 *100:40 5.83233e-05
35 *298:B2 *100:40 4.53124e-05
36 *299:B1 *293:A1 5.06983e-05
37 *299:B1 *100:40 7.80714e-06
38 *300:A1 *300:B1 5.27855e-05
39 *21:10 *100:12 2.22156e-05
40 *21:10 *100:18 0
41 *21:10 *100:40 0
42 *79:20 *100:12 3.29297e-05
43 *79:41 *100:12 0.000216676
*RES
1 *274:Y *100:12 26.1036 
2 *100:12 *100:18 7.69643 
3 *100:18 *100:20 4.5 
4 *100:20 *276:A2 11.4786 
5 *100:20 *291:C 10.2643 
6 *100:18 *100:40 7.96429 
7 *100:40 *293:A1 11.0679 
8 *100:40 *300:B1 15.0857 
9 *100:12 *278:A2 9.3 
*END

*D_NET *101 0.00269213
*CONN
*I *291:B I *D sky130_fd_sc_hd__and3_2
*I *293:A2 I *D sky130_fd_sc_hd__a31o_2
*I *276:B1 I *D sky130_fd_sc_hd__o21ai_2
*I *278:B1 I *D sky130_fd_sc_hd__o211ai_2
*I *275:X O *D sky130_fd_sc_hd__a22o_2
*CAP
1 *291:B 0.000133312
2 *293:A2 0.000171567
3 *276:B1 7.21387e-05
4 *278:B1 1.64323e-05
5 *275:X 0.00027919
6 *101:30 0.000361976
7 *101:19 0.000231553
8 *101:8 0.00039794
9 *276:B1 *291:A 0.000271345
10 *276:B1 *102:10 1.40306e-05
11 *278:B1 *104:10 5.52302e-05
12 *278:B1 *104:51 4.38128e-05
13 *278:B1 *125:27 9.90431e-05
14 *293:A2 *104:10 3.34672e-05
15 *293:A2 *104:27 3.66402e-05
16 *101:8 *275:A1 3.79254e-05
17 *101:8 *275:B1 0.000108214
18 *101:8 *278:C1 0
19 *101:19 *278:C1 0
20 *101:19 *104:10 0
21 *101:30 *104:10 0
22 *276:A1 *291:B 9.76689e-05
23 *276:A2 *276:B1 9.90367e-05
24 *299:B1 *293:A2 4.81157e-05
25 *100:18 *101:8 2.8266e-06
26 *100:18 *101:19 4.71964e-05
27 *100:18 *101:30 9.69119e-06
28 *100:40 *293:A2 0
29 *100:40 *101:30 2.37761e-05
*RES
1 *275:X *101:8 19.3893 
2 *101:8 *278:B1 14.7464 
3 *101:8 *101:19 1.94643 
4 *101:19 *276:B1 16.3893 
5 *101:19 *101:30 1.33929 
6 *101:30 *293:A2 17.3 
7 *101:30 *291:B 15.5679 
*END

*D_NET *102 0.00255421
*CONN
*I *280:A I *D sky130_fd_sc_hd__nor2_2
*I *281:B I *D sky130_fd_sc_hd__and2_2
*I *279:C1 I *D sky130_fd_sc_hd__o211ai_2
*I *276:Y O *D sky130_fd_sc_hd__o21ai_2
*CAP
1 *280:A 0.000168147
2 *281:B 0
3 *279:C1 0
4 *276:Y 0.00027932
5 *102:21 0.000419912
6 *102:10 0.000531084
7 *280:A *281:A 9.90367e-05
8 *280:A *284:A1 4.13595e-05
9 *102:10 *291:A 8.0786e-06
10 *102:10 *103:8 0.000186662
11 *102:10 *103:34 0
12 *102:21 *103:34 0
13 *102:21 *103:47 0
14 *102:21 *105:12 0
15 *276:B1 *102:10 1.40306e-05
16 *279:B1 *102:10 0.000104974
17 *279:B1 *102:21 4.80729e-05
18 *295:B1 *102:21 0.000116481
19 *296:A1 *102:21 0.000270958
20 *296:A2 *102:21 0.000203059
21 *296:B1 *102:21 6.30292e-05
*RES
1 *276:Y *102:10 18.1393 
2 *102:10 *279:C1 13.8 
3 *102:10 *102:21 12.2143 
4 *102:21 *281:B 9.3 
5 *102:21 *280:A 12.7464 
*END

*D_NET *103 0.00425856
*CONN
*I *280:B I *D sky130_fd_sc_hd__nor2_2
*I *281:A I *D sky130_fd_sc_hd__and2_2
*I *293:A3 I *D sky130_fd_sc_hd__a31o_2
*I *291:A I *D sky130_fd_sc_hd__and3_2
*I *278:C1 I *D sky130_fd_sc_hd__o211ai_2
*I *277:Y O *D sky130_fd_sc_hd__o21ai_2
*CAP
1 *280:B 0
2 *281:A 2.68435e-05
3 *293:A3 8.43075e-05
4 *291:A 0.000326635
5 *278:C1 0.00027799
6 *277:Y 0.000108949
7 *103:47 0.000321261
8 *103:34 0.000495911
9 *103:10 0.000657123
10 *103:8 0.000278633
11 *278:C1 *104:10 3.56976e-05
12 *278:C1 *125:27 0.000359997
13 *281:A *284:A1 5.71472e-05
14 *293:A3 *300:A2 3.67257e-05
15 *103:10 *104:10 3.98131e-05
16 *103:34 *104:10 4.25716e-05
17 *103:34 *104:27 2.78729e-05
18 *103:47 *326:A 0
19 *103:47 *104:27 5.7234e-05
20 *276:A2 *291:A 4.72917e-05
21 *276:B1 *291:A 0.000271345
22 *279:B1 *103:10 0
23 *279:B1 *103:34 0
24 *280:A *281:A 9.90367e-05
25 *291:C *291:A 5.7661e-06
26 *295:B1 *103:47 4.25809e-05
27 *296:A1 *103:47 9.45762e-05
28 *296:B1 *293:A3 0.000183726
29 *296:B1 *103:47 6.74911e-05
30 *26:12 *103:47 0
31 *80:12 *278:C1 0
32 *80:12 *103:10 0
33 *82:64 *103:8 1.72894e-05
34 *101:8 *278:C1 0
35 *101:19 *278:C1 0
36 *102:10 *291:A 8.0786e-06
37 *102:10 *103:8 0.000186662
38 *102:10 *103:34 0
39 *102:21 *103:34 0
40 *102:21 *103:47 0
*RES
1 *277:Y *103:8 16.3893 
2 *103:8 *103:10 1.33929 
3 *103:10 *278:C1 19.4607 
4 *103:10 *291:A 18.4607 
5 *103:8 *103:34 2.55357 
6 *103:34 *293:A3 15.9786 
7 *103:34 *103:47 11.3036 
8 *103:47 *281:A 10.2464 
9 *103:47 *280:B 9.3 
*END

*D_NET *104 0.00733294
*CONN
*I *292:B1 I *D sky130_fd_sc_hd__a31o_2
*I *290:A I *D sky130_fd_sc_hd__nand4_2
*I *289:A I *D sky130_fd_sc_hd__and4_2
*I *296:A3 I *D sky130_fd_sc_hd__a41oi_2
*I *283:B1 I *D sky130_fd_sc_hd__a32o_2
*I *300:A2 I *D sky130_fd_sc_hd__a21o_2
*I *278:Y O *D sky130_fd_sc_hd__o211ai_2
*CAP
1 *292:B1 0.000158231
2 *290:A 5.84267e-05
3 *289:A 0
4 *296:A3 2.04877e-05
5 *283:B1 0.00014811
6 *300:A2 0.000565483
7 *278:Y 0
8 *104:60 0.000299872
9 *104:51 0.000495219
10 *104:27 0.000595255
11 *104:10 0.00131116
12 *104:4 0.000731028
13 *283:B1 *283:B2 0.000126236
14 *290:A *131:10 4.27842e-06
15 *290:A *131:19 5.40984e-05
16 *292:B1 *274:A 2.93702e-05
17 *296:A3 *283:B2 4.72938e-06
18 *104:10 *125:27 0.000120577
19 *104:51 *274:A 2.33087e-05
20 *104:51 *275:B1 0.000316097
21 *104:51 *125:27 1.69961e-05
22 *278:B1 *104:10 5.52302e-05
23 *278:B1 *104:51 4.38128e-05
24 *278:C1 *104:10 3.56976e-05
25 *283:A2 *283:B1 0.000106113
26 *292:A3 *292:B1 1.853e-05
27 *292:A3 *104:51 9.00645e-05
28 *292:A3 *104:60 3.24049e-05
29 *293:A1 *300:A2 1.32552e-05
30 *293:A2 *104:10 3.34672e-05
31 *293:A2 *104:27 3.66402e-05
32 *293:A3 *300:A2 3.67257e-05
33 *296:A1 *104:27 9.60875e-05
34 *296:A2 *104:27 5.52238e-05
35 *297:A2 *290:A 0.000121897
36 *299:A2 *104:27 0.00014183
37 *299:B1 *300:A2 0.00014285
38 *299:B1 *104:27 0
39 *300:A1 *300:A2 0.000394714
40 *300:B1 *300:A2 5.70416e-05
41 *26:12 *104:27 3.34295e-05
42 *79:20 *104:51 0.000196085
43 *79:41 *104:51 1.08359e-05
44 *100:12 *104:51 0.000249532
45 *100:18 *104:51 8.50152e-05
46 *101:19 *104:10 0
47 *101:30 *104:10 0
48 *103:10 *104:10 3.98131e-05
49 *103:34 *104:10 4.25716e-05
50 *103:34 *104:27 2.78729e-05
51 *103:47 *104:27 5.7234e-05
*RES
1 *278:Y *104:4 9.3 
2 *104:4 *104:10 11.1607 
3 *104:10 *300:A2 24.1036 
4 *104:10 *104:27 13.125 
5 *104:27 *283:B1 12.3759 
6 *104:27 *296:A3 9.72857 
7 *104:4 *104:51 19.1607 
8 *104:51 *289:A 9.3 
9 *104:51 *104:60 1.375 
10 *104:60 *290:A 19.9429 
11 *104:60 *292:B1 12.0321 
*END

*D_NET *105 0.00130749
*CONN
*I *296:A4 I *D sky130_fd_sc_hd__a41oi_2
*I *283:B2 I *D sky130_fd_sc_hd__a32o_2
*I *279:Y O *D sky130_fd_sc_hd__o211ai_2
*CAP
1 *296:A4 0
2 *283:B2 0.000169512
3 *279:Y 0.00014826
4 *105:12 0.000317772
5 *279:A1 *105:12 6.0038e-05
6 *279:A2 *105:12 3.17163e-05
7 *283:A2 *283:B2 0.000229456
8 *283:B1 *283:B2 0.000126236
9 *296:A3 *283:B2 4.72938e-06
10 *77:38 *105:12 1.59782e-05
11 *77:49 *105:12 4.1331e-06
12 *85:12 *283:B2 0.000137983
13 *85:12 *105:12 6.16744e-05
14 *102:21 *105:12 0
*RES
1 *279:Y *105:12 21.6929 
2 *105:12 *283:B2 13.675 
3 *105:12 *296:A4 9.3 
*END

*D_NET *106 0.00213794
*CONN
*I *295:A1 I *D sky130_fd_sc_hd__o211ai_2
*I *282:B1 I *D sky130_fd_sc_hd__a311oi_2
*I *284:A1 I *D sky130_fd_sc_hd__o21ba_2
*I *280:Y O *D sky130_fd_sc_hd__nor2_2
*CAP
1 *295:A1 3.99183e-05
2 *282:B1 0.000233509
3 *284:A1 0.000313779
4 *280:Y 0.000432097
5 *106:26 0.000391745
6 *282:B1 *295:A2 0.000202656
7 *284:A1 *284:A2 0.000235773
8 *280:A *284:A1 4.13595e-05
9 *281:A *284:A1 5.71472e-05
10 *295:B1 *106:26 6.48957e-05
11 *27:10 *295:A1 5.33433e-05
12 *97:40 *282:B1 7.17136e-05
*RES
1 *280:Y *284:A1 24.6179 
2 *280:Y *106:26 20.55 
3 *106:26 *282:B1 14.5143 
4 *106:26 *295:A1 10.2464 
*END

*D_NET *107 0.00149964
*CONN
*I *295:A2 I *D sky130_fd_sc_hd__o211ai_2
*I *282:C1 I *D sky130_fd_sc_hd__a311oi_2
*I *284:A2 I *D sky130_fd_sc_hd__o21ba_2
*I *281:X O *D sky130_fd_sc_hd__and2_2
*CAP
1 *295:A2 0.000126173
2 *282:C1 0
3 *284:A2 0.000209913
4 *281:X 0.000327008
5 *107:26 0.000243268
6 *282:B1 *295:A2 0.000202656
7 *284:A1 *284:A2 0.000235773
8 *296:A2 *107:26 0.000101545
9 *77:49 *107:26 0
10 *97:40 *295:A2 5.33005e-05
*RES
1 *281:X *284:A2 23.2607 
2 *281:X *107:26 20.4786 
3 *107:26 *282:C1 9.3 
4 *107:26 *295:A2 12.3179 
*END

*D_NET *108 0.00183971
*CONN
*I *285:A I *D sky130_fd_sc_hd__nor2_2
*I *286:B1 I *D sky130_fd_sc_hd__o2bb2ai_2
*I *282:Y O *D sky130_fd_sc_hd__a311oi_2
*CAP
1 *285:A 2.0816e-05
2 *286:B1 8.77146e-05
3 *282:Y 0.00062487
4 *108:12 0.0007334
5 *285:A *110:25 3.41517e-06
6 *286:B1 *286:B2 9.99853e-05
7 *286:B1 *110:25 7.09928e-05
8 *108:12 *110:25 9.4496e-05
9 *260:C *108:12 5.52302e-05
10 *87:10 *108:12 4.87854e-05
*RES
1 *282:Y *108:12 29.3 
2 *108:12 *286:B1 11.4786 
3 *108:12 *285:A 9.72857 
*END

*D_NET *109 0.00100057
*CONN
*I *294:A2 I *D sky130_fd_sc_hd__a31oi_2
*I *283:X O *D sky130_fd_sc_hd__a32o_2
*CAP
1 *294:A2 0.000376622
2 *283:X 0.000376622
3 *261:A_N *294:A2 0.000121592
4 *76:8 *294:A2 0.000125736
*RES
1 *283:X *294:A2 33.0643 
*END

*D_NET *110 0.00224313
*CONN
*I *285:B I *D sky130_fd_sc_hd__nor2_2
*I *286:B2 I *D sky130_fd_sc_hd__o2bb2ai_2
*I *294:B1 I *D sky130_fd_sc_hd__a31oi_2
*I *284:X O *D sky130_fd_sc_hd__o21ba_2
*CAP
1 *285:B 0
2 *286:B2 4.55224e-05
3 *294:B1 8.18479e-05
4 *284:X 0.000268328
5 *110:25 0.000453732
6 *110:8 0.000758385
7 *286:B2 *287:C 0.000144074
8 *260:A *110:25 4.57445e-05
9 *260:B *110:25 0
10 *265:B *294:B1 4.48113e-05
11 *265:B *110:25 3.19202e-05
12 *285:A *110:25 3.41517e-06
13 *286:B1 *286:B2 9.99853e-05
14 *286:B1 *110:25 7.09928e-05
15 *288:A *286:B2 7.43578e-06
16 *86:19 *294:B1 0
17 *86:19 *110:25 0
18 *86:32 *110:25 0
19 *90:12 *110:25 9.24395e-05
20 *108:12 *110:25 9.4496e-05
*RES
1 *284:X *110:8 16.8 
2 *110:8 *294:B1 15.4429 
3 *110:8 *110:25 13.2143 
4 *110:25 *286:B2 11.0679 
5 *110:25 *285:B 9.3 
*END

*D_NET *111 0.000647949
*CONN
*I *287:C I *D sky130_fd_sc_hd__nand3_2
*I *285:Y O *D sky130_fd_sc_hd__nor2_2
*CAP
1 *287:C 0.000220598
2 *285:Y 0.000220598
3 *286:B2 *287:C 0.000144074
4 *288:A *287:C 1.64616e-05
5 *288:B *287:C 4.62179e-05
*RES
1 *285:Y *287:C 31.725 
*END

*D_NET *112 0.00342777
*CONN
*I *231:A1 I *D sky130_fd_sc_hd__a41o_2
*I *227:A I *D sky130_fd_sc_hd__nand4_2
*I *226:A I *D sky130_fd_sc_hd__and4_2
*I *312:A I *D sky130_fd_sc_hd__clkdlybuf4s25_1
*I *313:X O *D sky130_fd_sc_hd__clkdlybuf4s25_1
*CAP
1 *231:A1 0
2 *227:A 0
3 *226:A 0.000133462
4 *312:A 0
5 *313:X 0.000342591
6 *112:25 0.000233892
7 *112:21 0.000280441
8 *112:12 0.000522602
9 *226:A *226:B 5.81579e-05
10 *226:A *226:D 8.66063e-05
11 *226:A *227:B 0
12 *226:A *120:20 5.52302e-05
13 *226:A *120:22 0.000135028
14 *226:A *120:24 0.000268396
15 *226:A *121:109 5.33005e-05
16 *226:A *128:27 9.02133e-05
17 *112:12 *236:A2 5.7616e-05
18 *112:12 *321:A 3.08664e-05
19 *112:21 *231:A2 2.44318e-05
20 *112:21 *231:A4 0.000122091
21 *112:21 *236:A2 3.48705e-05
22 *112:21 *120:24 1.74352e-05
23 *112:21 *129:96 0.000138881
24 *112:25 *231:A2 5.52238e-05
25 *112:25 *120:24 0.000236883
26 *112:25 *128:27 0.000449546
*RES
1 *313:X *112:12 22.8357 
2 *112:12 *312:A 9.3 
3 *112:12 *112:21 4.25 
4 *112:21 *112:25 5.07143 
5 *112:25 *226:A 13.9607 
6 *112:25 *227:A 9.3 
7 *112:21 *231:A1 9.3 
*END

*D_NET *113 0.00192252
*CONN
*I *321:A I *D sky130_fd_sc_hd__clkdlybuf4s25_1
*I *211:X O *D sky130_fd_sc_hd__and2_2
*CAP
1 *321:A 0.000584827
2 *211:X 0.000584827
3 *321:A *133:14 0.000154027
4 *321:A *134:10 0.000227322
5 *313:A *321:A 5.49544e-05
6 *318:A *321:A 0.000230475
7 *319:A *321:A 5.52238e-05
8 *112:12 *321:A 3.08664e-05
*RES
1 *211:X *321:A 31.8857 
*END

*D_NET *114 0.00153656
*CONN
*I *322:A I *D sky130_fd_sc_hd__clkdlybuf4s25_1
*I *303:X O *D sky130_fd_sc_hd__and2_2
*CAP
1 *322:A 0.000491619
2 *303:X 0.000491619
3 p[2] *322:A 0
4 *246:B1 *322:A 5.33433e-05
5 *248:B *322:A 0.000292715
6 *38:25 *322:A 7.6021e-05
7 *97:12 *322:A 0.000131247
*RES
1 *303:X *322:A 36.9929 
*END

*D_NET *115 0.000302126
*CONN
*I *323:A I *D sky130_fd_sc_hd__clkdlybuf4s25_1
*I *248:X O *D sky130_fd_sc_hd__or2_2
*CAP
1 *323:A 0.000151063
2 *248:X 0.000151063
*RES
1 *248:X *323:A 20.7786 
*END

*D_NET *116 0.00061176
*CONN
*I *324:A I *D sky130_fd_sc_hd__clkdlybuf4s25_1
*I *273:X O *D sky130_fd_sc_hd__a41o_2
*CAP
1 *324:A 0.000248352
2 *273:X 0.000248352
3 p[4] *324:A 0
4 *269:B *324:A 0
5 *273:B1 *324:A 0.00010326
6 *97:23 *324:A 1.17968e-05
*RES
1 *273:X *324:A 32.2071 
*END

*D_NET *117 0.000312034
*CONN
*I *325:A I *D sky130_fd_sc_hd__clkdlybuf4s25_1
*I *288:Y O *D sky130_fd_sc_hd__nand2_2
*CAP
1 *325:A 0.000118149
2 *288:Y 0.000118149
3 p[5] *325:A 2.07878e-05
4 *288:A *325:A 5.49489e-05
*RES
1 *288:Y *325:A 20.7964 
*END

*D_NET *118 0.000998983
*CONN
*I *326:A I *D sky130_fd_sc_hd__clkdlybuf4s25_1
*I *299:Y O *D sky130_fd_sc_hd__a21oi_2
*CAP
1 *326:A 0.000476619
2 *299:Y 0.000476619
3 *26:12 *326:A 4.57445e-05
4 *27:10 *326:A 0
5 *103:47 *326:A 0
*RES
1 *299:Y *326:A 35.725 
*END

*D_NET *119 0.000655056
*CONN
*I *327:A I *D sky130_fd_sc_hd__clkdlybuf4s25_1
*I *301:Y O *D sky130_fd_sc_hd__nand2_2
*CAP
1 *327:A 0.000299378
2 *301:Y 0.000299378
3 p[6] *327:A 0
4 *301:A *327:A 5.62995e-05
5 *27:10 *327:A 0
*RES
1 *301:Y *327:A 32.6179 
*END

*D_NET *120 0.0131771
*CONN
*I *274:A I *D sky130_fd_sc_hd__nand2_2
*I *253:A2 I *D sky130_fd_sc_hd__a22oi_2
*I *255:B I *D sky130_fd_sc_hd__nand4_2
*I *254:A2 I *D sky130_fd_sc_hd__a22o_2
*I *225:A2 I *D sky130_fd_sc_hd__a22o_2
*I *226:C I *D sky130_fd_sc_hd__and4_2
*I *224:A2 I *D sky130_fd_sc_hd__a22oi_2
*I *227:C I *D sky130_fd_sc_hd__nand4_2
*I *231:A3 I *D sky130_fd_sc_hd__a41o_2
*I *236:A2 I *D sky130_fd_sc_hd__a311oi_2
*I *304:X O *D sky130_fd_sc_hd__clkdlybuf4s25_1
*CAP
1 *274:A 0.000846626
2 *253:A2 0.000115191
3 *255:B 0.000143624
4 *254:A2 0.000668886
5 *225:A2 1.72343e-05
6 *226:C 0
7 *224:A2 8.33514e-05
8 *227:C 2.25323e-05
9 *231:A3 2.23854e-05
10 *236:A2 0.000259487
11 *304:X 5.05799e-05
12 *120:92 0.00112992
13 *120:90 0.000493847
14 *120:88 0.00120465
15 *120:75 0.000385486
16 *120:24 0.000656178
17 *120:22 0.000474466
18 *120:20 0.000330063
19 *120:14 0.000466614
20 *120:8 0.000419589
21 *224:A2 *224:A1 0.000177941
22 *227:C *224:B1 5.59013e-05
23 *236:A2 *231:A2 0
24 *236:A2 *231:A4 0.000186669
25 *253:A2 *252:A 5.36422e-05
26 *253:A2 *275:A2 0.000226266
27 *253:A2 *134:67 6.7085e-05
28 *254:A2 *251:A 0.000124611
29 *254:A2 *253:A1 6.57032e-05
30 *254:A2 *253:B2 4.58194e-05
31 *254:A2 *254:A1 2.37854e-05
32 *254:A2 *254:B1 0.000310612
33 *254:A2 *126:77 8.74791e-05
34 *255:B *251:A 1.03904e-05
35 *255:B *275:A2 0.000146254
36 *255:B *130:31 0.000182811
37 *255:B *134:43 5.49995e-05
38 *255:B *134:56 0.0001873
39 *274:A *274:B 3.13637e-05
40 *274:A *275:A2 5.58857e-05
41 *274:A *275:B1 5.76383e-05
42 *274:A *292:A1 8.98436e-05
43 *274:A *131:10 6.20095e-05
44 *120:14 *204:A 0.000276809
45 *120:20 *226:D 9.66517e-05
46 *120:24 *231:A2 0.00010096
47 *120:75 *204:A 6.81083e-05
48 *120:75 *252:B 5.83304e-05
49 *120:88 *252:A 3.6236e-05
50 *120:88 *252:B 0.000381185
51 *120:90 *275:A2 9.67754e-05
52 *120:92 *253:A1 1.98839e-05
53 *120:92 *275:A2 0.000441913
54 *226:A *120:20 5.52302e-05
55 *226:A *120:22 0.000135028
56 *226:A *120:24 0.000268396
57 *234:A1 *255:B 4.2538e-05
58 *234:B2 *255:B 6.94441e-06
59 *242:B *254:A2 2.57147e-05
60 *292:A3 *274:A 0.000167666
61 *292:B1 *274:A 2.93702e-05
62 *52:10 *227:C 2.84494e-05
63 *53:10 *225:A2 3.02036e-05
64 *59:8 *236:A2 0.000172375
65 *79:20 *274:A 4.71921e-05
66 *82:8 *254:A2 0.000126272
67 *104:51 *274:A 2.33087e-05
68 *112:12 *236:A2 5.7616e-05
69 *112:21 *236:A2 3.48705e-05
70 *112:21 *120:24 1.74352e-05
71 *112:25 *120:24 0.000236883
*RES
1 *304:X *120:8 14.3357 
2 *120:8 *120:14 5.94643 
3 *120:14 *120:20 7.30357 
4 *120:20 *120:22 1.35714 
5 *120:22 *120:24 7.92857 
6 *120:24 *236:A2 23.7464 
7 *120:24 *231:A3 9.72857 
8 *120:22 *227:C 19.0321 
9 *120:20 *224:A2 20.55 
10 *120:14 *226:C 13.8 
11 *120:8 *120:75 1.64286 
12 *120:75 *225:A2 14.1036 
13 *120:75 *120:88 11.3036 
14 *120:88 *120:90 0.946429 
15 *120:90 *120:92 4.64286 
16 *120:92 *254:A2 28.4652 
17 *120:92 *255:B 22.7464 
18 *120:90 *253:A2 21.6393 
19 *120:88 *274:A 31.4071 
*END

*D_NET *121 0.0136362
*CONN
*I *225:B1 I *D sky130_fd_sc_hd__a22o_2
*I *226:D I *D sky130_fd_sc_hd__and4_2
*I *227:D I *D sky130_fd_sc_hd__nand4_2
*I *224:B1 I *D sky130_fd_sc_hd__a22oi_2
*I *214:B I *D sky130_fd_sc_hd__and2_2
*I *254:B1 I *D sky130_fd_sc_hd__a22o_2
*I *216:D I *D sky130_fd_sc_hd__nand4_2
*I *215:B I *D sky130_fd_sc_hd__nand2_2
*I *231:A4 I *D sky130_fd_sc_hd__a41o_2
*I *217:B1 I *D sky130_fd_sc_hd__a22o_2
*I *305:X O *D sky130_fd_sc_hd__clkdlybuf4s25_1
*CAP
1 *225:B1 0.000152916
2 *226:D 8.62004e-05
3 *227:D 0
4 *224:B1 0.000142686
5 *214:B 0
6 *254:B1 0.000280266
7 *216:D 4.93646e-05
8 *215:B 0.000238093
9 *231:A4 0.000167531
10 *217:B1 0.00032063
11 *305:X 0.000132554
12 *121:109 0.000103154
13 *121:94 0.0004707
14 *121:90 0.000485611
15 *121:83 0.000283591
16 *121:58 0.000707557
17 *121:47 0.000362947
18 *121:34 0.00064759
19 *121:12 0.000676956
20 *121:8 0.000582598
21 *215:B *207:A 5.52238e-05
22 *215:B *129:55 0.000184745
23 *216:D *216:C 1.17091e-05
24 *216:D *122:53 5.018e-05
25 *216:D *127:95 0.000141729
26 *217:B1 *210:B1 0
27 *217:B1 *129:6 0.000114039
28 *217:B1 *129:10 0.000271076
29 *217:B1 *129:24 7.96557e-05
30 *217:B1 *129:96 1.39726e-05
31 *224:B1 *224:A1 0.000221163
32 *224:B1 *224:B2 0
33 *225:B1 *206:A 0.000324507
34 *225:B1 *252:B 0.000127641
35 *225:B1 *129:121 3.34295e-05
36 *226:D *226:B 0.000186669
37 *231:A4 *129:96 9.18273e-05
38 *254:B1 *254:A1 4.77002e-05
39 *254:B1 *126:77 0.000224582
40 *254:B1 *128:8 2.50593e-05
41 *254:B1 *128:10 9.65127e-05
42 *254:B1 *128:12 9.3429e-05
43 *121:12 *328:A 0.000124947
44 *121:34 *328:A 3.25078e-05
45 *121:47 *216:A 0
46 *121:58 *122:53 7.83278e-05
47 *121:58 *127:95 0.000855068
48 *121:83 *206:A 0.000345897
49 *121:83 *251:A 2.53112e-06
50 *121:83 *122:53 6.3629e-05
51 *121:83 *122:64 3.51056e-05
52 *121:83 *122:66 1.48252e-05
53 *121:83 *127:95 0.000421679
54 *121:83 *127:99 9.15842e-06
55 *121:90 *206:A 5.49995e-05
56 *121:94 *206:A 6.63487e-05
57 *121:94 *224:A1 0.000115759
58 *121:94 *129:121 0.000135334
59 *121:109 *226:B 5.33005e-05
60 p[0] *217:B1 2.89114e-05
61 *226:A *226:D 8.66063e-05
62 *226:A *121:109 5.33005e-05
63 *227:C *224:B1 5.59013e-05
64 *228:B1 *121:94 0.000174797
65 *229:A2 *121:94 0.000150618
66 *233:A *121:58 5.33005e-05
67 *233:B *121:58 5.66971e-05
68 *234:A2 *225:B1 5.4959e-05
69 *234:B1 *121:94 0.000228391
70 *234:B2 *121:83 2.07809e-05
71 *236:A2 *231:A4 0.000186669
72 *236:B1 *121:8 6.7491e-05
73 *237:B1 *121:12 2.30711e-05
74 *238:B1 *121:12 2.21254e-05
75 *238:B1 *121:34 0.000147862
76 *245:A2 *121:58 7.8195e-05
77 *254:A2 *254:B1 0.000310612
78 *35:10 *254:B1 7.17717e-05
79 *52:10 *224:B1 4.29179e-05
80 *52:10 *121:94 1.27784e-05
81 *54:10 *226:D 2.95726e-05
82 *54:10 *121:94 0.000125724
83 *57:12 *254:B1 3.14003e-05
84 *57:12 *121:58 0.000425182
85 *57:12 *121:83 5.33005e-05
86 *64:8 *121:8 5.52238e-05
87 *66:8 *121:47 0
88 *77:8 *254:B1 7.41127e-05
89 *112:21 *231:A4 0.000122091
90 *120:20 *226:D 9.66517e-05
*RES
1 *305:X *121:8 15.5679 
2 *121:8 *121:12 7.96429 
3 *121:12 *217:B1 16.55 
4 *121:12 *231:A4 13.9429 
5 *121:8 *121:34 5.01786 
6 *121:34 *215:B 18.4429 
7 *121:34 *121:47 7.05357 
8 *121:47 *216:D 11.0857 
9 *121:47 *121:58 8.33929 
10 *121:58 *254:B1 26.8893 
11 *121:58 *121:83 16.1607 
12 *121:83 *214:B 9.3 
13 *121:83 *121:90 0.535714 
14 *121:90 *121:94 14.3393 
15 *121:94 *224:B1 17.6036 
16 *121:94 *121:109 5.03571 
17 *121:109 *227:D 9.3 
18 *121:109 *226:D 12.8714 
19 *121:90 *225:B1 23.2286 
*END

*D_NET *122 0.0114922
*CONN
*I *217:A1 I *D sky130_fd_sc_hd__a22o_2
*I *210:A2 I *D sky130_fd_sc_hd__a22o_2
*I *251:A I *D sky130_fd_sc_hd__nand2_2
*I *232:C I *D sky130_fd_sc_hd__nand4_2
*I *203:A I *D sky130_fd_sc_hd__inv_2
*I *223:A I *D sky130_fd_sc_hd__nand2_2
*I *206:B I *D sky130_fd_sc_hd__and2_2
*I *216:B I *D sky130_fd_sc_hd__nand4_2
*I *207:B I *D sky130_fd_sc_hd__nand2_2
*I *209:C I *D sky130_fd_sc_hd__nand4_2
*I *306:X O *D sky130_fd_sc_hd__clkdlybuf4s25_1
*CAP
1 *217:A1 0
2 *210:A2 0.000472651
3 *251:A 0.000334787
4 *232:C 6.29929e-05
5 *203:A 5.27924e-05
6 *223:A 0.000146608
7 *206:B 2.13113e-05
8 *216:B 0
9 *207:B 0
10 *209:C 0.000144449
11 *306:X 0.000129947
12 *122:114 0.000590096
13 *122:70 0.000304489
14 *122:66 0.000326776
15 *122:64 0.000572616
16 *122:53 0.000986856
17 *122:38 0.00123757
18 *122:23 0.000542737
19 *122:8 0.000470203
20 *122:6 0.000381563
21 *209:C *209:A 1.58163e-05
22 *209:C *209:D 0.00012073
23 *210:A2 *127:60 3.34366e-05
24 *210:A2 *129:24 0.000198179
25 *210:A2 *133:14 0
26 *210:A2 *134:10 0
27 *223:A *134:43 5.55288e-05
28 *232:C *126:106 3.18676e-05
29 *232:C *127:99 6.91215e-06
30 *251:A *125:39 5.80706e-06
31 *251:A *126:83 1.13495e-05
32 *251:A *134:43 7.61619e-05
33 *251:A *134:56 0.000215108
34 *122:6 *127:43 6.87574e-05
35 *122:6 *133:35 1.32552e-05
36 *122:8 *209:D 7.03295e-05
37 *122:8 *127:43 2.59355e-05
38 *122:23 *124:10 6.58289e-05
39 *122:23 *124:12 5.26091e-05
40 *122:38 *216:A 9.58632e-05
41 *122:38 *216:C 1.32693e-05
42 *122:38 *123:12 6.23278e-05
43 *122:38 *124:8 1.06172e-05
44 *122:38 *124:10 5.46827e-05
45 *122:38 *127:28 9.67754e-05
46 *122:38 *127:84 0.000139337
47 *122:53 *216:C 1.02301e-05
48 *122:53 *127:84 3.53344e-05
49 *122:53 *127:95 3.41649e-05
50 *122:64 *206:A 5.49995e-05
51 *122:66 *127:99 0
52 *122:66 *134:43 0.000125286
53 *122:70 *224:B2 0
54 *122:70 *127:99 0
55 *122:70 *134:43 7.12756e-05
56 *122:114 *124:12 0
57 *122:114 *127:43 1.97381e-05
58 *122:114 *127:60 0.000165269
59 *122:114 *134:10 0
60 *122:114 *134:43 0
61 *216:D *122:53 5.018e-05
62 *218:B1 *122:23 0
63 *229:A2 *203:A 2.49182e-05
64 *229:A2 *223:A 4.70048e-05
65 *233:A *122:53 5.33005e-05
66 *233:B *122:53 5.49995e-05
67 *238:A1 *223:A 1.55885e-05
68 *244:A2 *122:23 0
69 *244:A2 *122:38 0
70 *245:A2 *122:53 0.000141734
71 *254:A2 *251:A 0.000124611
72 *255:B *251:A 1.03904e-05
73 *36:12 *122:23 4.79842e-05
74 *43:10 *122:23 0
75 *45:10 *210:A2 0.000317082
76 *51:6 *223:A 9.60875e-05
77 *55:23 *203:A 1.92905e-05
78 *56:12 *203:A 0.000142856
79 *56:12 *223:A 0.000481581
80 *57:12 *122:53 0.000477583
81 *80:12 *251:A 0.000131144
82 *82:8 *251:A 0.000208651
83 *82:64 *251:A 1.76135e-05
84 *121:58 *122:53 7.83278e-05
85 *121:83 *251:A 2.53112e-06
86 *121:83 *122:53 6.3629e-05
87 *121:83 *122:64 3.51056e-05
88 *121:83 *122:66 1.48252e-05
*RES
1 *306:X *122:6 11.0679 
2 *122:6 *122:8 1.76786 
3 *122:8 *209:C 12.2286 
4 *122:8 *122:23 8.57143 
5 *122:23 *207:B 13.8 
6 *122:23 *122:38 12.125 
7 *122:38 *216:B 9.3 
8 *122:38 *122:53 14.6786 
9 *122:53 *206:B 9.72857 
10 *122:53 *122:64 5.85714 
11 *122:64 *122:66 3.3125 
12 *122:66 *122:70 6.29464 
13 *122:70 *223:A 14.3714 
14 *122:70 *203:A 11.0857 
15 *122:66 *232:C 15.1482 
16 *122:64 *251:A 23.3357 
17 *122:6 *122:114 7.35714 
18 *122:114 *210:A2 21.3759 
19 *122:114 *217:A1 13.8 
*END

*D_NET *123 0.00443217
*CONN
*I *311:A I *D sky130_fd_sc_hd__clkdlybuf4s25_1
*I *310:A I *D sky130_fd_sc_hd__clkdlybuf4s25_1
*I *314:X O *D sky130_fd_sc_hd__clkdlybuf4s25_1
*CAP
1 *311:A 0.000610456
2 *310:A 0
3 *314:X 0.000847872
4 *123:12 0.00145833
5 *311:A *213:B 3.49456e-06
6 *311:A *126:55 0.000253403
7 *311:A *126:70 0.000452297
8 *311:A *132:8 9.67754e-05
9 *123:12 *207:A 5.30637e-06
10 *123:12 *309:A 3.87671e-05
11 *123:12 *127:10 3.32662e-05
12 *123:12 *127:16 2.09722e-05
13 *123:12 *132:12 7.17717e-05
14 *123:12 *132:36 1.03904e-05
15 *244:A1 *311:A 0.000141036
16 *244:A2 *123:12 0.000160808
17 *249:A1 *311:A 5.33005e-05
18 *249:A2 *311:A 5.65955e-05
19 *249:B1 *311:A 5.50052e-05
20 *122:38 *123:12 6.23278e-05
*RES
1 *314:X *123:12 31.8714 
2 *123:12 *310:A 9.3 
3 *123:12 *311:A 22.0321 
*END

*D_NET *124 0.0082211
*CONN
*I *240:A I *D sky130_fd_sc_hd__nand2_2
*I *213:A I *D sky130_fd_sc_hd__nand2_2
*I *239:A I *D sky130_fd_sc_hd__and2_2
*I *208:A I *D sky130_fd_sc_hd__and3_2
*I *220:A1 I *D sky130_fd_sc_hd__a22o_2
*I *212:A I *D sky130_fd_sc_hd__and2_2
*I *205:A I *D sky130_fd_sc_hd__and2_2
*I *219:B1 I *D sky130_fd_sc_hd__o2111ai_2
*I *209:A I *D sky130_fd_sc_hd__nand4_2
*I *210:B2 I *D sky130_fd_sc_hd__a22o_2
*I *307:X O *D sky130_fd_sc_hd__clkdlybuf4s25_1
*CAP
1 *240:A 8.30713e-05
2 *213:A 6.52847e-05
3 *239:A 0.000229656
4 *208:A 0
5 *220:A1 9.5312e-05
6 *212:A 5.58998e-05
7 *205:A 0.000492394
8 *219:B1 0
9 *209:A 0.000239902
10 *210:B2 0.00010962
11 *307:X 0
12 *124:101 0.000294941
13 *124:99 0.000115733
14 *124:92 0.000257904
15 *124:64 0.000339527
16 *124:40 0.000538727
17 *124:12 0.000513588
18 *124:10 0.000368251
19 *124:8 0.000529877
20 *124:4 0.000408953
21 *205:A *219:C1 0
22 *205:A *134:43 3.16805e-05
23 *210:B2 *210:B1 0
24 *210:B2 *129:24 3.99614e-06
25 *210:B2 *133:14 4.96349e-05
26 *212:A *212:B 2.59355e-05
27 *213:A *125:76 0.000146261
28 *220:A1 *219:C1 3.84632e-05
29 *220:A1 *126:32 5.71821e-05
30 *239:A *239:B 0.000227914
31 *239:A *125:76 2.28343e-05
32 *240:A *240:B 5.49544e-05
33 *124:8 *309:A 6.4474e-05
34 *124:8 *127:16 5.54817e-06
35 *124:12 *127:60 0
36 *124:12 *133:14 4.46186e-06
37 *124:64 *212:B 6.05161e-06
38 *124:64 *309:A 6.05161e-06
39 *124:64 *126:17 2.83425e-05
40 *124:92 *127:16 0.000390641
41 *208:C *124:92 4.67985e-05
42 *209:C *209:A 1.58163e-05
43 *218:A1 *205:A 0.000180777
44 *218:B1 *205:A 3.31889e-05
45 *218:B1 *124:40 3.67257e-05
46 *219:A1 *205:A 9.7049e-06
47 *219:A2 *205:A 2.36784e-05
48 *236:C1 *205:A 2.89016e-05
49 *245:C1 *124:8 0.000124019
50 *245:C1 *124:64 3.86552e-05
51 *302:A3 *124:92 0.000435807
52 *35:22 *239:A 9.58632e-05
53 *36:12 *205:A 5.33005e-05
54 *38:8 *209:A 5.37963e-05
55 *38:25 *220:A1 0.000195126
56 *43:23 *205:A 2.82423e-05
57 *45:10 *210:B2 7.81196e-05
58 *45:10 *124:12 6.07532e-05
59 *45:27 *124:12 2.88517e-05
60 *45:38 *124:8 3.03305e-05
61 *45:38 *124:10 0.000115445
62 *45:38 *124:12 4.1331e-06
63 *70:14 *213:A 3.87671e-05
64 *70:14 *240:A 0.000182598
65 *70:14 *124:92 5.66971e-05
66 *70:14 *124:99 9.84673e-05
67 *73:8 *124:8 3.9733e-05
68 *122:23 *124:10 6.58289e-05
69 *122:23 *124:12 5.26091e-05
70 *122:38 *124:8 1.06172e-05
71 *122:38 *124:10 5.46827e-05
72 *122:114 *124:12 0
*RES
1 *307:X *124:4 9.3 
2 *124:4 *124:8 9.17857 
3 *124:8 *124:10 4.375 
4 *124:10 *124:12 3.16071 
5 *124:12 *210:B2 16.4071 
6 *124:12 *209:A 17.6393 
7 *124:10 *124:40 5.44643 
8 *124:40 *219:B1 9.3 
9 *124:40 *205:A 16.8893 
10 *124:8 *124:64 7.5 
11 *124:64 *212:A 10.2643 
12 *124:64 *220:A1 20.8536 
13 *124:4 *124:92 7.05357 
14 *124:92 *208:A 9.3 
15 *124:92 *124:99 0.946429 
16 *124:99 *124:101 4.5 
17 *124:101 *239:A 27.0321 
18 *124:101 *213:A 15.7464 
19 *124:99 *240:A 11.4964 
*END

*D_NET *125 0.0104472
*CONN
*I *274:B I *D sky130_fd_sc_hd__nand2_2
*I *289:B I *D sky130_fd_sc_hd__and4_2
*I *251:B I *D sky130_fd_sc_hd__nand2_2
*I *258:A2 I *D sky130_fd_sc_hd__a22o_2
*I *243:D I *D sky130_fd_sc_hd__nand4_2
*I *241:A2 I *D sky130_fd_sc_hd__a22oi_2
*I *240:B I *D sky130_fd_sc_hd__nand2_2
*I *239:B I *D sky130_fd_sc_hd__and2_2
*I *259:D I *D sky130_fd_sc_hd__nand4_2
*I *275:B1 I *D sky130_fd_sc_hd__a22o_2
*I *308:X O *D sky130_fd_sc_hd__clkdlybuf4s25_1
*CAP
1 *274:B 0.000224184
2 *289:B 8.83701e-05
3 *251:B 0
4 *258:A2 0
5 *243:D 0
6 *241:A2 0
7 *240:B 2.68437e-05
8 *239:B 0.000112848
9 *259:D 8.95055e-06
10 *275:B1 0.000280947
11 *308:X 3.42096e-05
12 *125:120 0.000367545
13 *125:76 0.000480895
14 *125:70 0.000428232
15 *125:66 0.000826964
16 *125:45 0.00112917
17 *125:39 0.000584902
18 *125:27 0.000586698
19 *125:8 0.000900729
20 *125:6 0.000326899
21 *259:D *258:A1 5.52302e-05
22 *274:B *290:B 0.00018372
23 *274:B *292:A1 1.51881e-05
24 *275:B1 *275:A2 4.79966e-05
25 *289:B *290:C 5.36422e-05
26 *289:B *135:26 7.74068e-05
27 *125:39 *258:A1 4.1896e-06
28 *125:66 *133:35 2.8266e-06
29 *125:70 *243:C 0.000177234
30 *125:76 *243:C 1.02504e-05
31 *213:A *125:76 0.000146261
32 *239:A *239:B 0.000227914
33 *239:A *125:76 2.28343e-05
34 *240:A *240:B 5.49544e-05
35 *243:A *125:76 0
36 *243:B *125:66 4.60153e-05
37 *244:A1 *125:70 0
38 *244:A1 *125:76 0
39 *246:C1 *125:66 0
40 *251:A *125:39 5.80706e-06
41 *257:B1 *125:39 0.000164955
42 *257:B1 *125:45 1.57155e-05
43 *257:B1 *125:66 0.000496559
44 *258:B1 *125:39 3.99614e-06
45 *258:B2 *259:D 5.71472e-05
46 *258:B2 *125:39 0
47 *274:A *274:B 3.13637e-05
48 *274:A *275:B1 5.76383e-05
49 *278:B1 *125:27 9.90431e-05
50 *278:C1 *125:27 0.000359997
51 *297:A1 *289:B 1.99099e-05
52 *297:A1 *125:120 6.1684e-05
53 *297:A2 *289:B 5.4646e-05
54 *297:A2 *125:120 4.35141e-05
55 *21:10 *289:B 0
56 *44:10 *239:B 3.2923e-05
57 *63:8 *125:76 0
58 *66:52 *125:66 0.000142575
59 *70:14 *125:76 6.55133e-05
60 *78:21 *125:39 3.0285e-05
61 *79:41 *125:8 4.53889e-05
62 *80:12 *125:39 0.000205835
63 *82:64 *125:39 0.000181796
64 *83:8 *125:66 0
65 *84:10 *125:66 9.90367e-05
66 *86:8 *125:66 9.25014e-06
67 *100:12 *274:B 1.35553e-05
68 *100:18 *125:8 3.97677e-05
69 *100:18 *125:27 1.33343e-05
70 *101:8 *275:B1 0.000108214
71 *104:10 *125:27 0.000120577
72 *104:51 *275:B1 0.000316097
73 *104:51 *125:27 1.69961e-05
*RES
1 *308:X *125:6 9.83571 
2 *125:6 *125:8 3.41071 
3 *125:8 *275:B1 25.3714 
4 *125:8 *125:27 8.78571 
5 *125:27 *125:39 14.4777 
6 *125:39 *125:45 7.64732 
7 *125:45 *259:D 14.3357 
8 *125:45 *125:66 16.3929 
9 *125:66 *125:70 6.75 
10 *125:70 *125:76 6.05357 
11 *125:76 *239:B 16.6571 
12 *125:76 *240:B 14.3357 
13 *125:70 *241:A2 13.8 
14 *125:66 *243:D 9.3 
15 *125:39 *258:A2 9.3 
16 *125:27 *251:B 9.3 
17 *125:6 *125:120 6.14286 
18 *125:120 *289:B 16.05 
19 *125:120 *274:B 17.9429 
*END

*D_NET *126 0.013221
*CONN
*I *253:B2 I *D sky130_fd_sc_hd__a22oi_2
*I *232:D I *D sky130_fd_sc_hd__nand4_2
*I *252:B I *D sky130_fd_sc_hd__nand2_2
*I *204:A I *D sky130_fd_sc_hd__inv_2
*I *223:B I *D sky130_fd_sc_hd__nand2_2
*I *254:B2 I *D sky130_fd_sc_hd__a22o_2
*I *213:B I *D sky130_fd_sc_hd__nand2_2
*I *220:A2 I *D sky130_fd_sc_hd__a22o_2
*I *219:C1 I *D sky130_fd_sc_hd__o2111ai_2
*I *212:B I *D sky130_fd_sc_hd__and2_2
*I *309:X O *D sky130_fd_sc_hd__clkdlybuf4s25_1
*CAP
1 *253:B2 3.41373e-05
2 *232:D 0
3 *252:B 0.000148862
4 *204:A 0.000135029
5 *223:B 0.000383514
6 *254:B2 0
7 *213:B 1.74055e-05
8 *220:A2 7.48817e-05
9 *219:C1 0.000264454
10 *212:B 7.9367e-05
11 *309:X 0
12 *126:106 0.000792383
13 *126:100 0.000622818
14 *126:83 0.000705674
15 *126:77 0.000330099
16 *126:70 0.000625468
17 *126:55 0.00117005
18 *126:32 0.000752463
19 *126:17 0.000353997
20 *126:4 0.000106628
21 *204:A *129:121 2.06413e-05
22 *223:B *128:12 0
23 *252:B *129:121 4.98055e-06
24 *253:B2 *253:A1 8.17274e-05
25 *126:55 *132:8 0.00022267
26 *126:70 *128:8 3.52053e-05
27 *126:70 *133:35 6.52204e-05
28 *126:77 *253:A1 0.000265445
29 *126:77 *254:A1 0.000141935
30 *126:83 *134:43 0.000352431
31 *126:106 *225:A1 5.33433e-05
32 *126:106 *225:B2 0.000262504
33 *205:A *219:C1 0
34 *212:A *212:B 2.59355e-05
35 *218:B1 *219:C1 1.32552e-05
36 *220:A1 *219:C1 3.84632e-05
37 *220:A1 *126:32 5.71821e-05
38 *220:B1 *220:A2 5.49995e-05
39 *225:B1 *252:B 0.000127641
40 *228:A2 *204:A 9.11365e-06
41 *230:A1 *204:A 0.0001098
42 *232:C *126:106 3.18676e-05
43 *234:A2 *252:B 4.07505e-05
44 *242:B *223:B 0.00020212
45 *244:A1 *126:55 0.000139913
46 *245:C1 *212:B 6.62058e-05
47 *245:C1 *126:17 9.67754e-05
48 *249:A1 *126:70 5.49544e-05
49 *249:A2 *126:70 5.49544e-05
50 *251:A *126:83 1.13495e-05
51 *254:A2 *253:B2 4.58194e-05
52 *254:A2 *126:77 8.74791e-05
53 *254:B1 *126:77 0.000224582
54 *311:A *213:B 3.49456e-06
55 *311:A *126:55 0.000253403
56 *311:A *126:70 0.000452297
57 *38:25 *219:C1 0.00011292
58 *38:25 *126:32 6.93626e-06
59 *38:25 *126:55 2.14108e-05
60 *47:10 *219:C1 0.000436855
61 *47:10 *126:32 0.000144732
62 *47:10 *126:55 0.000199782
63 *47:23 *126:55 0.000210946
64 *48:10 *220:A2 1.91455e-05
65 *48:10 *126:55 7.80183e-05
66 *48:21 *126:55 0.000105484
67 *53:10 *126:106 2.42547e-05
68 *77:8 *126:70 0
69 *77:8 *126:83 0.000565217
70 *82:8 *126:83 0.000170755
71 *120:14 *204:A 0.000276809
72 *120:75 *204:A 6.81083e-05
73 *120:75 *252:B 5.83304e-05
74 *120:88 *252:B 0.000381185
75 *124:64 *212:B 6.05161e-06
76 *124:64 *126:17 2.83425e-05
*RES
1 *309:X *126:4 9.3 
2 *126:4 *212:B 11.0857 
3 *126:4 *126:17 5.44643 
4 *126:17 *219:C1 20.9786 
5 *126:17 *126:32 1.94643 
6 *126:32 *220:A2 15.1795 
7 *126:32 *126:55 19.6429 
8 *126:55 *213:B 9.72857 
9 *126:55 *126:70 20.3036 
10 *126:70 *254:B2 9.3 
11 *126:70 *126:77 3.82143 
12 *126:77 *126:83 16.4107 
13 *126:83 *223:B 25.0857 
14 *126:83 *126:100 1.78571 
15 *126:100 *126:106 11.1071 
16 *126:106 *204:A 18.175 
17 *126:106 *252:B 19.3893 
18 *126:100 *232:D 9.3 
19 *126:77 *253:B2 10.2464 
*END

*D_NET *127 0.0123565
*CONN
*I *302:A2 I *D sky130_fd_sc_hd__a32o_2
*I *208:B I *D sky130_fd_sc_hd__and3_2
*I *214:A I *D sky130_fd_sc_hd__and2_2
*I *225:B2 I *D sky130_fd_sc_hd__a22o_2
*I *224:B2 I *D sky130_fd_sc_hd__a22oi_2
*I *216:C I *D sky130_fd_sc_hd__nand4_2
*I *217:A2 I *D sky130_fd_sc_hd__a22o_2
*I *210:B1 I *D sky130_fd_sc_hd__a22o_2
*I *209:D I *D sky130_fd_sc_hd__nand4_2
*I *215:A I *D sky130_fd_sc_hd__nand2_2
*I *310:X O *D sky130_fd_sc_hd__clkdlybuf4s25_1
*CAP
1 *302:A2 4.12008e-05
2 *208:B 0
3 *214:A 2.62838e-05
4 *225:B2 0.000136039
5 *224:B2 0.000386777
6 *216:C 2.59703e-05
7 *217:A2 0
8 *210:B1 0.000273122
9 *209:D 6.97449e-05
10 *215:A 0
11 *310:X 0.000211416
12 *127:99 0.000652364
13 *127:95 0.00096547
14 *127:84 0.000941449
15 *127:60 0.000403464
16 *127:43 0.000500283
17 *127:28 0.000405488
18 *127:22 0.00043297
19 *127:16 0.000563908
20 *127:10 0.000594686
21 *209:D *306:A 3.99614e-06
22 *209:D *133:14 5.33433e-05
23 *209:D *133:35 5.33334e-05
24 *210:B1 *129:24 0.000202914
25 *214:A *206:A 5.33005e-05
26 *224:B2 *134:43 0
27 *302:A2 *302:A1 0.000183711
28 *127:10 *132:8 0.000181114
29 *127:22 *216:A 5.36422e-05
30 *127:22 *130:12 4.24382e-05
31 *127:28 *216:A 5.4898e-05
32 *127:43 *216:A 1.76135e-05
33 *127:43 *129:55 0
34 *127:43 *133:35 9.16074e-05
35 *127:43 *134:43 4.25809e-05
36 *127:60 *129:24 1.32782e-06
37 *127:60 *133:14 0
38 *127:95 *206:A 2.06769e-05
39 *209:C *209:D 0.00012073
40 *210:A2 *127:60 3.34366e-05
41 *210:B2 *210:B1 0
42 *216:D *216:C 1.17091e-05
43 *216:D *127:95 0.000141729
44 *217:B1 *210:B1 0
45 *218:B1 *127:43 7.83659e-05
46 *224:B1 *224:B2 0
47 *229:A1 *224:B2 0
48 *229:A2 *224:B2 4.98055e-06
49 *232:B *224:B2 0.000193833
50 *232:B *127:99 3.34366e-05
51 *232:C *127:99 6.91215e-06
52 *234:B1 *224:B2 7.38556e-05
53 *234:B1 *127:99 3.63166e-05
54 *234:B2 *127:99 0.000124012
55 *236:C1 *127:43 0
56 *244:A2 *127:22 4.95608e-05
57 *244:A2 *127:28 0.000176296
58 *244:A2 *127:43 7.56271e-05
59 *247:B1 *127:10 3.54498e-05
60 *302:A3 *302:A2 0.000141935
61 *35:22 *127:22 0.000100248
62 *52:10 *224:B2 0.000337644
63 *53:10 *225:B2 3.93346e-05
64 *55:8 *224:B2 7.50601e-05
65 *55:23 *224:B2 0.00010096
66 *121:58 *127:95 0.000855068
67 *121:83 *127:95 0.000421679
68 *121:83 *127:99 9.15842e-06
69 *122:6 *127:43 6.87574e-05
70 *122:8 *209:D 7.03295e-05
71 *122:8 *127:43 2.59355e-05
72 *122:38 *216:C 1.32693e-05
73 *122:38 *127:28 9.67754e-05
74 *122:38 *127:84 0.000139337
75 *122:53 *216:C 1.02301e-05
76 *122:53 *127:84 3.53344e-05
77 *122:53 *127:95 3.41649e-05
78 *122:66 *127:99 0
79 *122:70 *224:B2 0
80 *122:70 *127:99 0
81 *122:114 *127:43 1.97381e-05
82 *122:114 *127:60 0.000165269
83 *123:12 *127:10 3.32662e-05
84 *123:12 *127:16 2.09722e-05
85 *124:8 *127:16 5.54817e-06
86 *124:12 *127:60 0
87 *124:92 *127:16 0.000390641
88 *126:106 *225:B2 0.000262504
*RES
1 *310:X *127:10 17.2107 
2 *127:10 *127:16 9.35714 
3 *127:16 *127:22 13.6786 
4 *127:22 *127:28 7.69643 
5 *127:28 *215:A 13.8 
6 *127:28 *127:43 11.4821 
7 *127:43 *209:D 11.9071 
8 *127:43 *127:60 11.7009 
9 *127:60 *210:B1 14.6348 
10 *127:60 *217:A2 9.3 
11 *127:22 *127:84 2.17857 
12 *127:84 *216:C 10.0321 
13 *127:84 *127:95 15.75 
14 *127:95 *127:99 7.35714 
15 *127:99 *224:B2 23.3357 
16 *127:99 *225:B2 16.8179 
17 *127:95 *214:A 9.83571 
18 *127:16 *208:B 9.3 
19 *127:10 *302:A2 15.5679 
*END

*D_NET *128 0.00644079
*CONN
*I *253:A1 I *D sky130_fd_sc_hd__a22oi_2
*I *254:A1 I *D sky130_fd_sc_hd__a22o_2
*I *255:A I *D sky130_fd_sc_hd__nand4_2
*I *226:B I *D sky130_fd_sc_hd__and4_2
*I *227:B I *D sky130_fd_sc_hd__nand4_2
*I *231:A2 I *D sky130_fd_sc_hd__a41o_2
*I *311:X O *D sky130_fd_sc_hd__clkdlybuf4s25_1
*CAP
1 *253:A1 0.000268669
2 *254:A1 0.000117418
3 *255:A 3.60627e-05
4 *226:B 9.75041e-05
5 *227:B 2.23854e-05
6 *231:A2 8.04111e-05
7 *311:X 0.000100249
8 *128:52 0.000386087
9 *128:27 0.000406384
10 *128:12 0.000929223
11 *128:10 0.000719787
12 *128:8 0.000221656
13 *253:A1 *275:A2 5.50052e-05
14 *253:A1 *134:67 5.4386e-05
15 *255:A *130:31 7.22772e-05
16 *128:12 *236:A3 0
17 *223:B *128:12 0
18 *226:A *226:B 5.81579e-05
19 *226:A *227:B 0
20 *226:A *128:27 9.02133e-05
21 *226:D *226:B 0.000186669
22 *231:B1 *231:A2 0
23 *231:B1 *128:12 0
24 *236:A2 *231:A2 0
25 *238:A1 *128:12 0.000168939
26 *242:B *254:A1 6.65698e-05
27 *242:B *128:12 0
28 *253:B2 *253:A1 8.17274e-05
29 *254:A2 *253:A1 6.57032e-05
30 *254:A2 *254:A1 2.37854e-05
31 *254:B1 *254:A1 4.77002e-05
32 *254:B1 *128:8 2.50593e-05
33 *254:B1 *128:10 9.65127e-05
34 *254:B1 *128:12 9.3429e-05
35 *35:22 *255:A 0.000139344
36 *51:12 *128:12 0.000198698
37 *54:10 *226:B 0.00027032
38 *57:12 *128:12 0.000114528
39 *112:21 *231:A2 2.44318e-05
40 *112:25 *231:A2 5.52238e-05
41 *112:25 *128:27 0.000449546
42 *120:24 *231:A2 0.00010096
43 *120:92 *253:A1 1.98839e-05
44 *121:109 *226:B 5.33005e-05
45 *126:70 *128:8 3.52053e-05
46 *126:77 *253:A1 0.000265445
47 *126:77 *254:A1 0.000141935
*RES
1 *311:X *128:8 15.7464 
2 *128:8 *128:10 2.55357 
3 *128:10 *128:12 11.6607 
4 *128:12 *231:A2 15.4786 
5 *128:12 *128:27 10.375 
6 *128:27 *227:B 9.72857 
7 *128:27 *226:B 12.7107 
8 *128:10 *255:A 15.1571 
9 *128:8 *128:52 4.5 
10 *128:52 *254:A1 12.3179 
11 *128:52 *253:A1 15.1929 
*END

*D_NET *129 0.0125371
*CONN
*I *236:A3 I *D sky130_fd_sc_hd__a311oi_2
*I *206:A I *D sky130_fd_sc_hd__and2_2
*I *225:A1 I *D sky130_fd_sc_hd__a22o_2
*I *224:A1 I *D sky130_fd_sc_hd__a22oi_2
*I *205:B I *D sky130_fd_sc_hd__and2_2
*I *216:A I *D sky130_fd_sc_hd__nand4_2
*I *207:A I *D sky130_fd_sc_hd__nand2_2
*I *217:B2 I *D sky130_fd_sc_hd__a22o_2
*I *210:A1 I *D sky130_fd_sc_hd__a22o_2
*I *209:B I *D sky130_fd_sc_hd__nand4_2
*I *312:X O *D sky130_fd_sc_hd__clkdlybuf4s25_1
*CAP
1 *236:A3 2.19601e-05
2 *206:A 0.000287342
3 *225:A1 2.40023e-05
4 *224:A1 0.000211166
5 *205:B 5.37278e-05
6 *216:A 0.000189178
7 *207:A 0.00022576
8 *217:B2 0
9 *210:A1 0
10 *209:B 9.1289e-05
11 *312:X 0
12 *129:121 0.000542473
13 *129:102 0.00125345
14 *129:96 0.00118688
15 *129:55 0.000629145
16 *129:49 0.000480018
17 *129:24 0.000341248
18 *129:10 0.000394958
19 *129:6 0.000574588
20 *129:4 0.000571263
21 *205:B *134:43 3.08664e-05
22 *129:24 *134:10 1.65558e-05
23 *129:49 *134:10 4.06875e-05
24 *204:A *129:121 2.06413e-05
25 *210:A2 *129:24 0.000198179
26 *210:B1 *129:24 0.000202914
27 *210:B2 *129:24 3.99614e-06
28 *211:A *209:B 0
29 *214:A *206:A 5.33005e-05
30 *215:B *207:A 5.52238e-05
31 *215:B *129:55 0.000184745
32 *217:B1 *129:6 0.000114039
33 *217:B1 *129:10 0.000271076
34 *217:B1 *129:24 7.96557e-05
35 *217:B1 *129:96 1.39726e-05
36 *224:A2 *224:A1 0.000177941
37 *224:B1 *224:A1 0.000221163
38 *225:B1 *206:A 0.000324507
39 *225:B1 *129:121 3.34295e-05
40 *228:A2 *129:121 0.000225314
41 *228:B1 *129:121 0.000123062
42 *231:A4 *129:96 9.18273e-05
43 *231:B1 *236:A3 3.17148e-05
44 *231:B1 *129:96 7.6644e-05
45 *234:B1 *129:102 3.14048e-05
46 *236:A1 *129:102 5.33005e-05
47 *236:B1 *129:49 0.000175526
48 *236:C1 *129:49 2.36032e-05
49 *238:A1 *236:A3 0
50 *238:A1 *129:102 2.89016e-05
51 *250:B1 *129:102 0.000186662
52 *252:B *129:121 4.98055e-06
53 *34:8 *129:102 1.24368e-05
54 *44:10 *216:A 8.67814e-06
55 *45:10 *209:B 0.000177234
56 *45:10 *129:24 0.000315165
57 *51:18 *129:102 0.000186361
58 *52:12 *129:102 6.42095e-05
59 *52:14 *129:102 9.02916e-05
60 *52:16 *129:102 7.17235e-05
61 *53:10 *225:A1 9.60939e-05
62 *59:8 *236:A3 4.73656e-05
63 *59:8 *129:96 7.83659e-05
64 *112:21 *129:96 0.000138881
65 *121:47 *216:A 0
66 *121:83 *206:A 0.000345897
67 *121:90 *206:A 5.49995e-05
68 *121:94 *206:A 6.63487e-05
69 *121:94 *224:A1 0.000115759
70 *121:94 *129:121 0.000135334
71 *122:38 *216:A 9.58632e-05
72 *122:64 *206:A 5.49995e-05
73 *123:12 *207:A 5.30637e-06
74 *126:106 *225:A1 5.33433e-05
75 *127:22 *216:A 5.36422e-05
76 *127:28 *216:A 5.4898e-05
77 *127:43 *216:A 1.76135e-05
78 *127:43 *129:55 0
79 *127:60 *129:24 1.32782e-06
80 *127:95 *206:A 2.06769e-05
81 *128:12 *236:A3 0
*RES
1 *312:X *129:4 9.3 
2 *129:4 *129:6 3 
3 *129:6 *129:10 3.32143 
4 *129:10 *129:24 16.5893 
5 *129:24 *209:B 20.55 
6 *129:24 *210:A1 9.3 
7 *129:10 *217:B2 9.3 
8 *129:6 *129:49 8.875 
9 *129:49 *129:55 8.21429 
10 *129:55 *207:A 12.8536 
11 *129:55 *216:A 22.4071 
12 *129:49 *205:B 14.8714 
13 *129:4 *129:96 9.76786 
14 *129:96 *129:102 19.8036 
15 *129:102 *224:A1 18.8357 
16 *129:102 *129:121 6.25 
17 *129:121 *225:A1 14.7464 
18 *129:121 *206:A 21.9607 
19 *129:96 *236:A3 14.5321 
*END

*D_NET *130 0.00845023
*CONN
*I *255:D I *D sky130_fd_sc_hd__nand4_2
*I *275:A2 I *D sky130_fd_sc_hd__a22o_2
*I *309:A I *D sky130_fd_sc_hd__clkdlybuf4s25_1
*I *315:X O *D sky130_fd_sc_hd__clkdlybuf4s25_1
*CAP
1 *255:D 0
2 *275:A2 0.000258077
3 *309:A 0.000343928
4 *315:X 0.000333904
5 *130:31 0.00162111
6 *130:12 0.00204086
7 *275:A2 *134:56 1.25366e-05
8 *275:A2 *134:67 4.30704e-05
9 *220:B1 *309:A 5.50052e-05
10 *234:A1 *130:31 4.88894e-05
11 *234:B2 *275:A2 5.54817e-06
12 *235:B *130:31 0.000224686
13 *235:C *130:31 4.37451e-05
14 *244:A1 *130:12 0.00012401
15 *244:A2 *130:12 0.000563973
16 *245:A2 *309:A 0.000139331
17 *245:A2 *130:31 0.000656196
18 *253:A1 *275:A2 5.50052e-05
19 *253:A2 *275:A2 0.000226266
20 *255:A *130:31 7.22772e-05
21 *255:B *275:A2 0.000146254
22 *255:B *130:31 0.000182811
23 *274:A *275:A2 5.58857e-05
24 *275:B1 *275:A2 4.79966e-05
25 *35:22 *130:12 0.000146392
26 *35:22 *130:31 0.000133737
27 *44:14 *309:A 3.96138e-05
28 *70:14 *130:12 0.000138699
29 *120:90 *275:A2 9.67754e-05
30 *120:92 *275:A2 0.000441913
31 *123:12 *309:A 3.87671e-05
32 *124:8 *309:A 6.4474e-05
33 *124:64 *309:A 6.05161e-06
34 *127:22 *130:12 4.24382e-05
*RES
1 *315:X *130:12 26.6571 
2 *130:12 *309:A 23.8893 
3 *130:12 *130:31 18.5179 
4 *130:31 *275:A2 26.8937 
5 *130:31 *255:D 9.3 
*END

*D_NET *131 0.00190732
*CONN
*I *308:A I *D sky130_fd_sc_hd__clkdlybuf4s25_1
*I *290:B I *D sky130_fd_sc_hd__nand4_2
*I *292:A2 I *D sky130_fd_sc_hd__a31o_2
*I *316:X O *D sky130_fd_sc_hd__clkdlybuf4s25_1
*CAP
1 *308:A 0.000171309
2 *290:B 0.000110427
3 *292:A2 0
4 *316:X 0.000293455
5 *131:19 0.000372517
6 *131:10 0.000384236
7 *131:10 *292:A1 1.00887e-05
8 *131:19 *292:A1 7.74068e-05
9 *274:A *131:10 6.20095e-05
10 *274:B *290:B 0.00018372
11 *290:A *131:10 4.27842e-06
12 *290:A *131:19 5.40984e-05
13 *297:A2 *290:B 9.87983e-06
14 *297:A2 *308:A 6.64346e-05
15 *297:A2 *131:10 8.07792e-06
16 *297:A2 *131:19 4.64571e-06
17 *79:41 *290:B 0
18 *100:12 *290:B 9.47378e-05
*RES
1 *316:X *131:10 18.1214 
2 *131:10 *292:A2 13.8 
3 *131:10 *131:19 2.09821 
4 *131:19 *290:B 16.8089 
5 *131:19 *308:A 17.1482 
*END

*D_NET *132 0.00390769
*CONN
*I *241:A1 I *D sky130_fd_sc_hd__a22oi_2
*I *243:C I *D sky130_fd_sc_hd__nand4_2
*I *302:A1 I *D sky130_fd_sc_hd__a32o_2
*I *307:A I *D sky130_fd_sc_hd__clkdlybuf4s25_1
*I *317:X O *D sky130_fd_sc_hd__clkdlybuf4s25_1
*CAP
1 *241:A1 0
2 *243:C 9.35523e-05
3 *302:A1 0.00017073
4 *307:A 0
5 *317:X 0.00025743
6 *132:36 0.000332385
7 *132:12 0.00025254
8 *132:8 0.000578073
9 *208:C *302:A1 1.19813e-05
10 *241:B1 *132:36 0
11 *244:A2 *132:12 0.000146254
12 *244:A2 *132:36 0.000218361
13 *247:B1 *302:A1 0.000310612
14 *247:B1 *132:36 0
15 *302:A2 *302:A1 0.000183711
16 *302:A3 *302:A1 0.000113926
17 *311:A *132:8 9.67754e-05
18 *315:A *132:36 4.36556e-05
19 *66:33 *243:C 0
20 *69:6 *132:36 0.00018631
21 *70:14 *132:36 0.000222666
22 *70:25 *132:36 1.52978e-05
23 *123:12 *132:12 7.17717e-05
24 *123:12 *132:36 1.03904e-05
25 *125:70 *243:C 0.000177234
26 *125:76 *243:C 1.02504e-05
27 *126:55 *132:8 0.00022267
28 *127:10 *132:8 0.000181114
*RES
1 *317:X *132:8 19.2643 
2 *132:8 *132:12 6.44643 
3 *132:12 *307:A 9.3 
4 *132:12 *302:A1 14.3893 
5 *132:8 *132:36 11.1964 
6 *132:36 *243:C 20.55 
7 *132:36 *241:A1 9.3 
*END

*D_NET *133 0.00756855
*CONN
*I *258:A1 I *D sky130_fd_sc_hd__a22o_2
*I *259:C I *D sky130_fd_sc_hd__nand4_2
*I *306:A I *D sky130_fd_sc_hd__clkdlybuf4s25_1
*I *318:X O *D sky130_fd_sc_hd__clkdlybuf4s25_1
*CAP
1 *258:A1 9.31947e-05
2 *259:C 0
3 *306:A 2.06112e-05
4 *318:X 0.000445659
5 *133:35 0.00170371
6 *133:14 0.00207679
7 *209:D *306:A 3.99614e-06
8 *209:D *133:14 5.33433e-05
9 *209:D *133:35 5.33334e-05
10 *210:A2 *133:14 0
11 *210:B2 *133:14 4.96349e-05
12 *211:B *133:14 0
13 *235:C *133:35 8.30385e-05
14 *236:A1 *133:35 1.17091e-05
15 *236:B1 *133:35 0.000101703
16 *236:C1 *133:35 0.000356857
17 *237:A2 *133:35 9.90431e-05
18 *237:B1 *133:35 0.000116088
19 *238:A2 *133:35 7.8327e-05
20 *242:B *133:35 0.000847868
21 *257:B1 *258:A1 0.000304047
22 *257:B1 *133:35 4.59075e-05
23 *258:B1 *258:A1 3.6906e-05
24 *258:B2 *258:A1 0.000101017
25 *258:B2 *133:35 5.52302e-05
26 *259:B *258:A1 3.99614e-06
27 *259:D *258:A1 5.52302e-05
28 *321:A *133:14 0.000154027
29 *45:10 *133:14 0
30 *56:12 *133:35 0
31 *81:8 *133:35 0.000133189
32 *81:23 *133:35 2.6949e-05
33 *82:22 *133:35 0.000148182
34 *82:24 *133:35 5.33005e-05
35 *83:8 *133:35 7.40992e-05
36 *122:6 *133:35 1.32552e-05
37 *124:12 *133:14 4.46186e-06
38 *125:39 *258:A1 4.1896e-06
39 *125:66 *133:35 2.8266e-06
40 *126:70 *133:35 6.52204e-05
41 *127:43 *133:35 9.16074e-05
42 *127:60 *133:14 0
*RES
1 *318:X *133:14 25.6036 
2 *133:14 *306:A 9.72857 
3 *133:14 *133:35 42.5 
4 *133:35 *259:C 9.3 
5 *133:35 *258:A1 13.4071 
*END

*D_NET *134 0.00844331
*CONN
*I *275:B2 I *D sky130_fd_sc_hd__a22o_2
*I *252:A I *D sky130_fd_sc_hd__nand2_2
*I *253:B1 I *D sky130_fd_sc_hd__a22oi_2
*I *255:C I *D sky130_fd_sc_hd__nand4_2
*I *305:A I *D sky130_fd_sc_hd__clkdlybuf4s25_1
*I *319:X O *D sky130_fd_sc_hd__clkdlybuf4s25_1
*CAP
1 *275:B2 0
2 *252:A 0.000275532
3 *253:B1 0
4 *255:C 0
5 *305:A 0
6 *319:X 0.000478912
7 *134:67 0.000685917
8 *134:56 0.000523938
9 *134:43 0.00161947
10 *134:10 0.00198483
11 *252:A *275:A1 3.67279e-06
12 *134:10 *328:A 0
13 *134:43 *328:A 9.78745e-05
14 p[0] *134:10 7.83659e-05
15 *205:A *134:43 3.16805e-05
16 *205:B *134:43 3.08664e-05
17 *210:A2 *134:10 0
18 *223:A *134:43 5.55288e-05
19 *224:B2 *134:43 0
20 *229:A1 *134:43 8.07951e-05
21 *229:A2 *134:43 5.52238e-05
22 *234:A1 *134:43 5.33005e-05
23 *234:A1 *134:56 5.33005e-05
24 *236:C1 *134:10 1.02504e-05
25 *236:C1 *134:43 0.000167527
26 *238:A1 *134:43 0.000225609
27 *238:B1 *134:43 5.01883e-05
28 *251:A *134:43 7.61619e-05
29 *251:A *134:56 0.000215108
30 *253:A1 *134:67 5.4386e-05
31 *253:A2 *252:A 5.36422e-05
32 *253:A2 *134:67 6.7085e-05
33 *255:B *134:43 5.49995e-05
34 *255:B *134:56 0.0001873
35 *275:A2 *134:56 1.25366e-05
36 *275:A2 *134:67 4.30704e-05
37 *321:A *134:10 0.000227322
38 *43:23 *134:43 2.286e-05
39 *51:6 *134:43 2.42516e-05
40 *56:12 *134:43 1.79279e-05
41 *77:8 *134:43 0.000138816
42 *120:88 *252:A 3.6236e-05
43 *122:66 *134:43 0.000125286
44 *122:70 *134:43 7.12756e-05
45 *122:114 *134:10 0
46 *122:114 *134:43 0
47 *126:83 *134:43 0.000352431
48 *127:43 *134:43 4.25809e-05
49 *129:24 *134:10 1.65558e-05
50 *129:49 *134:10 4.06875e-05
*RES
1 *319:X *134:10 21.6929 
2 *134:10 *305:A 13.8 
3 *134:10 *134:43 39.8571 
4 *134:43 *255:C 9.3 
5 *134:43 *134:56 12.3929 
6 *134:56 *253:B1 9.3 
7 *134:56 *134:67 6.10714 
8 *134:67 *252:A 23.05 
9 *134:67 *275:B2 9.3 
*END

*D_NET *135 0.00456122
*CONN
*I *290:C I *D sky130_fd_sc_hd__nand4_2
*I *292:A1 I *D sky130_fd_sc_hd__a31o_2
*I *275:A1 I *D sky130_fd_sc_hd__a22o_2
*I *289:C I *D sky130_fd_sc_hd__and4_2
*I *304:A I *D sky130_fd_sc_hd__clkdlybuf4s25_1
*I *320:X O *D sky130_fd_sc_hd__clkdlybuf4s25_1
*CAP
1 *290:C 5.89636e-05
2 *292:A1 0.000287966
3 *275:A1 0.000551418
4 *289:C 0
5 *304:A 0.000132165
6 *320:X 7.97778e-05
7 *135:28 0.000839384
8 *135:26 0.000130668
9 *135:17 0.000572416
10 *135:6 0.000712655
11 *252:A *275:A1 3.67279e-06
12 *274:A *292:A1 8.98436e-05
13 *274:B *292:A1 1.51881e-05
14 *289:B *290:C 5.36422e-05
15 *289:B *135:26 7.74068e-05
16 *21:10 *290:C 1.42331e-05
17 *21:10 *135:26 2.29031e-05
18 *79:12 *135:17 0.000193596
19 *79:41 *290:C 1.32293e-05
20 *100:12 *275:A1 0.00022367
21 *100:12 *290:C 9.84673e-05
22 *100:12 *292:A1 0.000264539
23 *101:8 *275:A1 3.79254e-05
24 *131:10 *292:A1 1.00887e-05
25 *131:19 *292:A1 7.74068e-05
*RES
1 *320:X *135:6 10.6571 
2 *135:6 *304:A 11.4786 
3 *135:6 *135:17 14.3393 
4 *135:17 *289:C 13.8 
5 *135:17 *135:26 1.64286 
6 *135:26 *135:28 4.5 
7 *135:28 *275:A1 25.4071 
8 *135:28 *292:A1 22.7464 
9 *135:26 *290:C 15.4786 
*END

*D_NET *136 0.000802313
*CONN
*I *328:A I *D sky130_fd_sc_hd__clkdlybuf4s25_1
*I *205:X O *D sky130_fd_sc_hd__and2_2
*CAP
1 *328:A 0.000273492
2 *205:X 0.000273492
3 *121:12 *328:A 0.000124947
4 *121:34 *328:A 3.25078e-05
5 *134:10 *328:A 0
6 *134:43 *328:A 9.78745e-05
*RES
1 *205:X *328:A 32.6179 
*END
