*SPEF "ieee 1481-1999"
*DESIGN "behav8"
*DATE "16:23:02 Sunday September 06, 2026"
*VENDOR "The OpenROAD Project"
*PROGRAM "OpenROAD"
*VERSION "dcf36133a369abc8f3c5e5738cd4d82e4903c0e0"
*DESIGN_FLOW "NAME_SCOPE LOCAL" "PIN_CAP NONE"
*DIVIDER /
*DELIMITER :
*BUS_DELIMITER []
*T_UNIT 1 NS
*C_UNIT 1 PF
*R_UNIT 1 OHM
*L_UNIT 1 HENRY

*NAME_MAP
*3 a[0]
*4 a[1]
*5 a[2]
*6 a[3]
*7 a[4]
*8 a[5]
*9 a[6]
*10 a[7]
*11 b[0]
*12 b[1]
*13 b[2]
*14 b[3]
*15 b[4]
*16 b[5]
*17 b[6]
*18 b[7]
*19 p[0]
*20 p[10]
*21 p[11]
*22 p[12]
*23 p[13]
*24 p[14]
*25 p[15]
*26 p[1]
*27 p[2]
*28 p[3]
*29 p[4]
*30 p[5]
*31 p[6]
*32 p[7]
*33 p[8]
*34 p[9]
*35 _0000_
*36 _0001_
*37 _0002_
*38 _0003_
*39 _0004_
*40 _0005_
*41 _0006_
*42 _0007_
*43 _0008_
*44 _0009_
*45 _0010_
*46 _0011_
*47 _0012_
*48 _0013_
*49 _0014_
*50 _0015_
*51 _0016_
*52 _0017_
*53 _0018_
*54 _0019_
*55 _0020_
*56 _0021_
*57 _0022_
*58 _0023_
*59 _0024_
*60 _0025_
*61 _0026_
*62 _0027_
*63 _0028_
*64 _0029_
*65 _0030_
*66 _0031_
*67 _0032_
*68 _0033_
*69 _0034_
*70 _0035_
*71 _0036_
*72 _0037_
*73 _0038_
*74 _0039_
*75 _0040_
*76 _0041_
*77 _0042_
*78 _0043_
*79 _0044_
*80 _0045_
*81 _0046_
*82 _0047_
*83 _0048_
*84 _0049_
*85 _0050_
*86 _0051_
*87 _0052_
*88 _0053_
*89 _0054_
*90 _0055_
*91 _0056_
*92 _0057_
*93 _0058_
*94 _0059_
*95 _0060_
*96 _0061_
*97 _0062_
*98 _0063_
*99 _0064_
*100 _0065_
*101 _0066_
*102 _0067_
*103 _0068_
*104 _0069_
*105 _0070_
*106 _0071_
*107 _0072_
*108 _0073_
*109 _0074_
*110 _0075_
*111 _0076_
*112 _0077_
*113 _0078_
*114 _0079_
*115 _0080_
*116 _0081_
*117 _0082_
*118 _0083_
*119 _0084_
*120 _0085_
*121 _0086_
*122 _0087_
*123 _0088_
*124 _0089_
*125 _0090_
*126 _0091_
*127 _0092_
*128 _0093_
*129 _0094_
*130 _0095_
*131 _0096_
*132 _0097_
*133 _0098_
*134 _0099_
*135 _0100_
*136 _0101_
*137 _0102_
*138 _0103_
*139 _0104_
*140 _0105_
*141 _0106_
*142 _0107_
*143 _0108_
*144 _0109_
*145 _0110_
*146 _0111_
*147 _0112_
*148 _0113_
*149 _0114_
*150 _0115_
*151 _0116_
*152 _0117_
*153 _0118_
*154 _0119_
*155 _0120_
*156 _0121_
*157 _0122_
*158 _0123_
*159 _0124_
*160 _0125_
*161 _0126_
*162 _0127_
*163 _0128_
*164 _0129_
*165 _0130_
*166 _0131_
*167 _0132_
*168 _0133_
*169 _0134_
*170 _0135_
*171 _0136_
*172 _0137_
*173 _0138_
*174 _0139_
*175 _0140_
*176 _0141_
*177 _0142_
*178 _0143_
*179 _0144_
*180 _0145_
*181 _0146_
*182 _0147_
*183 _0148_
*184 _0149_
*185 _0150_
*186 _0151_
*187 _0152_
*188 _0153_
*189 _0154_
*190 _0155_
*191 _0156_
*192 _0157_
*193 _0158_
*194 _0159_
*195 _0160_
*196 _0161_
*197 _0162_
*198 _0163_
*199 _0164_
*200 _0165_
*201 _0166_
*202 _0167_
*203 _0168_
*204 _0169_
*205 _0170_
*206 _0171_
*207 _0172_
*208 _0173_
*209 _0174_
*210 _0175_
*211 _0176_
*212 _0177_
*213 _0178_
*214 _0179_
*215 _0180_
*216 _0181_
*217 _0182_
*218 _0183_
*219 _0184_
*220 _0185_
*221 _0186_
*222 _0187_
*223 _0188_
*224 _0189_
*225 _0190_
*226 _0191_
*227 _0192_
*228 _0193_
*229 _0194_
*230 _0195_
*231 _0196_
*232 _0197_
*233 _0198_
*234 _0199_
*235 _0200_
*236 _0201_
*237 _0202_
*238 _0203_
*239 _0204_
*240 _0205_
*241 _0206_
*242 _0207_
*243 _0208_
*244 _0209_
*245 _0210_
*246 _0211_
*247 _0212_
*248 _0213_
*249 _0214_
*250 _0215_
*251 _0216_
*252 _0217_
*253 _0218_
*254 _0219_
*255 _0220_
*256 _0221_
*257 _0222_
*258 _0223_
*259 _0224_
*260 _0225_
*261 _0226_
*262 _0227_
*263 _0228_
*264 _0229_
*265 _0230_
*266 _0231_
*267 _0232_
*268 _0233_
*269 _0234_
*270 _0235_
*271 _0236_
*272 _0237_
*273 _0238_
*274 _0239_
*275 _0240_
*276 _0241_
*277 _0242_
*278 _0243_
*279 _0244_
*280 _0245_
*281 _0246_
*282 _0247_
*283 _0248_
*284 _0249_
*285 _0250_
*286 _0251_
*287 _0252_
*288 _0253_
*289 _0254_
*290 _0255_
*291 _0256_
*292 _0257_
*293 _0258_
*294 _0259_
*295 _0260_
*296 _0261_
*297 _0262_
*298 _0263_
*299 _0264_
*300 _0265_
*301 _0266_
*302 _0267_
*303 _0268_
*304 _0269_
*305 _0270_
*306 _0271_
*307 _0272_
*308 _0273_
*309 _0274_
*310 _0275_
*311 _0276_
*312 _0277_
*313 _0278_
*314 _0279_
*315 _0280_
*316 _0281_
*317 _0282_
*318 _0283_
*319 _0284_
*320 _0285_
*321 _0286_
*322 _0287_
*323 _0288_
*324 _0289_
*325 _0290_
*326 _0291_
*327 _0292_
*328 _0293_
*329 _0294_
*330 _0295_
*331 _0296_
*332 _0297_
*333 _0298_
*334 _0299_
*335 _0300_
*336 _0301_
*337 _0302_
*338 _0303_
*339 _0304_
*340 _0305_
*341 _0306_
*342 _0307_
*343 _0308_
*344 _0309_
*345 _0310_
*346 _0311_
*347 _0312_
*348 _0313_
*349 _0314_
*350 _0315_
*351 _0316_
*352 _0317_
*353 _0318_
*354 _0319_
*355 _0320_
*356 _0321_
*357 _0322_
*358 _0323_
*359 _0324_
*360 _0325_
*361 _0326_
*362 _0327_
*363 _0328_
*364 _0329_
*365 _0330_
*366 _0331_
*367 _0332_
*368 _0333_
*369 _0334_
*370 _0335_
*371 _0336_
*372 _0337_
*373 _0338_
*374 _0339_
*375 _0340_
*376 _0341_
*377 _0342_
*378 _0343_
*379 _0344_
*380 _0345_
*381 _0346_
*382 _0347_
*383 _0348_
*384 _0349_
*385 _0350_
*386 _0351_
*387 _0352_
*388 _0353_
*389 _0354_
*390 _0355_
*391 _0356_
*392 _0357_
*393 _0358_
*394 _0359_
*395 _0360_
*396 _0361_
*397 _0362_
*398 _0363_
*399 _0364_
*400 _0365_
*401 _0366_
*402 _0367_
*403 _0368_
*404 _0369_
*405 _0370_
*406 _0371_
*407 _0372_
*408 _0373_
*409 _0374_
*410 _0375_
*411 _0376_
*412 _0377_
*413 _0378_
*414 _0379_
*415 _0380_
*416 _0381_
*417 _0382_
*418 _0383_
*419 _0384_
*420 _0385_
*421 _0386_
*422 _0387_
*423 _0388_
*424 _0389_
*425 _0390_
*426 _0391_
*427 _0392_
*428 _0393_
*429 _0394_
*430 _0395_
*431 _0396_
*432 _0397_
*433 _0398_
*434 _0399_
*435 _0400_
*436 _0401_
*437 _0402_
*438 _0403_
*439 _0404_
*440 _0405_
*441 _0406_
*442 _0407_
*443 _0408_
*444 _0409_
*445 _0410_
*446 _0411_
*447 _0412_
*448 _0413_
*449 _0414_
*450 _0415_
*451 _0416_
*452 _0417_
*453 _0418_
*454 _0419_
*455 _0420_
*456 _0421_
*457 _0422_
*458 _0423_
*459 _0424_
*460 _0425_
*461 _0426_
*462 _0427_
*463 _0428_
*464 _0429_
*465 _0430_
*466 _0431_
*467 _0432_
*468 _0433_
*469 _0434_
*470 _0435_
*471 _0436_
*472 _0437_
*473 _0438_
*474 _0439_
*475 _0440_
*476 _0441_
*477 _0442_
*478 _0443_
*479 _0444_
*480 _0445_
*481 _0446_
*482 _0447_
*483 _0448_
*484 _0449_
*485 _0450_
*486 _0451_
*487 _0452_
*488 _0453_
*489 _0454_
*490 _0455_
*491 _0456_
*492 _0457_
*493 _0458_
*494 _0459_
*495 _0460_
*496 _0461_
*497 _0462_
*498 _0463_
*499 _0464_
*500 _0465_
*501 _0466_
*502 _0467_
*503 _0468_
*504 _0469_
*505 _0470_
*506 _0471_
*507 _0472_
*508 _0473_
*509 _0474_
*510 _0475_
*511 _0476_
*512 _0477_
*513 _0478_
*514 _0479_
*515 _0480_
*516 _0481_
*517 _0482_
*518 _0483_
*519 _0484_
*520 _0485_
*521 _0486_
*522 _0487_
*523 _0488_
*524 _0489_
*525 _0490_
*526 _0491_
*527 _0492_
*528 _0493_
*529 _0494_
*530 _0495_
*531 net
*532 net1
*533 net10
*534 net100
*535 net101
*536 net102
*537 net103
*538 net104
*539 net105
*540 net106
*541 net107
*542 net108
*543 net109
*544 net11
*545 net110
*546 net111
*547 net112
*548 net113
*549 net114
*550 net115
*551 net116
*552 net117
*553 net118
*554 net119
*555 net12
*556 net120
*557 net121
*558 net122
*559 net123
*560 net124
*561 net125
*562 net126
*563 net127
*564 net128
*565 net129
*566 net13
*567 net130
*568 net131
*569 net132
*570 net133
*571 net134
*572 net135
*573 net136
*574 net137
*575 net138
*576 net139
*577 net14
*578 net140
*579 net141
*580 net142
*581 net143
*582 net144
*583 net145
*584 net146
*585 net147
*586 net148
*587 net149
*588 net15
*589 net150
*590 net151
*591 net152
*592 net153
*593 net154
*594 net155
*595 net156
*596 net157
*597 net158
*598 net159
*599 net16
*600 net160
*601 net161
*602 net162
*603 net163
*604 net164
*605 net165
*606 net166
*607 net167
*608 net168
*609 net169
*610 net17
*611 net170
*612 net171
*613 net172
*614 net173
*615 net174
*616 net175
*617 net176
*618 net177
*619 net178
*620 net179
*621 net18
*622 net180
*623 net181
*624 net182
*625 net183
*626 net184
*627 net185
*628 net187
*629 net188
*630 net189
*631 net19
*632 net195
*633 net197
*634 net198
*635 net199
*636 net2
*637 net20
*638 net200
*639 net202
*640 net203
*641 net204
*642 net205
*643 net206
*644 net207
*645 net208
*646 net209
*647 net21
*648 net210
*649 net211
*650 net22
*651 net23
*652 net234
*653 net235
*654 net236
*655 net237
*656 net238
*657 net24
*658 net244
*659 net245
*660 net25
*661 net26
*662 net27
*663 net28
*664 net29
*665 net3
*666 net30
*667 net31
*668 net32
*669 net33
*670 net34
*671 net35
*672 net36
*673 net37
*674 net38
*675 net39
*676 net4
*677 net40
*678 net41
*679 net42
*680 net43
*681 net44
*682 net45
*683 net46
*684 net48
*685 net49
*686 net5
*687 net50
*688 net51
*689 net53
*690 net54
*691 net55
*692 net56
*693 net57
*694 net59
*695 net6
*696 net60
*697 net61
*698 net62
*699 net63
*700 net64
*701 net65
*702 net66
*703 net67
*704 net68
*705 net69
*706 net7
*707 net70
*708 net71
*709 net72
*710 net73
*711 net75
*712 net76
*713 net77
*714 net78
*715 net8
*716 net80
*717 net81
*718 net82
*719 net83
*720 net84
*721 net85
*722 net86
*723 net87
*724 net88
*725 net89
*726 net9
*727 net90
*728 net91
*729 net93
*730 net94
*731 net95
*732 net96
*733 net97
*734 net98
*735 PHY_EDGE_ROW_0_Left_41
*736 PHY_EDGE_ROW_0_Right_0
*737 PHY_EDGE_ROW_10_Left_51
*738 PHY_EDGE_ROW_10_Right_10
*739 PHY_EDGE_ROW_11_Left_52
*740 PHY_EDGE_ROW_11_Right_11
*741 PHY_EDGE_ROW_12_Left_53
*742 PHY_EDGE_ROW_12_Right_12
*743 PHY_EDGE_ROW_13_Left_54
*744 PHY_EDGE_ROW_13_Right_13
*745 PHY_EDGE_ROW_14_Left_55
*746 PHY_EDGE_ROW_14_Right_14
*747 PHY_EDGE_ROW_15_Left_56
*748 PHY_EDGE_ROW_15_Right_15
*749 PHY_EDGE_ROW_16_Left_57
*750 PHY_EDGE_ROW_16_Right_16
*751 PHY_EDGE_ROW_17_Left_58
*752 PHY_EDGE_ROW_17_Right_17
*753 PHY_EDGE_ROW_18_Left_59
*754 PHY_EDGE_ROW_18_Right_18
*755 PHY_EDGE_ROW_19_Left_60
*756 PHY_EDGE_ROW_19_Right_19
*757 PHY_EDGE_ROW_1_Left_42
*758 PHY_EDGE_ROW_1_Right_1
*759 PHY_EDGE_ROW_20_Left_61
*760 PHY_EDGE_ROW_20_Right_20
*761 PHY_EDGE_ROW_21_Left_62
*762 PHY_EDGE_ROW_21_Right_21
*763 PHY_EDGE_ROW_22_Left_63
*764 PHY_EDGE_ROW_22_Right_22
*765 PHY_EDGE_ROW_23_Left_64
*766 PHY_EDGE_ROW_23_Right_23
*767 PHY_EDGE_ROW_24_Left_65
*768 PHY_EDGE_ROW_24_Right_24
*769 PHY_EDGE_ROW_25_Left_66
*770 PHY_EDGE_ROW_25_Right_25
*771 PHY_EDGE_ROW_26_Left_67
*772 PHY_EDGE_ROW_26_Right_26
*773 PHY_EDGE_ROW_27_Left_68
*774 PHY_EDGE_ROW_27_Right_27
*775 PHY_EDGE_ROW_28_Left_69
*776 PHY_EDGE_ROW_28_Right_28
*777 PHY_EDGE_ROW_29_Left_70
*778 PHY_EDGE_ROW_29_Right_29
*779 PHY_EDGE_ROW_2_Left_43
*780 PHY_EDGE_ROW_2_Right_2
*781 PHY_EDGE_ROW_30_Left_71
*782 PHY_EDGE_ROW_30_Right_30
*783 PHY_EDGE_ROW_31_Left_72
*784 PHY_EDGE_ROW_31_Right_31
*785 PHY_EDGE_ROW_32_Left_73
*786 PHY_EDGE_ROW_32_Right_32
*787 PHY_EDGE_ROW_33_Left_74
*788 PHY_EDGE_ROW_33_Right_33
*789 PHY_EDGE_ROW_34_Left_75
*790 PHY_EDGE_ROW_34_Right_34
*791 PHY_EDGE_ROW_35_Left_76
*792 PHY_EDGE_ROW_35_Right_35
*793 PHY_EDGE_ROW_36_Left_77
*794 PHY_EDGE_ROW_36_Right_36
*795 PHY_EDGE_ROW_37_Left_78
*796 PHY_EDGE_ROW_37_Right_37
*797 PHY_EDGE_ROW_38_Left_79
*798 PHY_EDGE_ROW_38_Right_38
*799 PHY_EDGE_ROW_39_Left_80
*800 PHY_EDGE_ROW_39_Right_39
*801 PHY_EDGE_ROW_3_Left_44
*802 PHY_EDGE_ROW_3_Right_3
*803 PHY_EDGE_ROW_40_Left_81
*804 PHY_EDGE_ROW_40_Right_40
*805 PHY_EDGE_ROW_4_Left_45
*806 PHY_EDGE_ROW_4_Right_4
*807 PHY_EDGE_ROW_5_Left_46
*808 PHY_EDGE_ROW_5_Right_5
*809 PHY_EDGE_ROW_6_Left_47
*810 PHY_EDGE_ROW_6_Right_6
*811 PHY_EDGE_ROW_7_Left_48
*812 PHY_EDGE_ROW_7_Right_7
*813 PHY_EDGE_ROW_8_Left_49
*814 PHY_EDGE_ROW_8_Right_8
*815 PHY_EDGE_ROW_9_Left_50
*816 PHY_EDGE_ROW_9_Right_9
*817 TAP_TAPCELL_ROW_0_82
*818 TAP_TAPCELL_ROW_0_83
*819 TAP_TAPCELL_ROW_0_84
*820 TAP_TAPCELL_ROW_0_85
*821 TAP_TAPCELL_ROW_0_86
*822 TAP_TAPCELL_ROW_0_87
*823 TAP_TAPCELL_ROW_0_88
*824 TAP_TAPCELL_ROW_0_89
*825 TAP_TAPCELL_ROW_10_126
*826 TAP_TAPCELL_ROW_10_127
*827 TAP_TAPCELL_ROW_10_128
*828 TAP_TAPCELL_ROW_10_129
*829 TAP_TAPCELL_ROW_11_130
*830 TAP_TAPCELL_ROW_11_131
*831 TAP_TAPCELL_ROW_11_132
*832 TAP_TAPCELL_ROW_11_133
*833 TAP_TAPCELL_ROW_12_134
*834 TAP_TAPCELL_ROW_12_135
*835 TAP_TAPCELL_ROW_12_136
*836 TAP_TAPCELL_ROW_12_137
*837 TAP_TAPCELL_ROW_13_138
*838 TAP_TAPCELL_ROW_13_139
*839 TAP_TAPCELL_ROW_13_140
*840 TAP_TAPCELL_ROW_13_141
*841 TAP_TAPCELL_ROW_14_142
*842 TAP_TAPCELL_ROW_14_143
*843 TAP_TAPCELL_ROW_14_144
*844 TAP_TAPCELL_ROW_14_145
*845 TAP_TAPCELL_ROW_15_146
*846 TAP_TAPCELL_ROW_15_147
*847 TAP_TAPCELL_ROW_15_148
*848 TAP_TAPCELL_ROW_15_149
*849 TAP_TAPCELL_ROW_16_150
*850 TAP_TAPCELL_ROW_16_151
*851 TAP_TAPCELL_ROW_16_152
*852 TAP_TAPCELL_ROW_16_153
*853 TAP_TAPCELL_ROW_17_154
*854 TAP_TAPCELL_ROW_17_155
*855 TAP_TAPCELL_ROW_17_156
*856 TAP_TAPCELL_ROW_17_157
*857 TAP_TAPCELL_ROW_18_158
*858 TAP_TAPCELL_ROW_18_159
*859 TAP_TAPCELL_ROW_18_160
*860 TAP_TAPCELL_ROW_18_161
*861 TAP_TAPCELL_ROW_19_162
*862 TAP_TAPCELL_ROW_19_163
*863 TAP_TAPCELL_ROW_19_164
*864 TAP_TAPCELL_ROW_19_165
*865 TAP_TAPCELL_ROW_1_90
*866 TAP_TAPCELL_ROW_1_91
*867 TAP_TAPCELL_ROW_1_92
*868 TAP_TAPCELL_ROW_1_93
*869 TAP_TAPCELL_ROW_20_166
*870 TAP_TAPCELL_ROW_20_167
*871 TAP_TAPCELL_ROW_20_168
*872 TAP_TAPCELL_ROW_20_169
*873 TAP_TAPCELL_ROW_21_170
*874 TAP_TAPCELL_ROW_21_171
*875 TAP_TAPCELL_ROW_21_172
*876 TAP_TAPCELL_ROW_21_173
*877 TAP_TAPCELL_ROW_22_174
*878 TAP_TAPCELL_ROW_22_175
*879 TAP_TAPCELL_ROW_22_176
*880 TAP_TAPCELL_ROW_22_177
*881 TAP_TAPCELL_ROW_23_178
*882 TAP_TAPCELL_ROW_23_179
*883 TAP_TAPCELL_ROW_23_180
*884 TAP_TAPCELL_ROW_23_181
*885 TAP_TAPCELL_ROW_24_182
*886 TAP_TAPCELL_ROW_24_183
*887 TAP_TAPCELL_ROW_24_184
*888 TAP_TAPCELL_ROW_24_185
*889 TAP_TAPCELL_ROW_25_186
*890 TAP_TAPCELL_ROW_25_187
*891 TAP_TAPCELL_ROW_25_188
*892 TAP_TAPCELL_ROW_25_189
*893 TAP_TAPCELL_ROW_26_190
*894 TAP_TAPCELL_ROW_26_191
*895 TAP_TAPCELL_ROW_26_192
*896 TAP_TAPCELL_ROW_26_193
*897 TAP_TAPCELL_ROW_27_194
*898 TAP_TAPCELL_ROW_27_195
*899 TAP_TAPCELL_ROW_27_196
*900 TAP_TAPCELL_ROW_27_197
*901 TAP_TAPCELL_ROW_28_198
*902 TAP_TAPCELL_ROW_28_199
*903 TAP_TAPCELL_ROW_28_200
*904 TAP_TAPCELL_ROW_28_201
*905 TAP_TAPCELL_ROW_29_202
*906 TAP_TAPCELL_ROW_29_203
*907 TAP_TAPCELL_ROW_29_204
*908 TAP_TAPCELL_ROW_29_205
*909 TAP_TAPCELL_ROW_2_94
*910 TAP_TAPCELL_ROW_2_95
*911 TAP_TAPCELL_ROW_2_96
*912 TAP_TAPCELL_ROW_2_97
*913 TAP_TAPCELL_ROW_30_206
*914 TAP_TAPCELL_ROW_30_207
*915 TAP_TAPCELL_ROW_30_208
*916 TAP_TAPCELL_ROW_30_209
*917 TAP_TAPCELL_ROW_31_210
*918 TAP_TAPCELL_ROW_31_211
*919 TAP_TAPCELL_ROW_31_212
*920 TAP_TAPCELL_ROW_31_213
*921 TAP_TAPCELL_ROW_32_214
*922 TAP_TAPCELL_ROW_32_215
*923 TAP_TAPCELL_ROW_32_216
*924 TAP_TAPCELL_ROW_32_217
*925 TAP_TAPCELL_ROW_33_218
*926 TAP_TAPCELL_ROW_33_219
*927 TAP_TAPCELL_ROW_33_220
*928 TAP_TAPCELL_ROW_33_221
*929 TAP_TAPCELL_ROW_34_222
*930 TAP_TAPCELL_ROW_34_223
*931 TAP_TAPCELL_ROW_34_224
*932 TAP_TAPCELL_ROW_34_225
*933 TAP_TAPCELL_ROW_35_226
*934 TAP_TAPCELL_ROW_35_227
*935 TAP_TAPCELL_ROW_35_228
*936 TAP_TAPCELL_ROW_35_229
*937 TAP_TAPCELL_ROW_36_230
*938 TAP_TAPCELL_ROW_36_231
*939 TAP_TAPCELL_ROW_36_232
*940 TAP_TAPCELL_ROW_36_233
*941 TAP_TAPCELL_ROW_37_234
*942 TAP_TAPCELL_ROW_37_235
*943 TAP_TAPCELL_ROW_37_236
*944 TAP_TAPCELL_ROW_37_237
*945 TAP_TAPCELL_ROW_38_238
*946 TAP_TAPCELL_ROW_38_239
*947 TAP_TAPCELL_ROW_38_240
*948 TAP_TAPCELL_ROW_38_241
*949 TAP_TAPCELL_ROW_39_242
*950 TAP_TAPCELL_ROW_39_243
*951 TAP_TAPCELL_ROW_39_244
*952 TAP_TAPCELL_ROW_39_245
*953 TAP_TAPCELL_ROW_3_100
*954 TAP_TAPCELL_ROW_3_101
*955 TAP_TAPCELL_ROW_3_98
*956 TAP_TAPCELL_ROW_3_99
*957 TAP_TAPCELL_ROW_40_246
*958 TAP_TAPCELL_ROW_40_247
*959 TAP_TAPCELL_ROW_40_248
*960 TAP_TAPCELL_ROW_40_249
*961 TAP_TAPCELL_ROW_40_250
*962 TAP_TAPCELL_ROW_40_251
*963 TAP_TAPCELL_ROW_40_252
*964 TAP_TAPCELL_ROW_40_253
*965 TAP_TAPCELL_ROW_4_102
*966 TAP_TAPCELL_ROW_4_103
*967 TAP_TAPCELL_ROW_4_104
*968 TAP_TAPCELL_ROW_4_105
*969 TAP_TAPCELL_ROW_5_106
*970 TAP_TAPCELL_ROW_5_107
*971 TAP_TAPCELL_ROW_5_108
*972 TAP_TAPCELL_ROW_5_109
*973 TAP_TAPCELL_ROW_6_110
*974 TAP_TAPCELL_ROW_6_111
*975 TAP_TAPCELL_ROW_6_112
*976 TAP_TAPCELL_ROW_6_113
*977 TAP_TAPCELL_ROW_7_114
*978 TAP_TAPCELL_ROW_7_115
*979 TAP_TAPCELL_ROW_7_116
*980 TAP_TAPCELL_ROW_7_117
*981 TAP_TAPCELL_ROW_8_118
*982 TAP_TAPCELL_ROW_8_119
*983 TAP_TAPCELL_ROW_8_120
*984 TAP_TAPCELL_ROW_8_121
*985 TAP_TAPCELL_ROW_9_122
*986 TAP_TAPCELL_ROW_9_123
*987 TAP_TAPCELL_ROW_9_124
*988 TAP_TAPCELL_ROW_9_125
*989 _0496_
*990 _0497_
*991 _0498_
*992 _0499_
*993 _0500_
*994 _0501_
*995 _0502_
*996 _0503_
*997 _0504_
*998 _0505_
*999 _0506_
*1000 _0507_
*1001 _0508_
*1002 _0509_
*1003 _0510_
*1004 _0511_
*1005 _0512_
*1006 _0513_
*1007 _0514_
*1008 _0515_
*1009 _0516_
*1010 _0517_
*1011 _0518_
*1012 _0519_
*1013 _0520_
*1014 _0521_
*1015 _0522_
*1016 _0523_
*1017 _0524_
*1018 _0525_
*1019 _0526_
*1020 _0527_
*1021 _0528_
*1022 _0529_
*1023 _0530_
*1024 _0531_
*1025 _0532_
*1026 _0533_
*1027 _0534_
*1028 _0535_
*1029 _0536_
*1030 _0537_
*1031 _0538_
*1032 _0539_
*1033 _0540_
*1034 _0541_
*1035 _0542_
*1036 _0543_
*1037 _0544_
*1038 _0545_
*1039 _0546_
*1040 _0547_
*1041 _0548_
*1042 _0549_
*1043 _0550_
*1044 _0551_
*1045 _0552_
*1046 _0553_
*1047 _0554_
*1048 _0555_
*1049 _0556_
*1050 _0557_
*1051 _0558_
*1052 _0559_
*1053 _0560_
*1054 _0561_
*1055 _0562_
*1056 _0563_
*1057 _0564_
*1058 _0565_
*1059 _0566_
*1060 _0567_
*1061 _0568_
*1062 _0569_
*1063 _0570_
*1064 _0571_
*1065 _0572_
*1066 _0573_
*1067 _0574_
*1068 _0575_
*1069 _0576_
*1070 _0577_
*1071 _0578_
*1072 _0579_
*1073 _0580_
*1074 _0581_
*1075 _0582_
*1076 _0583_
*1077 _0584_
*1078 _0585_
*1079 _0586_
*1080 _0587_
*1081 _0588_
*1082 _0589_
*1083 _0590_
*1084 _0591_
*1085 _0592_
*1086 _0593_
*1087 _0594_
*1088 _0595_
*1089 _0596_
*1090 _0597_
*1091 _0598_
*1092 _0599_
*1093 _0600_
*1094 _0601_
*1095 _0602_
*1096 _0603_
*1097 _0604_
*1098 _0605_
*1099 _0606_
*1100 _0607_
*1101 _0608_
*1102 _0609_
*1103 _0610_
*1104 _0611_
*1105 _0612_
*1106 _0613_
*1107 _0614_
*1108 _0615_
*1109 _0616_
*1110 _0617_
*1111 _0618_
*1112 _0619_
*1113 _0620_
*1114 _0621_
*1115 _0622_
*1116 _0623_
*1117 _0624_
*1118 _0625_
*1119 _0626_
*1120 _0627_
*1121 _0628_
*1122 _0629_
*1123 _0630_
*1124 _0631_
*1125 _0632_
*1126 _0633_
*1127 _0634_
*1128 _0635_
*1129 _0636_
*1130 _0637_
*1131 _0638_
*1132 _0639_
*1133 _0640_
*1134 _0641_
*1135 _0642_
*1136 _0643_
*1137 _0644_
*1138 _0645_
*1139 _0646_
*1140 _0647_
*1141 _0648_
*1142 _0649_
*1143 _0650_
*1144 _0651_
*1145 _0652_
*1146 _0653_
*1147 _0654_
*1148 _0655_
*1149 _0656_
*1150 _0657_
*1151 _0658_
*1152 _0659_
*1153 _0660_
*1154 _0661_
*1155 _0662_
*1156 _0663_
*1157 _0664_
*1158 _0665_
*1159 _0666_
*1160 _0667_
*1161 _0668_
*1162 _0669_
*1163 _0670_
*1164 _0671_
*1165 _0672_
*1166 _0673_
*1167 _0674_
*1168 _0675_
*1169 _0676_
*1170 _0677_
*1171 _0678_
*1172 _0679_
*1173 _0680_
*1174 _0681_
*1175 _0682_
*1176 _0683_
*1177 _0684_
*1178 _0685_
*1179 _0686_
*1180 _0687_
*1181 _0688_
*1182 _0689_
*1183 _0690_
*1184 _0691_
*1185 _0692_
*1186 _0693_
*1187 _0694_
*1188 _0695_
*1189 _0696_
*1190 _0697_
*1191 _0698_
*1192 _0699_
*1193 _0700_
*1194 _0701_
*1195 _0702_
*1196 _0703_
*1197 _0704_
*1198 _0705_
*1199 _0706_
*1200 _0707_
*1201 _0708_
*1202 _0709_
*1203 _0710_
*1204 _0711_
*1205 _0712_
*1206 _0713_
*1207 _0714_
*1208 _0715_
*1209 _0716_
*1210 _0717_
*1211 _0718_
*1212 _0719_
*1213 _0720_
*1214 _0721_
*1215 _0722_
*1216 _0723_
*1217 _0724_
*1218 _0725_
*1219 _0726_
*1220 _0727_
*1221 _0728_
*1222 _0729_
*1223 _0730_
*1224 _0731_
*1225 _0732_
*1226 _0733_
*1227 _0734_
*1228 _0735_
*1229 _0736_
*1230 _0737_
*1231 _0738_
*1232 _0739_
*1233 _0740_
*1234 _0741_
*1235 _0742_
*1236 _0743_
*1237 _0744_
*1238 _0745_
*1239 _0746_
*1240 _0747_
*1241 _0748_
*1242 _0749_
*1243 _0750_
*1244 _0751_
*1245 _0752_
*1246 _0753_
*1247 _0754_
*1248 _0755_
*1249 _0756_
*1250 _0757_
*1251 _0758_
*1252 _0759_
*1253 _0760_
*1254 _0761_
*1255 _0762_
*1256 _0763_
*1257 _0764_
*1258 _0765_
*1259 _0766_
*1260 _0767_
*1261 _0768_
*1262 _0769_
*1263 _0770_
*1264 _0771_
*1265 _0772_
*1266 _0773_
*1267 _0774_
*1268 _0775_
*1269 _0776_
*1270 _0777_
*1271 _0778_
*1272 _0779_
*1273 _0780_
*1274 _0781_
*1275 _0782_
*1276 _0783_
*1277 _0784_
*1278 _0785_
*1279 _0786_
*1280 _0787_
*1281 _0788_
*1282 _0789_
*1283 _0790_
*1284 _0791_
*1285 _0792_
*1286 _0793_
*1287 _0794_
*1288 _0795_
*1289 _0796_
*1290 _0797_
*1291 _0798_
*1292 _0799_
*1293 _0800_
*1294 _0801_
*1295 _0802_
*1296 _0803_
*1297 _0804_
*1298 _0805_
*1299 _0806_
*1300 _0807_
*1301 _0808_
*1302 _0809_
*1303 _0810_
*1304 _0811_
*1305 _0812_
*1306 _0813_
*1307 _0814_
*1308 _0815_
*1309 _0816_
*1310 _0817_
*1311 _0818_
*1312 _0819_
*1313 _0820_
*1314 _0821_
*1315 _0822_
*1316 _0823_
*1317 _0824_
*1318 _0825_
*1319 _0826_
*1320 _0827_
*1321 _0828_
*1322 _0829_
*1323 _0830_
*1324 _0831_
*1325 _0832_
*1326 _0833_
*1327 _0834_
*1328 _0835_
*1329 _0836_
*1330 _0837_
*1331 _0838_
*1332 _0839_
*1333 _0840_
*1334 _0841_
*1335 _0842_
*1336 _0843_
*1337 _0844_
*1338 _0845_
*1339 _0846_
*1340 _0847_
*1341 _0848_
*1342 _0849_
*1343 _0850_
*1344 _0851_
*1345 _0852_
*1346 _0853_
*1347 _0854_
*1348 _0855_
*1349 _0856_
*1350 _0857_
*1351 _0858_
*1352 _0859_
*1353 _0860_
*1354 _0861_
*1355 _0862_
*1356 _0863_
*1357 _0864_
*1358 _0865_
*1359 _0866_
*1360 _0867_
*1361 _0868_
*1362 _0869_
*1363 _0870_
*1364 _0871_
*1365 _0872_
*1366 _0873_
*1367 _0874_
*1368 _0875_
*1369 _0876_
*1370 _0877_
*1371 _0878_
*1372 _0879_
*1373 _0880_
*1374 _0881_
*1375 _0882_
*1376 _0883_
*1377 _0884_
*1378 _0885_
*1379 _0886_
*1380 _0887_
*1381 _0888_
*1382 _0889_
*1383 _0890_
*1384 _0891_
*1385 _0892_
*1386 _0893_
*1387 _0894_
*1388 _0895_
*1389 _0896_
*1390 _0897_
*1391 _0898_
*1392 _0899_
*1393 _0900_
*1394 _0901_
*1395 _0902_
*1396 _0903_
*1397 _0904_
*1398 _0905_
*1399 _0906_
*1400 _0907_
*1401 _0908_
*1402 _0909_
*1403 _0910_
*1404 _0911_
*1405 _0912_
*1406 _0913_
*1407 _0914_
*1408 _0915_
*1409 _0916_
*1410 _0917_
*1411 _0918_
*1412 _0919_
*1413 _0920_
*1414 _0921_
*1415 _0922_
*1416 _0923_
*1417 _0924_
*1418 _0925_
*1419 _0926_
*1420 _0927_
*1421 _0928_
*1422 _0929_
*1423 _0930_
*1424 _0931_
*1425 _0932_
*1426 _0933_
*1427 _0934_
*1428 _0935_
*1429 _0936_
*1430 _0937_
*1431 _0938_
*1432 _0939_
*1433 _0940_
*1434 _0941_
*1435 _0942_
*1436 _0943_
*1437 _0944_
*1438 _0945_
*1439 _0946_
*1440 _0947_
*1441 _0948_
*1442 _0949_
*1443 _0950_
*1444 _0951_
*1445 _0952_
*1446 _0953_
*1447 _0954_
*1448 _0955_
*1449 _0956_
*1450 _0957_
*1451 _0958_
*1452 _0959_
*1453 _0960_
*1454 _0961_
*1455 _0962_
*1456 _0963_
*1457 _0964_
*1458 _0965_
*1459 _0966_
*1460 _0967_
*1461 _0968_
*1462 _0969_
*1463 _0970_
*1464 _0971_
*1465 _0972_
*1466 _0973_
*1467 _0974_
*1468 _0975_
*1469 _0976_
*1470 _0977_
*1471 _0978_
*1472 _0979_
*1473 _0980_
*1474 _0981_
*1475 _0982_
*1476 _0983_
*1477 _0984_
*1478 _0985_
*1479 _0986_
*1480 _0987_
*1481 _0988_
*1482 _0989_
*1483 _0990_
*1484 _0991_
*1485 _0992_
*1486 _0993_
*1487 _0994_
*1488 _0995_
*1489 _0996_
*1490 _0997_
*1491 _0998_
*1492 _0999_
*1493 _1000_
*1494 _1001_
*1495 _1002_
*1496 _1003_
*1497 _1004_
*1498 _1005_
*1499 _1006_
*1500 _1007_
*1501 clone131
*1502 fanout100
*1503 fanout101
*1504 fanout37
*1505 fanout38
*1506 fanout39
*1507 fanout40
*1508 fanout41
*1509 fanout42
*1510 fanout43
*1511 fanout44
*1512 fanout45
*1513 fanout49
*1514 fanout51
*1515 fanout54
*1516 fanout56
*1517 fanout59
*1518 fanout61
*1519 fanout63
*1520 fanout65
*1521 fanout66
*1522 fanout67
*1523 fanout68
*1524 fanout69
*1525 fanout70
*1526 fanout72
*1527 fanout75
*1528 fanout77
*1529 fanout78
*1530 fanout80
*1531 fanout81
*1532 fanout82
*1533 fanout84
*1534 fanout85
*1535 fanout87
*1536 fanout88
*1537 fanout90
*1538 fanout91
*1539 fanout93
*1540 fanout95
*1541 fanout96
*1542 fanout97
*1543 fanout98
*1544 input1
*1545 input10
*1546 input11
*1547 input12
*1548 input13
*1549 input14
*1550 input15
*1551 input16
*1552 input2
*1553 input3
*1554 input4
*1555 input5
*1556 input6
*1557 input7
*1558 input8
*1559 input9
*1560 load_slew46
*1561 load_slew48
*1562 load_slew53
*1563 load_slew55
*1564 load_slew57
*1565 load_slew60
*1566 load_slew62
*1567 load_slew64
*1568 load_slew71
*1569 load_slew73
*1570 load_slew76
*1571 load_slew83
*1572 load_slew86
*1573 load_slew89
*1574 load_slew94
*1575 max_cap33
*1576 max_cap34
*1577 max_cap35
*1578 max_cap36
*1579 output17
*1580 output18
*1581 output19
*1582 output20
*1583 output21
*1584 output22
*1585 output23
*1586 output24
*1587 output25
*1588 output26
*1589 output27
*1590 output28
*1591 output29
*1592 output30
*1593 output31
*1594 output32
*1595 rebuffer102
*1596 rebuffer103
*1597 rebuffer104
*1598 rebuffer105
*1599 rebuffer106
*1600 rebuffer107
*1601 rebuffer108
*1602 rebuffer109
*1603 rebuffer110
*1604 rebuffer111
*1605 rebuffer112
*1606 rebuffer113
*1607 rebuffer114
*1608 rebuffer115
*1609 rebuffer116
*1610 rebuffer117
*1611 rebuffer118
*1612 rebuffer119
*1613 rebuffer120
*1614 rebuffer121
*1615 rebuffer122
*1616 rebuffer123
*1617 rebuffer124
*1618 rebuffer125
*1619 rebuffer126
*1620 rebuffer127
*1621 rebuffer128
*1622 rebuffer129
*1623 rebuffer130
*1624 rebuffer132
*1625 rebuffer133
*1626 rebuffer134
*1627 rebuffer135
*1628 rebuffer136
*1629 rebuffer137
*1630 rebuffer138
*1631 rebuffer139
*1632 rebuffer140
*1633 rebuffer141
*1634 rebuffer142
*1635 rebuffer143
*1636 rebuffer144
*1637 rebuffer145
*1638 rebuffer146
*1639 rebuffer147
*1640 rebuffer148
*1641 rebuffer149
*1642 rebuffer150
*1643 rebuffer151
*1644 rebuffer152
*1645 rebuffer153
*1646 rebuffer154
*1647 rebuffer155
*1648 rebuffer156
*1649 rebuffer157
*1650 rebuffer158
*1651 rebuffer159
*1652 rebuffer160
*1653 rebuffer161
*1654 rebuffer162
*1655 rebuffer163
*1656 rebuffer164
*1657 rebuffer165
*1658 rebuffer166
*1659 rebuffer167
*1660 rebuffer168
*1661 rebuffer169
*1662 rebuffer170
*1663 rebuffer171
*1664 rebuffer172
*1665 rebuffer173
*1666 rebuffer174
*1667 rebuffer175
*1668 rebuffer176
*1669 rebuffer177
*1670 rebuffer178
*1671 rebuffer179
*1672 rebuffer180
*1673 rebuffer181
*1674 rebuffer182
*1675 rebuffer183
*1676 rebuffer184
*1677 rebuffer185
*1678 rebuffer187
*1679 rebuffer188
*1680 rebuffer189
*1681 rebuffer195
*1682 rebuffer197
*1683 rebuffer198
*1684 rebuffer199
*1685 rebuffer200
*1686 rebuffer202
*1687 rebuffer203
*1688 rebuffer204
*1689 rebuffer205
*1690 rebuffer206
*1691 rebuffer207
*1692 rebuffer208
*1693 rebuffer209
*1694 rebuffer210
*1695 rebuffer211
*1696 rebuffer234
*1697 rebuffer235
*1698 rebuffer236
*1699 rebuffer237
*1700 rebuffer238
*1701 rebuffer244
*1702 rebuffer245
*1703 split
*1704 wire50

*PORTS
a[0] I
a[1] I
a[2] I
a[3] I
a[4] I
a[5] I
a[6] I
a[7] I
b[0] I
b[1] I
b[2] I
b[3] I
b[4] I
b[5] I
b[6] I
b[7] I
p[0] O
p[10] O
p[11] O
p[12] O
p[13] O
p[14] O
p[15] O
p[1] O
p[2] O
p[3] O
p[4] O
p[5] O
p[6] O
p[7] O
p[8] O
p[9] O

*D_NET *3 0.00194209
*CONN
*P a[0] I
*I *1544:A I *D sky130_fd_sc_hd__dlymetal6s2s_1
*CAP
1 a[0] 0.000542806
2 *1544:A 0.000542806
3 *1544:A *1545:A 0.000417479
4 *1544:A *544:37 0.000112577
5 *1544:A *636:27 0.00032642
*RES
1 a[0] *1544:A 25.913 
*END

*D_NET *4 0.00080382
*CONN
*P a[1] I
*I *1552:A I *D sky130_fd_sc_hd__dlymetal6s2s_1
*CAP
1 a[1] 0.00040191
2 *1552:A 0.00040191
3 *1552:A *1531:A 0
*RES
1 a[1] *1552:A 19.2345 
*END

*D_NET *5 0.00100586
*CONN
*P a[2] I
*I *1553:A I *D sky130_fd_sc_hd__buf_6
*CAP
1 a[2] 0.000273649
2 *1553:A 0.000273649
3 *1553:A *1547:A 0.000436223
4 *1553:A *555:18 2.23393e-05
*RES
1 a[2] *1553:A 18.6994 
*END

*D_NET *6 0.00130989
*CONN
*P a[3] I
*I *1554:A I *D sky130_fd_sc_hd__buf_8
*CAP
1 a[3] 0.00041014
2 *1554:A 0.00041014
3 *1554:A *1555:A 0.000489614
4 *1554:A *566:10 0
5 *1554:A *676:12 0
*RES
1 a[3] *1554:A 25.05 
*END

*D_NET *7 0.00239932
*CONN
*P a[4] I
*I *1555:A I *D sky130_fd_sc_hd__clkbuf_4
*CAP
1 a[4] 0.000954851
2 *1555:A 0.000954851
3 *1554:A *1555:A 0.000489614
*RES
1 a[4] *1555:A 31.0321 
*END

*D_NET *8 0.00257264
*CONN
*P a[5] I
*I *1556:A I *D sky130_fd_sc_hd__clkdlybuf4s25_1
*CAP
1 a[5] 0.000765288
2 *1556:A 0.000765288
3 *1556:A *1511:A 0.000212907
4 *1556:A *1532:A 5.33005e-05
5 *1556:A *1548:A 0
6 *1556:A *436:12 0.000230694
7 *1556:A *681:16 6.25702e-05
8 *1556:A *712:42 0.000482594
*RES
1 a[5] *1556:A 31.8893 
*END

*D_NET *9 0.00203282
*CONN
*P a[6] I
*I *1557:A I *D sky130_fd_sc_hd__clkdlybuf4s25_1
*CAP
1 a[6] 0.000812896
2 *1557:A 0.000812896
3 *1557:A *1510:A 9.25014e-06
4 *1557:A *1548:A 9.90367e-05
5 *1557:A *1551:A 0
6 *1557:A *1558:A 9.90367e-05
7 *1557:A *566:10 5.52238e-05
8 *1557:A *706:6 0.000144478
*RES
1 a[6] *1557:A 30.1036 
*END

*D_NET *10 0.00130424
*CONN
*P a[7] I
*I *1558:A I *D sky130_fd_sc_hd__clkdlybuf4s25_1
*CAP
1 a[7] 0.000575935
2 *1558:A 0.000575935
3 *1558:A *1551:A 0
4 *1558:A *706:6 5.33334e-05
5 *1557:A *1558:A 9.90367e-05
*RES
1 a[7] *1558:A 25.4607 
*END

*D_NET *11 0.00131394
*CONN
*P b[0] I
*I *1559:A I *D sky130_fd_sc_hd__clkdlybuf4s25_1
*CAP
1 b[0] 0.000494825
2 *1559:A 0.000494825
3 *1559:A p[0] 0.000165684
4 *1559:A p[2] 0.000158602
*RES
1 b[0] *1559:A 25.8888 
*END

*D_NET *12 0.00320304
*CONN
*P b[1] I
*I *1545:A I *D sky130_fd_sc_hd__clkbuf_2
*CAP
1 b[1] 0.00082121
2 *1545:A 0.00082121
3 *1545:A *1088:A 0.000154762
4 *1545:A *1172:A1_N 0.000137819
5 *1545:A *1503:A 5.38886e-05
6 *1545:A *532:23 6.80212e-05
7 *1545:A *533:14 2.78709e-05
8 *1545:A *544:37 0.000131514
9 *1545:A *714:24 0.000154762
10 *1545:A *714:37 0.000414502
11 *1544:A *1545:A 0.000417479
*RES
1 b[1] *1545:A 28.2772 
*END

*D_NET *13 0.000840826
*CONN
*P b[2] I
*I *1546:A I *D sky130_fd_sc_hd__dlymetal6s2s_1
*CAP
1 b[2] 0.000325616
2 *1546:A 0.000325616
3 *1546:A *1531:A 0
4 *1546:A *1547:A 0.000189593
*RES
1 b[2] *1546:A 19.2345 
*END

*D_NET *14 0.00107429
*CONN
*P b[3] I
*I *1547:A I *D sky130_fd_sc_hd__clkbuf_2
*CAP
1 b[3] 0.000213331
2 *1547:A 0.000213331
3 *1547:A *555:18 2.18087e-05
4 *1546:A *1547:A 0.000189593
5 *1553:A *1547:A 0.000436223
*RES
1 b[3] *1547:A 19.003 
*END

*D_NET *15 0.00189267
*CONN
*P b[4] I
*I *1548:A I *D sky130_fd_sc_hd__clkbuf_2
*CAP
1 b[4] 0.000644573
2 *1548:A 0.000644573
3 *1548:A *1510:A 5.52302e-05
4 *1548:A *1561:A 6.05161e-06
5 *1548:A *566:10 0.000224133
6 *1548:A *706:6 0.000219073
7 *1556:A *1548:A 0
8 *1557:A *1548:A 9.90367e-05
*RES
1 b[4] *1548:A 28.9964 
*END

*D_NET *16 0.000958888
*CONN
*P b[5] I
*I *1549:A I *D sky130_fd_sc_hd__clkdlybuf4s25_1
*CAP
1 b[5] 0.000265982
2 *1549:A 0.000265982
3 *1549:A *1550:A 0.000426924
*RES
1 b[5] *1549:A 18.9309 
*END

*D_NET *17 0.00101171
*CONN
*P b[6] I
*I *1550:A I *D sky130_fd_sc_hd__dlymetal6s2s_1
*CAP
1 b[6] 0.000292395
2 *1550:A 0.000292395
3 *1550:A *577:8 0
4 *1549:A *1550:A 0.000426924
*RES
1 b[6] *1550:A 19.2345 
*END

*D_NET *18 0.00202853
*CONN
*P b[7] I
*I *1551:A I *D sky130_fd_sc_hd__buf_12
*CAP
1 b[7] 0.000868353
2 *1551:A 0.000868353
3 *1551:A *1469:C 0
4 *1551:A *1488:B 3.18676e-05
5 *1551:A *1510:A 0
6 *1551:A *436:12 0.000259958
7 *1551:A *715:27 0
8 *1557:A *1551:A 0
9 *1558:A *1551:A 0
*RES
1 b[7] *1551:A 31.1571 
*END

*D_NET *19 0.00310457
*CONN
*P p[0] O
*I *1579:X O *D sky130_fd_sc_hd__clkdlybuf4s25_1
*CAP
1 p[0] 0.000986753
2 *1579:X 0.000986753
3 p[0] p[1] 0.000213048
4 p[0] p[2] 0.000752326
5 p[0] p[3] 0
6 p[0] *1540:A 0
7 *1559:A p[0] 0.000165684
*RES
1 *1579:X p[0] 38.4615 
*END

*D_NET *20 0.000843534
*CONN
*P p[10] O
*I *1580:X O *D sky130_fd_sc_hd__buf_6
*CAP
1 p[10] 0.000421767
2 *1580:X 0.000421767
*RES
1 *1580:X p[10] 21.7901 
*END

*D_NET *21 0.000971806
*CONN
*P p[11] O
*I *1581:X O *D sky130_fd_sc_hd__buf_6
*CAP
1 p[11] 0.000485903
2 *1581:X 0.000485903
*RES
1 *1581:X p[11] 24.3239 
*END

*D_NET *22 0.00140197
*CONN
*P p[12] O
*I *1582:X O *D sky130_fd_sc_hd__clkbuf_2
*CAP
1 p[12] 0.000461158
2 *1582:X 0.000461158
3 p[12] p[13] 0.000276962
4 p[12] *1463:A 5.33005e-05
5 p[12] *1463:B 5.52238e-05
6 p[12] *1582:A 9.41642e-05
*RES
1 *1582:X p[12] 23.3628 
*END

*D_NET *23 0.00142272
*CONN
*P p[13] O
*I *1583:X O *D sky130_fd_sc_hd__buf_6
*CAP
1 p[13] 0.000491495
2 *1583:X 0.000491495
3 p[13] *1463:B 8.46728e-05
4 p[13] *1583:A 0
5 p[13] *448:10 7.80929e-05
6 p[12] p[13] 0.000276962
*RES
1 *1583:X p[13] 22.9024 
*END

*D_NET *24 0.00170171
*CONN
*P p[14] O
*I *1584:X O *D sky130_fd_sc_hd__buf_6
*CAP
1 p[14] 0.000779431
2 *1584:X 0.000779431
3 p[14] *1636:A 0.00014285
*RES
1 *1584:X p[14] 28.4429 
*END

*D_NET *25 0.00140377
*CONN
*P p[15] O
*I *1585:X O *D sky130_fd_sc_hd__buf_6
*CAP
1 p[15] 0.000701886
2 *1585:X 0.000701886
*RES
1 *1585:X p[15] 27.05 
*END

*D_NET *26 0.00128473
*CONN
*P p[1] O
*I *1586:X O *D sky130_fd_sc_hd__clkdlybuf4s25_1
*CAP
1 p[1] 0.000476509
2 *1586:X 0.000476509
3 p[1] p[2] 1.36077e-05
4 p[1] *636:27 0.000105054
5 p[1] *704:44 0
6 p[0] p[1] 0.000213048
*RES
1 *1586:X p[1] 22.2702 
*END

*D_NET *27 0.00197626
*CONN
*P p[2] O
*I *1587:X O *D sky130_fd_sc_hd__buf_6
*CAP
1 p[2] 0.000525863
2 *1587:X 0.000525863
3 p[2] *641:89 0
4 p[0] p[2] 0.000752326
5 p[1] p[2] 1.36077e-05
6 *1559:A p[2] 0.000158602
*RES
1 *1587:X p[2] 27.9086 
*END

*D_NET *28 0.00173684
*CONN
*P p[3] O
*I *1588:X O *D sky130_fd_sc_hd__buf_6
*CAP
1 p[3] 0.000868421
2 *1588:X 0.000868421
3 p[0] p[3] 0
*RES
1 *1588:X p[3] 32.6726 
*END

*D_NET *29 0.00161009
*CONN
*P p[4] O
*I *1589:X O *D sky130_fd_sc_hd__clkdlybuf4s25_1
*CAP
1 p[4] 0.000805045
2 *1589:X 0.000805045
*RES
1 *1589:X p[4] 28.242 
*END

*D_NET *30 0.00249693
*CONN
*P p[5] O
*I *1590:X O *D sky130_fd_sc_hd__buf_6
*CAP
1 p[5] 0.00122085
2 *1590:X 0.00122085
3 p[5] *1083:A2 5.52302e-05
4 p[5] *1085:B 0
5 p[5] *1129:B2 0
*RES
1 *1590:X p[5] 35.492 
*END

*D_NET *31 0.00159076
*CONN
*P p[6] O
*I *1591:X O *D sky130_fd_sc_hd__buf_6
*CAP
1 p[6] 0.000737049
2 *1591:X 0.000737049
3 p[6] *104:10 0.000116657
*RES
1 *1591:X p[6] 28.4384 
*END

*D_NET *32 0.00167876
*CONN
*P p[7] O
*I *1592:X O *D sky130_fd_sc_hd__buf_6
*CAP
1 p[7] 0.000814958
2 *1592:X 0.000814958
3 p[7] *1680:A 4.884e-05
*RES
1 *1592:X p[7] 29.3848 
*END

*D_NET *33 0.000971345
*CONN
*P p[8] O
*I *1593:X O *D sky130_fd_sc_hd__buf_6
*CAP
1 p[8] 0.000485673
2 *1593:X 0.000485673
3 p[8] p[9] 0
*RES
1 *1593:X p[8] 24.359 
*END

*D_NET *34 0.0011402
*CONN
*P p[9] O
*I *1594:X O *D sky130_fd_sc_hd__clkbuf_2
*CAP
1 p[9] 0.000570099
2 *1594:X 0.000570099
3 p[8] p[9] 0
*RES
1 *1594:X p[9] 23.5593 
*END

*D_NET *35 0.00477795
*CONN
*I *1061:D1 I *D sky130_fd_sc_hd__o2111ai_2
*I *1060:C1 I *D sky130_fd_sc_hd__o211a_4
*I *1059:A1 I *D sky130_fd_sc_hd__a21oi_2
*I *1105:A2 I *D sky130_fd_sc_hd__a32o_2
*I *1056:Y O *D sky130_fd_sc_hd__o22ai_4
*CAP
1 *1061:D1 6.28974e-05
2 *1060:C1 0.000145832
3 *1059:A1 7.13065e-05
4 *1105:A2 0.000171669
5 *1056:Y 0.000608594
6 *35:47 0.000285173
7 *35:10 0.000775125
8 *1059:A1 *1059:A2 0.000142856
9 *1059:A1 *1125:A2 0.000191667
10 *1059:A1 *53:6 6.9276e-05
11 *1060:C1 *1056:A2 4.1331e-06
12 *1060:C1 *1060:A2 0.000110757
13 *1060:C1 *1070:D 4.58976e-05
14 *1060:C1 *36:10 1.76135e-05
15 *1060:C1 *39:12 5.52302e-05
16 *1060:C1 *79:20 4.43256e-05
17 *1060:C1 *523:28 7.79781e-06
18 *1061:D1 *1056:B1 4.43256e-05
19 *1061:D1 *1061:A2 5.33005e-05
20 *1105:A2 *1059:A2 0.000103412
21 *1105:A2 *1105:A1 1.33343e-05
22 *1105:A2 *1105:A3 1.3701e-05
23 *1105:A2 *1125:A1 2.14658e-05
24 *1105:A2 *1125:A2 0.000137983
25 *1105:A2 *1125:B1 0
26 *1105:A2 *53:6 2.95726e-05
27 *35:10 *1056:A1 0
28 *35:10 *1059:A2 0.00012401
29 *35:10 *1059:B1 0
30 *35:10 *1104:A2 0
31 *35:10 *1105:B2 1.00375e-05
32 *35:10 *37:10 0.00102146
33 *35:10 *79:20 0
34 *35:10 *627:8 6.42145e-05
35 *35:10 *627:23 0.000127039
36 *35:10 *646:56 0.000150618
37 *35:47 *1056:B1 5.33334e-05
*RES
1 *1056:Y *35:10 32.9964 
2 *35:10 *1105:A2 22.2643 
3 *35:10 *1059:A1 12.3357 
4 *1056:Y *35:47 10.9786 
5 *35:47 *1060:C1 21.9071 
6 *35:47 *1061:D1 10.6571 
*END

*D_NET *36 0.00372513
*CONN
*I *1060:A2 I *D sky130_fd_sc_hd__o211a_4
*I *1061:A2 I *D sky130_fd_sc_hd__o2111ai_2
*I *1057:X O *D sky130_fd_sc_hd__a41o_4
*CAP
1 *1060:A2 0.000178291
2 *1061:A2 0.00014384
3 *1057:X 0.000399052
4 *36:10 0.000721183
5 *1060:A2 *1070:D 6.26078e-05
6 *1060:A2 *79:20 9.41642e-05
7 *1060:A2 *523:28 0.000121573
8 *1061:A2 *1056:B1 0.000351156
9 *1061:A2 *1061:A1 3.57366e-05
10 *1061:A2 *1072:B 4.58194e-05
11 *36:10 *1051:A1 7.32955e-05
12 *36:10 *1056:A2 0
13 *36:10 *1057:A3 0.000117956
14 *36:10 *1057:A4 5.71472e-05
15 *36:10 *1057:B1 0.000232399
16 *36:10 *1109:A2 0.000484505
17 *36:10 *523:28 0.000385717
18 *36:10 *727:27 3.90148e-05
19 *1060:C1 *1060:A2 0.000110757
20 *1060:C1 *36:10 1.76135e-05
21 *1061:D1 *1061:A2 5.33005e-05
*RES
1 *1057:X *36:10 25.4786 
2 *36:10 *1061:A2 17.6393 
3 *36:10 *1060:A2 18.05 
*END

*D_NET *37 0.00375726
*CONN
*I *1059:A2 I *D sky130_fd_sc_hd__a21oi_2
*I *1105:A3 I *D sky130_fd_sc_hd__a32o_2
*I *1058:Y O *D sky130_fd_sc_hd__nand4_2
*CAP
1 *1059:A2 0.000111854
2 *1105:A3 7.7535e-05
3 *1058:Y 0.000471168
4 *37:10 0.000660556
5 *1059:A2 *1125:B1 0
6 *1059:A2 *53:6 0.000102207
7 *1105:A3 *1125:A1 5.33005e-05
8 *37:10 *1055:A2 6.26559e-05
9 *37:10 *1056:B2 7.48091e-05
10 *37:10 *1057:B1 0.000137983
11 *37:10 *1058:D 3.69047e-06
12 *37:10 *1105:A1 0.000429939
13 *37:10 *1125:B1 0
14 *37:10 *527:10 1.97381e-05
15 *37:10 *530:10 0.000146385
16 *37:10 *671:10 0
17 *1059:A1 *1059:A2 0.000142856
18 *1105:A2 *1059:A2 0.000103412
19 *1105:A2 *1105:A3 1.3701e-05
20 *35:10 *1059:A2 0.00012401
21 *35:10 *37:10 0.00102146
*RES
1 *1058:Y *37:10 29.1571 
2 *37:10 *1105:A3 15.6036 
3 *37:10 *1059:A2 17.5143 
*END

*D_NET *38 0.00194659
*CONN
*I *1072:A_N I *D sky130_fd_sc_hd__nand4b_4
*I *1071:A2 I *D sky130_fd_sc_hd__o22ai_4
*I *1059:Y O *D sky130_fd_sc_hd__a21oi_2
*CAP
1 *1072:A_N 3.01817e-05
2 *1071:A2 0.000193157
3 *1059:Y 0.000269849
4 *38:12 0.000493188
5 *1071:A2 *1059:B1 0
6 *1071:A2 *1104:A2 0
7 *1071:A2 *1104:B1 0.000392283
8 *1072:A_N *523:62 2.89016e-05
9 *38:12 *1059:B1 0.000104997
10 *38:12 *1104:B1 8.79776e-05
11 *38:12 *1125:A1 0.000104227
12 *38:12 *1125:A2 0.000182694
13 *38:12 *51:8 0
14 *38:12 *53:6 5.91336e-05
*RES
1 *1059:Y *38:12 20.8893 
2 *38:12 *1071:A2 18.7821 
3 *38:12 *1072:A_N 14.3357 
*END

*D_NET *39 0.00193425
*CONN
*I *1104:B1 I *D sky130_fd_sc_hd__a21oi_4
*I *1071:A1 I *D sky130_fd_sc_hd__o22ai_4
*I *1060:X O *D sky130_fd_sc_hd__o211a_4
*CAP
1 *1104:B1 0.000184985
2 *1071:A1 0
3 *1060:X 0.000156385
4 *39:12 0.00034137
5 *1104:B1 *1072:B 0
6 *1104:B1 *50:12 0
7 *1104:B1 *51:8 5.48488e-05
8 *1104:B1 *79:20 0
9 *1104:B1 *523:30 0.00015304
10 *1104:B1 *523:62 0.000216771
11 *39:12 *1070:D 0.00010096
12 *39:12 *79:20 1.55885e-05
13 *39:12 *523:28 1.02504e-05
14 *39:12 *523:30 0.000164561
15 *1060:C1 *39:12 5.52302e-05
16 *1071:A2 *1104:B1 0.000392283
17 *38:12 *1104:B1 8.79776e-05
*RES
1 *1060:X *39:12 17.5321 
2 *39:12 *1071:A1 13.8 
3 *39:12 *1104:B1 21.2107 
*END

*D_NET *40 0.00175715
*CONN
*I *1072:B I *D sky130_fd_sc_hd__nand4b_4
*I *1061:Y O *D sky130_fd_sc_hd__o2111ai_2
*CAP
1 *1072:B 0.000488142
2 *1061:Y 0.000488142
3 *1072:B *1060:A1 4.48206e-05
4 *1072:B *1061:B1 1.19402e-05
5 *1072:B *1061:C1 3.34366e-05
6 *1072:B *44:12 0
7 *1072:B *44:21 0
8 *1072:B *50:12 0.000369825
9 *1072:B *79:20 5.51406e-05
10 *1072:B *523:28 2.28428e-05
11 *1072:B *523:30 0.000113372
12 *1072:B *523:62 8.36642e-05
13 *1061:A2 *1072:B 4.58194e-05
14 *1104:B1 *1072:B 0
*RES
1 *1061:Y *1072:B 38.6893 
*END

*D_NET *41 0.00277407
*CONN
*I *1069:C I *D sky130_fd_sc_hd__and3_4
*I *1067:B1 I *D sky130_fd_sc_hd__a21oi_2
*I *1062:Y O *D sky130_fd_sc_hd__nor2_2
*CAP
1 *1069:C 0.00023904
2 *1067:B1 0.000500261
3 *1062:Y 0
4 *41:4 0.000739301
5 *1067:B1 *1023:A2 8.91726e-05
6 *1067:B1 *1062:B 0.000237521
7 *1067:B1 *1067:A2 0
8 *1067:B1 *1068:A2_N 0
9 *1067:B1 *1072:C 0
10 *1067:B1 *1072:D 0
11 *1067:B1 *44:6 5.52238e-05
12 *1067:B1 *45:14 0
13 *1067:B1 *326:39 0.000694068
14 *1067:B1 *705:41 3.18676e-05
15 *1069:C *1069:A 0.000187612
*RES
1 *1062:Y *41:4 9.3 
2 *41:4 *1067:B1 30.8 
3 *41:4 *1069:C 14.0857 
*END

*D_NET *42 0.000794293
*CONN
*I *1065:C1 I *D sky130_fd_sc_hd__o211ai_4
*I *1063:Y O *D sky130_fd_sc_hd__nand2_2
*CAP
1 *1065:C1 0.000203398
2 *1063:Y 0.000203398
3 *1065:C1 *1023:A1 7.38536e-05
4 *1065:C1 *326:39 7.35585e-05
5 *1065:C1 *705:41 5.52302e-05
6 *1065:C1 *734:57 0.000184855
*RES
1 *1063:Y *1065:C1 32.8143 
*END

*D_NET *43 0.00129908
*CONN
*I *1066:D I *D sky130_fd_sc_hd__nand4_4
*I *1086:A4 I *D sky130_fd_sc_hd__a41o_2
*I *1064:Y O *D sky130_fd_sc_hd__nand2_4
*CAP
1 *1066:D 0
2 *1086:A4 0.000107474
3 *1064:Y 0.000163677
4 *43:10 0.00027115
5 *1086:A4 *1070:D 0
6 *1086:A4 *1086:B1 9.26004e-05
7 *1086:A4 *64:12 0.000150625
8 *1086:A4 *261:38 5.83304e-05
9 *1086:A4 *326:39 1.3142e-05
10 *43:10 *1062:A 4.80729e-05
11 *43:10 *64:12 0.000216771
12 *43:10 *261:38 0.000177234
*RES
1 *1064:Y *43:10 18.0143 
2 *43:10 *1086:A4 17.0143 
3 *43:10 *1066:D 13.8 
*END

*D_NET *44 0.00467128
*CONN
*I *1067:A1 I *D sky130_fd_sc_hd__a21oi_2
*I *1069:A I *D sky130_fd_sc_hd__and3_4
*I *1068:A1_N I *D sky130_fd_sc_hd__o2bb2ai_4
*I *1070:A I *D sky130_fd_sc_hd__nand4_2
*I *1065:Y O *D sky130_fd_sc_hd__o211ai_4
*CAP
1 *1067:A1 3.5677e-05
2 *1069:A 0.00086719
3 *1068:A1_N 0
4 *1070:A 0
5 *1065:Y 0.000184237
6 *44:21 0.00104082
7 *44:12 0.000451848
8 *44:6 0.000498134
9 *1067:A1 *705:41 3.08382e-06
10 *1067:A1 *705:58 1.21436e-05
11 *1069:A *1069:B 3.14048e-05
12 *1069:A *1072:C 5.57727e-05
13 *1069:A *50:12 5.38886e-05
14 *44:6 *705:41 7.99256e-05
15 *44:12 *1061:B1 0.000177948
16 *44:12 *1071:B1 0.000342495
17 *44:12 *705:41 5.04705e-05
18 *44:12 *705:58 9.60875e-05
19 *44:21 *1060:A1 0.000125724
20 *44:21 *1071:B1 0.000197269
21 *44:21 *1072:C 5.7599e-05
22 *44:21 *1686:A 1.41029e-05
23 *44:21 *50:12 5.26277e-05
24 *1067:B1 *44:6 5.52238e-05
25 *1069:C *1069:A 0.000187612
26 *1072:B *44:12 0
27 *1072:B *44:21 0
*RES
1 *1065:Y *44:6 12.3 
2 *44:6 *44:12 11.0536 
3 *44:12 *1070:A 13.8 
4 *44:12 *44:21 4.98214 
5 *44:21 *1068:A1_N 13.8 
6 *44:21 *1069:A 25.3179 
7 *44:6 *1067:A1 10.0321 
*END

*D_NET *45 0.0037224
*CONN
*I *1069:B I *D sky130_fd_sc_hd__and3_4
*I *1068:A2_N I *D sky130_fd_sc_hd__o2bb2ai_4
*I *1070:B I *D sky130_fd_sc_hd__nand4_2
*I *1067:A2 I *D sky130_fd_sc_hd__a21oi_2
*I *1066:Y O *D sky130_fd_sc_hd__nand4_4
*CAP
1 *1069:B 0.000201984
2 *1068:A2_N 0.000473003
3 *1070:B 0
4 *1067:A2 0.000214489
5 *1066:Y 0.0003592
6 *45:14 0.000363455
7 *45:8 0.000779185
8 *1067:A2 *1023:A2 0
9 *1067:A2 *1023:B1 0
10 *1067:A2 *1070:D 2.89114e-05
11 *1067:A2 *1686:A 0.000128154
12 *1067:A2 *646:10 0.000246064
13 *1068:A2_N *1072:C 7.13281e-05
14 *1069:B *1037:B1 0
15 *1069:B *1064:A 0.000153047
16 *1069:B *56:10 0.000369811
17 *1069:B *503:8 0
18 *45:8 *261:34 0.000225609
19 *45:14 *1070:D 5.33334e-05
20 *45:14 *1072:C 2.34204e-05
21 *45:14 *1686:A 0
22 *1067:B1 *1067:A2 0
23 *1067:B1 *1068:A2_N 0
24 *1067:B1 *45:14 0
25 *1069:A *1069:B 3.14048e-05
*RES
1 *1066:Y *45:8 15.9786 
2 *45:8 *45:14 7.39286 
3 *45:14 *1067:A2 23.5143 
4 *45:14 *1070:B 9.3 
5 *45:8 *1068:A2_N 21.3179 
6 *1066:Y *1069:B 33.225 
*END

*D_NET *46 0.00206598
*CONN
*I *1071:B1 I *D sky130_fd_sc_hd__o22ai_4
*I *1067:Y O *D sky130_fd_sc_hd__a21oi_2
*CAP
1 *1071:B1 0.000345185
2 *1067:Y 0.000345185
3 *1071:B1 *1061:B1 2.76674e-05
4 *1071:B1 *1686:A 0.000305922
5 *1071:B1 *1693:A 3.23542e-05
6 *1071:B1 *646:10 0.000314916
7 *1071:B1 *705:41 0.000142856
8 *1071:B1 *705:58 1.21258e-05
9 *44:12 *1071:B1 0.000342495
10 *44:21 *1071:B1 0.000197269
*RES
1 *1067:Y *1071:B1 37.3857 
*END

*D_NET *47 0.000296633
*CONN
*I *1072:D I *D sky130_fd_sc_hd__nand4b_4
*I *1068:Y O *D sky130_fd_sc_hd__o2bb2ai_4
*CAP
1 *1072:D 0.000110854
2 *1068:Y 0.000110854
3 *1072:D *1062:B 0
4 *1072:D *1072:C 7.49239e-05
5 *1067:B1 *1072:D 0
*RES
1 *1068:Y *1072:D 30.1536 
*END

*D_NET *48 0.0024959
*CONN
*I *1071:B2 I *D sky130_fd_sc_hd__o22ai_4
*I *1086:B1 I *D sky130_fd_sc_hd__a41o_2
*I *1069:X O *D sky130_fd_sc_hd__and3_4
*CAP
1 *1071:B2 0.000415217
2 *1086:B1 0.000122182
3 *1069:X 0.00015134
4 *48:8 0.000688739
5 *1071:B2 *1033:A1 2.59355e-05
6 *1071:B2 *1686:A 5.33005e-05
7 *1071:B2 *50:12 0
8 *1071:B2 *261:34 0.000180515
9 *1086:B1 *1064:B 7.79781e-06
10 *1086:B1 *1066:C 0.000225314
11 *1086:B1 *1070:C 5.62995e-05
12 *1086:B1 *261:38 7.90803e-05
13 *1086:B1 *326:39 0
14 *48:8 *1062:A 0.000197984
15 *48:8 *1064:B 5.57914e-05
16 *48:8 *56:10 0
17 *48:8 *261:38 0.000143804
18 *1086:A4 *1086:B1 9.26004e-05
*RES
1 *1069:X *48:8 18.175 
2 *48:8 *1086:B1 17.9071 
3 *48:8 *1071:B2 20.5143 
*END

*D_NET *49 0.00106092
*CONN
*I *1072:C I *D sky130_fd_sc_hd__nand4b_4
*I *1070:Y O *D sky130_fd_sc_hd__nand4_2
*CAP
1 *1072:C 0.000286269
2 *1070:Y 0.000286269
3 *1072:C *1070:D 5.71472e-05
4 *1072:C *1686:A 0.000148189
5 *1072:C *50:12 0
6 *1067:B1 *1072:C 0
7 *1068:A2_N *1072:C 7.13281e-05
8 *1069:A *1072:C 5.57727e-05
9 *1072:D *1072:C 7.49239e-05
10 *44:21 *1072:C 5.7599e-05
11 *45:14 *1072:C 2.34204e-05
*RES
1 *1070:Y *1072:C 34.9393 
*END

*D_NET *50 0.0054169
*CONN
*I *1075:A1 I *D sky130_fd_sc_hd__a21oi_4
*I *1079:A1 I *D sky130_fd_sc_hd__a31o_4
*I *1076:A I *D sky130_fd_sc_hd__and3_4
*I *1074:B I *D sky130_fd_sc_hd__and2_4
*I *1071:Y O *D sky130_fd_sc_hd__o22ai_4
*CAP
1 *1075:A1 0.000149035
2 *1079:A1 8.24423e-05
3 *1076:A 3.44262e-05
4 *1074:B 0.000487845
5 *1071:Y 0.000441234
6 *50:38 0.000370983
7 *50:16 0.000678893
8 *50:12 0.00073736
9 *1074:B *1074:A 0.000263229
10 *1074:B *1125:B1 0
11 *1074:B *51:21 3.48705e-05
12 *1074:B *586:6 0.000271345
13 *1075:A1 *1075:A2 9.57064e-05
14 *1075:A1 *1127:A1 2.89114e-05
15 *1075:A1 *51:41 2.58997e-05
16 *1075:A1 *54:8 0
17 *1076:A *51:21 9.76223e-06
18 *1079:A1 *1079:A2 0.000126639
19 *1079:A1 *1079:B1 1.74352e-05
20 *1079:A1 *64:24 0.000274294
21 *50:12 *1081:A2 0.000229443
22 *50:12 *1129:A2_N 0
23 *50:12 *51:8 0.000262719
24 *50:12 *261:34 3.4879e-05
25 *50:16 *1076:B 0.000137983
26 *50:16 *51:21 3.30237e-05
27 *50:38 *1129:A2_N 0
28 *50:38 *51:8 2.39876e-05
29 *50:38 *51:41 8.82117e-05
30 *50:38 *54:12 0
31 *1069:A *50:12 5.38886e-05
32 *1071:B2 *50:12 0
33 *1072:B *50:12 0.000369825
34 *1072:C *50:12 0
35 *1104:B1 *50:12 0
36 *44:21 *50:12 5.26277e-05
*RES
1 *1071:Y *50:12 26.5321 
2 *50:12 *50:16 6.67857 
3 *50:16 *1074:B 25.8179 
4 *50:16 *1076:A 10.0321 
5 *50:12 *50:38 2.85714 
6 *50:38 *1079:A1 17.1214 
7 *50:38 *1075:A1 17.1929 
*END

*D_NET *51 0.00393731
*CONN
*I *1075:A2 I *D sky130_fd_sc_hd__a21oi_4
*I *1079:A2 I *D sky130_fd_sc_hd__a31o_4
*I *1640:A I *D sky130_fd_sc_hd__buf_6
*I *1074:A I *D sky130_fd_sc_hd__and2_4
*I *1076:C I *D sky130_fd_sc_hd__and3_4
*I *1072:Y O *D sky130_fd_sc_hd__nand4b_4
*CAP
1 *1075:A2 8.78795e-05
2 *1079:A2 9.26775e-05
3 *1640:A 0
4 *1074:A 0.000216629
5 *1076:C 0
6 *1072:Y 0.000230075
7 *51:41 0.000282983
8 *51:21 0.000300352
9 *51:10 8.37231e-05
10 *51:8 0.000332501
11 *1074:A *1125:A1 0
12 *1074:A *1125:B1 0
13 *1074:A *107:12 0.000256708
14 *1074:A *586:6 0.000230482
15 *1075:A2 *1127:A1 0
16 *1079:A2 *1079:B1 0.000188586
17 *1079:A2 *64:24 2.95726e-05
18 *51:8 *1081:A1 0.000172375
19 *51:8 *1125:A1 0
20 *51:21 *1076:B 2.59355e-05
21 *51:21 *107:12 0.000227526
22 *51:41 *1081:A1 0.000160403
23 *51:41 *1125:A1 0
24 *51:41 *1127:A1 0
25 *1074:B *1074:A 0.000263229
26 *1074:B *51:21 3.48705e-05
27 *1075:A1 *1075:A2 9.57064e-05
28 *1075:A1 *51:41 2.58997e-05
29 *1076:A *51:21 9.76223e-06
30 *1079:A1 *1079:A2 0.000126639
31 *1104:B1 *51:8 5.48488e-05
32 *38:12 *51:8 0
33 *50:12 *51:8 0.000262719
34 *50:16 *51:21 3.30237e-05
35 *50:38 *51:8 2.39876e-05
36 *50:38 *51:41 8.82117e-05
*RES
1 *1072:Y *51:8 20.6036 
2 *51:8 *51:10 4.5 
3 *51:10 *1076:C 9.3 
4 *51:10 *51:21 3.03571 
5 *51:21 *1074:A 25.1929 
6 *51:21 *1640:A 9.3 
7 *51:8 *51:41 2.85714 
8 *51:41 *1079:A2 16.8 
9 *51:41 *1075:A2 16.05 
*END

*D_NET *52 0.00181149
*CONN
*I *1122:B I *D sky130_fd_sc_hd__nand3_4
*I *1073:Y O *D sky130_fd_sc_hd__inv_2
*CAP
1 *1122:B 0.000670003
2 *1073:Y 0.000670003
3 *1122:B *1073:A 0
4 *1122:B *1117:B 6.16864e-05
5 *1122:B *1122:A 4.70078e-05
6 *1122:B *1136:A1 0.000171375
7 *1122:B *82:33 9.34004e-05
8 *1122:B *83:14 0
9 *1122:B *93:8 0
10 *1122:B *100:10 9.80173e-05
*RES
1 *1073:Y *1122:B 39.9929 
*END

*D_NET *53 0.00291166
*CONN
*I *1082:A1 I *D sky130_fd_sc_hd__o2111ai_4
*I *1638:A I *D sky130_fd_sc_hd__buf_2
*I *1074:X O *D sky130_fd_sc_hd__and2_4
*CAP
1 *1082:A1 0.000583069
2 *1638:A 2.23854e-05
3 *1074:X 0.00040822
4 *53:6 0.00101368
5 *1082:A1 *1081:B1 0.000116659
6 *1082:A1 *1081:C1 0.000184745
7 *1082:A1 *1129:B1 0.00018077
8 *1082:A1 *1695:A 6.57914e-05
9 *53:6 *1059:B1 2.89016e-05
10 *53:6 *1125:A2 4.72487e-05
11 *1059:A1 *53:6 6.9276e-05
12 *1059:A2 *53:6 0.000102207
13 *1105:A2 *53:6 2.95726e-05
14 *38:12 *53:6 5.91336e-05
*RES
1 *1074:X *53:6 16.8179 
2 *53:6 *1638:A 9.72857 
3 *53:6 *1082:A1 19.7107 
*END

*D_NET *54 0.00318961
*CONN
*I *1078:A1 I *D sky130_fd_sc_hd__o21ai_4
*I *1080:B I *D sky130_fd_sc_hd__nor3b_4
*I *1081:A2 I *D sky130_fd_sc_hd__o211ai_4
*I *1075:Y O *D sky130_fd_sc_hd__a21oi_4
*CAP
1 *1078:A1 0.000278801
2 *1080:B 0
3 *1081:A2 0.000251126
4 *1075:Y 0.000101439
5 *54:12 0.000588142
6 *54:8 0.000717256
7 *1078:A1 *1079:A3 9.90367e-05
8 *1078:A1 *1079:B1 5.72899e-05
9 *1078:A1 *1081:C1 5.52302e-05
10 *1078:A1 *56:38 0.000125412
11 *1078:A1 *64:24 0.000310292
12 *1081:A2 *1129:A2_N 0
13 *1081:A2 *59:10 7.50473e-05
14 *54:8 *514:31 1.19402e-05
15 *54:8 *514:44 5.0725e-05
16 *54:12 *1076:B 4.48206e-05
17 *54:12 *1080:A 0
18 *54:12 *1081:C1 0
19 *54:12 *1129:A2_N 0.000103295
20 *54:12 *1129:B1 0
21 *54:12 *59:10 6.19181e-05
22 *54:12 *514:31 2.83916e-05
23 *1075:A1 *54:8 0
24 *50:12 *1081:A2 0.000229443
25 *50:38 *54:12 0
*RES
1 *1075:Y *54:8 16.05 
2 *54:8 *54:12 11.6071 
3 *54:12 *1081:A2 24.1571 
4 *54:12 *1080:B 9.3 
5 *54:8 *1078:A1 20.5143 
*END

*D_NET *55 0.00275218
*CONN
*I *1078:A2 I *D sky130_fd_sc_hd__o21ai_4
*I *1080:A I *D sky130_fd_sc_hd__nor3b_4
*I *1076:X O *D sky130_fd_sc_hd__and3_4
*CAP
1 *1078:A2 0.000177702
2 *1080:A 0.000225778
3 *1076:X 0.00010142
4 *55:6 0.0005049
5 *1078:A2 *1129:A1_N 7.47337e-05
6 *1078:A2 *1129:B2 0.000197991
7 *1078:A2 *64:12 0
8 *1078:A2 *107:12 1.33343e-05
9 *1078:A2 *514:16 0.000114655
10 *1078:A2 *514:44 0
11 *1080:A *1081:C1 6.1684e-05
12 *1080:A *1129:A1_N 1.04232e-05
13 *1080:A *1129:B1 0.000101545
14 *1080:A *64:12 0.00038671
15 *55:6 *1076:B 0.000184797
16 *55:6 *1129:A1_N 0.000110067
17 *55:6 *107:12 0.000486441
18 *54:12 *1080:A 0
*RES
1 *1076:X *55:6 13.9429 
2 *55:6 *1080:A 23.7107 
3 *55:6 *1078:A2 23.0321 
*END

*D_NET *56 0.00612613
*CONN
*I *1078:B1 I *D sky130_fd_sc_hd__o21ai_4
*I *1079:B1 I *D sky130_fd_sc_hd__a31o_4
*I *1082:A2 I *D sky130_fd_sc_hd__o2111ai_4
*I *1080:C_N I *D sky130_fd_sc_hd__nor3b_4
*I *1077:X O *D sky130_fd_sc_hd__a31o_2
*CAP
1 *1078:B1 2.23854e-05
2 *1079:B1 0.000300826
3 *1082:A2 0
4 *1080:C_N 0.000266217
5 *1077:X 0.000548177
6 *56:38 0.000781812
7 *56:25 0.000679782
8 *56:10 0.00103558
9 *1079:B1 *1079:A3 5.33334e-05
10 *1079:B1 *1081:C1 2.89114e-05
11 *1079:B1 *64:24 2.07382e-05
12 *1080:C_N *1643:A 2.89016e-05
13 *56:10 *1026:C 0.000132967
14 *56:10 *1027:A1 1.21258e-05
15 *56:10 *1037:B1 0
16 *56:10 *1064:A 9.74684e-05
17 *56:10 *1064:B 0
18 *56:10 *1070:C 3.80385e-05
19 *56:10 *1086:A3 0.000271345
20 *56:10 *64:12 0
21 *56:10 *514:10 0
22 *56:10 *622:66 0.000700652
23 *56:25 *1643:A 0.000197991
24 *56:25 *1694:A 0
25 *56:25 *64:12 0
26 *56:25 *514:10 0
27 *56:38 *1083:A1 0
28 *56:38 *1083:A2 0
29 *56:38 *1129:B1 0
30 *56:38 *1129:B2 8.95956e-05
31 *56:38 *1643:A 6.07532e-05
32 *56:38 *64:12 0
33 *1069:B *56:10 0.000369811
34 *1078:A1 *1079:B1 5.72899e-05
35 *1078:A1 *56:38 0.000125412
36 *1079:A1 *1079:B1 1.74352e-05
37 *1079:A2 *1079:B1 0.000188586
38 *48:8 *56:10 0
*RES
1 *1077:X *56:10 29.425 
2 *56:10 *1080:C_N 18.05 
3 *56:10 *56:25 4.10714 
4 *56:25 *1082:A2 13.8 
5 *56:25 *56:38 13.1964 
6 *56:38 *1079:B1 15.175 
7 *56:38 *1078:B1 9.72857 
*END

*D_NET *57 0.0013562
*CONN
*I *1081:C1 I *D sky130_fd_sc_hd__o211ai_4
*I *1078:Y O *D sky130_fd_sc_hd__o21ai_4
*CAP
1 *1081:C1 0.000243878
2 *1078:Y 0.000243878
3 *1081:C1 *1076:B 0.000123288
4 *1081:C1 *1129:B1 5.59013e-05
5 *1081:C1 *1695:A 0.000186669
6 *1081:C1 *64:12 4.11876e-05
7 *1081:C1 *514:31 0.000121573
8 *1081:C1 *514:44 9.25014e-06
9 *1078:A1 *1081:C1 5.52302e-05
10 *1079:B1 *1081:C1 2.89114e-05
11 *1080:A *1081:C1 6.1684e-05
12 *1082:A1 *1081:C1 0.000184745
13 *54:12 *1081:C1 0
*RES
1 *1078:Y *1081:C1 34.5821 
*END

*D_NET *58 0.00406183
*CONN
*I *1081:A1 I *D sky130_fd_sc_hd__o211ai_4
*I *1127:B1 I *D sky130_fd_sc_hd__o2111ai_4
*I *1125:B1 I *D sky130_fd_sc_hd__o21a_2
*I *1079:X O *D sky130_fd_sc_hd__a31o_4
*CAP
1 *1081:A1 0.00021972
2 *1127:B1 2.23854e-05
3 *1125:B1 0.000603913
4 *1079:X 0
5 *58:8 0.000825338
6 *58:4 0.000418759
7 *1081:A1 *1125:A1 0
8 *1081:A1 *1127:A2 0
9 *1081:A1 *64:24 4.18895e-05
10 *1125:B1 *1073:A 0
11 *1125:B1 *1105:B1 9.25014e-06
12 *1125:B1 *1125:A1 0.000144773
13 *1125:B1 *1125:A2 0
14 *1125:B1 *1126:B1 0
15 *1125:B1 *1132:B 0.000193125
16 *1125:B1 *64:24 0.00027843
17 *1125:B1 *82:14 0.00011309
18 *1125:B1 *83:14 9.7659e-05
19 *1127:B1 *1127:A2 0
20 *58:8 *1127:A2 0.0001399
21 *58:8 *64:24 0.000620822
22 *1059:A2 *1125:B1 0
23 *1074:A *1125:B1 0
24 *1074:B *1125:B1 0
25 *1105:A2 *1125:B1 0
26 *37:10 *1125:B1 0
27 *51:8 *1081:A1 0.000172375
28 *51:41 *1081:A1 0.000160403
*RES
1 *1079:X *58:4 9.3 
2 *58:4 *58:8 6.30357 
3 *58:8 *1125:B1 31.8179 
4 *58:8 *1127:B1 9.72857 
5 *58:4 *1081:A1 23.2107 
*END

*D_NET *59 0.00153746
*CONN
*I *1129:A2_N I *D sky130_fd_sc_hd__a2bb2oi_4
*I *1695:A I *D sky130_fd_sc_hd__buf_2
*I *1080:Y O *D sky130_fd_sc_hd__nor3b_4
*CAP
1 *1129:A2_N 0.000119917
2 *1695:A 8.78147e-05
3 *1080:Y 0.000202577
4 *59:10 0.000410309
5 *1695:A *1081:B1 0.000125088
6 *1695:A *1129:B1 9.90367e-05
7 *1081:A2 *1129:A2_N 0
8 *1081:A2 *59:10 7.50473e-05
9 *1081:C1 *1695:A 0.000186669
10 *1082:A1 *1695:A 6.57914e-05
11 *50:12 *1129:A2_N 0
12 *50:38 *1129:A2_N 0
13 *54:12 *1129:A2_N 0.000103295
14 *54:12 *59:10 6.19181e-05
*RES
1 *1080:Y *59:10 17.2107 
2 *59:10 *1695:A 17.2286 
3 *59:10 *1129:A2_N 16.3536 
*END

*D_NET *60 0.0020055
*CONN
*I *1639:A I *D sky130_fd_sc_hd__buf_2
*I *1129:B1 I *D sky130_fd_sc_hd__a2bb2oi_4
*I *1081:Y O *D sky130_fd_sc_hd__o211ai_4
*CAP
1 *1639:A 0.000211583
2 *1129:B1 0.000504426
3 *1081:Y 0.000292842
4 *1129:B1 *1081:B1 0.00010096
5 *1129:B1 *1129:B2 4.1331e-06
6 *1129:B1 *64:12 6.42242e-05
7 *1639:A *1042:A2 5.33433e-05
8 *1639:A *1042:B1_N 0
9 *1639:A *1083:A1 2.89016e-05
10 *1639:A *1129:A1_N 0.000227532
11 *1639:A *514:16 8.03013e-05
12 *1080:A *1129:B1 0.000101545
13 *1081:C1 *1129:B1 5.59013e-05
14 *1082:A1 *1129:B1 0.00018077
15 *1695:A *1129:B1 9.90367e-05
16 *54:12 *1129:B1 0
17 *56:38 *1129:B1 0
*RES
1 *1081:Y *1129:B1 42.2964 
2 *1129:B1 *1639:A 23.6893 
*END

*D_NET *61 0.00277584
*CONN
*I *1083:A2 I *D sky130_fd_sc_hd__o21ai_4
*I *1129:A1_N I *D sky130_fd_sc_hd__a2bb2oi_4
*I *1082:Y O *D sky130_fd_sc_hd__o2111ai_4
*CAP
1 *1083:A2 0.000165464
2 *1129:A1_N 0.000590609
3 *1082:Y 0.000120837
4 *61:10 0.00087691
5 *1083:A2 *1083:A1 0.000175519
6 *1083:A2 *1083:B1 0
7 *1083:A2 *1085:B 0
8 *1083:A2 *1643:A 1.59782e-05
9 *1083:A2 *514:10 2.66026e-05
10 *1129:A1_N *1076:B 3.22063e-05
11 *1129:A1_N *514:16 2.2285e-05
12 *61:10 *1081:B1 0.000142856
13 *61:10 *1082:B1 3.34366e-05
14 *61:10 *1643:A 5.35423e-05
15 *61:10 *514:10 4.16021e-05
16 p[5] *1083:A2 5.52302e-05
17 *1078:A2 *1129:A1_N 7.47337e-05
18 *1080:A *1129:A1_N 1.04232e-05
19 *1639:A *1129:A1_N 0.000227532
20 *55:6 *1129:A1_N 0.000110067
21 *56:38 *1083:A2 0
*RES
1 *1082:Y *61:10 17.1036 
2 *61:10 *1129:A1_N 22.175 
3 *61:10 *1083:A2 17.8 
*END

*D_NET *62 0.000958839
*CONN
*I *1085:B I *D sky130_fd_sc_hd__xnor2_2
*I *1083:Y O *D sky130_fd_sc_hd__o21ai_4
*CAP
1 *1085:B 0.000282362
2 *1083:Y 0.000282362
3 *1085:B *1083:B1 3.51442e-05
4 *1085:B *1590:A 0
5 *1085:B *63:6 0.000358971
6 p[5] *1085:B 0
7 *1083:A2 *1085:B 0
*RES
1 *1083:Y *1085:B 33.5643 
*END

*D_NET *63 0.00259913
*CONN
*I *1085:A I *D sky130_fd_sc_hd__xnor2_2
*I *1129:B2 I *D sky130_fd_sc_hd__a2bb2oi_4
*I *1084:Y O *D sky130_fd_sc_hd__o21ai_4
*CAP
1 *1085:A 2.23854e-05
2 *1129:B2 0.000309502
3 *1084:Y 0.000440938
4 *63:6 0.000772825
5 *1129:B2 *64:12 0
6 *1129:B2 *514:44 0
7 *63:6 *1590:A 0.000402784
8 p[5] *1129:B2 0
9 *1078:A2 *1129:B2 0.000197991
10 *1085:B *63:6 0.000358971
11 *1129:B1 *1129:B2 4.1331e-06
12 *56:38 *1129:B2 8.95956e-05
*RES
1 *1084:Y *63:6 18.8714 
2 *63:6 *1129:B2 24.7464 
3 *63:6 *1085:A 9.72857 
*END

*D_NET *64 0.00801156
*CONN
*I *1124:B I *D sky130_fd_sc_hd__nand3_4
*I *1123:B1 I *D sky130_fd_sc_hd__a21o_4
*I *1086:X O *D sky130_fd_sc_hd__a41o_2
*CAP
1 *1124:B 0
2 *1123:B1 0.000105769
3 *1086:X 0.000593034
4 *64:24 0.00149942
5 *64:12 0.00198668
6 *1123:B1 *1123:A2 0.000140361
7 *1123:B1 *1126:B1 1.31516e-05
8 *1123:B1 *99:8 1.02504e-05
9 *1123:B1 *100:23 0
10 *64:12 *1062:A 8.56716e-05
11 *64:12 *1062:B 0.000271958
12 *64:12 *1070:C 5.39629e-06
13 *64:12 *1694:A 5.57727e-05
14 *64:12 *326:39 0.000265385
15 *64:24 *1118:A2 1.24368e-05
16 *64:24 *1124:A 0.000130216
17 *64:24 *105:10 0.000400504
18 *1078:A1 *64:24 0.000310292
19 *1078:A2 *64:12 0
20 *1079:A1 *64:24 0.000274294
21 *1079:A2 *64:24 2.95726e-05
22 *1079:B1 *64:24 2.07382e-05
23 *1080:A *64:12 0.00038671
24 *1081:A1 *64:24 4.18895e-05
25 *1081:C1 *64:12 4.11876e-05
26 *1086:A4 *64:12 0.000150625
27 *1125:B1 *64:24 0.00027843
28 *1129:B1 *64:12 6.42242e-05
29 *1129:B2 *64:12 0
30 *43:10 *64:12 0.000216771
31 *56:10 *64:12 0
32 *56:25 *64:12 0
33 *56:38 *64:12 0
34 *58:8 *64:24 0.000620822
*RES
1 *1086:X *64:12 34.4429 
2 *64:12 *64:24 23.0179 
3 *64:24 *1123:B1 20.55 
4 *64:24 *1124:B 9.3 
*END

*D_NET *65 0.0046386
*CONN
*I *1092:A2 I *D sky130_fd_sc_hd__a21oi_4
*I *1169:D1 I *D sky130_fd_sc_hd__o2111ai_2
*I *1168:D1 I *D sky130_fd_sc_hd__o2111a_2
*I *1087:X O *D sky130_fd_sc_hd__and2_2
*CAP
1 *1092:A2 0.000403271
2 *1169:D1 0
3 *1168:D1 0.000138363
4 *1087:X 0
5 *65:14 0.000342288
6 *65:6 0.000607197
7 *1092:A2 *1635:A 9.90367e-05
8 *1092:A2 *1700:A 0.000117408
9 *1092:A2 *558:48 6.87574e-05
10 *1092:A2 *641:60 0.000949815
11 *1092:A2 *655:10 6.81083e-05
12 *1092:A2 *656:8 0.000435306
13 *1092:A2 *701:41 1.46624e-05
14 *1092:A2 *705:22 0.000310314
15 *1168:D1 *1574:A 2.12687e-05
16 *1168:D1 *135:12 3.10885e-05
17 *1168:D1 *147:14 5.33433e-05
18 *1168:D1 *326:39 0
19 *1168:D1 *534:16 2.89016e-05
20 *1168:D1 *534:22 9.91086e-05
21 *1168:D1 *722:50 6.74404e-05
22 *65:14 *1091:A2 5.33005e-05
23 *65:14 *1169:C1 5.61433e-05
24 *65:14 *146:8 1.52978e-05
25 *65:14 *534:30 1.04232e-05
26 *65:14 *655:10 0.000240491
27 *65:14 *655:31 2.77289e-05
28 *65:14 *665:41 0
29 *65:14 *675:44 0.00027587
30 *65:14 *705:22 8.08022e-05
31 *65:14 *717:69 2.28598e-05
*RES
1 *1087:X *65:6 13.8 
2 *65:6 *65:14 10.6786 
3 *65:14 *1168:D1 21.4964 
4 *65:14 *1169:D1 9.3 
5 *65:6 *1092:A2 28.2643 
*END

*D_NET *66 0.00104195
*CONN
*I *1172:A1_N I *D sky130_fd_sc_hd__a2bb2oi_4
*I *1088:Y O *D sky130_fd_sc_hd__nand2_2
*CAP
1 *1172:A1_N 0.000202486
2 *1088:Y 0.000202486
3 *1172:A1_N *1088:A 0.000128146
4 *1172:A1_N *149:14 6.05161e-06
5 *1172:A1_N *532:23 0.00036496
6 *1545:A *1172:A1_N 0.000137819
*RES
1 *1088:Y *1172:A1_N 33.6357 
*END

*D_NET *67 0.00171306
*CONN
*I *1172:A2_N I *D sky130_fd_sc_hd__a2bb2oi_4
*I *1089:Y O *D sky130_fd_sc_hd__nand2_2
*CAP
1 *1172:A2_N 0.000589795
2 *1089:Y 0.000589795
3 *1172:A2_N *991:A 4.70048e-05
4 *1172:A2_N *1088:A 6.45627e-05
5 *1172:A2_N *1172:B2 9.99644e-06
6 *1172:A2_N *1687:A 5.52238e-05
7 *1172:A2_N *283:10 9.60875e-05
8 *1172:A2_N *535:19 8.16036e-05
9 *1172:A2_N *636:27 0.000153054
10 *1172:A2_N *699:12 2.59355e-05
*RES
1 *1089:Y *1172:A2_N 37.8857 
*END

*D_NET *68 0.00391834
*CONN
*I *1101:A1 I *D sky130_fd_sc_hd__o22ai_4
*I *1173:A_N I *D sky130_fd_sc_hd__nand3b_4
*I *1090:X O *D sky130_fd_sc_hd__and4_2
*CAP
1 *1101:A1 0.000448886
2 *1173:A_N 0.000575479
3 *1090:X 0.00102436
4 *1101:A1 *1087:A 2.14757e-05
5 *1101:A1 *1087:B 0.000144773
6 *1101:A1 *1090:A 0.000317082
7 *1101:A1 *1091:B1 1.74352e-05
8 *1101:A1 *69:8 7.02611e-05
9 *1101:A1 *705:14 9.90431e-05
10 *1101:A1 *705:18 0.000120885
11 *1101:A1 *714:78 0.000185643
12 *1173:A_N *1010:B 4.54301e-05
13 *1173:A_N *1010:D 2.22043e-05
14 *1173:A_N *1173:B 0
15 *1173:A_N *1502:A 0.000174308
16 *1173:A_N *700:41 0.000105025
17 *1173:A_N *700:63 7.6021e-05
18 *1173:A_N *701:41 0.000390994
19 *1173:A_N *714:62 5.19454e-05
20 *1173:A_N *734:29 2.70899e-05
*RES
1 *1090:X *1173:A_N 38.225 
2 *1090:X *1101:A1 28.1893 
*END

*D_NET *69 0.00145198
*CONN
*I *1101:A2 I *D sky130_fd_sc_hd__o22ai_4
*I *1092:B1 I *D sky130_fd_sc_hd__a21oi_4
*I *1091:Y O *D sky130_fd_sc_hd__a22oi_2
*CAP
1 *1101:A2 0
2 *1092:B1 0.00012869
3 *1091:Y 0.000207596
4 *69:8 0.000336286
5 *1092:B1 *558:48 0.000320016
6 *1092:B1 *655:53 0.000389132
7 *1092:B1 *716:125 0
8 *1101:A1 *69:8 7.02611e-05
*RES
1 *1091:Y *69:8 12.7286 
2 *69:8 *1092:B1 23.2821 
3 *69:8 *1101:A2 9.3 
*END

*D_NET *70 0.0021996
*CONN
*I *1102:B1 I *D sky130_fd_sc_hd__o211a_2
*I *1103:B1 I *D sky130_fd_sc_hd__o211ai_4
*I *1092:Y O *D sky130_fd_sc_hd__a21oi_4
*CAP
1 *1102:B1 3.97e-05
2 *1103:B1 9.75999e-05
3 *1092:Y 0.00040683
4 *70:8 0.00054413
5 *1102:B1 *1102:A2 0.000119618
6 *1102:B1 *1102:C1 6.74911e-05
7 *1103:B1 *1102:A2 0.000242198
8 *1103:B1 *1102:C1 0.000121671
9 *70:8 *656:8 0.000560366
*RES
1 *1092:Y *70:8 19.2643 
2 *70:8 *1103:B1 16.9607 
3 *70:8 *1102:B1 15.4429 
*END

*D_NET *71 0.000371729
*CONN
*I *1137:A I *D sky130_fd_sc_hd__nand2_4
*I *1093:Y O *D sky130_fd_sc_hd__nand2_2
*CAP
1 *1137:A 0.000132122
2 *1093:Y 0.000132122
3 *1137:A *348:62 5.48581e-05
4 *1137:A *730:68 5.26277e-05
*RES
1 *1093:Y *1137:A 30.4929 
*END

*D_NET *72 0.00214385
*CONN
*I *1099:A I *D sky130_fd_sc_hd__nand3_2
*I *1098:B1 I *D sky130_fd_sc_hd__a22o_4
*I *1097:B1 I *D sky130_fd_sc_hd__a22oi_2
*I *1137:B I *D sky130_fd_sc_hd__nand2_4
*I *1094:Y O *D sky130_fd_sc_hd__nand4_4
*CAP
1 *1099:A 0
2 *1098:B1 6.98681e-05
3 *1097:B1 2.06112e-05
4 *1137:B 0.000119368
5 *1094:Y 0.000160859
6 *72:37 0.000160051
7 *72:24 0.000152286
8 *1097:B1 *1094:A 3.99614e-06
9 *1098:B1 *1098:A1 5.52238e-05
10 *1098:B1 *1098:B2 9.47456e-05
11 *1098:B1 *154:16 2.27416e-05
12 *1098:B1 *730:10 3.17148e-05
13 *1098:B1 *730:23 0.000141382
14 *1137:B *80:14 0.000224676
15 *1137:B *597:53 0
16 *1137:B *727:33 0.000137939
17 *1137:B *727:45 6.0038e-05
18 *72:24 *1096:A1 3.18676e-05
19 *72:24 *558:48 0.000183713
20 *72:24 *656:8 6.57815e-05
21 *72:37 *1097:A1 0.000162125
22 *72:37 *1098:B2 1.91414e-05
23 *72:37 *1577:A 0.000146474
24 *72:37 *558:48 1.98839e-05
25 *72:37 *656:8 2.59355e-05
26 *72:37 *730:23 3.34295e-05
*RES
1 *1094:Y *1137:B 31.1 
2 *1094:Y *72:24 11.0679 
3 *72:24 *1097:B1 9.72857 
4 *72:24 *72:37 7.58929 
5 *72:37 *1098:B1 16.5857 
6 *72:37 *1099:A 13.8 
*END

*D_NET *73 0.00338392
*CONN
*I *1102:A1 I *D sky130_fd_sc_hd__o211a_2
*I *1103:A1 I *D sky130_fd_sc_hd__o211ai_4
*I *1100:A I *D sky130_fd_sc_hd__nor2_2
*I *1095:Y O *D sky130_fd_sc_hd__a22oi_2
*CAP
1 *1102:A1 0.000133744
2 *1103:A1 0.000160321
3 *1100:A 0
4 *1095:Y 0.000332902
5 *73:19 0.000356414
6 *73:10 0.000395251
7 *1102:A1 *1102:A2 0.000335922
8 *1102:A1 *294:45 0.000163999
9 *1102:A1 *622:38 3.82227e-06
10 *1102:A1 *674:108 0
11 *1103:A1 *1102:C1 9.46929e-05
12 *1103:A1 *1103:A2 1.39726e-05
13 *1103:A1 *294:45 0.00038907
14 *73:10 *1100:B 1.02504e-05
15 *73:10 *79:20 0
16 *73:10 *81:23 0.000152333
17 *73:10 *531:23 0
18 *73:10 *730:10 0.000405727
19 *73:19 *1100:B 0.000153047
20 *73:19 *1102:A2 6.98302e-05
21 *73:19 *81:23 0.000212627
*RES
1 *1095:Y *73:10 19.5679 
2 *73:10 *1100:A 13.8 
3 *73:10 *73:19 2.85714 
4 *73:19 *1103:A1 18.05 
5 *73:19 *1102:A1 18.3045 
*END

*D_NET *74 0.00767885
*CONN
*I *1097:B2 I *D sky130_fd_sc_hd__a22oi_2
*I *1098:B2 I *D sky130_fd_sc_hd__a22o_4
*I *1141:D I *D sky130_fd_sc_hd__nand4_4
*I *1139:B1 I *D sky130_fd_sc_hd__a22o_4
*I *1654:A I *D sky130_fd_sc_hd__buf_2
*I *1140:C I *D sky130_fd_sc_hd__and4_2
*I *1096:X O *D sky130_fd_sc_hd__a22o_4
*CAP
1 *1097:B2 4.69138e-05
2 *1098:B2 0.000167012
3 *1141:D 0.000301149
4 *1139:B1 3.04135e-05
5 *1654:A 0
6 *1140:C 0.000263131
7 *1096:X 0.00115276
8 *74:77 0.000848363
9 *74:38 0.000403851
10 *74:20 0.000324871
11 *74:14 0.000652348
12 *1097:B2 *1577:A 7.83659e-05
13 *1097:B2 *558:67 0
14 *1098:B2 *1096:A2 0
15 *1098:B2 *1099:B 0.000108848
16 *1098:B2 *1577:A 0.000103253
17 *1098:B2 *686:76 5.80706e-06
18 *1098:B2 *730:10 1.00375e-05
19 *1139:B1 *675:82 5.33005e-05
20 *1140:C *1138:B1 5.33005e-05
21 *1140:C *1140:A 0.000127039
22 *1140:C *1143:D 3.57366e-05
23 *1140:C *117:10 5.71472e-05
24 *1141:D *1256:B1 2.31791e-05
25 *1141:D *114:8 0.000154505
26 *1141:D *114:21 0.000142797
27 *1141:D *118:14 0.00020042
28 *1141:D *156:27 2.91887e-05
29 *74:14 *1143:D 1.21289e-05
30 *74:14 *1146:B 0.000139907
31 *74:14 *1250:A1 8.16429e-05
32 *74:14 *1250:A2 0.000186662
33 *74:14 *118:14 0.000177821
34 *74:14 *120:6 0.00014183
35 *74:14 *226:10 1.56e-05
36 *74:14 *675:70 2.24195e-05
37 *74:14 *684:33 0.000245493
38 *74:20 *1140:A 1.24368e-05
39 *74:20 *1143:D 1.7859e-05
40 *74:20 *118:14 0
41 *74:38 *1138:B2 9.25014e-06
42 *74:38 *114:21 1.02504e-05
43 *74:38 *114:23 0.000170661
44 *74:38 *118:14 0.000168939
45 *74:77 *1093:B 1.04066e-05
46 *74:77 *1094:D 8.00806e-05
47 *74:77 *1096:A1 2.15245e-05
48 *74:77 *80:14 7.83587e-05
49 *74:77 *558:48 0.00040381
50 *74:77 *727:73 8.25843e-06
51 *74:77 *730:48 0.000175892
52 *1098:B1 *1098:B2 9.47456e-05
53 *72:37 *1098:B2 1.91414e-05
*RES
1 *1096:X *74:14 20.2821 
2 *74:14 *74:20 1.39286 
3 *74:20 *1140:C 14.3714 
4 *74:20 *1654:A 9.3 
5 *74:14 *74:38 6.75 
6 *74:38 *1139:B1 14.3357 
7 *74:38 *1141:D 20.925 
8 *1096:X *74:77 31.7643 
9 *74:77 *1098:B2 18.175 
10 *74:77 *1097:B2 14.8357 
*END

*D_NET *75 0.00191265
*CONN
*I *1101:B2 I *D sky130_fd_sc_hd__o22ai_4
*I *1097:Y O *D sky130_fd_sc_hd__a22oi_2
*CAP
1 *1101:B2 0.000322919
2 *1097:Y 0.000322919
3 *1101:B2 *1097:A1 2.89114e-05
4 *1101:B2 *79:20 0.00033763
5 *1101:B2 *531:23 0.000120218
6 *1101:B2 *558:48 0.0005993
7 *1101:B2 *656:8 0.000180755
*RES
1 *1097:Y *1101:B2 37.85 
*END

*D_NET *76 0.00187276
*CONN
*I *1102:C1 I *D sky130_fd_sc_hd__o211a_2
*I *1103:C1 I *D sky130_fd_sc_hd__o211ai_4
*I *1098:X O *D sky130_fd_sc_hd__a22o_4
*CAP
1 *1102:C1 0.000212471
2 *1103:C1 0
3 *1098:X 7.81759e-05
4 *76:12 0.000290647
5 *1102:C1 *1102:A2 7.80714e-06
6 *1102:C1 *1103:A2 0.000142856
7 *1102:C1 *77:6 8.17274e-05
8 *1102:C1 *79:20 0.000382566
9 *1102:C1 *81:23 6.05161e-06
10 *1102:C1 *294:45 8.43535e-06
11 *76:12 *77:6 9.71197e-05
12 *76:12 *81:23 0.000128704
13 *76:12 *674:108 0.00015234
14 *1102:B1 *1102:C1 6.74911e-05
15 *1103:A1 *1102:C1 9.46929e-05
16 *1103:B1 *1102:C1 0.000121671
*RES
1 *1098:X *76:12 21.1929 
2 *76:12 *1103:C1 9.3 
3 *76:12 *1102:C1 25.4607 
*END

*D_NET *77 0.00260283
*CONN
*I *1103:A2 I *D sky130_fd_sc_hd__o211ai_4
*I *1102:A2 I *D sky130_fd_sc_hd__o211a_2
*I *1100:B I *D sky130_fd_sc_hd__nor2_2
*I *1099:Y O *D sky130_fd_sc_hd__nand3_2
*CAP
1 *1103:A2 0.00010766
2 *1102:A2 0.000139085
3 *1100:B 7.70444e-05
4 *1099:Y 0.000282274
5 *77:8 0.000216129
6 *77:6 0.000389934
7 *1100:B *79:20 0
8 *77:6 *1577:A 4.70078e-05
9 *77:6 *81:23 2.05612e-05
10 *77:6 *730:27 4.87854e-05
11 *1102:A1 *1102:A2 0.000335922
12 *1102:B1 *1102:A2 0.000119618
13 *1102:C1 *1102:A2 7.80714e-06
14 *1102:C1 *1103:A2 0.000142856
15 *1102:C1 *77:6 8.17274e-05
16 *1103:A1 *1103:A2 1.39726e-05
17 *1103:B1 *1102:A2 0.000242198
18 *73:10 *1100:B 1.02504e-05
19 *73:19 *1100:B 0.000153047
20 *73:19 *1102:A2 6.98302e-05
21 *76:12 *77:6 9.71197e-05
*RES
1 *1099:Y *77:6 13.9429 
2 *77:6 *77:8 4.5 
3 *77:8 *1100:B 15.7464 
4 *77:8 *1102:A2 19.0857 
5 *77:6 *1103:A2 11.4964 
*END

*D_NET *78 0.000131028
*CONN
*I *1101:B1 I *D sky130_fd_sc_hd__o22ai_4
*I *1100:Y O *D sky130_fd_sc_hd__nor2_2
*CAP
1 *1101:B1 3.73643e-05
2 *1100:Y 3.73643e-05
3 *1101:B1 *154:16 5.62995e-05
*RES
1 *1100:Y *1101:B1 19.5464 
*END

*D_NET *79 0.00687723
*CONN
*I *1677:A I *D sky130_fd_sc_hd__buf_6
*I *1105:B2 I *D sky130_fd_sc_hd__a32o_2
*I *1101:Y O *D sky130_fd_sc_hd__o22ai_4
*CAP
1 *1677:A 0
2 *1105:B2 0.000650577
3 *1101:Y 0.00114606
4 *79:22 0.000650577
5 *79:20 0.00114606
6 *1105:B2 *1073:A 0
7 *1105:B2 *1104:A1 1.58163e-05
8 *1105:B2 *1104:A2 0
9 *1105:B2 *1105:B1 0.000195555
10 *1105:B2 *1107:D1 0
11 *1105:B2 *84:12 9.24299e-05
12 *1105:B2 *85:6 0.000219711
13 *1105:B2 *261:34 0.000126629
14 *1105:B2 *627:8 0.000125717
15 *1105:B2 *627:23 0.000198705
16 *79:20 *1061:C1 0.000591342
17 *79:20 *1070:D 4.35798e-05
18 *79:20 *1092:A1 3.75052e-05
19 *79:20 *294:45 0
20 *79:20 *523:28 0.000660158
21 *79:20 *531:23 9.15186e-06
22 *79:20 *728:44 2.82057e-05
23 *1060:A2 *79:20 9.41642e-05
24 *1060:C1 *79:20 4.43256e-05
25 *1072:B *79:20 5.51406e-05
26 *1100:B *79:20 0
27 *1101:B2 *79:20 0.00033763
28 *1102:C1 *79:20 0.000382566
29 *1104:B1 *79:20 0
30 *35:10 *1105:B2 1.00375e-05
31 *35:10 *79:20 0
32 *39:12 *79:20 1.55885e-05
33 *73:10 *79:20 0
*RES
1 *1101:Y *79:20 47.5679 
2 *79:20 *79:22 4.5 
3 *79:22 *1105:B2 40.6393 
4 *79:22 *1677:A 9.3 
*END

*D_NET *80 0.00354548
*CONN
*I *1250:A3 I *D sky130_fd_sc_hd__a32oi_2
*I *1179:A I *D sky130_fd_sc_hd__nand3_4
*I *1102:X O *D sky130_fd_sc_hd__o211a_2
*CAP
1 *1250:A3 5.54243e-05
2 *1179:A 7.25159e-05
3 *1102:X 0.0008687
4 *80:14 0.00099664
5 *1179:A *1094:D 2.61337e-05
6 *1179:A *597:53 5.38886e-05
7 *1179:A *727:45 0.000197977
8 *1250:A3 *1250:A1 0.000221634
9 *1250:A3 *1250:A2 0.000221634
10 *80:14 *1094:D 4.08132e-05
11 *80:14 *1690:A 0.000139913
12 *80:14 *597:53 6.39262e-05
13 *80:14 *622:38 4.87953e-05
14 *80:14 *671:10 9.90431e-05
15 *80:14 *727:45 0.000135405
16 *1137:B *80:14 0.000224676
17 *74:77 *80:14 7.83587e-05
*RES
1 *1102:X *80:14 29.8357 
2 *80:14 *1179:A 16.3536 
3 *80:14 *1250:A3 15.9786 
*END

*D_NET *81 0.00408434
*CONN
*I *1645:A I *D sky130_fd_sc_hd__buf_6
*I *1181:B1 I *D sky130_fd_sc_hd__o211ai_4
*I *1577:A I *D sky130_fd_sc_hd__buf_6
*I *1103:Y O *D sky130_fd_sc_hd__o211ai_4
*CAP
1 *1645:A 2.52056e-05
2 *1181:B1 0.000401582
3 *1577:A 0.000359943
4 *1103:Y 0
5 *81:23 0.000696331
6 *81:4 0.000629486
7 *1181:B1 *1095:B2 9.89015e-05
8 *1181:B1 *1155:B 1.98839e-05
9 *1181:B1 *1176:A2 5.52238e-05
10 *1181:B1 *1181:A1 0.00010096
11 *1181:B1 *1251:A3 0.000266473
12 *1181:B1 *130:55 3.06466e-05
13 *1181:B1 *152:14 0.000122081
14 *1181:B1 *674:108 5.76092e-05
15 *1577:A *1097:A1 1.31516e-05
16 *1577:A *558:67 0
17 *1577:A *622:17 0
18 *1577:A *622:38 0
19 *1577:A *730:27 9.60875e-05
20 *1645:A *675:44 5.52302e-05
21 *81:23 *1095:B2 4.46186e-06
22 *81:23 *294:45 5.52238e-05
23 *81:23 *531:23 0
24 *81:23 *674:108 0.000100481
25 *1097:B2 *1577:A 7.83659e-05
26 *1098:B2 *1577:A 0.000103253
27 *1102:C1 *81:23 6.05161e-06
28 *72:37 *1577:A 0.000146474
29 *73:10 *81:23 0.000152333
30 *73:19 *81:23 0.000212627
31 *76:12 *81:23 0.000128704
32 *77:6 *1577:A 4.70078e-05
33 *77:6 *81:23 2.05612e-05
*RES
1 *1103:Y *81:4 9.3 
2 *81:4 *1577:A 24.8536 
3 *81:4 *81:23 11.8571 
4 *81:23 *1181:B1 23.05 
5 *81:23 *1645:A 14.3357 
*END

*D_NET *82 0.00669711
*CONN
*I *1116:A2 I *D sky130_fd_sc_hd__o21bai_4
*I *1118:A2 I *D sky130_fd_sc_hd__o21ai_4
*I *1136:A1 I *D sky130_fd_sc_hd__o21a_2
*I *1104:Y O *D sky130_fd_sc_hd__a21oi_4
*CAP
1 *1116:A2 0
2 *1118:A2 0.00041734
3 *1136:A1 0.000207377
4 *1104:Y 0.000917093
5 *82:33 0.000489185
6 *82:14 0.00119632
7 *1118:A2 *1117:B 0
8 *1118:A2 *1121:B 0.000152333
9 *1118:A2 *1124:C 0.000126639
10 *1118:A2 *1126:B1 9.72247e-05
11 *1118:A2 *93:32 0
12 *1118:A2 *99:8 0.000148182
13 *1118:A2 *105:10 0.000536271
14 *1136:A1 *1117:B 7.40992e-05
15 *1136:A1 *83:16 0.000195386
16 *1136:A1 *84:16 7.32272e-05
17 *1136:A1 *85:6 0.000360894
18 *1136:A1 *93:19 0
19 *82:14 *1125:A1 0.000880578
20 *82:14 *83:14 1.21258e-05
21 *82:14 *84:12 0.000140396
22 *82:14 *84:16 6.57815e-05
23 *82:33 *1117:B 0
24 *82:33 *1126:B1 0.00020455
25 *82:33 *83:14 1.18064e-05
26 *1122:B *1136:A1 0.000171375
27 *1122:B *82:33 9.34004e-05
28 *1125:B1 *82:14 0.00011309
29 *64:24 *1118:A2 1.24368e-05
*RES
1 *1104:Y *82:14 23.675 
2 *82:14 *1136:A1 25.3179 
3 *82:14 *82:33 7.35714 
4 *82:33 *1118:A2 25.5679 
5 *82:33 *1116:A2 13.8 
*END

*D_NET *83 0.00431694
*CONN
*I *1646:A I *D sky130_fd_sc_hd__buf_6
*I *1120:B I *D sky130_fd_sc_hd__nand4_4
*I *1658:A I *D sky130_fd_sc_hd__buf_2
*I *1119:A I *D sky130_fd_sc_hd__nand3_4
*I *1105:X O *D sky130_fd_sc_hd__a32o_2
*CAP
1 *1646:A 3.82418e-05
2 *1120:B 0.000146581
3 *1658:A 0.00023358
4 *1119:A 5.72246e-05
5 *1105:X 0.000312322
6 *83:20 0.000713635
7 *83:16 0.000998217
8 *83:14 0.000779369
9 *1119:A *91:10 2.8266e-06
10 *1119:A *91:19 1.69115e-05
11 *1119:A *113:6 2.27416e-05
12 *1120:B *1117:A 1.76135e-05
13 *1120:B *1120:A 0.000142856
14 *1120:B *85:25 4.78056e-05
15 *1658:A *1118:A1 0
16 *1658:A *1120:C 2.91887e-05
17 *1658:A *1135:A1 0
18 *1658:A *1270:A1 0
19 *1658:A *91:19 2.34204e-05
20 *83:14 *1073:A 3.25078e-05
21 *83:14 *1116:A1 0.000128875
22 *83:14 *1126:B1 6.0038e-05
23 *83:14 *85:6 1.74352e-05
24 *83:16 *85:6 9.40071e-05
25 *83:20 *85:6 2.27416e-05
26 *83:20 *85:10 1.92905e-05
27 *83:20 *113:6 4.25358e-05
28 *1122:B *83:14 0
29 *1125:B1 *83:14 9.7659e-05
30 *1136:A1 *83:16 0.000195386
31 *82:14 *83:14 1.21258e-05
32 *82:33 *83:14 1.18064e-05
*RES
1 *1105:X *83:14 23.5679 
2 *83:14 *83:16 5.875 
3 *83:16 *83:20 9.55357 
4 *83:20 *1119:A 15.0679 
5 *83:20 *1658:A 18.175 
6 *83:16 *1120:B 21.3 
7 *83:14 *1646:A 10.0321 
*END

*D_NET *84 0.0045908
*CONN
*I *1116:A1 I *D sky130_fd_sc_hd__o21bai_4
*I *1135:B1 I *D sky130_fd_sc_hd__a31o_2
*I *1118:A1 I *D sky130_fd_sc_hd__o21ai_4
*I *1106:X O *D sky130_fd_sc_hd__o2111a_2
*CAP
1 *1116:A1 7.85661e-05
2 *1135:B1 0
3 *1118:A1 0.000456283
4 *1106:X 0.000240539
5 *84:16 0.00115467
6 *84:12 0.00101749
7 *1116:A1 *1073:A 0.000270243
8 *1116:A1 *1126:B1 7.80929e-05
9 *1118:A1 *1117:A 0
10 *1118:A1 *1118:B1 0
11 *1118:A1 *1122:A 0
12 *1118:A1 *1135:A1 8.56716e-05
13 *1118:A1 *1270:A2 0
14 *1118:A1 *85:25 0
15 *1118:A1 *92:23 9.25014e-06
16 *1118:A1 *104:10 0
17 *84:12 *1073:A 9.64602e-05
18 *84:12 *1105:B1 3.38136e-05
19 *84:16 *1120:A 0.00048453
20 *84:16 *1120:C 4.51526e-05
21 *84:16 *1120:D 3.93346e-05
22 *1105:B2 *84:12 9.24299e-05
23 *1136:A1 *84:16 7.32272e-05
24 *1658:A *1118:A1 0
25 *82:14 *84:12 0.000140396
26 *82:14 *84:16 6.57815e-05
27 *83:14 *1116:A1 0.000128875
*RES
1 *1106:X *84:12 23.5321 
2 *84:12 *84:16 9.58929 
3 *84:16 *1118:A1 26.0143 
4 *84:16 *1135:B1 9.3 
5 *84:12 *1116:A1 21.7643 
*END

*D_NET *85 0.00758898
*CONN
*I *1136:B1 I *D sky130_fd_sc_hd__o21a_2
*I *1117:A I *D sky130_fd_sc_hd__nand3_4
*I *1120:A I *D sky130_fd_sc_hd__nand4_4
*I *1185:A1 I *D sky130_fd_sc_hd__a22oi_2
*I *1107:Y O *D sky130_fd_sc_hd__o2111ai_4
*CAP
1 *1136:B1 0
2 *1117:A 0.000385528
3 *1120:A 0.000167704
4 *1185:A1 0.000937486
5 *1107:Y 0.000493979
6 *85:25 0.00067393
7 *85:10 0.00108734
8 *85:6 0.000523138
9 *1117:A *1122:A 0.000148196
10 *1117:A *1122:C 0.000105945
11 *1117:A *93:19 0
12 *1117:A *100:10 4.97121e-06
13 *1117:A *107:12 5.76121e-05
14 *1117:A *109:14 8.07313e-05
15 *1120:A *1120:C 2.89114e-05
16 *1185:A1 *989:A 0.000139907
17 *1185:A1 *1108:A 0.000123743
18 *1185:A1 *1108:B 0
19 *1185:A1 *1110:B 0
20 *1185:A1 *1113:A1 0.000150625
21 *1185:A1 *1114:B 0.000174805
22 *1185:A1 *1133:A3 7.17136e-05
23 *1185:A1 *1133:B1 0
24 *1185:A1 *1185:A2 0.000449546
25 *1185:A1 *92:8 0
26 *1185:A1 *93:8 0
27 *1185:A1 *93:19 0
28 *1185:A1 *261:8 1.40306e-05
29 *1185:A1 *733:136 1.76135e-05
30 *85:6 *1107:A1 9.41642e-05
31 *85:6 *1136:A2 0.000230475
32 *85:25 *92:8 0
33 *85:25 *92:23 0
34 *85:25 *93:19 0
35 *1105:B2 *85:6 0.000219711
36 *1118:A1 *1117:A 0
37 *1118:A1 *85:25 0
38 *1120:B *1117:A 1.76135e-05
39 *1120:B *1120:A 0.000142856
40 *1120:B *85:25 4.78056e-05
41 *1136:A1 *85:6 0.000360894
42 *83:14 *85:6 1.74352e-05
43 *83:16 *85:6 9.40071e-05
44 *83:20 *85:6 2.27416e-05
45 *83:20 *85:10 1.92905e-05
46 *84:16 *1120:A 0.00048453
*RES
1 *1107:Y *85:6 20.925 
2 *85:6 *85:10 5.03571 
3 *85:10 *1185:A1 32.3357 
4 *85:10 *85:25 2.25 
5 *85:25 *1120:A 18.8714 
6 *85:25 *1117:A 22.05 
7 *85:6 *1136:B1 9.3 
*END

*D_NET *86 0.000852996
*CONN
*I *1112:C1 I *D sky130_fd_sc_hd__o211ai_4
*I *1108:Y O *D sky130_fd_sc_hd__nand2_2
*CAP
1 *1112:C1 0.000346117
2 *1108:Y 0.000346117
3 *1112:C1 *1054:A 0
4 *1112:C1 *1070:D 2.72545e-05
5 *1112:C1 *1108:B 0
6 *1112:C1 *1110:B 0
7 *1112:C1 *1111:A 0
8 *1112:C1 *1115:A 5.23142e-05
9 *1112:C1 *1115:B 6.35892e-05
10 *1112:C1 *597:53 1.76039e-05
*RES
1 *1108:Y *1112:C1 34.0464 
*END

*D_NET *87 0.00117811
*CONN
*I *1111:A I *D sky130_fd_sc_hd__nand4_2
*I *1110:A I *D sky130_fd_sc_hd__and4_2
*I *1109:Y O *D sky130_fd_sc_hd__o21ai_2
*CAP
1 *1111:A 0.000113505
2 *1110:A 7.83158e-05
3 *1109:Y 0.000177984
4 *87:12 0.000369804
5 *1110:A *1110:B 5.17614e-05
6 *1110:A *526:25 9.99644e-06
7 *1111:A *1110:B 0.000175519
8 *1111:A *1182:B1 2.49484e-05
9 *1111:A *597:53 0
10 *1111:A *730:68 0
11 *1111:A *730:91 0
12 *87:12 *1182:B1 0
13 *87:12 *526:25 5.05484e-05
14 *87:12 *730:68 0.000125724
15 *1112:C1 *1111:A 0
*RES
1 *1109:Y *87:12 21.7107 
2 *87:12 *1110:A 10.6571 
3 *87:12 *1111:A 21.1571 
*END

*D_NET *88 0.00330792
*CONN
*I *1134:B1 I *D sky130_fd_sc_hd__a31oi_2
*I *1133:B1 I *D sky130_fd_sc_hd__a31o_2
*I *1110:X O *D sky130_fd_sc_hd__and4_2
*CAP
1 *1134:B1 0.000158929
2 *1133:B1 0.000232514
3 *1110:X 0.000731158
4 *88:10 0.0011226
5 *1133:B1 *1133:A3 9.23967e-05
6 *1134:B1 *1133:A2 2.89016e-05
7 *1134:B1 *1186:A 0
8 *1134:B1 *111:6 5.52238e-05
9 *1134:B1 *161:8 1.91512e-05
10 *1134:B1 *161:23 1.59689e-05
11 *1134:B1 *162:10 7.83366e-05
12 *88:10 *1182:B1 0.000749318
13 *88:10 *161:8 2.34204e-05
14 *1185:A1 *1133:B1 0
*RES
1 *1110:X *88:10 23.9964 
2 *88:10 *1133:B1 16.8179 
3 *88:10 *1134:B1 17.4964 
*END

*D_NET *89 0.00163771
*CONN
*I *1113:B1 I *D sky130_fd_sc_hd__a22o_4
*I *1114:A I *D sky130_fd_sc_hd__nand4_4
*I *1111:Y O *D sky130_fd_sc_hd__nand4_2
*CAP
1 *1113:B1 0.000111452
2 *1114:A 0.00014069
3 *1111:Y 5.98666e-05
4 *89:8 0.000312009
5 *1113:B1 *1108:A 0.000148196
6 *1113:B1 *1113:A1 2.58997e-05
7 *1113:B1 *1113:A2 9.60875e-05
8 *1113:B1 *92:8 0.000187733
9 *1114:A *1113:A1 2.28598e-05
10 *1114:A *90:28 5.33005e-05
11 *1114:A *261:34 0.000307343
12 *89:8 *1108:A 0.000125724
13 *89:8 *92:8 1.02504e-05
14 *89:8 *261:10 2.8266e-06
15 *89:8 *261:34 3.34672e-05
*RES
1 *1111:Y *89:8 15.4429 
2 *89:8 *1114:A 17.2286 
3 *89:8 *1113:B1 17.3 
*END

*D_NET *90 0.00428364
*CONN
*I *1113:B2 I *D sky130_fd_sc_hd__a22o_4
*I *1134:A3 I *D sky130_fd_sc_hd__a31oi_2
*I *1133:A3 I *D sky130_fd_sc_hd__a31o_2
*I *1114:B I *D sky130_fd_sc_hd__nand4_4
*I *1112:Y O *D sky130_fd_sc_hd__o211ai_4
*CAP
1 *1113:B2 9.25441e-05
2 *1134:A3 0
3 *1133:A3 0.000514438
4 *1114:B 0.000286087
5 *1112:Y 0.000203415
6 *90:30 0.000645271
7 *90:28 0.000306049
8 *1113:B2 *1113:A2 6.48957e-05
9 *1113:B2 *92:8 7.27028e-05
10 *1113:B2 *684:80 1.19402e-05
11 *1114:B *1108:B 5.94923e-05
12 *1114:B *1111:B 9.90367e-05
13 *1114:B *597:57 0.000142856
14 *1133:A3 *1185:A2 0.000142856
15 *1133:A3 *1186:A 6.26559e-05
16 *1133:A3 *162:10 5.52302e-05
17 *90:28 *1113:A1 0.000153947
18 *90:28 *1114:C 1.04232e-05
19 *90:28 *261:34 9.50762e-05
20 *90:28 *675:143 2.89114e-05
21 *90:30 *1134:A1 0.000357048
22 *90:30 *675:143 8.86413e-05
23 *90:30 *684:56 0.000397911
24 *1114:A *90:28 5.33005e-05
25 *1133:B1 *1133:A3 9.23967e-05
26 *1185:A1 *1114:B 0.000174805
27 *1185:A1 *1133:A3 7.17136e-05
*RES
1 *1112:Y *1114:B 32.4393 
2 *1114:B *90:28 12.0321 
3 *90:28 *90:30 5.05357 
4 *90:30 *1133:A3 28.0857 
5 *90:30 *1134:A3 9.3 
6 *90:28 *1113:B2 20.8536 
*END

*D_NET *91 0.00268034
*CONN
*I *1115:A I *D sky130_fd_sc_hd__nand2_2
*I *1120:C I *D sky130_fd_sc_hd__nand4_4
*I *1135:A2 I *D sky130_fd_sc_hd__a31o_2
*I *1119:B I *D sky130_fd_sc_hd__nand3_4
*I *1113:X O *D sky130_fd_sc_hd__a22o_4
*CAP
1 *1115:A 0.000506699
2 *1120:C 0.000217339
3 *1135:A2 0
4 *1119:B 0
5 *1113:X 6.57351e-05
6 *91:19 0.000282284
7 *91:10 0.000158138
8 *91:6 0.000665627
9 *1115:A *1108:A 3.3801e-05
10 *1115:A *1108:B 5.39371e-05
11 *1115:A *1113:A2 0.000117621
12 *1120:C *1120:D 9.80173e-05
13 *1120:C *1135:A1 8.07951e-05
14 *1120:C *1135:A3 3.97677e-05
15 *91:6 *1113:A2 5.62995e-05
16 *91:10 *1185:A2 0
17 *91:10 *92:8 5.26091e-05
18 *91:19 *1135:A1 1.02504e-05
19 *91:19 *92:8 4.1331e-06
20 *91:19 *92:23 3.85587e-05
21 *1112:C1 *1115:A 5.23142e-05
22 *1119:A *91:10 2.8266e-06
23 *1119:A *91:19 1.69115e-05
24 *1120:A *1120:C 2.89114e-05
25 *1658:A *1120:C 2.91887e-05
26 *1658:A *91:19 2.34204e-05
27 *84:16 *1120:C 4.51526e-05
*RES
1 *1113:X *91:6 10.2464 
2 *91:6 *91:10 6.44643 
3 *91:10 *1119:B 13.8 
4 *91:10 *91:19 1.64286 
5 *91:19 *1135:A2 13.8 
6 *91:19 *1120:C 18.675 
7 *91:6 *1115:A 17.2821 
*END

*D_NET *92 0.0020872
*CONN
*I *1115:B I *D sky130_fd_sc_hd__nand2_2
*I *1120:D I *D sky130_fd_sc_hd__nand4_4
*I *1135:A3 I *D sky130_fd_sc_hd__a31o_2
*I *1119:C I *D sky130_fd_sc_hd__nand3_4
*I *1114:Y O *D sky130_fd_sc_hd__nand4_4
*CAP
1 *1115:B 0.000125911
2 *1120:D 4.91968e-05
3 *1135:A3 8.71655e-05
4 *1119:C 0
5 *1114:Y 0.000352937
6 *92:23 0.000280267
7 *92:8 0.00037093
8 *1115:B *1108:B 7.04538e-05
9 *1115:B *261:34 0.00010096
10 *92:8 *1113:A2 0
11 *92:8 *1185:A2 0
12 *92:23 *1135:A1 3.34295e-05
13 *1112:C1 *1115:B 6.35892e-05
14 *1113:B1 *92:8 0.000187733
15 *1113:B2 *92:8 7.27028e-05
16 *1118:A1 *92:23 9.25014e-06
17 *1120:C *1120:D 9.80173e-05
18 *1120:C *1135:A3 3.97677e-05
19 *1185:A1 *92:8 0
20 *84:16 *1120:D 3.93346e-05
21 *85:25 *92:8 0
22 *85:25 *92:23 0
23 *89:8 *92:8 1.02504e-05
24 *91:10 *92:8 5.26091e-05
25 *91:19 *92:8 4.1331e-06
26 *91:19 *92:23 3.85587e-05
*RES
1 *1114:Y *92:8 19.0857 
2 *92:8 *1119:C 13.8 
3 *92:8 *92:23 7.10714 
4 *92:23 *1135:A3 10.6571 
5 *92:23 *1120:D 10.675 
6 *1114:Y *1115:B 31.1 
*END

*D_NET *93 0.00265869
*CONN
*I *1118:B1 I *D sky130_fd_sc_hd__o21ai_4
*I *1117:C I *D sky130_fd_sc_hd__nand3_4
*I *1116:B1_N I *D sky130_fd_sc_hd__o21bai_4
*I *1136:A2 I *D sky130_fd_sc_hd__o21a_2
*I *1115:Y O *D sky130_fd_sc_hd__nand2_2
*CAP
1 *1118:B1 9.32549e-05
2 *1117:C 2.99036e-05
3 *1116:B1_N 0
4 *1136:A2 0.000100896
5 *1115:Y 8.29479e-05
6 *93:32 0.000280728
7 *93:19 0.000427558
8 *93:8 0.000453833
9 *1117:C *1117:B 4.1896e-06
10 *1117:C *1121:A 3.57366e-05
11 *1118:B1 *1122:A 0.00012501
12 *1118:B1 *100:10 0.000168224
13 *93:19 *1117:B 0.000191243
14 *93:19 *1122:C 0
15 *93:19 *100:10 1.19402e-05
16 *93:32 *1117:B 9.39059e-05
17 *93:32 *1121:A 7.48091e-05
18 *93:32 *100:10 7.22427e-05
19 *93:32 *107:12 0.000181796
20 *1117:A *93:19 0
21 *1118:A1 *1118:B1 0
22 *1118:A2 *93:32 0
23 *1122:B *93:8 0
24 *1136:A1 *93:19 0
25 *1185:A1 *93:8 0
26 *1185:A1 *93:19 0
27 *85:6 *1136:A2 0.000230475
28 *85:25 *93:19 0
*RES
1 *1115:Y *93:8 15.1393 
2 *93:8 *1136:A2 15.9786 
3 *93:8 *93:19 5.58929 
4 *93:19 *1116:B1_N 13.8 
5 *93:19 *93:32 9.125 
6 *93:32 *1117:C 10.0321 
7 *93:32 *1118:B1 20.55 
*END

*D_NET *94 0.000323725
*CONN
*I *1121:B I *D sky130_fd_sc_hd__nand3_4
*I *1116:Y O *D sky130_fd_sc_hd__o21bai_4
*CAP
1 *1121:B 6.44147e-05
2 *1116:Y 6.44147e-05
3 *1121:B *1117:B 4.25622e-05
4 *1118:A2 *1121:B 0.000152333
*RES
1 *1116:Y *1121:B 29.5464 
*END

*D_NET *95 0.000423173
*CONN
*I *1121:A I *D sky130_fd_sc_hd__nand3_4
*I *1117:Y O *D sky130_fd_sc_hd__nand3_4
*CAP
1 *1121:A 5.66505e-05
2 *1117:Y 5.66505e-05
3 *1121:A *1117:B 0.000183726
4 *1121:A *107:12 1.56e-05
5 *1117:C *1121:A 3.57366e-05
6 *93:32 *1121:A 7.48091e-05
*RES
1 *1117:Y *1121:A 20.7964 
*END

*D_NET *96 0.00115305
*CONN
*I *1122:A I *D sky130_fd_sc_hd__nand3_4
*I *1118:Y O *D sky130_fd_sc_hd__o21ai_4
*CAP
1 *1122:A 0.000363966
2 *1118:Y 0.000363966
3 *1122:A *100:10 0.000104904
4 *1117:A *1122:A 0.000148196
5 *1118:A1 *1122:A 0
6 *1118:B1 *1122:A 0.00012501
7 *1122:B *1122:A 4.70078e-05
*RES
1 *1118:Y *1122:A 35.1 
*END

*D_NET *97 0.00185175
*CONN
*I *1185:A2 I *D sky130_fd_sc_hd__a22oi_2
*I *1119:Y O *D sky130_fd_sc_hd__nand3_4
*CAP
1 *1185:A2 0.000466421
2 *1119:Y 0.000466421
3 *1185:A2 *1113:A2 0.000105347
4 *1185:A2 *1186:A 0
5 *1185:A2 *675:119 9.25014e-06
6 *1185:A2 *675:132 0.000211913
7 *1133:A3 *1185:A2 0.000142856
8 *1185:A1 *1185:A2 0.000449546
9 *91:10 *1185:A2 0
10 *92:8 *1185:A2 0
*RES
1 *1119:Y *1185:A2 39.2429 
*END

*D_NET *98 0.000343669
*CONN
*I *1122:C I *D sky130_fd_sc_hd__nand3_4
*I *1120:Y O *D sky130_fd_sc_hd__nand4_4
*CAP
1 *1122:C 0.000102144
2 *1120:Y 0.000102144
3 *1122:C *100:10 3.34366e-05
4 *1117:A *1122:C 0.000105945
5 *93:19 *1122:C 0
*RES
1 *1120:Y *1122:C 30.1536 
*END

*D_NET *99 0.00147778
*CONN
*I *1123:A2 I *D sky130_fd_sc_hd__a21o_4
*I *1124:A I *D sky130_fd_sc_hd__nand3_4
*I *1121:Y O *D sky130_fd_sc_hd__nand3_4
*CAP
1 *1123:A2 0.000109337
2 *1124:A 6.44081e-05
3 *1121:Y 8.40464e-05
4 *99:8 0.000257792
5 *1123:A2 *1126:B1 0.000148903
6 *1123:A2 *1132:A 0.0001399
7 *1123:A2 *104:10 4.884e-05
8 *99:8 *1126:B1 0.000195547
9 *99:8 *100:10 0
10 *1118:A2 *99:8 0.000148182
11 *1123:B1 *1123:A2 0.000140361
12 *1123:B1 *99:8 1.02504e-05
13 *64:24 *1124:A 0.000130216
*RES
1 *1121:Y *99:8 16.3536 
2 *99:8 *1124:A 15.1571 
3 *99:8 *1123:A2 17.5321 
*END

*D_NET *100 0.00211158
*CONN
*I *1123:A1 I *D sky130_fd_sc_hd__a21o_4
*I *1657:A I *D sky130_fd_sc_hd__buf_2
*I *1124:C I *D sky130_fd_sc_hd__nand3_4
*I *1122:Y O *D sky130_fd_sc_hd__nand3_4
*CAP
1 *1123:A1 4.14176e-05
2 *1657:A 4.17423e-05
3 *1124:C 9.32874e-05
4 *1122:Y 0.000281752
5 *100:23 0.000217257
6 *100:10 0.000509136
7 *1123:A1 *1132:A 0.000120587
8 *1123:A1 *104:10 0.000126639
9 *1657:A *1132:A 6.05161e-06
10 *1657:A *104:10 5.33334e-05
11 *1117:A *100:10 4.97121e-06
12 *1118:A2 *1124:C 0.000126639
13 *1118:B1 *100:10 0.000168224
14 *1122:A *100:10 0.000104904
15 *1122:B *100:10 9.80173e-05
16 *1122:C *100:10 3.34366e-05
17 *1123:B1 *100:23 0
18 *93:19 *100:10 1.19402e-05
19 *93:32 *100:10 7.22427e-05
20 *99:8 *100:10 0
*RES
1 *1122:Y *100:10 20.0321 
2 *100:10 *1124:C 15.9786 
3 *100:10 *100:23 6.75 
4 *100:23 *1657:A 10.2464 
5 *100:23 *1123:A1 11.4786 
*END

*D_NET *101 0.00118092
*CONN
*I *1126:A2 I *D sky130_fd_sc_hd__a21oi_4
*I *1127:C1 I *D sky130_fd_sc_hd__o2111ai_4
*I *1123:X O *D sky130_fd_sc_hd__a21o_4
*CAP
1 *1126:A2 0
2 *1127:C1 0.000117941
3 *1123:X 0.000167104
4 *101:6 0.000285045
5 *1127:C1 *1127:D1 0.000153047
6 *1127:C1 *102:23 0
7 *101:6 *1126:B1 5.71472e-05
8 *101:6 *1132:A 1.39726e-05
9 *101:6 *1659:A 9.90367e-05
10 *101:6 *102:23 0.000186669
11 *101:6 *104:10 0.00010096
*RES
1 *1123:X *101:6 13.5321 
2 *101:6 *1127:C1 20.8536 
3 *101:6 *1126:A2 9.3 
*END

*D_NET *102 0.00219219
*CONN
*I *1659:A I *D sky130_fd_sc_hd__buf_6
*I *1126:A1 I *D sky130_fd_sc_hd__a21oi_4
*I *1132:B I *D sky130_fd_sc_hd__nand2_4
*I *1124:Y O *D sky130_fd_sc_hd__nand3_4
*CAP
1 *1659:A 0.00014126
2 *1126:A1 0
3 *1132:B 0.000128811
4 *1124:Y 0
5 *102:23 0.000307884
6 *102:6 0.000295435
7 *1132:B *1127:D1 0
8 *1132:B *1132:A 0.000127253
9 *1132:B *107:12 2.44318e-05
10 *1132:B *109:14 9.60939e-05
11 *1132:B *586:6 0.00014183
12 *1659:A *1127:D1 0.000402784
13 *102:23 *1126:B1 0
14 *102:23 *1127:D1 0
15 *102:23 *1132:A 4.75715e-05
16 *1125:B1 *1132:B 0.000193125
17 *1127:C1 *102:23 0
18 *101:6 *1659:A 9.90367e-05
19 *101:6 *102:23 0.000186669
*RES
1 *1124:Y *102:6 13.8 
2 *102:6 *1132:B 18.3179 
3 *102:6 *102:23 8.21429 
4 *102:23 *1126:A1 9.3 
5 *102:23 *1659:A 13.5321 
*END

*D_NET *103 0.00190745
*CONN
*I *1126:B1 I *D sky130_fd_sc_hd__a21oi_4
*I *1125:X O *D sky130_fd_sc_hd__o21a_2
*CAP
1 *1126:B1 0.000414766
2 *1125:X 0.000414766
3 *1126:B1 *1073:A 5.07157e-05
4 *1126:B1 *1132:A 0.000102207
5 *1126:B1 *104:10 7.03393e-05
6 *1116:A1 *1126:B1 7.80929e-05
7 *1118:A2 *1126:B1 9.72247e-05
8 *1123:A2 *1126:B1 0.000148903
9 *1123:B1 *1126:B1 1.31516e-05
10 *1125:B1 *1126:B1 0
11 *82:33 *1126:B1 0.00020455
12 *83:14 *1126:B1 6.0038e-05
13 *99:8 *1126:B1 0.000195547
14 *101:6 *1126:B1 5.71472e-05
15 *102:23 *1126:B1 0
*RES
1 *1125:X *1126:B1 38.9036 
*END

*D_NET *104 0.00349049
*CONN
*I *1683:A I *D sky130_fd_sc_hd__buf_6
*I *1270:A2 I *D sky130_fd_sc_hd__o211ai_4
*I *1126:Y O *D sky130_fd_sc_hd__a21oi_4
*CAP
1 *1683:A 0
2 *1270:A2 0.000408222
3 *1126:Y 0.000981042
4 *104:10 0.00138926
5 *1270:A2 *1135:A1 3.88139e-05
6 *1270:A2 *1270:A1 0
7 *104:10 *1132:A 2.82212e-05
8 *104:10 *1270:A1 0
9 *104:10 *1591:A 0.000128154
10 *104:10 *107:25 0
11 p[6] *104:10 0.000116657
12 *1118:A1 *1270:A2 0
13 *1118:A1 *104:10 0
14 *1123:A1 *104:10 0.000126639
15 *1123:A2 *104:10 4.884e-05
16 *1126:B1 *104:10 7.03393e-05
17 *1657:A *104:10 5.33334e-05
18 *101:6 *104:10 0.00010096
*RES
1 *1126:Y *104:10 31.8357 
2 *104:10 *1270:A2 20.4071 
3 *104:10 *1683:A 13.8 
*END

*D_NET *105 0.00503261
*CONN
*I *1131:B1 I *D sky130_fd_sc_hd__o21a_2
*I *1128:B I *D sky130_fd_sc_hd__and2b_2
*I *1270:C1 I *D sky130_fd_sc_hd__o211ai_4
*I *1127:Y O *D sky130_fd_sc_hd__o2111ai_4
*CAP
1 *1131:B1 0
2 *1128:B 2.39547e-05
3 *1270:C1 0.000244073
4 *1127:Y 0.00146989
5 *105:14 0.000367121
6 *105:10 0.00156898
7 *1128:B *1130:B 9.90367e-05
8 *1128:B *109:14 2.72859e-05
9 *1270:C1 *1131:A2 1.76039e-05
10 *1270:C1 *1270:A1 0
11 *1270:C1 *1270:B1 0.00010096
12 *1270:C1 *169:21 0
13 *105:10 *1131:A1 9.7659e-05
14 *105:10 *1591:A 1.50524e-05
15 *105:14 *1130:B 0
16 *105:14 *1131:A2 6.42242e-05
17 *105:14 *1193:C 0
18 *105:14 *169:21 0
19 *1118:A2 *105:10 0.000536271
20 *64:24 *105:10 0.000400504
*RES
1 *1127:Y *105:10 29.9964 
2 *105:10 *105:14 6.44643 
3 *105:14 *1270:C1 18.425 
4 *105:14 *1128:B 14.7464 
5 *105:10 *1131:B1 9.3 
*END

*D_NET *106 0.00106053
*CONN
*I *1130:B I *D sky130_fd_sc_hd__xnor2_2
*I *1128:X O *D sky130_fd_sc_hd__and2b_2
*CAP
1 *1130:B 0.000363749
2 *1128:X 0.000363749
3 *1130:B *1128:A_N 2.89016e-05
4 *1130:B *1131:A2 3.5707e-05
5 *1130:B *1270:A1 4.46186e-06
6 *1130:B *107:25 7.38748e-05
7 *1130:B *109:14 1.3277e-05
8 *1130:B *634:6 7.77751e-05
9 *1128:B *1130:B 9.90367e-05
10 *105:14 *1130:B 0
*RES
1 *1128:X *1130:B 33.3679 
*END

*D_NET *107 0.00727028
*CONN
*I *1131:A1 I *D sky130_fd_sc_hd__o21a_2
*I *1130:A I *D sky130_fd_sc_hd__xnor2_2
*I *1270:A1 I *D sky130_fd_sc_hd__o211ai_4
*I *1129:Y O *D sky130_fd_sc_hd__a2bb2oi_4
*CAP
1 *1131:A1 0.00012543
2 *1130:A 0
3 *1270:A1 0.000187779
4 *1129:Y 0.00209065
5 *107:25 0.000215993
6 *107:12 0.00236899
7 *1270:A1 *1131:A2 0
8 *107:12 *1076:B 7.47367e-05
9 *107:12 *1117:B 2.82622e-05
10 *107:12 *109:14 0.000455287
11 *107:12 *514:16 0.000139907
12 *107:12 *586:6 0.000114893
13 *107:12 *634:6 2.89114e-05
14 *1074:A *107:12 0.000256708
15 *1078:A2 *107:12 1.33343e-05
16 *1117:A *107:12 5.76121e-05
17 *1121:A *107:12 1.56e-05
18 *1130:B *1270:A1 4.46186e-06
19 *1130:B *107:25 7.38748e-05
20 *1132:B *107:12 2.44318e-05
21 *1270:A2 *1270:A1 0
22 *1270:C1 *1270:A1 0
23 *1658:A *1270:A1 0
24 *51:21 *107:12 0.000227526
25 *55:6 *107:12 0.000486441
26 *93:32 *107:12 0.000181796
27 *104:10 *1270:A1 0
28 *104:10 *107:25 0
29 *105:10 *1131:A1 9.7659e-05
*RES
1 *1129:Y *107:12 47.7464 
2 *107:12 *1270:A1 16.9607 
3 *107:12 *107:25 6.44643 
4 *107:25 *1130:A 9.3 
5 *107:25 *1131:A1 11.925 
*END

*D_NET *108 0.000880917
*CONN
*I *1193:A I *D sky130_fd_sc_hd__and3_4
*I *1680:A I *D sky130_fd_sc_hd__buf_2
*I *1131:X O *D sky130_fd_sc_hd__o21a_2
*CAP
1 *1193:A 0
2 *1680:A 0.000195201
3 *1131:X 0.000115421
4 *108:6 0.000310623
5 *1680:A *1193:B 1.02504e-05
6 *1680:A *1194:B1 0
7 *1680:A *1592:A 0.000101545
8 *108:6 *1193:C 9.90367e-05
9 p[7] *1680:A 4.884e-05
*RES
1 *1131:X *108:6 11.4786 
2 *108:6 *1680:A 22.0321 
3 *108:6 *1193:A 9.3 
*END

*D_NET *109 0.00591462
*CONN
*I *1191:B1 I *D sky130_fd_sc_hd__a21o_4
*I *1192:C I *D sky130_fd_sc_hd__nand3_4
*I *1132:Y O *D sky130_fd_sc_hd__nand2_4
*CAP
1 *1191:B1 0.000161207
2 *1192:C 0.000103394
3 *1132:Y 0.0018218
4 *109:14 0.0020864
5 *1191:B1 *1191:A2 5.52238e-05
6 *1191:B1 *246:18 7.84272e-05
7 *1192:C *1187:A 2.8266e-06
8 *1192:C *1191:A1 0.000103285
9 *1192:C *1191:A2 0.000210205
10 *1192:C *166:8 1.02504e-05
11 *1192:C *246:18 0
12 *109:14 *1073:A 2.89114e-05
13 *109:14 *1117:B 0.000351162
14 *109:14 *1121:C 0
15 *109:14 *1128:A_N 2.27416e-05
16 *109:14 *1193:B 1.92905e-05
17 *109:14 *1194:A2 1.42064e-05
18 *109:14 *169:21 0
19 *109:14 *586:6 7.32955e-05
20 *109:14 *634:6 9.93135e-05
21 *1117:A *109:14 8.07313e-05
22 *1128:B *109:14 2.72859e-05
23 *1130:B *109:14 1.3277e-05
24 *1132:B *109:14 9.60939e-05
25 *107:12 *109:14 0.000455287
*RES
1 *1132:Y *109:14 39.8357 
2 *109:14 *1192:C 16.9607 
3 *109:14 *1191:B1 16.8179 
*END

*D_NET *110 0.000892625
*CONN
*I *1189:C I *D sky130_fd_sc_hd__nand3b_4
*I *1264:A2 I *D sky130_fd_sc_hd__a21oi_2
*I *1133:X O *D sky130_fd_sc_hd__a31o_2
*CAP
1 *1189:C 5.07156e-05
2 *1264:A2 0
3 *1133:X 0.000132169
4 *110:10 0.000182884
5 *1189:C *1188:A2 0.000174812
6 *1189:C *246:18 0.000164561
7 *110:10 *1133:A2 0
8 *110:10 *1188:A2 1.02504e-05
9 *110:10 *1676:A 0
10 *110:10 *165:14 0
11 *110:10 *246:18 0.000177234
*RES
1 *1133:X *110:10 16.5857 
2 *110:10 *1264:A2 13.8 
3 *110:10 *1189:C 16.05 
*END

*D_NET *111 0.00137856
*CONN
*I *1188:B1 I *D sky130_fd_sc_hd__a31oi_2
*I *1190:B1 I *D sky130_fd_sc_hd__o21ai_4
*I *1134:Y O *D sky130_fd_sc_hd__a31oi_2
*CAP
1 *1188:B1 0
2 *1190:B1 0.000184768
3 *1134:Y 9.31513e-05
4 *111:6 0.000277919
5 *1190:B1 *1186:A 5.03772e-05
6 *1190:B1 *1188:A1 0
7 *1190:B1 *1190:A2 4.58194e-05
8 *1190:B1 *1610:A 0.000209491
9 *1190:B1 *1676:A 0.000153047
10 *1190:B1 *162:10 0.000173804
11 *1190:B1 *166:8 5.74562e-05
12 *1190:B1 *167:10 3.34295e-05
13 *111:6 *1133:A2 3.80195e-05
14 *111:6 *161:23 6.05161e-06
15 *1134:B1 *111:6 5.52238e-05
*RES
1 *1134:Y *111:6 11.0679 
2 *111:6 *1190:B1 24.2286 
3 *111:6 *1188:B1 9.3 
*END

*D_NET *112 0.00273921
*CONN
*I *1186:B I *D sky130_fd_sc_hd__nor3b_2
*I *1135:X O *D sky130_fd_sc_hd__a31o_2
*CAP
1 *1186:B 0.000932641
2 *1135:X 0.000932641
3 *1186:B *1187:A 0.000152374
4 *1186:B *1190:A1 0.000274294
5 *1186:B *1191:A1 6.25848e-05
6 *1186:B *1192:A 4.43256e-05
7 *1186:B *1610:A 0.000212185
8 *1186:B *164:8 0.000128161
*RES
1 *1135:X *1186:B 40.9929 
*END

*D_NET *113 0.00400094
*CONN
*I *1188:A1 I *D sky130_fd_sc_hd__a31oi_2
*I *1187:A I *D sky130_fd_sc_hd__nand3_2
*I *1136:X O *D sky130_fd_sc_hd__o21a_2
*CAP
1 *1188:A1 0.000226199
2 *1187:A 0.000256266
3 *1136:X 0.00105555
4 *113:6 0.00153802
5 *1187:A *1186:A 5.52238e-05
6 *1187:A *1187:B 1.00375e-05
7 *1187:A *1190:A2 3.81416e-06
8 *1187:A *164:8 5.54506e-05
9 *1187:A *166:8 0
10 *1188:A1 *1264:A1 0
11 *1188:A1 *1676:A 5.80217e-05
12 *1188:A1 *164:8 0
13 *1188:A1 *166:8 3.92757e-05
14 *113:6 *1186:A 0.000482601
15 *1119:A *113:6 2.27416e-05
16 *1186:B *1187:A 0.000152374
17 *1190:B1 *1188:A1 0
18 *1192:C *1187:A 2.8266e-06
19 *83:20 *113:6 4.25358e-05
*RES
1 *1136:X *113:6 22.5679 
2 *113:6 *1187:A 22.9429 
3 *113:6 *1188:A1 22.3714 
*END

*D_NET *114 0.00354551
*CONN
*I *1139:B2 I *D sky130_fd_sc_hd__a22o_4
*I *1140:A I *D sky130_fd_sc_hd__and4_2
*I *1138:B2 I *D sky130_fd_sc_hd__a22oi_2
*I *1141:A I *D sky130_fd_sc_hd__nand4_4
*I *1137:Y O *D sky130_fd_sc_hd__nand2_4
*CAP
1 *1139:B2 0
2 *1140:A 0.000190428
3 *1138:B2 0.000196584
4 *1141:A 9.43591e-05
5 *1137:Y 0.000667571
6 *114:23 0.000456877
7 *114:21 0.000115772
8 *114:8 0.000807836
9 *1138:B2 *1138:A1 5.52238e-05
10 *1138:B2 *1145:A2 0
11 *1138:B2 *118:14 1.08359e-05
12 *1138:B2 *156:27 0.000110835
13 *1138:B2 *675:74 9.10431e-06
14 *1138:B2 *680:121 0
15 *1138:B2 *684:115 3.18676e-05
16 *114:8 *1144:A2 1.40415e-05
17 *114:21 *156:27 7.57869e-05
18 *114:23 *156:27 8.14438e-05
19 *1140:C *1140:A 0.000127039
20 *1141:D *114:8 0.000154505
21 *1141:D *114:21 0.000142797
22 *74:20 *1140:A 1.24368e-05
23 *74:38 *1138:B2 9.25014e-06
24 *74:38 *114:21 1.02504e-05
25 *74:38 *114:23 0.000170661
*RES
1 *1137:Y *114:8 19.3 
2 *114:8 *1141:A 10.675 
3 *114:8 *114:21 6.44643 
4 *114:21 *114:23 2.25 
5 *114:23 *1138:B2 17.1929 
6 *114:23 *1140:A 17.2107 
7 *114:21 *1139:B2 13.8 
*END

*D_NET *115 0.00448199
*CONN
*I *1260:B2 I *D sky130_fd_sc_hd__o2bb2ai_4
*I *1274:A1 I *D sky130_fd_sc_hd__o21a_4
*I *1259:A1 I *D sky130_fd_sc_hd__o211ai_2
*I *1145:B1 I *D sky130_fd_sc_hd__a211o_4
*I *1138:Y O *D sky130_fd_sc_hd__a22oi_2
*CAP
1 *1260:B2 0.00029387
2 *1274:A1 1.82115e-05
3 *1259:A1 0.000347921
4 *1145:B1 0
5 *1138:Y 0.000254565
6 *115:31 0.000617039
7 *115:23 0.000603774
8 *115:10 0.000313562
9 *1259:A1 *1259:A2 0.000611994
10 *1259:A1 *232:32 5.52238e-05
11 *1260:B2 *1133:A1 3.14078e-05
12 *1260:B2 *1257:A1 7.83659e-05
13 *1260:B2 *1257:A2 6.05161e-06
14 *1260:B2 *1257:B1 7.79781e-06
15 *1260:B2 *1260:B1 0
16 *1260:B2 *122:8 0
17 *1260:B2 *232:32 5.33005e-05
18 *1260:B2 *233:6 0.000119005
19 *1260:B2 *675:97 9.15804e-05
20 *1274:A1 *1145:A1 3.99614e-06
21 *115:10 *1138:A1 5.52238e-05
22 *115:10 *1140:B 0.000269751
23 *115:10 *1140:D 0.000291838
24 *115:10 *1257:A2 0
25 *115:10 *117:10 0.000103275
26 *115:10 *229:12 0
27 *115:10 *675:97 1.76135e-05
28 *115:10 *684:115 6.9276e-05
29 *115:23 *1257:A1 9.25014e-06
30 *115:23 *1257:B1 1.60902e-05
31 *115:23 *117:10 1.76039e-05
32 *115:23 *675:97 6.12236e-05
33 *115:31 *1145:A1 4.05411e-05
34 *115:31 *1145:A2 5.19842e-06
35 *115:31 *1145:C1 7.43578e-06
36 *115:31 *675:82 1.00073e-05
*RES
1 *1138:Y *115:10 21.175 
2 *115:10 *1145:B1 13.8 
3 *115:10 *115:23 1.69643 
4 *115:23 *115:31 8.05357 
5 *115:31 *1259:A1 15.9964 
6 *115:31 *1274:A1 9.72857 
7 *115:23 *1260:B2 19.9964 
*END

*D_NET *116 0.00393395
*CONN
*I *1144:A1 I *D sky130_fd_sc_hd__a211o_4
*I *1143:A I *D sky130_fd_sc_hd__nand4_2
*I *1142:B1 I *D sky130_fd_sc_hd__a22o_2
*I *1257:A1 I *D sky130_fd_sc_hd__a31o_2
*I *1139:X O *D sky130_fd_sc_hd__a22o_4
*CAP
1 *1144:A1 0.000259934
2 *1143:A 0
3 *1142:B1 0.000131222
4 *1257:A1 0.000297008
5 *1139:X 0.000503918
6 *116:28 0.000206416
7 *116:26 0.000542039
8 *1142:B1 *226:10 0.00010326
9 *1142:B1 *675:58 5.52302e-05
10 *1142:B1 *675:70 0.000101545
11 *1142:B1 *680:121 3.4855e-05
12 *1142:B1 *684:115 9.11365e-06
13 *1142:B1 *733:112 1.41029e-05
14 *1144:A1 *1141:C 0
15 *1144:A1 *1144:B1 5.80706e-06
16 *1144:A1 *1144:C1 5.33005e-05
17 *1144:A1 *158:22 2.59355e-05
18 *1144:A1 *684:52 0
19 *1144:A1 *684:115 6.8646e-06
20 *1144:A1 *733:112 2.16719e-05
21 *1144:A1 *733:125 0.000390583
22 *1257:A1 *1145:C1 5.03772e-05
23 *1257:A1 *1257:B1 3.92854e-05
24 *1257:A1 *675:82 9.74783e-05
25 *116:26 *1145:A2 0.000260574
26 *116:26 *675:82 0.000219711
27 *116:26 *684:35 0.000128496
28 *116:26 *684:37 8.46829e-05
29 *116:26 *684:43 5.52238e-05
30 *116:28 *684:115 5.85228e-05
31 *116:28 *733:112 8.91726e-05
32 *1260:B2 *1257:A1 7.83659e-05
33 *115:23 *1257:A1 9.25014e-06
*RES
1 *1139:X *1257:A1 32.0464 
2 *1139:X *116:26 18.8536 
3 *116:26 *116:28 2.25 
4 *116:28 *1142:B1 16.8179 
5 *116:28 *1143:A 13.8 
6 *116:26 *1144:A1 19.925 
*END

*D_NET *117 0.00119671
*CONN
*I *1257:B1 I *D sky130_fd_sc_hd__a31o_2
*I *1145:C1 I *D sky130_fd_sc_hd__a211o_4
*I *1140:X O *D sky130_fd_sc_hd__and4_2
*CAP
1 *1257:B1 0.000102989
2 *1145:C1 4.52713e-05
3 *1140:X 0.000237846
4 *117:10 0.000386107
5 *1145:C1 *675:82 9.95494e-05
6 *1257:B1 *1257:A2 0
7 *1257:B1 *122:8 0
8 *117:10 *1140:D 2.59355e-05
9 *117:10 *1257:A2 0
10 *1140:C *117:10 5.71472e-05
11 *1257:A1 *1145:C1 5.03772e-05
12 *1257:A1 *1257:B1 3.92854e-05
13 *1260:B2 *1257:B1 7.79781e-06
14 *115:10 *117:10 0.000103275
15 *115:23 *1257:B1 1.60902e-05
16 *115:23 *117:10 1.76039e-05
17 *115:31 *1145:C1 7.43578e-06
*RES
1 *1140:X *117:10 18.425 
2 *117:10 *1145:C1 15.1571 
3 *117:10 *1257:B1 15.7464 
*END

*D_NET *118 0.0032119
*CONN
*I *1144:A2 I *D sky130_fd_sc_hd__a211o_4
*I *1256:B1 I *D sky130_fd_sc_hd__o21a_2
*I *1143:B I *D sky130_fd_sc_hd__nand4_2
*I *1142:B2 I *D sky130_fd_sc_hd__a22o_2
*I *1141:Y O *D sky130_fd_sc_hd__nand4_4
*CAP
1 *1144:A2 0.000119282
2 *1256:B1 0.00022624
3 *1143:B 0
4 *1142:B2 6.35926e-05
5 *1141:Y 0.000119282
6 *118:14 0.000274009
7 *118:6 0.000436656
8 *1142:B2 *1141:C 0.00012401
9 *1142:B2 *533:50 5.41794e-05
10 *1142:B2 *684:115 0.000174812
11 *1144:A2 *1182:B1 0
12 *1144:A2 *733:125 0.000125731
13 *1256:B1 *156:27 0
14 *1256:B1 *156:44 0
15 *1256:B1 *675:119 0.000367396
16 *118:14 *1143:D 2.44318e-05
17 *118:14 *675:70 0.000124471
18 *118:14 *675:74 0.000168939
19 *118:14 *675:119 0.000213635
20 *1138:B2 *118:14 1.08359e-05
21 *1141:D *1256:B1 2.31791e-05
22 *1141:D *118:14 0.00020042
23 *74:14 *118:14 0.000177821
24 *74:20 *118:14 0
25 *74:38 *118:14 0.000168939
26 *114:8 *1144:A2 1.40415e-05
*RES
1 *1141:Y *118:6 13.8 
2 *118:6 *118:14 11.6786 
3 *118:14 *1142:B2 20.55 
4 *118:14 *1143:B 9.3 
5 *118:6 *1256:B1 19.0143 
6 *1141:Y *1144:A2 29.7786 
*END

*D_NET *119 0.000939097
*CONN
*I *1146:A I *D sky130_fd_sc_hd__nand2_2
*I *1250:B1 I *D sky130_fd_sc_hd__a32oi_2
*I *1142:X O *D sky130_fd_sc_hd__a22o_2
*CAP
1 *1146:A 5.925e-05
2 *1250:B1 6.58681e-05
3 *1142:X 3.93699e-05
4 *119:8 0.000164488
5 *1146:A *1138:A1 0
6 *1146:A *156:27 4.14279e-05
7 *1146:A *675:58 0.000105607
8 *1250:B1 *1146:B 0.000174812
9 *1250:B1 *675:58 1.18064e-05
10 *1250:B1 *733:83 3.17148e-05
11 *1250:B1 *733:112 0.000173097
12 *119:8 *1138:A1 2.286e-05
13 *119:8 *156:27 2.89114e-05
14 *119:8 *675:58 1.98839e-05
*RES
1 *1142:X *119:8 10.2643 
2 *119:8 *1250:B1 20.8536 
3 *119:8 *1146:A 11.0857 
*END

*D_NET *120 0.00099692
*CONN
*I *1146:B I *D sky130_fd_sc_hd__nand2_2
*I *1250:B2 I *D sky130_fd_sc_hd__a32oi_2
*I *1143:Y O *D sky130_fd_sc_hd__nand4_2
*CAP
1 *1146:B 0.000114539
2 *1250:B2 0
3 *1143:Y 5.00771e-05
4 *120:6 0.000164616
5 *1146:B *1182:B1 2.87566e-05
6 *1146:B *226:10 5.96516e-05
7 *1146:B *675:58 3.34295e-05
8 *1146:B *684:33 4.25523e-05
9 *1146:B *733:112 1.17968e-05
10 *120:6 *226:10 6.05161e-06
11 *120:6 *675:70 2.89016e-05
12 *1250:B1 *1146:B 0.000174812
13 *74:14 *1146:B 0.000139907
14 *74:14 *120:6 0.00014183
*RES
1 *1143:Y *120:6 10.6571 
2 *120:6 *1250:B2 9.3 
3 *120:6 *1146:B 22.2107 
*END

*D_NET *121 0.0010317
*CONN
*I *1184:A I *D sky130_fd_sc_hd__nand4_4
*I *1183:A1 I *D sky130_fd_sc_hd__a22o_4
*I *1144:X O *D sky130_fd_sc_hd__a211o_4
*CAP
1 *1184:A 2.23854e-05
2 *1183:A1 0.00026967
3 *1144:X 7.31504e-05
4 *121:6 0.000365205
5 *1183:A1 *1183:A2 0
6 *1183:A1 *1184:C 0.000173921
7 *1183:A1 *1678:A 2.8266e-06
8 *1183:A1 *158:22 1.74352e-05
9 *1183:A1 *158:26 5.26091e-05
10 *1184:A *1184:C 0
11 *121:6 *1184:C 2.14658e-05
12 *121:6 *158:22 3.30352e-05
*RES
1 *1144:X *121:6 10.6571 
2 *121:6 *1183:A1 23.6571 
3 *121:6 *1184:A 9.72857 
*END

*D_NET *122 0.00115336
*CONN
*I *1183:A2 I *D sky130_fd_sc_hd__a22o_4
*I *1184:B I *D sky130_fd_sc_hd__nand4_4
*I *1145:X O *D sky130_fd_sc_hd__a211o_4
*CAP
1 *1183:A2 0.000159916
2 *1184:B 0
3 *1145:X 0.000256045
4 *122:8 0.000415962
5 *1183:A2 *1183:B2 0.00014285
6 *1183:A2 *1260:B1 7.77652e-05
7 *1183:A2 *156:44 0
8 *1183:A2 *158:26 0
9 *122:8 *1257:A2 0.000100823
10 *122:8 *156:27 0
11 *122:8 *156:44 0
12 *122:8 *158:26 0
13 *122:8 *161:8 0
14 *1183:A1 *1183:A2 0
15 *1257:B1 *122:8 0
16 *1260:B2 *122:8 0
*RES
1 *1145:X *122:8 18.4786 
2 *122:8 *1184:B 13.8 
3 *122:8 *1183:A2 17.4071 
*END

*D_NET *123 0.00582432
*CONN
*I *1182:B1 I *D sky130_fd_sc_hd__a21oi_2
*I *1251:B1 I *D sky130_fd_sc_hd__a32oi_4
*I *1146:Y O *D sky130_fd_sc_hd__nand2_2
*CAP
1 *1182:B1 0.000939503
2 *1251:B1 0.000347584
3 *1146:Y 3.89625e-05
4 *123:8 0.00132605
5 *1182:B1 *1110:B 0.000174564
6 *1182:B1 *1110:C 5.52302e-05
7 *1182:B1 *1111:D 5.52238e-05
8 *1182:B1 *1182:A2 0
9 *1182:B1 *1256:A2 0.000166983
10 *1182:B1 *348:62 0.000769471
11 *1182:B1 *526:25 0.000216121
12 *1182:B1 *684:33 0.000246071
13 *1182:B1 *730:68 0
14 *1182:B1 *733:112 0
15 *1182:B1 *733:125 0
16 *1251:B1 *1252:B1 0
17 *1251:B1 *157:14 1.24368e-05
18 *1251:B1 *227:12 0.000166416
19 *1251:B1 *348:62 0.000450615
20 *1251:B1 *592:8 0
21 *1251:B1 *675:58 4.02462e-05
22 *1251:B1 *733:83 0
23 *123:8 *675:58 1.58163e-05
24 *1111:A *1182:B1 2.49484e-05
25 *1144:A2 *1182:B1 0
26 *1146:B *1182:B1 2.87566e-05
27 *87:12 *1182:B1 0
28 *88:10 *1182:B1 0.000749318
*RES
1 *1146:Y *123:8 14.3357 
2 *123:8 *1251:B1 22.2643 
3 *123:8 *1182:B1 38.9071 
*END

*D_NET *124 0.0010373
*CONN
*I *1154:A2 I *D sky130_fd_sc_hd__o2111ai_2
*I *1153:A2 I *D sky130_fd_sc_hd__o2111a_2
*I *1147:Y O *D sky130_fd_sc_hd__nand3_2
*CAP
1 *1154:A2 0
2 *1153:A2 0.000146079
3 *1147:Y 0.000141862
4 *124:10 0.000287942
5 *1153:A2 *1153:B1 0
6 *1153:A2 *1233:B1 0.000150625
7 *1153:A2 *694:60 8.1579e-05
8 *124:10 *1147:A 5.33005e-05
9 *124:10 *1147:B 2.28598e-05
10 *124:10 *1233:B1 0.000153047
11 *124:10 *729:8 0
*RES
1 *1147:Y *124:10 16.6929 
2 *124:10 *1153:A2 16.6929 
3 *124:10 *1154:A2 13.8 
*END

*D_NET *125 0.00263377
*CONN
*I *1242:B1 I *D sky130_fd_sc_hd__o2bb2a_4
*I *1235:B1 I *D sky130_fd_sc_hd__a31o_2
*I *1240:B1 I *D sky130_fd_sc_hd__a211o_2
*I *1148:X O *D sky130_fd_sc_hd__and4_2
*CAP
1 *1242:B1 0.000214525
2 *1235:B1 0.000117328
3 *1240:B1 7.5986e-05
4 *1148:X 0
5 *125:17 0.000490741
6 *125:4 0.000234874
7 *1235:B1 *1230:A 8.8981e-05
8 *1235:B1 *696:12 3.20672e-05
9 *1235:B1 *696:31 7.6644e-05
10 *1240:B1 *1240:C1 6.37665e-05
11 *1240:B1 *219:10 5.52238e-05
12 *1240:B1 *680:84 3.99614e-06
13 *1242:B1 *1230:A 6.37408e-06
14 *1242:B1 *1242:A1_N 6.05161e-06
15 *1242:B1 *1242:A2_N 1.21258e-05
16 *1242:B1 *1242:B2 0.000127487
17 *1242:B1 *1516:A 5.74499e-06
18 *1242:B1 *155:12 0
19 *1242:B1 *696:31 0.000148911
20 *1242:B1 *727:45 0.000128161
21 *125:17 *1148:A 0.00026353
22 *125:17 *1148:B 0.000306324
23 *125:17 *1150:B2 4.18895e-05
24 *125:17 *1240:C1 0.000133035
*RES
1 *1148:X *125:4 9.3 
2 *125:4 *1240:B1 11.0857 
3 *125:4 *125:17 9.55357 
4 *125:17 *1235:B1 16.3536 
5 *125:17 *1242:B1 18.8893 
*END

*D_NET *126 0.00818113
*CONN
*I *1151:B2 I *D sky130_fd_sc_hd__a2bb2oi_4
*I *1152:A1_N I *D sky130_fd_sc_hd__o2bb2ai_2
*I *1239:A I *D sky130_fd_sc_hd__and3_2
*I *1238:A1 I *D sky130_fd_sc_hd__a21o_2
*I *1241:D I *D sky130_fd_sc_hd__and4_2
*I *1149:Y O *D sky130_fd_sc_hd__nand4_4
*CAP
1 *1151:B2 9.18209e-05
2 *1152:A1_N 6.07426e-05
3 *1239:A 0.000239249
4 *1238:A1 6.39254e-05
5 *1241:D 0.000212899
6 *1149:Y 0.00149492
7 *126:58 0.000302546
8 *126:23 0.000445267
9 *126:6 0.00169993
10 *1151:B2 *1156:B 7.80714e-06
11 *1151:B2 *1175:A1_N 0.000216448
12 *1151:B2 *127:40 0.000145411
13 *1151:B2 *127:44 9.18818e-05
14 *1152:A1_N *1156:B 3.25247e-05
15 *1152:A1_N *127:44 0.000125717
16 *1152:A1_N *326:35 0
17 *1238:A1 *1241:A 2.10446e-05
18 *1238:A1 *1257:A2 8.00806e-05
19 *1238:A1 *131:32 7.77976e-05
20 *1238:A1 *211:20 9.90367e-05
21 *1238:A1 *214:16 0
22 *1239:A *1257:A2 2.50314e-05
23 *1239:A *1277:A2 9.60939e-05
24 *1239:A *214:16 0.000129533
25 *1239:A *214:24 0.000184745
26 *1239:A *680:39 6.83482e-05
27 *1239:A *715:27 0.00010935
28 *1241:D *1241:B 5.52302e-05
29 *1241:D *1324:A1 9.25014e-06
30 *1241:D *207:10 7.6644e-05
31 *1241:D *207:25 0.000112323
32 *1241:D *680:39 5.90322e-05
33 *1241:D *680:84 8.57023e-05
34 *126:6 *1277:A1 0.00026151
35 *126:6 *131:24 0.000748019
36 *126:6 *670:16 4.99429e-05
37 *126:23 *1324:A1 5.52238e-05
38 *126:23 *131:24 9.30468e-05
39 *126:23 *131:32 5.52302e-05
40 *126:23 *211:20 0.000125547
41 *126:23 *670:16 0.00018372
42 *126:58 *131:24 8.85532e-05
*RES
1 *1149:Y *126:6 27.9071 
2 *126:6 *1241:D 22.2107 
3 *126:6 *126:23 3.83929 
4 *126:23 *1238:A1 20.2821 
5 *126:23 *1239:A 23.4429 
6 *1149:Y *126:58 15.5679 
7 *126:58 *1152:A1_N 15.4429 
8 *126:58 *1151:B2 16.9607 
*END

*D_NET *127 0.00688557
*CONN
*I *1154:D1 I *D sky130_fd_sc_hd__o2111ai_2
*I *1153:D1 I *D sky130_fd_sc_hd__o2111a_2
*I *1152:A2_N I *D sky130_fd_sc_hd__o2bb2ai_2
*I *1151:B1 I *D sky130_fd_sc_hd__a2bb2oi_4
*I *1235:A1 I *D sky130_fd_sc_hd__a31o_2
*I *1150:X O *D sky130_fd_sc_hd__a22o_4
*CAP
1 *1154:D1 0.00021249
2 *1153:D1 0.000190164
3 *1152:A2_N 0
4 *1151:B1 0
5 *1235:A1 0.0003536
6 *1150:X 0
7 *127:44 0.00028476
8 *127:40 0.000427116
9 *127:29 0.00102438
10 *127:6 0.00125795
11 *1153:D1 *1152:B1 0.000122918
12 *1153:D1 *1152:B2 9.60939e-05
13 *1153:D1 *1153:C1 3.69047e-06
14 *1153:D1 *531:12 0
15 *1153:D1 *694:60 0.000454289
16 *1154:D1 *1148:A 5.33005e-05
17 *1154:D1 *1156:A 1.00733e-05
18 *1154:D1 *1229:A1 5.52302e-05
19 *1154:D1 *131:6 0.000157867
20 *1154:D1 *131:24 0.000129913
21 *1154:D1 *558:31 0.00012747
22 *1235:A1 *1564:A 0.00044366
23 *1235:A1 *348:56 2.56694e-05
24 *127:29 *1149:B 1.90936e-05
25 *127:29 *128:14 3.47641e-06
26 *127:29 *348:56 1.30905e-05
27 *127:29 *597:18 0.000479459
28 *127:40 *1150:A2 1.33343e-05
29 *127:40 *128:10 0.000178847
30 *127:40 *531:23 6.84012e-05
31 *127:40 *722:44 8.40933e-05
32 *127:44 *1615:A 0.000220959
33 *127:44 *326:35 0
34 *127:44 *531:23 1.11775e-05
35 *1151:B2 *127:40 0.000145411
36 *1151:B2 *127:44 9.18818e-05
37 *1152:A1_N *127:44 0.000125717
*RES
1 *1150:X *127:6 13.8 
2 *127:6 *1235:A1 19.0679 
3 *127:6 *127:29 14.242 
4 *127:29 *1151:B1 9.3 
5 *127:29 *127:40 8.21429 
6 *127:40 *127:44 7.66071 
7 *127:44 *1152:A2_N 9.3 
8 *127:44 *1153:D1 15.3179 
9 *127:40 *1154:D1 18.5857 
*END

*D_NET *128 0.00270012
*CONN
*I *1634:A I *D sky130_fd_sc_hd__buf_2
*I *1155:A I *D sky130_fd_sc_hd__nor2_4
*I *1175:B2 I *D sky130_fd_sc_hd__o2bb2ai_4
*I *1151:Y O *D sky130_fd_sc_hd__a2bb2oi_4
*CAP
1 *1634:A 0
2 *1155:A 0.000154601
3 *1175:B2 2.04425e-05
4 *1151:Y 0.000132225
5 *128:14 0.000401674
6 *128:10 0.000358856
7 *1155:A *1176:B1 0.000210837
8 *1155:A *147:14 0.000226433
9 *1155:A *531:23 0
10 *1175:B2 *148:18 5.33005e-05
11 *1175:B2 *149:39 2.59355e-05
12 *128:10 *1150:A2 7.41433e-05
13 *128:10 *1517:A 0.000424134
14 *128:10 *722:44 5.38242e-05
15 *128:14 *1095:B2 0
16 *128:14 *1149:B 4.91424e-05
17 *128:14 *1149:C 0
18 *128:14 *1176:B1 5.58941e-05
19 *128:14 *1177:B 0.000127446
20 *128:14 *147:14 0.000148911
21 *128:14 *531:23 0
22 *127:29 *128:14 3.47641e-06
23 *127:40 *128:10 0.000178847
*RES
1 *1151:Y *128:10 14.0857 
2 *128:10 *128:14 9.48214 
3 *128:14 *1175:B2 14.3357 
4 *128:14 *1155:A 18.1393 
5 *128:10 *1634:A 9.3 
*END

*D_NET *129 0.000400329
*CONN
*I *1156:B I *D sky130_fd_sc_hd__nand2_2
*I *1152:Y O *D sky130_fd_sc_hd__o2bb2ai_2
*CAP
1 *1156:B 8.12208e-05
2 *1152:Y 8.12208e-05
3 *1156:B *1175:A1_N 2.63844e-05
4 *1156:B *326:35 0.000171171
5 *1151:B2 *1156:B 7.80714e-06
6 *1152:A1_N *1156:B 3.25247e-05
*RES
1 *1152:Y *1156:B 29.85 
*END

*D_NET *130 0.00592498
*CONN
*I *1155:B I *D sky130_fd_sc_hd__nor2_4
*I *1176:A2 I *D sky130_fd_sc_hd__o211ai_2
*I *1606:A I *D sky130_fd_sc_hd__buf_2
*I *1175:B1 I *D sky130_fd_sc_hd__o2bb2ai_4
*I *1178:A1 I *D sky130_fd_sc_hd__o22ai_4
*I *1153:X O *D sky130_fd_sc_hd__o2111a_2
*CAP
1 *1155:B 0.00021351
2 *1176:A2 2.10932e-05
3 *1606:A 0.000132592
4 *1175:B1 0
5 *1178:A1 1.90968e-05
6 *1153:X 0.000754531
7 *130:55 0.000388398
8 *130:31 0.000132592
9 *130:29 0.000221942
10 *130:18 0.000841775
11 *1155:B *1176:B1 0.00018372
12 *1178:A1 *147:14 9.71197e-05
13 *1178:A1 *149:39 9.90431e-05
14 *1606:A *1174:B1 0.000152851
15 *1606:A *1672:A 5.52302e-05
16 *1606:A *149:39 0
17 *1606:A *152:10 0.000353079
18 *130:18 *1149:B 9.46929e-05
19 *130:18 *147:14 0.000210213
20 *130:18 *149:39 4.18895e-05
21 *130:18 *555:79 0.000494047
22 *130:18 *694:60 0.000182694
23 *130:18 *716:125 0.000490154
24 *130:18 *728:6 4.58194e-05
25 *130:18 *728:8 9.0145e-05
26 *130:29 *1230:B 8.91822e-05
27 *130:29 *149:39 0.000173097
28 *130:55 *1095:B2 2.21812e-05
29 *130:55 *1176:C1 9.24687e-05
30 *130:55 *1230:B 3.34687e-05
31 *130:55 *149:39 3.34295e-05
32 *130:55 *674:108 5.91694e-05
33 *1181:B1 *1155:B 1.98839e-05
34 *1181:B1 *1176:A2 5.52238e-05
35 *1181:B1 *130:55 3.06466e-05
*RES
1 *1153:X *130:18 35.05 
2 *130:18 *1178:A1 10.2464 
3 *130:18 *130:29 6.75 
4 *130:29 *130:31 4.5 
5 *130:31 *1175:B1 9.3 
6 *130:31 *1606:A 13.5679 
7 *130:29 *130:55 8.01786 
8 *130:55 *1176:A2 9.83571 
9 *130:55 *1155:B 13.1571 
*END

*D_NET *131 0.00807041
*CONN
*I *1156:A I *D sky130_fd_sc_hd__nand2_2
*I *1241:A I *D sky130_fd_sc_hd__and4_2
*I *1238:A2 I *D sky130_fd_sc_hd__a21o_2
*I *1239:B I *D sky130_fd_sc_hd__and3_2
*I *1154:Y O *D sky130_fd_sc_hd__o2111ai_2
*CAP
1 *1156:A 2.08002e-05
2 *1241:A 8.77219e-05
3 *1238:A2 0
4 *1239:B 0.000150973
5 *1154:Y 6.53023e-05
6 *131:32 0.000223119
7 *131:24 0.00117313
8 *131:6 0.00109936
9 *1239:B *1237:A 7.83587e-05
10 *1239:B *1238:B1 9.46929e-05
11 *1239:B *1239:C 0.000148196
12 *1239:B *1333:A2 2.89114e-05
13 *1239:B *211:20 0.000169359
14 *1239:B *307:18 2.15363e-05
15 *1241:A *1243:A 0.000100831
16 *1241:A *1257:A2 0
17 *1241:A *211:20 1.17968e-05
18 *1241:A *214:16 5.83304e-05
19 *1241:A *670:20 1.77672e-05
20 *1241:A *733:33 3.34366e-05
21 *131:6 *1175:A1_N 0.000209204
22 *131:24 *1148:A 0.000316541
23 *131:24 *1149:B 0.000185643
24 *131:24 *1175:A1_N 0.000178847
25 *131:24 *1238:B1 9.7049e-06
26 *131:24 *1243:A 2.62395e-05
27 *131:24 *1277:A1 0.000141219
28 *131:24 *1564:A 0.000643893
29 *131:24 *1565:A 5.71472e-05
30 *131:24 *1576:A 9.90367e-05
31 *131:24 *1633:A 5.33005e-05
32 *131:24 *211:20 0.000654114
33 *131:24 *670:16 0.000374655
34 *131:24 *693:10 3.18676e-05
35 *131:32 *1237:B 0
36 *131:32 *1238:B1 8.03379e-05
37 *131:32 *1243:A 1.39726e-05
38 *131:32 *211:20 2.95254e-05
39 *1154:D1 *1156:A 1.00733e-05
40 *1154:D1 *131:6 0.000157867
41 *1154:D1 *131:24 0.000129913
42 *1238:A1 *1241:A 2.10446e-05
43 *1238:A1 *131:32 7.77976e-05
44 *126:6 *131:24 0.000748019
45 *126:23 *131:24 9.30468e-05
46 *126:23 *131:32 5.52302e-05
47 *126:58 *131:24 8.85532e-05
*RES
1 *1154:Y *131:6 11.4786 
2 *131:6 *131:24 33.75 
3 *131:24 *131:32 2.44643 
4 *131:32 *1239:B 22.55 
5 *131:32 *1238:A2 9.3 
6 *131:24 *1241:A 20.55 
7 *131:6 *1156:A 9.72857 
*END

*D_NET *132 0.00225703
*CONN
*I *1174:B1 I *D sky130_fd_sc_hd__o21ai_4
*I *1177:A I *D sky130_fd_sc_hd__nand3_4
*I *1155:Y O *D sky130_fd_sc_hd__nor2_4
*CAP
1 *1174:B1 0.00039546
2 *1177:A 5.68788e-05
3 *1155:Y 9.72668e-05
4 *132:8 0.000549606
5 *1174:B1 *1516:A 5.62995e-05
6 *1174:B1 *1597:A 0
7 *1174:B1 *1672:A 5.52302e-05
8 *1174:B1 *149:39 7.02611e-05
9 *1174:B1 *152:10 3.61642e-05
10 *1174:B1 *548:10 0.000186662
11 *1174:B1 *686:55 4.58976e-05
12 *1177:A *1095:B2 7.60306e-05
13 *1177:A *1176:B1 2.31791e-05
14 *1177:A *1177:B 0.000127446
15 *132:8 *1095:B2 0.000107343
16 *132:8 *1176:B1 0.000220448
17 *1606:A *1174:B1 0.000152851
*RES
1 *1155:Y *132:8 16.6571 
2 *132:8 *1177:A 15.7464 
3 *132:8 *1174:B1 21.7464 
*END

*D_NET *133 0.00135098
*CONN
*I *1229:A1 I *D sky130_fd_sc_hd__o21ai_4
*I *1156:Y O *D sky130_fd_sc_hd__nand2_2
*CAP
1 *1229:A1 0.000211535
2 *1156:Y 0.000211535
3 *1229:A1 *272:41 0.000147125
4 *1229:A1 *326:39 0.000199539
5 *1229:A1 *716:125 0.000526014
6 *1154:D1 *1229:A1 5.52302e-05
*RES
1 *1156:Y *1229:A1 34.9393 
*END

*D_NET *134 0.00270993
*CONN
*I *1164:B1_N I *D sky130_fd_sc_hd__o21bai_2
*I *1196:A1 I *D sky130_fd_sc_hd__o21ai_4
*I *1197:A2 I *D sky130_fd_sc_hd__o21a_4
*I *1165:B1 I *D sky130_fd_sc_hd__a41oi_2
*I *1157:Y O *D sky130_fd_sc_hd__nand2_4
*CAP
1 *1164:B1_N 1.59291e-05
2 *1196:A1 0.000249459
3 *1197:A2 0
4 *1165:B1 0.000181493
5 *1157:Y 0.000342139
6 *134:28 0.000394175
7 *1164:B1_N *294:39 5.30637e-06
8 *1164:B1_N *694:60 5.71472e-05
9 *1165:B1 *149:14 0
10 *1165:B1 *665:41 0.000150625
11 *1165:B1 *698:84 0.00014183
12 *1196:A1 *1166:A 8.68665e-05
13 *1196:A1 *1173:C 0
14 *1196:A1 *1196:A2 8.91534e-05
15 *1196:A1 *1196:B1 0
16 *1196:A1 *139:14 7.43578e-06
17 *1196:A1 *139:18 0
18 *1196:A1 *149:14 2.14658e-05
19 *1196:A1 *294:39 4.34273e-05
20 *1196:A1 *698:84 1.39726e-05
21 *134:28 *1157:A 5.52238e-05
22 *134:28 *139:14 7.77751e-05
23 *134:28 *149:14 0.00019002
24 *134:28 *173:10 0.000186662
25 *134:28 *698:84 0.000399826
*RES
1 *1157:Y *1165:B1 30.9036 
2 *1157:Y *134:28 16.1393 
3 *134:28 *1197:A2 9.3 
4 *134:28 *1196:A1 23.5143 
5 *1196:A1 *1164:B1_N 19.1357 
*END

*D_NET *135 0.00194879
*CONN
*I *1169:A2 I *D sky130_fd_sc_hd__o2111ai_2
*I *1168:A2 I *D sky130_fd_sc_hd__o2111a_2
*I *1158:Y O *D sky130_fd_sc_hd__nand2_2
*CAP
1 *1169:A2 0.000125111
2 *1168:A2 2.37855e-05
3 *1158:Y 0.000216035
4 *135:12 0.000364932
5 *1169:A2 *1168:A1 0.000101357
6 *1169:A2 *1168:B1 5.2304e-05
7 *1169:A2 *1170:B1 5.71472e-05
8 *1169:A2 *146:8 0.000147132
9 *1169:A2 *534:14 0.000169366
10 *1169:A2 *534:16 5.33005e-05
11 *1169:A2 *655:10 2.61337e-05
12 *135:12 *1168:B1 2.59355e-05
13 *135:12 *1574:A 0.000110398
14 *135:12 *534:16 5.33005e-05
15 *135:12 *722:50 0.000377295
16 *135:12 *729:8 1.41706e-05
17 *1168:D1 *135:12 3.10885e-05
*RES
1 *1158:Y *135:12 23.8179 
2 *135:12 *1168:A2 9.72857 
3 *135:12 *1169:A2 22.425 
*END

*D_NET *136 0.00238961
*CONN
*I *1167:B2 I *D sky130_fd_sc_hd__o22ai_2
*I *1603:A I *D sky130_fd_sc_hd__buf_6
*I *1164:A1 I *D sky130_fd_sc_hd__o21bai_2
*I *1197:A1 I *D sky130_fd_sc_hd__o21a_4
*I *1159:Y O *D sky130_fd_sc_hd__a22oi_2
*CAP
1 *1167:B2 0.000122936
2 *1603:A 0
3 *1164:A1 0.000186131
4 *1197:A1 9.80089e-05
5 *1159:Y 0.000122936
6 *136:15 0.000270588
7 *136:4 0.000182466
8 *1164:A1 *1164:A2 9.41642e-05
9 *1164:A1 *1173:C 9.36179e-05
10 *1164:A1 *1196:A2 0
11 *1164:A1 *694:60 9.60875e-05
12 *1164:A1 *717:12 0.000151389
13 *1167:B2 *673:138 2.37761e-05
14 *1167:B2 *698:84 0.000137983
15 *1167:B2 *700:22 4.78056e-05
16 *1167:B2 *703:107 0.000225372
17 *1167:B2 *708:42 2.42516e-05
18 *1197:A1 *149:14 7.075e-05
19 *1197:A1 *698:84 0.000132879
20 *1197:A1 *708:42 2.84026e-05
21 *136:15 *1173:C 7.98645e-05
22 *136:15 *283:10 0.000148189
23 *136:15 *673:138 1.27784e-05
24 *136:15 *708:50 3.34295e-05
25 *136:15 *717:12 5.80706e-06
*RES
1 *1159:Y *136:4 9.3 
2 *136:4 *1197:A1 11.8893 
3 *136:4 *136:15 7.05357 
4 *136:15 *1164:A1 18.2643 
5 *136:15 *1603:A 13.8 
6 *1159:Y *1167:B2 31.2071 
*END

*D_NET *137 0.00637569
*CONN
*I *1163:B1 I *D sky130_fd_sc_hd__o211ai_2
*I *1171:A1 I *D sky130_fd_sc_hd__a21o_2
*I *1166:A I *D sky130_fd_sc_hd__nand4_4
*I *1170:A1 I *D sky130_fd_sc_hd__a21oi_2
*I *1160:X O *D sky130_fd_sc_hd__a22o_2
*CAP
1 *1163:B1 0
2 *1171:A1 0.000307339
3 *1166:A 0.000265509
4 *1170:A1 0.000494503
5 *1160:X 0
6 *137:21 0.000678868
7 *137:19 0.000440391
8 *137:4 0.000828874
9 *1166:A *1162:C 4.5539e-05
10 *1166:A *1163:C1 3.76216e-05
11 *1166:A *1166:D 0.000139907
12 *1166:A *1196:A2 9.80173e-05
13 *1166:A *139:14 4.09496e-05
14 *1166:A *139:18 0
15 *1166:A *294:39 0.000516499
16 *1166:A *700:26 2.44318e-05
17 *1170:A1 *534:14 0.000264394
18 *1170:A1 *714:76 0.000246351
19 *1171:A1 *1502:A 0.000202776
20 *1171:A1 *1537:A 0.000181796
21 *1171:A1 *150:6 0.000117597
22 *1171:A1 *613:12 0.000616137
23 *137:19 *1160:A1 0.000317403
24 *137:19 *294:39 5.31101e-05
25 *137:19 *714:62 7.13226e-06
26 *137:19 *714:76 4.69415e-05
27 *137:21 *1163:C1 7.50212e-05
28 *137:21 *294:39 0.000241716
29 *1196:A1 *1166:A 8.68665e-05
*RES
1 *1160:X *137:4 9.3 
2 *137:4 *1170:A1 16.2821 
3 *137:4 *137:19 9.5 
4 *137:19 *137:21 3.16071 
5 *137:21 *1166:A 21.9607 
6 *137:21 *1171:A1 23.3714 
7 *137:19 *1163:B1 13.8 
*END

*D_NET *138 0.00332051
*CONN
*I *1167:B1 I *D sky130_fd_sc_hd__o22ai_2
*I *1164:A2 I *D sky130_fd_sc_hd__o21bai_2
*I *1161:X O *D sky130_fd_sc_hd__and4_2
*CAP
1 *1167:B1 0
2 *1164:A2 0.00042056
3 *1161:X 0.000306052
4 *138:10 0.000726611
5 *1164:A2 *1172:B1 0.000193111
6 *1164:A2 *1172:B2 0.00011914
7 *1164:A2 *294:39 0.000135855
8 *1164:A2 *694:60 6.87574e-05
9 *1164:A2 *698:84 4.06782e-05
10 *1164:A2 *700:22 0
11 *1164:A2 *703:94 9.11365e-06
12 *1164:A2 *703:107 0.000193125
13 *1164:A2 *708:42 0.000333486
14 *1164:A2 *714:50 1.31516e-05
15 *138:10 *1160:B1 9.41642e-05
16 *138:10 *1160:B2 1.5424e-05
17 *138:10 *1161:B 0.000261069
18 *138:10 *1161:C 0.000128595
19 *138:10 *703:107 4.45756e-05
20 *138:10 *714:50 0.000122879
21 *1164:A1 *1164:A2 9.41642e-05
*RES
1 *1161:X *138:10 20.05 
2 *138:10 *1164:A2 25.05 
3 *138:10 *1167:B1 13.8 
*END

*D_NET *139 0.00271406
*CONN
*I *1163:C1 I *D sky130_fd_sc_hd__o211ai_2
*I *1197:B1 I *D sky130_fd_sc_hd__o21a_4
*I *1166:B I *D sky130_fd_sc_hd__nand4_4
*I *1196:B1 I *D sky130_fd_sc_hd__o21ai_4
*I *1162:Y O *D sky130_fd_sc_hd__nand4_4
*CAP
1 *1163:C1 0.000285055
2 *1197:B1 0
3 *1166:B 2.73394e-05
4 *1196:B1 0.000131338
5 *1162:Y 0
6 *139:18 0.000302178
7 *139:14 0.000294358
8 *139:6 0.000435912
9 *1163:C1 *1162:C 1.78536e-05
10 *1163:C1 *1165:A3 0
11 *1163:C1 *1173:B 0.000148182
12 *1163:C1 *700:41 0
13 *1163:C1 *714:62 0
14 *1166:B *1166:D 9.66977e-05
15 *1166:B *700:26 4.96113e-05
16 *1196:B1 *1196:A2 0.000103285
17 *1196:B1 *1612:A 5.33005e-05
18 *1196:B1 *1652:A 4.60235e-05
19 *1196:B1 *173:10 0.000115082
20 *1196:B1 *694:60 0.000137561
21 *139:14 *1162:C 1.01912e-05
22 *139:14 *698:84 0.000152998
23 *139:14 *700:41 0
24 *139:18 *173:10 6.82922e-05
25 *139:18 *700:30 0
26 *1166:A *1163:C1 3.76216e-05
27 *1166:A *139:14 4.09496e-05
28 *1166:A *139:18 0
29 *1196:A1 *1196:B1 0
30 *1196:A1 *139:14 7.43578e-06
31 *1196:A1 *139:18 0
32 *134:28 *139:14 7.77751e-05
33 *137:21 *1163:C1 7.50212e-05
*RES
1 *1162:Y *139:6 13.8 
2 *139:6 *139:14 8.23214 
3 *139:14 *139:18 7.05357 
4 *139:18 *1196:B1 18.0143 
5 *139:18 *1166:B 14.7464 
6 *139:14 *1197:B1 9.3 
7 *139:6 *1163:C1 19.0857 
*END

*D_NET *140 0.000562766
*CONN
*I *1173:B I *D sky130_fd_sc_hd__nand3b_4
*I *1163:Y O *D sky130_fd_sc_hd__o211ai_2
*CAP
1 *1173:B 0.000159245
2 *1163:Y 0.000159245
3 *1173:B *1160:B1 9.60939e-05
4 *1173:B *714:62 0
5 *1163:C1 *1173:B 0.000148182
6 *1173:A_N *1173:B 0
*RES
1 *1163:Y *1173:B 30.4929 
*END

*D_NET *141 0.00170048
*CONN
*I *1173:C I *D sky130_fd_sc_hd__nand3b_4
*I *1164:Y O *D sky130_fd_sc_hd__o21bai_2
*CAP
1 *1173:C 0.000351904
2 *1164:Y 0.000351904
3 *1173:C *1163:A2 0.000188891
4 *1173:C *1502:A 2.14757e-05
5 *1173:C *294:39 0.000344096
6 *1173:C *533:27 5.52238e-05
7 *1173:C *613:12 5.03772e-05
8 *1173:C *708:50 0.000163128
9 *1164:A1 *1173:C 9.36179e-05
10 *1196:A1 *1173:C 0
11 *136:15 *1173:C 7.98645e-05
*RES
1 *1164:Y *1173:C 38.0821 
*END

*D_NET *142 0.00131043
*CONN
*I *1170:A2 I *D sky130_fd_sc_hd__a21oi_2
*I *1171:A2 I *D sky130_fd_sc_hd__a21o_2
*I *1165:Y O *D sky130_fd_sc_hd__a41oi_2
*CAP
1 *1170:A2 9.23259e-05
2 *1171:A2 0
3 *1165:Y 0.000220872
4 *142:12 0.000313198
5 *1170:A2 *1168:B1 5.33005e-05
6 *1170:A2 *1537:A 6.95112e-05
7 *1170:A2 *534:14 5.33005e-05
8 *1170:A2 *665:41 0.000187726
9 *142:12 *1165:A1 0.000180681
10 *142:12 *1537:A 1.88048e-05
11 *142:12 *665:41 0.000120708
12 *142:12 *717:48 0
*RES
1 *1165:Y *142:12 17.6393 
2 *142:12 *1171:A2 13.8 
3 *142:12 *1170:A2 16.8893 
*END

*D_NET *143 0.00615508
*CONN
*I *1172:B2 I *D sky130_fd_sc_hd__a2bb2oi_4
*I *1175:A1_N I *D sky130_fd_sc_hd__o2bb2ai_4
*I *1166:Y O *D sky130_fd_sc_hd__nand4_4
*CAP
1 *1172:B2 0.000750147
2 *1175:A1_N 0.00101432
3 *1166:Y 0.00176447
4 *1172:B2 *991:A 0.000212153
5 *1172:B2 *1159:A2 6.05161e-06
6 *1172:B2 *1172:B1 1.02504e-05
7 *1172:B2 *149:14 6.57032e-05
8 *1172:B2 *698:84 0.000246064
9 *1172:B2 *700:26 0.00056097
10 *1172:B2 *714:37 5.96516e-05
11 *1175:A1_N *305:92 0.000188345
12 *1175:A1_N *326:35 8.64053e-06
13 *1175:A1_N *531:23 0
14 *1175:A1_N *558:31 0.000260516
15 *1175:A1_N *728:27 0.000247786
16 *1151:B2 *1175:A1_N 0.000216448
17 *1156:B *1175:A1_N 2.63844e-05
18 *1164:A2 *1172:B2 0.00011914
19 *1172:A2_N *1172:B2 9.99644e-06
20 *131:6 *1175:A1_N 0.000209204
21 *131:24 *1175:A1_N 0.000178847
*RES
1 *1166:Y *1175:A1_N 47.7607 
2 *1166:Y *1172:B2 40.0464 
*END

*D_NET *144 0.000903552
*CONN
*I *1172:B1 I *D sky130_fd_sc_hd__a2bb2oi_4
*I *1167:Y O *D sky130_fd_sc_hd__o22ai_2
*CAP
1 *1172:B1 0.000134173
2 *1167:Y 0.000134173
3 *1172:B1 *1162:A 8.85532e-05
4 *1172:B1 *535:25 0.000177815
5 *1172:B1 *698:84 2.14378e-05
6 *1172:B1 *714:50 0.000144038
7 *1164:A2 *1172:B1 0.000193111
8 *1172:B2 *1172:B1 1.02504e-05
*RES
1 *1167:Y *1172:B1 31.9214 
*END

*D_NET *145 0.000826995
*CONN
*I *1175:A2_N I *D sky130_fd_sc_hd__o2bb2ai_4
*I *1168:X O *D sky130_fd_sc_hd__o2111a_2
*CAP
1 *1175:A2_N 0.000224481
2 *1168:X 0.000224481
3 *1175:A2_N *147:14 0.000225616
4 *1175:A2_N *558:31 7.73662e-05
5 *1175:A2_N *716:125 7.50505e-05
*RES
1 *1168:X *1175:A2_N 31.725 
*END

*D_NET *146 0.00130158
*CONN
*I *1170:B1 I *D sky130_fd_sc_hd__a21oi_2
*I *1171:B1 I *D sky130_fd_sc_hd__a21o_2
*I *1169:Y O *D sky130_fd_sc_hd__o2111ai_2
*CAP
1 *1170:B1 1.85618e-05
2 *1171:B1 0.000229175
3 *1169:Y 0.000167669
4 *146:8 0.000415405
5 *1170:B1 *1168:B1 9.90367e-05
6 *1170:B1 *534:14 2.14658e-05
7 *1171:B1 *1168:A1 1.89507e-06
8 *1171:B1 *1537:A 4.88637e-05
9 *1171:B1 *148:10 2.37575e-05
10 *1171:B1 *149:14 9.25014e-06
11 *1171:B1 *150:6 4.01768e-05
12 *1171:B1 *534:132 0
13 *1171:B1 *665:41 0
14 *146:8 *1168:A1 2.70725e-06
15 *146:8 *655:10 4.038e-06
16 *146:8 *665:41 0
17 *1169:A2 *1170:B1 5.71472e-05
18 *1169:A2 *146:8 0.000147132
19 *65:14 *146:8 1.52978e-05
*RES
1 *1169:Y *146:8 16.6571 
2 *146:8 *1171:B1 17.7286 
3 *146:8 *1170:B1 14.7464 
*END

*D_NET *147 0.0053559
*CONN
*I *1174:A1 I *D sky130_fd_sc_hd__o21ai_4
*I *1178:B1 I *D sky130_fd_sc_hd__o22ai_4
*I *1170:Y O *D sky130_fd_sc_hd__a21oi_2
*CAP
1 *1174:A1 0.000398962
2 *1178:B1 1.99857e-05
3 *1170:Y 0.00123376
4 *147:14 0.00165271
5 *1174:A1 *1516:A 0.000123295
6 *1174:A1 *149:39 1.21289e-05
7 *1174:A1 *149:49 7.77751e-05
8 *1174:A1 *155:12 0.000230475
9 *1174:A1 *348:56 0
10 *1178:B1 *149:39 1.04232e-05
11 *1178:B1 *155:12 0
12 *147:14 *1168:B1 0.000268396
13 *147:14 *1178:A2 5.52238e-05
14 *147:14 *149:39 0.000195673
15 *147:14 *531:23 0.000107968
16 *147:14 *534:16 7.48301e-06
17 *1155:A *147:14 0.000226433
18 *1168:D1 *147:14 5.33433e-05
19 *1175:A2_N *147:14 0.000225616
20 *1178:A1 *147:14 9.71197e-05
21 *128:14 *147:14 0.000148911
22 *130:18 *147:14 0.000210213
*RES
1 *1170:Y *147:14 41.5143 
2 *147:14 *1178:B1 9.72857 
3 *147:14 *1174:A1 24.6036 
*END

*D_NET *148 0.0039631
*CONN
*I *1229:B1 I *D sky130_fd_sc_hd__o21ai_4
*I *1176:B1 I *D sky130_fd_sc_hd__o211ai_2
*I *1177:B I *D sky130_fd_sc_hd__nand3_4
*I *1171:X O *D sky130_fd_sc_hd__a21o_2
*CAP
1 *1229:B1 0
2 *1176:B1 0.000160957
3 *1177:B 4.34961e-05
4 *1171:X 5.98201e-05
5 *148:18 0.000736453
6 *148:10 0.00059182
7 *1176:B1 *1095:B2 5.27703e-06
8 *1176:B1 *1176:C1 9.80173e-05
9 *148:10 *1233:B1 5.52302e-05
10 *148:10 *1537:A 0.000108918
11 *148:10 *149:14 0.000184745
12 *148:10 *150:6 7.49387e-06
13 *148:18 *1229:A2 3.99614e-06
14 *148:18 *1537:A 0.000517573
15 *148:18 *149:14 6.26177e-05
16 *148:18 *149:39 0.000300652
17 *1155:A *1176:B1 0.000210837
18 *1155:B *1176:B1 0.00018372
19 *1171:B1 *148:10 2.37575e-05
20 *1175:B2 *148:18 5.33005e-05
21 *1177:A *1176:B1 2.31791e-05
22 *1177:A *1177:B 0.000127446
23 *128:14 *1176:B1 5.58941e-05
24 *128:14 *1177:B 0.000127446
25 *132:8 *1176:B1 0.000220448
*RES
1 *1171:X *148:10 12.0321 
2 *148:10 *148:18 15.75 
3 *148:18 *1177:B 15.4429 
4 *148:18 *1176:B1 19.0321 
5 *148:10 *1229:B1 9.3 
*END

*D_NET *149 0.0114909
*CONN
*I *1178:B2 I *D sky130_fd_sc_hd__o22ai_4
*I *1174:A2 I *D sky130_fd_sc_hd__o21ai_4
*I *1597:A I *D sky130_fd_sc_hd__buf_6
*I *1229:A2 I *D sky130_fd_sc_hd__o21ai_4
*I *1172:Y O *D sky130_fd_sc_hd__a2bb2oi_4
*CAP
1 *1178:B2 0
2 *1174:A2 0
3 *1597:A 0.000152292
4 *1229:A2 2.06112e-05
5 *1172:Y 0.00215679
6 *149:49 0.000339517
7 *149:39 0.000942851
8 *149:14 0.00293303
9 *1597:A *1516:A 0.000114655
10 *1597:A *548:10 0.000353079
11 *149:14 *1147:B 3.69047e-06
12 *149:14 *1147:C 5.62995e-05
13 *149:14 *1157:A 2.89016e-05
14 *149:14 *1159:A2 2.15245e-05
15 *149:14 *1233:B1 0.000204075
16 *149:14 *1517:A 7.49387e-06
17 *149:14 *1539:A 2.04825e-05
18 *149:14 *150:6 0.000154423
19 *149:14 *173:10 0.000186662
20 *149:14 *665:41 0
21 *149:14 *698:84 8.37955e-05
22 *149:14 *708:42 0.000346906
23 *149:14 *714:37 2.47753e-05
24 *149:39 *1095:B2 0.000218741
25 *149:39 *1178:A2 5.52238e-05
26 *149:39 *1230:B 6.8646e-06
27 *149:39 *150:6 0.00063851
28 *149:39 *150:8 0.000360665
29 *149:39 *152:10 9.60939e-05
30 *149:39 *155:12 0
31 *149:49 *1516:A 9.60875e-05
32 *149:49 *348:56 0.000170654
33 *149:49 *548:10 4.13496e-05
34 *149:49 *686:55 0
35 *1165:B1 *149:14 0
36 *1171:B1 *149:14 9.25014e-06
37 *1172:A1_N *149:14 6.05161e-06
38 *1172:B2 *149:14 6.57032e-05
39 *1174:A1 *149:39 1.21289e-05
40 *1174:A1 *149:49 7.77751e-05
41 *1174:B1 *1597:A 0
42 *1174:B1 *149:39 7.02611e-05
43 *1175:B2 *149:39 2.59355e-05
44 *1178:A1 *149:39 9.90431e-05
45 *1178:B1 *149:39 1.04232e-05
46 *1196:A1 *149:14 2.14658e-05
47 *1197:A1 *149:14 7.075e-05
48 *1606:A *149:39 0
49 *130:18 *149:39 4.18895e-05
50 *130:29 *149:39 0.000173097
51 *130:55 *149:39 3.34295e-05
52 *134:28 *149:14 0.00019002
53 *147:14 *149:39 0.000195673
54 *148:10 *149:14 0.000184745
55 *148:18 *1229:A2 3.99614e-06
56 *148:18 *149:14 6.26177e-05
57 *148:18 *149:39 0.000300652
*RES
1 *1172:Y *149:14 48.675 
2 *149:14 *1229:A2 9.72857 
3 *149:14 *149:39 29.9464 
4 *149:39 *149:49 13.5536 
5 *149:49 *1597:A 13.5679 
6 *149:49 *1174:A2 9.3 
7 *149:39 *1178:B2 9.3 
*END

*D_NET *150 0.0103209
*CONN
*I *1177:C I *D sky130_fd_sc_hd__nand3_4
*I *1176:C1 I *D sky130_fd_sc_hd__o211ai_2
*I *1230:B I *D sky130_fd_sc_hd__nand2_4
*I *1173:Y O *D sky130_fd_sc_hd__nand3b_4
*CAP
1 *1177:C 6.67473e-05
2 *1176:C1 0.000106987
3 *1230:B 0.00108219
4 *1173:Y 0.00129931
5 *150:8 0.00154485
6 *150:6 0.00172173
7 *1176:C1 *1095:B2 0.00010326
8 *1177:C *154:16 0.000247771
9 *1177:C *728:27 0.000247771
10 *1230:B *1095:B2 0
11 *1230:B *1149:C 1.37429e-05
12 *1230:B *1535:A 5.2177e-05
13 *1230:B *1572:A 0.000392019
14 *1230:B *152:10 0.000139913
15 *1230:B *209:12 0.000101829
16 *1230:B *299:6 5.71472e-05
17 *1230:B *674:102 8.68569e-05
18 *1230:B *674:108 0.000874409
19 *1230:B *694:60 0.000310691
20 *1230:B *722:8 0
21 *1230:B *722:21 0
22 *150:6 *1502:A 0.000139907
23 *150:6 *1537:A 8.07397e-06
24 *150:8 *152:10 8.46829e-05
25 *1171:A1 *150:6 0.000117597
26 *1171:B1 *150:6 4.01768e-05
27 *1176:B1 *1176:C1 9.80173e-05
28 *130:29 *1230:B 8.91822e-05
29 *130:55 *1176:C1 9.24687e-05
30 *130:55 *1230:B 3.34687e-05
31 *148:10 *150:6 7.49387e-06
32 *149:14 *150:6 0.000154423
33 *149:39 *1230:B 6.8646e-06
34 *149:39 *150:6 0.00063851
35 *149:39 *150:8 0.000360665
*RES
1 *1173:Y *150:6 26.2643 
2 *150:6 *150:8 4.64286 
3 *150:8 *1230:B 42.3357 
4 *150:8 *1176:C1 21.0143 
5 *150:6 *1177:C 21.4607 
*END

*D_NET *151 0.00145843
*CONN
*I *1251:A2 I *D sky130_fd_sc_hd__a32oi_4
*I *1181:C1 I *D sky130_fd_sc_hd__o211ai_4
*I *1180:C1 I *D sky130_fd_sc_hd__o211a_2
*I *1174:Y O *D sky130_fd_sc_hd__o21ai_4
*CAP
1 *1251:A2 8.70989e-05
2 *1181:C1 0
3 *1180:C1 5.51812e-05
4 *1174:Y 0.000230827
5 *151:12 5.51812e-05
6 *151:10 0.000317926
7 *1180:C1 *1180:B1 9.80173e-05
8 *1180:C1 *1181:A1 0.00018372
9 *1251:A2 *1180:B1 7.66639e-05
10 *1251:A2 *158:14 2.70725e-06
11 *1251:A2 *348:56 4.87834e-05
12 *1251:A2 *675:44 0
13 *1251:A2 *686:76 0
14 *151:10 *1516:A 0.000229456
15 *151:10 *155:12 0
16 *151:10 *158:14 1.72079e-05
17 *151:10 *348:56 5.56557e-05
*RES
1 *1174:Y *151:10 18.2286 
2 *151:10 *151:12 4.5 
3 *151:12 *1180:C1 11.0679 
4 *151:12 *1181:C1 9.3 
5 *151:10 *1251:A2 16.05 
*END

*D_NET *152 0.00596247
*CONN
*I *1181:A2 I *D sky130_fd_sc_hd__o211ai_4
*I *1180:A1 I *D sky130_fd_sc_hd__o211a_2
*I *1230:A I *D sky130_fd_sc_hd__nand2_4
*I *1175:Y O *D sky130_fd_sc_hd__o2bb2ai_4
*CAP
1 *1181:A2 3.261e-05
2 *1180:A1 4.91049e-05
3 *1230:A 0.000555859
4 *1175:Y 0.000305085
5 *152:14 0.00114151
6 *152:10 0.000874237
7 *1180:A1 *1181:A1 3.15392e-05
8 *1181:A2 *1176:A1 0
9 *1181:A2 *1251:A3 2.86905e-05
10 *1181:A2 *686:76 7.03479e-05
11 *1230:A *1231:B 0
12 *1230:A *597:12 0.000392432
13 *1230:A *597:40 4.32309e-05
14 *1230:A *597:53 0.000643552
15 *1230:A *696:12 0
16 *1230:A *727:45 0.000480427
17 *152:10 *1176:A1 0
18 *152:10 *686:55 5.52238e-05
19 *152:10 *686:76 0.000103253
20 *152:14 *1181:A1 0.000228002
21 *1174:B1 *152:10 3.61642e-05
22 *1181:B1 *152:14 0.000122081
23 *1230:B *152:10 0.000139913
24 *1235:B1 *1230:A 8.8981e-05
25 *1242:B1 *1230:A 6.37408e-06
26 *1606:A *152:10 0.000353079
27 *149:39 *152:10 9.60939e-05
28 *150:8 *152:10 8.46829e-05
*RES
1 *1175:Y *152:10 21.0143 
2 *152:10 *152:14 11.6071 
3 *152:14 *1230:A 33.0321 
4 *152:14 *1180:A1 10.4205 
5 *152:10 *1181:A2 14.8357 
*END

*D_NET *153 0.0011508
*CONN
*I *1251:A3 I *D sky130_fd_sc_hd__a32oi_4
*I *1176:Y O *D sky130_fd_sc_hd__o211ai_2
*CAP
1 *1251:A3 0.000333564
2 *1176:Y 0.000333564
3 *1251:A3 *1176:A1 0
4 *1251:A3 *622:8 0
5 *1251:A3 *675:44 0.000140933
6 *1251:A3 *686:76 4.75717e-05
7 *1181:A2 *1251:A3 2.86905e-05
8 *1181:B1 *1251:A3 0.000266473
*RES
1 *1176:Y *1251:A3 34.1 
*END

*D_NET *154 0.00590154
*CONN
*I *1250:A1 I *D sky130_fd_sc_hd__a32oi_2
*I *1179:C I *D sky130_fd_sc_hd__nand3_4
*I *1177:Y O *D sky130_fd_sc_hd__nand3_4
*CAP
1 *1250:A1 0.000492223
2 *1179:C 0.000492223
3 *1177:Y 0.00131301
4 *154:16 0.00131301
5 *1250:A1 *1096:A1 5.83233e-05
6 *1250:A1 *1096:B1 1.39726e-05
7 *1250:A1 *1099:B 0
8 *1250:A1 *1250:A2 0.000116039
9 *1250:A1 *158:14 0.000227729
10 *1250:A1 *730:48 0.000136951
11 *154:16 *1098:A1 6.37975e-05
12 *154:16 *531:23 0.000735584
13 *154:16 *675:58 5.41494e-05
14 *154:16 *728:27 0.000185177
15 *154:16 *728:38 6.9253e-05
16 *1098:B1 *154:16 2.27416e-05
17 *1101:B1 *154:16 5.62995e-05
18 *1177:C *154:16 0.000247771
19 *1250:A3 *1250:A1 0.000221634
20 *74:14 *1250:A1 8.16429e-05
*RES
1 *1177:Y *154:16 41.4429 
2 *154:16 *1179:C 9.3 
3 *1179:C *1250:A1 37.9929 
*END

*D_NET *155 0.0038801
*CONN
*I *1250:A2 I *D sky130_fd_sc_hd__a32oi_2
*I *1179:B I *D sky130_fd_sc_hd__nand3_4
*I *1178:Y O *D sky130_fd_sc_hd__o22ai_4
*CAP
1 *1250:A2 0.000233441
2 *1179:B 0
3 *1178:Y 0.000452807
4 *155:12 0.000686248
5 *1250:A2 *1094:D 0.000180777
6 *1250:A2 *1096:B1 1.33343e-05
7 *1250:A2 *158:14 9.47456e-05
8 *1250:A2 *696:31 0.000119618
9 *1250:A2 *727:45 2.26327e-05
10 *155:12 *1242:B2 0.000188586
11 *155:12 *1516:A 0.000174103
12 *155:12 *158:14 0.000228236
13 *155:12 *348:56 0
14 *155:12 *548:10 0.000100823
15 *155:12 *696:31 0.000629933
16 *1174:A1 *155:12 0.000230475
17 *1178:B1 *155:12 0
18 *1242:B1 *155:12 0
19 *1250:A1 *1250:A2 0.000116039
20 *1250:A3 *1250:A2 0.000221634
21 *74:14 *1250:A2 0.000186662
22 *149:39 *155:12 0
23 *151:10 *155:12 0
*RES
1 *1178:Y *155:12 27.7821 
2 *155:12 *1179:B 13.8 
3 *155:12 *1250:A2 20.8179 
*END

*D_NET *156 0.00645278
*CONN
*I *1183:B2 I *D sky130_fd_sc_hd__a22o_4
*I *1632:A I *D sky130_fd_sc_hd__buf_2
*I *1184:C I *D sky130_fd_sc_hd__nand4_4
*I *1251:B2 I *D sky130_fd_sc_hd__a32oi_4
*I *1179:Y O *D sky130_fd_sc_hd__nand3_4
*CAP
1 *1183:B2 0.000207604
2 *1632:A 0
3 *1184:C 8.56062e-05
4 *1251:B2 3.87786e-05
5 *1179:Y 4.86183e-05
6 *156:44 0.00039381
7 *156:27 0.0014627
8 *156:10 0.00127828
9 *1183:B2 *1182:A1 0.000154027
10 *1183:B2 *1183:B1 5.33005e-05
11 *1183:B2 *1260:B1 0.000135489
12 *1183:B2 *160:10 7.43578e-06
13 *1184:C *158:22 0.000362967
14 *1251:B2 *1235:A3 0.000100823
15 *1251:B2 *684:33 0.000100823
16 *156:10 *1235:A3 5.41794e-05
17 *156:10 *675:58 5.33005e-05
18 *156:10 *684:33 4.66511e-05
19 *156:27 *1138:A1 9.86487e-05
20 *156:27 *1138:B1 0.000123288
21 *156:27 *1257:A2 0.000155857
22 *156:27 *533:50 0
23 *156:27 *675:58 0.000353073
24 *156:27 *684:115 0.00040279
25 *156:44 *1260:B1 2.89016e-05
26 *1138:B2 *156:27 0.000110835
27 *1141:D *156:27 2.91887e-05
28 *1146:A *156:27 4.14279e-05
29 *1183:A1 *1184:C 0.000173921
30 *1183:A2 *1183:B2 0.00014285
31 *1183:A2 *156:44 0
32 *1184:A *1184:C 0
33 *1256:B1 *156:27 0
34 *1256:B1 *156:44 0
35 *114:21 *156:27 7.57869e-05
36 *114:23 *156:27 8.14438e-05
37 *119:8 *156:27 2.89114e-05
38 *121:6 *1184:C 2.14658e-05
39 *122:8 *156:27 0
40 *122:8 *156:44 0
*RES
1 *1179:Y *156:10 15.0679 
2 *156:10 *1251:B2 15.1393 
3 *156:10 *156:27 29.8393 
4 *156:27 *1184:C 17.6393 
5 *156:27 *156:44 7.58929 
6 *156:44 *1632:A 9.3 
7 *156:44 *1183:B2 15.1929 
*END

*D_NET *157 0.00159013
*CONN
*I *1252:A1 I *D sky130_fd_sc_hd__o211a_2
*I *1253:A1 I *D sky130_fd_sc_hd__o211ai_2
*I *1180:X O *D sky130_fd_sc_hd__o211a_2
*CAP
1 *1252:A1 0
2 *1253:A1 0.000117874
3 *1180:X 0.000400145
4 *157:14 0.000518019
5 *1253:A1 *1252:B1 3.53387e-05
6 *1253:A1 *1253:A2 0.00018077
7 *1253:A1 *1253:B1 2.89016e-05
8 *1253:A1 *227:12 2.23021e-05
9 *157:14 *227:12 7.7397e-05
10 *157:14 *228:20 6.44739e-05
11 *157:14 *348:62 3.34295e-05
12 *157:14 *684:33 0
13 *157:14 *733:8 9.90431e-05
14 *1251:B1 *157:14 1.24368e-05
*RES
1 *1180:X *157:14 25.6839 
2 *157:14 *1253:A1 12.1839 
3 *157:14 *1252:A1 9.3 
*END

*D_NET *158 0.00643963
*CONN
*I *1184:D I *D sky130_fd_sc_hd__nand4_4
*I *1678:A I *D sky130_fd_sc_hd__buf_2
*I *1183:B1 I *D sky130_fd_sc_hd__a22o_4
*I *1181:Y O *D sky130_fd_sc_hd__o211ai_4
*CAP
1 *1184:D 0
2 *1678:A 8.55877e-05
3 *1183:B1 2.04426e-05
4 *1181:Y 0.000609341
5 *158:26 0.000179626
6 *158:22 0.00122102
7 *158:14 0.00175677
8 *1183:B1 *1260:B1 2.59355e-05
9 *1678:A *1182:A1 5.80217e-05
10 *1678:A *161:8 0.000216057
11 *158:14 *1053:D 3.17148e-05
12 *158:14 *1096:A1 9.8804e-05
13 *158:14 *1096:B2 0.000197262
14 *158:14 *1180:B1 0.000149562
15 *158:14 *1690:A 8.0089e-05
16 *158:14 *526:10 4.46186e-06
17 *158:14 *558:67 0
18 *158:14 *643:12 7.2882e-05
19 *158:14 *675:44 0
20 *158:14 *727:33 6.58631e-05
21 *158:14 *727:45 0
22 *158:22 *1109:A2 6.20547e-05
23 *158:22 *1144:C1 0.000156589
24 *158:22 *727:31 5.33005e-05
25 *158:26 *161:8 0.000175512
26 *1144:A1 *158:22 2.59355e-05
27 *1183:A1 *1678:A 2.8266e-06
28 *1183:A1 *158:22 1.74352e-05
29 *1183:A1 *158:26 5.26091e-05
30 *1183:A2 *158:26 0
31 *1183:B2 *1183:B1 5.33005e-05
32 *1184:C *158:22 0.000362967
33 *1250:A1 *158:14 0.000227729
34 *1250:A2 *158:14 9.47456e-05
35 *1251:A2 *158:14 2.70725e-06
36 *121:6 *158:22 3.30352e-05
37 *122:8 *158:26 0
38 *151:10 *158:14 1.72079e-05
39 *155:12 *158:14 0.000228236
*RES
1 *1181:Y *158:14 34.0679 
2 *158:14 *158:22 19.5893 
3 *158:22 *158:26 6.75 
4 *158:26 *1183:B1 14.3357 
5 *158:26 *1678:A 16.6571 
6 *158:22 *1184:D 9.3 
*END

*D_NET *159 0.00215961
*CONN
*I *1186:A I *D sky130_fd_sc_hd__nor3b_2
*I *1182:Y O *D sky130_fd_sc_hd__a21oi_2
*CAP
1 *1186:A 0.000725467
2 *1182:Y 0.000725467
3 *1186:A *1190:A2 5.78142e-05
4 *1186:A *1610:A 0
5 *1186:A *161:8 0
6 *1186:A *162:10 0
7 *1133:A3 *1186:A 6.26559e-05
8 *1134:B1 *1186:A 0
9 *1185:A2 *1186:A 0
10 *1187:A *1186:A 5.52238e-05
11 *1190:B1 *1186:A 5.03772e-05
12 *113:6 *1186:A 0.000482601
*RES
1 *1182:Y *1186:A 42.3143 
*END

*D_NET *160 0.0021738
*CONN
*I *1676:A I *D sky130_fd_sc_hd__buf_2
*I *1185:B2 I *D sky130_fd_sc_hd__a22oi_2
*I *1183:X O *D sky130_fd_sc_hd__a22o_4
*CAP
1 *1676:A 0.000275617
2 *1185:B2 0
3 *1183:X 0.000227424
4 *160:10 0.000503042
5 *1676:A *1189:A_N 4.27935e-05
6 *1676:A *161:8 1.02504e-05
7 *1676:A *161:23 0.000162832
8 *1676:A *162:10 1.81805e-05
9 *1676:A *162:20 9.41642e-05
10 *1676:A *165:14 9.41918e-05
11 *1676:A *626:8 3.48705e-05
12 *160:10 *1260:B1 3.81416e-06
13 *160:10 *161:8 0.000317594
14 *160:10 *165:14 0.000170523
15 *1183:B2 *160:10 7.43578e-06
16 *1188:A1 *1676:A 5.80217e-05
17 *1190:B1 *1676:A 0.000153047
18 *110:10 *1676:A 0
*RES
1 *1183:X *160:10 19.2286 
2 *160:10 *1185:B2 13.8 
3 *160:10 *1676:A 21.0857 
*END

*D_NET *161 0.00395293
*CONN
*I *1188:A3 I *D sky130_fd_sc_hd__a31oi_2
*I *1187:C I *D sky130_fd_sc_hd__nand3_2
*I *1186:C_N I *D sky130_fd_sc_hd__nor3b_2
*I *1185:B1 I *D sky130_fd_sc_hd__a22oi_2
*I *1184:Y O *D sky130_fd_sc_hd__nand4_4
*CAP
1 *1188:A3 0
2 *1187:C 8.88177e-05
3 *1186:C_N 3.72884e-05
4 *1185:B1 0
5 *1184:Y 0.000205351
6 *161:29 0.000404776
7 *161:23 0.000468861
8 *161:8 0.000395542
9 *1187:C *246:18 9.57064e-05
10 *161:8 *1260:B1 8.15843e-05
11 *161:8 *165:14 4.51213e-05
12 *161:23 *1133:A2 0.000266479
13 *161:23 *1188:A2 2.44318e-05
14 *161:23 *162:10 0.00012401
15 *161:23 *165:14 9.71197e-05
16 *161:29 *1188:A2 0.00010096
17 *161:29 *1264:A1 6.12434e-05
18 *161:29 *1264:B1 0.000103275
19 *161:29 *1266:A1 0
20 *161:29 *1267:A1 0.000151333
21 *161:29 *1666:A 0.000112106
22 *161:29 *246:18 0.000142083
23 *1134:B1 *161:8 1.91512e-05
24 *1134:B1 *161:23 1.59689e-05
25 *1186:A *161:8 0
26 *1676:A *161:8 1.02504e-05
27 *1676:A *161:23 0.000162832
28 *1678:A *161:8 0.000216057
29 *88:10 *161:8 2.34204e-05
30 *111:6 *161:23 6.05161e-06
31 *122:8 *161:8 0
32 *158:26 *161:8 0.000175512
33 *160:10 *161:8 0.000317594
*RES
1 *1184:Y *161:8 21.2107 
2 *161:8 *1185:B1 13.8 
3 *161:8 *161:23 10.1786 
4 *161:23 *161:29 12.375 
5 *161:29 *1186:C_N 14.3357 
6 *161:29 *1187:C 16.05 
7 *161:23 *1188:A3 9.3 
*END

*D_NET *162 0.00412496
*CONN
*I *1610:A I *D sky130_fd_sc_hd__buf_6
*I *1189:A_N I *D sky130_fd_sc_hd__nand3b_4
*I *1595:A I *D sky130_fd_sc_hd__buf_6
*I *1596:A I *D sky130_fd_sc_hd__buf_2
*I *1185:Y O *D sky130_fd_sc_hd__a22oi_2
*CAP
1 *1610:A 0.000380995
2 *1189:A_N 1.20577e-05
3 *1595:A 0
4 *1596:A 4.35308e-05
5 *1185:Y 0.000195862
6 *162:20 0.000509761
7 *162:12 0.000478288
8 *162:10 0.000576857
9 *1189:A_N *626:8 2.89114e-05
10 *1596:A *1267:A1 4.43256e-05
11 *1610:A *1190:A1 9.90431e-05
12 *1610:A *1191:A1 0
13 *1610:A *1192:A 5.52302e-05
14 *1610:A *167:10 7.06079e-05
15 *162:20 *1189:B 9.90431e-05
16 *162:20 *1267:A1 0.000356022
17 *162:20 *626:8 0.000166229
18 *1133:A3 *162:10 5.52302e-05
19 *1134:B1 *162:10 7.83366e-05
20 *1186:A *1610:A 0
21 *1186:A *162:10 0
22 *1186:B *1610:A 0.000212185
23 *1190:B1 *1610:A 0.000209491
24 *1190:B1 *162:10 0.000173804
25 *1676:A *1189:A_N 4.27935e-05
26 *1676:A *162:10 1.81805e-05
27 *1676:A *162:20 9.41642e-05
28 *161:23 *162:10 0.00012401
*RES
1 *1185:Y *162:10 18.7107 
2 *162:10 *162:12 4.5 
3 *162:12 *162:20 9.73214 
4 *162:20 *1596:A 10.2464 
5 *162:20 *1595:A 9.3 
6 *162:12 *1189:A_N 9.83571 
7 *162:10 *1610:A 22.8536 
*END

*D_NET *163 0.000745491
*CONN
*I *1190:A2 I *D sky130_fd_sc_hd__o21ai_4
*I *1186:Y O *D sky130_fd_sc_hd__nor3b_2
*CAP
1 *1190:A2 0.000319022
2 *1186:Y 0.000319022
3 *1186:A *1190:A2 5.78142e-05
4 *1187:A *1190:A2 3.81416e-06
5 *1190:B1 *1190:A2 4.58194e-05
*RES
1 *1186:Y *1190:A2 22.7429 
*END

*D_NET *164 0.00171599
*CONN
*I *1189:B I *D sky130_fd_sc_hd__nand3b_4
*I *1264:A1 I *D sky130_fd_sc_hd__a21oi_2
*I *1187:Y O *D sky130_fd_sc_hd__nand3_2
*CAP
1 *1189:B 1.99167e-05
2 *1264:A1 0.000220818
3 *1187:Y 0.000130441
4 *164:8 0.000371176
5 *1189:B *626:8 5.33433e-05
6 *1264:A1 *1188:A2 0.000205863
7 *164:8 *1187:B 0.00032246
8 *164:8 *1188:A2 4.80729e-05
9 *1186:B *164:8 0.000128161
10 *1187:A *164:8 5.54506e-05
11 *1188:A1 *1264:A1 0
12 *1188:A1 *164:8 0
13 *161:29 *1264:A1 6.12434e-05
14 *162:20 *1189:B 9.90431e-05
*RES
1 *1187:Y *164:8 18.4786 
2 *164:8 *1264:A1 17.9429 
3 *164:8 *1189:B 14.7464 
*END

*D_NET *165 0.00305736
*CONN
*I *1267:A2 I *D sky130_fd_sc_hd__o211ai_4
*I *1266:A2 I *D sky130_fd_sc_hd__o21ai_4
*I *1188:Y O *D sky130_fd_sc_hd__a31oi_2
*CAP
1 *1267:A2 0
2 *1266:A2 0.000443352
3 *1188:Y 0.000445571
4 *165:14 0.000888923
5 *1266:A2 *1266:B1 0.000241492
6 *1266:A2 *1267:A1 0.00010096
7 *1266:A2 *1267:B1 5.33005e-05
8 *165:14 *1133:A1 0.000280098
9 *165:14 *1133:A2 6.8551e-05
10 *165:14 *1260:B1 0.000128161
11 *1676:A *165:14 9.41918e-05
12 *110:10 *165:14 0
13 *160:10 *165:14 0.000170523
14 *161:8 *165:14 4.51213e-05
15 *161:23 *165:14 9.71197e-05
*RES
1 *1188:Y *165:14 30.55 
2 *165:14 *1266:A2 17.675 
3 *165:14 *1267:A2 9.3 
*END

*D_NET *166 0.00128427
*CONN
*I *1191:A2 I *D sky130_fd_sc_hd__a21o_4
*I *1192:B I *D sky130_fd_sc_hd__nand3_4
*I *1189:Y O *D sky130_fd_sc_hd__nand3b_4
*CAP
1 *1191:A2 0.000137081
2 *1192:B 0
3 *1189:Y 0.000165508
4 *166:8 0.000302588
5 *1191:A2 *167:10 1.02504e-05
6 *1191:A2 *169:10 4.25809e-05
7 *1191:A2 *169:21 7.79781e-06
8 *1191:A2 *246:18 4.87854e-05
9 *166:8 *167:10 0.000197269
10 *1187:A *166:8 0
11 *1188:A1 *166:8 3.92757e-05
12 *1190:B1 *166:8 5.74562e-05
13 *1191:B1 *1191:A2 5.52238e-05
14 *1192:C *1191:A2 0.000210205
15 *1192:C *166:8 1.02504e-05
*RES
1 *1189:Y *166:8 17.8714 
2 *166:8 *1192:B 13.8 
3 *166:8 *1191:A2 17.6036 
*END

*D_NET *167 0.00133614
*CONN
*I *1192:A I *D sky130_fd_sc_hd__nand3_4
*I *1191:A1 I *D sky130_fd_sc_hd__a21o_4
*I *1190:Y O *D sky130_fd_sc_hd__o21ai_4
*CAP
1 *1192:A 4.1628e-05
2 *1191:A1 0.000191277
3 *1190:Y 8.3597e-05
4 *167:10 0.000316502
5 *1191:A1 *1681:A 0
6 *1191:A1 *169:10 9.31209e-05
7 *1191:A1 *246:18 0
8 *1192:A *169:10 3.30352e-05
9 *1186:B *1191:A1 6.25848e-05
10 *1186:B *1192:A 4.43256e-05
11 *1190:B1 *167:10 3.34295e-05
12 *1191:A2 *167:10 1.02504e-05
13 *1192:C *1191:A1 0.000103285
14 *1610:A *1191:A1 0
15 *1610:A *1192:A 5.52302e-05
16 *1610:A *167:10 7.06079e-05
17 *166:8 *167:10 0.000197269
*RES
1 *1190:Y *167:10 20.8536 
2 *167:10 *1191:A1 23.05 
3 *167:10 *1192:A 10.6571 
*END

*D_NET *168 0.00902852
*CONN
*I *1681:A I *D sky130_fd_sc_hd__buf_6
*I *1641:A I *D sky130_fd_sc_hd__buf_6
*I *1663:A I *D sky130_fd_sc_hd__buf_4
*I *1642:A I *D sky130_fd_sc_hd__buf_2
*I *1191:X O *D sky130_fd_sc_hd__a21o_4
*CAP
1 *1681:A 0.000237748
2 *1641:A 0
3 *1663:A 0.000461726
4 *1642:A 0.000166273
5 *1191:X 8.62461e-05
6 *168:26 0.00100898
7 *168:20 0.00234049
8 *168:6 0.0022835
9 *1642:A *1340:A 3.63298e-05
10 *1642:A *1390:D 0.000197984
11 *1642:A *1662:A 5.52238e-05
12 *1642:A *374:12 5.71472e-05
13 *1663:A *1262:C 0
14 *1663:A *1269:A2 0.000315987
15 *1663:A *238:6 1.21258e-05
16 *1681:A *1194:A1 0.000208094
17 *1681:A *1194:B1 2.28598e-05
18 *168:20 *1266:A1 0
19 *168:20 *1273:B 0.000106299
20 *168:20 *551:10 3.51442e-05
21 *168:26 *1272:D 0.000206038
22 *168:26 *1339:A1 0
23 *168:26 *1339:A3 0
24 *168:26 *1339:B1 0
25 *168:26 *1340:A 0.000344932
26 *168:26 *243:16 6.67064e-05
27 *168:26 *243:18 0.000201127
28 *168:26 *243:26 0.000395427
29 *168:26 *551:10 0.000182132
30 *1191:A1 *1681:A 0
*RES
1 *1191:X *168:6 10.6571 
2 *168:6 *168:20 43.8393 
3 *168:20 *168:26 12.3214 
4 *168:26 *1642:A 18.1571 
5 *168:26 *1663:A 21.3357 
6 *168:20 *1641:A 13.8 
7 *168:6 *1681:A 23.05 
*END

*D_NET *169 0.00349803
*CONN
*I *1193:C I *D sky130_fd_sc_hd__and3_4
*I *1194:A2 I *D sky130_fd_sc_hd__a21oi_2
*I *1270:B1 I *D sky130_fd_sc_hd__o211ai_4
*I *1192:Y O *D sky130_fd_sc_hd__nand3_4
*CAP
1 *1193:C 0.000191672
2 *1194:A2 0.000639856
3 *1270:B1 6.52224e-05
4 *1192:Y 0.00028673
5 *169:21 0.00102478
6 *169:10 0.000545203
7 *1193:C *1193:B 4.06782e-05
8 *1193:C *1592:A 1.92789e-05
9 *1194:A2 *1193:B 5.33334e-05
10 *1194:A2 *1194:A1 6.97409e-05
11 *1194:A2 *1194:B1 0.000151061
12 *169:21 *1193:B 1.97381e-05
13 *1191:A1 *169:10 9.31209e-05
14 *1191:A2 *169:10 4.25809e-05
15 *1191:A2 *169:21 7.79781e-06
16 *1192:A *169:10 3.30352e-05
17 *1270:C1 *1270:B1 0.00010096
18 *1270:C1 *169:21 0
19 *105:14 *1193:C 0
20 *105:14 *169:21 0
21 *108:6 *1193:C 9.90367e-05
22 *109:14 *1194:A2 1.42064e-05
23 *109:14 *169:21 0
*RES
1 *1192:Y *169:10 18.0321 
2 *169:10 *1270:B1 15.1571 
3 *169:10 *169:21 3.46429 
4 *169:21 *1194:A2 22.4607 
5 *169:21 *1193:C 17.6393 
*END

*D_NET *170 0.000278605
*CONN
*I *1195:A I *D sky130_fd_sc_hd__or2_4
*I *1193:X O *D sky130_fd_sc_hd__and3_4
*CAP
1 *1195:A 0.000120343
2 *1193:X 0.000120343
3 *1195:A *1195:B 6.05161e-06
4 *1195:A *1592:A 3.18676e-05
*RES
1 *1193:X *1195:A 20.7786 
*END

*D_NET *171 0.000535853
*CONN
*I *1195:B I *D sky130_fd_sc_hd__or2_4
*I *1194:Y O *D sky130_fd_sc_hd__a21oi_2
*CAP
1 *1195:B 0.0002649
2 *1194:Y 0.0002649
3 *1195:B *1194:B1 0
4 *1195:B *1592:A 0
5 *1195:A *1195:B 6.05161e-06
*RES
1 *1194:Y *1195:B 31.9571 
*END

*D_NET *172 0.00174403
*CONN
*I *1210:C1 I *D sky130_fd_sc_hd__o211ai_4
*I *1209:B1 I *D sky130_fd_sc_hd__o211a_4
*I *1196:Y O *D sky130_fd_sc_hd__o21ai_4
*CAP
1 *1210:C1 0
2 *1209:B1 0.000296703
3 *1196:Y 0.000321944
4 *172:8 0.000618647
5 *1209:B1 *1206:A4 0
6 *1209:B1 *1209:A1 3.34366e-05
7 *1209:B1 *1209:A2 6.86693e-05
8 *1209:B1 *182:19 6.74911e-05
9 *1209:B1 *672:20 0
10 *1209:B1 *716:125 9.9784e-05
11 *172:8 *1207:B1 0
12 *172:8 *1208:C 0.000150611
13 *172:8 *1227:B1 0
14 *172:8 *1227:B2 0
15 *172:8 *173:10 6.91157e-05
16 *172:8 *181:21 0
17 *172:8 *672:20 0
18 *172:8 *672:29 0
19 *172:8 *716:125 1.76266e-05
*RES
1 *1196:Y *172:8 19.3893 
2 *172:8 *1209:B1 19.675 
3 *172:8 *1210:C1 13.8 
*END

*D_NET *173 0.00210588
*CONN
*I *1612:A I *D sky130_fd_sc_hd__buf_2
*I *1208:C I *D sky130_fd_sc_hd__nand3_4
*I *1197:X O *D sky130_fd_sc_hd__o21a_4
*CAP
1 *1612:A 6.66772e-05
2 *1208:C 8.37468e-05
3 *1197:X 0.000251511
4 *173:10 0.000401935
5 *1208:C *1652:A 0
6 *1208:C *672:29 0
7 *1612:A *1652:A 0.00026828
8 *1612:A *694:60 0.000204
9 *173:10 *700:30 0
10 *1196:B1 *1612:A 5.33005e-05
11 *1196:B1 *173:10 0.000115082
12 *134:28 *173:10 0.000186662
13 *139:18 *173:10 6.82922e-05
14 *149:14 *173:10 0.000186662
15 *172:8 *1208:C 0.000150611
16 *172:8 *173:10 6.91157e-05
*RES
1 *1197:X *173:10 20.55 
2 *173:10 *1208:C 15.7464 
3 *173:10 *1612:A 16.9429 
*END

*D_NET *174 0.00401989
*CONN
*I *1204:B1_N I *D sky130_fd_sc_hd__o21bai_2
*I *1206:B1 I *D sky130_fd_sc_hd__a41o_2
*I *1278:A1 I *D sky130_fd_sc_hd__o21ai_2
*I *1279:A1 I *D sky130_fd_sc_hd__o21a_2
*I *1198:Y O *D sky130_fd_sc_hd__nand2_2
*CAP
1 *1204:B1_N 0.000218423
2 *1206:B1 0.000302544
3 *1278:A1 4.81231e-05
4 *1279:A1 7.84729e-05
5 *1198:Y 4.26763e-05
6 *174:30 0.00064563
7 *174:10 0.000340588
8 *174:8 0.000381331
9 *1204:B1_N *1204:A1 2.28598e-05
10 *1204:B1_N *1208:A 9.60939e-05
11 *1204:B1_N *1208:B 0.000391652
12 *1204:B1_N *672:20 0
13 *1204:B1_N *672:29 0
14 *1206:B1 *1206:A3 0.000309603
15 *1206:B1 *1209:A2 0
16 *1278:A1 *1278:A2 6.74293e-05
17 *1278:A1 *1278:B1 5.03772e-05
18 *1278:A1 *665:35 9.7659e-05
19 *1279:A1 *1206:A4 3.57844e-05
20 *1279:A1 *1279:A2 0.000128146
21 *1279:A1 *1279:B1 6.74815e-05
22 *1279:A1 *1578:A 9.25014e-06
23 *1279:A1 *178:8 3.13225e-05
24 *174:8 *1198:A 1.24368e-05
25 *174:8 *1578:A 1.15172e-05
26 *174:10 *1203:C1 4.98872e-05
27 *174:10 *1206:A4 0.00012798
28 *174:10 *1578:A 0.000340788
29 *174:10 *672:20 0
30 *174:30 *1203:B1 1.09164e-05
31 *174:30 *1203:C1 4.78056e-05
32 *174:30 *1208:B 5.31101e-05
33 *174:30 *672:20 0
*RES
1 *1198:Y *174:8 14.3357 
2 *174:8 *174:10 5.58929 
3 *174:10 *1279:A1 16.3536 
4 *174:10 *1278:A1 15.5679 
5 *174:8 *174:30 2.55357 
6 *174:30 *1206:B1 18.4786 
7 *174:30 *1204:B1_N 19.1214 
*END

*D_NET *175 0.00179062
*CONN
*I *1578:A I *D sky130_fd_sc_hd__buf_6
*I *1653:A I *D sky130_fd_sc_hd__buf_2
*I *1199:Y O *D sky130_fd_sc_hd__a22oi_2
*CAP
1 *1578:A 0.000260078
2 *1653:A 3.18903e-05
3 *1199:Y 0.000122771
4 *175:6 0.000414739
5 *1578:A *1198:A 1.58163e-05
6 *1578:A *1198:B 8.50056e-05
7 *1578:A *1203:C1 0.000140375
8 *1578:A *178:8 0.000197991
9 *1653:A *1199:B2 0
10 *1653:A *1278:A2 0
11 *1653:A *1278:B1 5.52238e-05
12 *175:6 *1199:B2 5.33005e-05
13 *175:6 *1200:B2 6.05161e-06
14 *175:6 *665:35 4.58194e-05
15 *1279:A1 *1578:A 9.25014e-06
16 *174:8 *1578:A 1.15172e-05
17 *174:10 *1578:A 0.000340788
*RES
1 *1199:Y *175:6 11.4786 
2 *175:6 *1653:A 10.2643 
3 *175:6 *1578:A 25.2821 
*END

*D_NET *176 0.00213888
*CONN
*I *1203:B1 I *D sky130_fd_sc_hd__o211ai_2
*I *1200:X O *D sky130_fd_sc_hd__a22o_2
*CAP
1 *1203:B1 0.000500187
2 *1200:X 0.000500187
3 *1203:B1 *1199:B1 1.21258e-05
4 *1203:B1 *1202:A 6.57032e-05
5 *1203:B1 *1203:C1 0.000340066
6 *1203:B1 *1205:A2 3.32442e-05
7 *1203:B1 *1208:B 4.6025e-06
8 *1203:B1 *178:8 8.25098e-05
9 *1203:B1 *562:58 8.08022e-05
10 *1203:B1 *562:71 0.000166983
11 *1203:B1 *620:8 0.000178847
12 *1203:B1 *673:125 0.000148707
13 *1203:B1 *707:6 1.40034e-05
14 *174:30 *1203:B1 1.09164e-05
*RES
1 *1200:X *1203:B1 37.725 
*END

*D_NET *177 0.00157813
*CONN
*I *1204:A2 I *D sky130_fd_sc_hd__o21bai_2
*I *1205:B1 I *D sky130_fd_sc_hd__o22ai_4
*I *1201:X O *D sky130_fd_sc_hd__and4_4
*CAP
1 *1204:A2 0.00021539
2 *1205:B1 0
3 *1201:X 0.000133802
4 *177:8 0.000349192
5 *1204:A2 *1204:A1 3.93346e-05
6 *1204:A2 *698:84 0.000165262
7 *1204:A2 *702:29 0.00010286
8 *177:8 *698:63 3.34295e-05
9 *177:8 *698:84 0.000362545
10 *177:8 *702:29 0.000176316
*RES
1 *1201:X *177:8 18.7821 
2 *177:8 *1205:B1 13.8 
3 *177:8 *1204:A2 18.6571 
*END

*D_NET *178 0.00275997
*CONN
*I *1203:C1 I *D sky130_fd_sc_hd__o211ai_2
*I *1278:B1 I *D sky130_fd_sc_hd__o21ai_2
*I *1279:B1 I *D sky130_fd_sc_hd__o21a_2
*I *1202:Y O *D sky130_fd_sc_hd__nand4_2
*CAP
1 *1203:C1 0.000140837
2 *1278:B1 0.000101143
3 *1279:B1 0.00019493
4 *1202:Y 0
5 *178:8 0.000399563
6 *178:6 0.000244327
7 *1203:C1 *1206:A1 9.71197e-05
8 *1203:C1 *1206:A2 9.71197e-05
9 *1278:B1 *1199:B2 0
10 *1278:B1 *1278:A2 5.33005e-05
11 *1278:B1 *601:6 5.33005e-05
12 *1278:B1 *665:35 7.49387e-06
13 *1279:B1 *1206:A4 0
14 *1279:B1 *665:35 0.000153054
15 *178:8 *562:58 2.90164e-05
16 *178:8 *665:35 0.000125724
17 *1203:B1 *1203:C1 0.000340066
18 *1203:B1 *178:8 8.25098e-05
19 *1278:A1 *1278:B1 5.03772e-05
20 *1279:A1 *1279:B1 6.74815e-05
21 *1279:A1 *178:8 3.13225e-05
22 *1578:A *1203:C1 0.000140375
23 *1578:A *178:8 0.000197991
24 *1653:A *1278:B1 5.52238e-05
25 *174:10 *1203:C1 4.98872e-05
26 *174:30 *1203:C1 4.78056e-05
*RES
1 *1202:Y *178:6 13.8 
2 *178:6 *178:8 3.46429 
3 *178:8 *1279:B1 17.925 
4 *178:8 *1278:B1 15.9964 
5 *178:6 *1203:C1 19.1214 
*END

*D_NET *179 0.00144394
*CONN
*I *1208:B I *D sky130_fd_sc_hd__nand3_4
*I *1203:Y O *D sky130_fd_sc_hd__o211ai_2
*CAP
1 *1208:B 0.000266208
2 *1203:Y 0.000266208
3 *1208:B *1204:A1 0.000273443
4 *1208:B *1208:A 2.2351e-05
5 *1208:B *672:29 0
6 *1208:B *673:138 7.72009e-05
7 *1208:B *717:12 8.9163e-05
8 *1203:B1 *1208:B 4.6025e-06
9 *1204:B1_N *1208:B 0.000391652
10 *174:30 *1208:B 5.31101e-05
*RES
1 *1203:Y *1208:B 35.9036 
*END

*D_NET *180 0.000429768
*CONN
*I *1208:A I *D sky130_fd_sc_hd__nand3_4
*I *1204:Y O *D sky130_fd_sc_hd__o21bai_2
*CAP
1 *1208:A 0.000142612
2 *1204:Y 0.000142612
3 *1208:A *1204:A1 2.60984e-05
4 *1204:B1_N *1208:A 9.60939e-05
5 *1208:B *1208:A 2.2351e-05
*RES
1 *1204:Y *1208:A 21.2071 
*END

*D_NET *181 0.00302467
*CONN
*I *1604:A I *D sky130_fd_sc_hd__buf_2
*I *1209:C1 I *D sky130_fd_sc_hd__o211a_4
*I *1210:B1 I *D sky130_fd_sc_hd__o211ai_4
*I *1205:Y O *D sky130_fd_sc_hd__o22ai_4
*CAP
1 *1604:A 2.23854e-05
2 *1209:C1 0.000371749
3 *1210:B1 3.62004e-05
4 *1205:Y 0.000281838
5 *181:21 0.000595933
6 *181:6 0.000519837
7 *1209:C1 *1207:A1 0
8 *1209:C1 *1207:B1 3.37068e-05
9 *1209:C1 *1227:A1 3.93986e-05
10 *1209:C1 *1227:B1 0.000123288
11 *1209:C1 *184:14 0.000313235
12 *1209:C1 *203:12 0
13 *1209:C1 *716:125 0
14 *1210:B1 *1210:A2 5.7661e-06
15 *181:6 *1205:B2 0.000310768
16 *181:6 *1210:A2 3.4879e-05
17 *181:6 *717:12 9.80173e-05
18 *181:21 *184:14 8.63305e-05
19 *181:21 *672:29 0.00015134
20 *172:8 *181:21 0
*RES
1 *1205:Y *181:6 14.7643 
2 *181:6 *1210:B1 10.0321 
3 *181:6 *181:21 13.125 
4 *181:21 *1209:C1 25.9786 
5 *181:21 *1604:A 9.72857 
*END

*D_NET *182 0.00172522
*CONN
*I *1210:A2 I *D sky130_fd_sc_hd__o211ai_4
*I *1207:A2 I *D sky130_fd_sc_hd__o21ai_2
*I *1209:A2 I *D sky130_fd_sc_hd__o211a_4
*I *1206:X O *D sky130_fd_sc_hd__a41o_2
*CAP
1 *1210:A2 0.00015566
2 *1207:A2 0.000298734
3 *1209:A2 0.000148404
4 *1206:X 0
5 *182:19 0.000533191
6 *182:4 0.000227201
7 *1207:A2 *186:18 0.000185225
8 *182:19 *672:20 0
9 *1206:B1 *1209:A2 0
10 *1209:B1 *1209:A2 6.86693e-05
11 *1209:B1 *182:19 6.74911e-05
12 *1210:B1 *1210:A2 5.7661e-06
13 *181:6 *1210:A2 3.4879e-05
*RES
1 *1206:X *182:4 9.3 
2 *182:4 *1209:A2 11.9071 
3 *182:4 *182:19 10.6429 
4 *182:19 *1207:A2 14.3714 
5 *182:19 *1210:A2 11.9071 
*END

*D_NET *183 0.000354505
*CONN
*I *1227:B1 I *D sky130_fd_sc_hd__a22oi_2
*I *1207:Y O *D sky130_fd_sc_hd__o21ai_2
*CAP
1 *1227:B1 7.0443e-05
2 *1207:Y 7.0443e-05
3 *1227:B1 *1207:B1 8.00806e-05
4 *1227:B1 *1227:A1 0
5 *1227:B1 *1227:B2 1.02504e-05
6 *1209:C1 *1227:B1 0.000123288
7 *172:8 *1227:B1 0
*RES
1 *1207:Y *1227:B1 29.5464 
*END

*D_NET *184 0.0069215
*CONN
*I *1224:A1_N I *D sky130_fd_sc_hd__o2bb2ai_4
*I *1225:A I *D sky130_fd_sc_hd__nand4_4
*I *1312:A1 I *D sky130_fd_sc_hd__a21oi_4
*I *1228:B I *D sky130_fd_sc_hd__nand2_4
*I *1226:A2_N I *D sky130_fd_sc_hd__o2bb2ai_4
*I *1208:Y O *D sky130_fd_sc_hd__nand3_4
*CAP
1 *1224:A1_N 2.23854e-05
2 *1225:A 0.000128577
3 *1312:A1 0
4 *1228:B 0.000985303
5 *1226:A2_N 0.000221902
6 *1208:Y 0.000626933
7 *184:60 0.000411188
8 *184:16 0.00106857
9 *184:14 0.000748524
10 *1224:A1_N *186:33 0
11 *1225:A *1218:C1 9.71197e-05
12 *1225:A *1320:A2 0
13 *1225:A *1535:A 5.7903e-06
14 *1225:A *187:8 2.72859e-05
15 *1225:A *674:102 7.17932e-05
16 *1226:A2_N *1221:A1 0
17 *1226:A2_N *1223:A2 4.01768e-05
18 *1226:A2_N *305:62 0.000151333
19 *1228:B *1222:A 0
20 *1228:B *1223:A1 4.70048e-05
21 *1228:B *1223:B1 2.84398e-05
22 *1228:B *1226:B2 7.83659e-05
23 *1228:B *1312:A2 1.63458e-05
24 *1228:B *186:33 0.000348207
25 *184:14 *1207:B1 0.000142856
26 *184:14 *1221:A1 0
27 *184:14 *1227:A2 0.00022266
28 *184:14 *1233:C1 0
29 *184:14 *203:12 0.00018077
30 *184:14 *305:62 0.000144896
31 *184:16 *1221:A1 0
32 *184:16 *1223:A2 0
33 *184:16 *1312:A2 0
34 *184:16 *305:62 0.000250208
35 *184:60 *1211:B 5.52302e-05
36 *184:60 *1218:C1 0.000140933
37 *184:60 *1221:B1 9.60939e-05
38 *184:60 *1233:A1 0
39 *184:60 *186:33 0.000122518
40 *184:60 *187:8 4.05247e-05
41 *1209:C1 *184:14 0.000313235
42 *181:21 *184:14 8.63305e-05
*RES
1 *1208:Y *184:14 24.6393 
2 *184:14 *184:16 3.16071 
3 *184:16 *1226:A2_N 18.3357 
4 *184:16 *1228:B 32.175 
5 *184:14 *1312:A1 13.8 
6 *1228:B *184:60 14.9071 
7 *184:60 *1225:A 21.1929 
8 *184:60 *1224:A1_N 9.72857 
*END

*D_NET *185 0.00243785
*CONN
*I *1233:A2 I *D sky130_fd_sc_hd__o211ai_4
*I *1312:B1 I *D sky130_fd_sc_hd__a21oi_4
*I *1314:B1 I *D sky130_fd_sc_hd__o221ai_4
*I *1313:B1 I *D sky130_fd_sc_hd__o221a_2
*I *1209:X O *D sky130_fd_sc_hd__o211a_4
*CAP
1 *1233:A2 0.0001883
2 *1312:B1 0
3 *1314:B1 0
4 *1313:B1 8.42886e-05
5 *1209:X 0
6 *185:28 0.000240627
7 *185:8 0.000204795
8 *185:6 0.000172833
9 *1233:A2 *1227:A2 9.7659e-05
10 *1233:A2 *305:62 6.36455e-05
11 *1233:A2 *665:41 0.000217034
12 *1313:B1 *1313:A2 1.28809e-05
13 *1313:B1 *1313:B2 0.000200413
14 *1313:B1 *1313:C1 1.38106e-05
15 *1313:B1 *1314:A1 0
16 *1313:B1 *305:62 1.00375e-05
17 *1313:B1 *665:41 0.00015234
18 *185:8 *305:62 0.000154801
19 *185:8 *665:41 0.000421321
20 *185:28 *305:62 5.0725e-05
21 *185:28 *665:41 0.00015234
*RES
1 *1209:X *185:6 13.8 
2 *185:6 *185:8 5.28571 
3 *185:8 *1313:B1 16.7866 
4 *185:8 *1314:B1 13.8 
5 *185:6 *185:28 1.94643 
6 *185:28 *1312:B1 13.8 
7 *185:28 *1233:A2 18.425 
*END

*D_NET *186 0.00506406
*CONN
*I *1224:A2_N I *D sky130_fd_sc_hd__o2bb2ai_4
*I *1225:B I *D sky130_fd_sc_hd__nand4_4
*I *1226:A1_N I *D sky130_fd_sc_hd__o2bb2ai_4
*I *1210:Y O *D sky130_fd_sc_hd__o211ai_4
*CAP
1 *1224:A2_N 0
2 *1225:B 8.08057e-05
3 *1226:A1_N 6.19464e-05
4 *1210:Y 0.00079023
5 *186:33 0.00044143
6 *186:18 0.0012128
7 *1225:B *1211:B 1.02504e-05
8 *1225:B *1222:B 0.000123295
9 *1225:B *1222:D 5.44167e-05
10 *1225:B *560:23 5.58941e-05
11 *1226:A1_N *1315:A 0.000170654
12 *1226:A1_N *326:18 0.000170654
13 *186:18 *1221:A1 5.86225e-05
14 *186:18 *1221:B1 1.64329e-05
15 *186:18 *1227:A1 5.46982e-05
16 *186:18 *1315:A 0.000345415
17 *186:18 *326:18 0.000163847
18 *186:33 *1211:B 3.18676e-05
19 *186:33 *1221:B1 1.02821e-05
20 *186:33 *1223:B1 0.000392026
21 *186:33 *1228:A 1.21258e-05
22 *186:33 *187:6 9.71197e-05
23 *186:33 *187:8 5.33005e-05
24 *1207:A2 *186:18 0.000185225
25 *1224:A1_N *186:33 0
26 *1228:B *186:33 0.000348207
27 *184:60 *186:33 0.000122518
*RES
1 *1210:Y *186:18 28.675 
2 *186:18 *1226:A1_N 16.05 
3 *186:18 *186:33 13.1607 
4 *186:33 *1225:B 20.55 
5 *186:33 *1224:A2_N 9.3 
*END

*D_NET *187 0.00490271
*CONN
*I *1221:B1 I *D sky130_fd_sc_hd__a41oi_2
*I *1216:A I *D sky130_fd_sc_hd__and3_2
*I *1320:A2 I *D sky130_fd_sc_hd__o2111ai_4
*I *1219:B1_N I *D sky130_fd_sc_hd__o21bai_2
*I *1211:Y O *D sky130_fd_sc_hd__nand2_2
*CAP
1 *1221:B1 0.00041213
2 *1216:A 7.56527e-05
3 *1320:A2 0.000262003
4 *1219:B1_N 0.000151722
5 *1211:Y 0.000474255
6 *187:8 0.000783038
7 *187:6 0.00050709
8 *1216:A *1211:B 0.000173083
9 *1216:A *1216:C 5.71472e-05
10 *1216:A *1222:D 3.34687e-05
11 *1216:A *1225:D 2.89114e-05
12 *1216:A *191:64 5.66647e-05
13 *1219:B1_N *1218:C1 7.07155e-06
14 *1219:B1_N *1224:B2 7.83659e-05
15 *1219:B1_N *1320:A1 8.98585e-05
16 *1219:B1_N *1321:B2 5.58941e-05
17 *1219:B1_N *189:50 3.34295e-05
18 *1219:B1_N *300:10 1.721e-05
19 *1221:B1 *1221:A1 5.45614e-05
20 *1221:B1 *1221:A3 9.90431e-05
21 *1221:B1 *1222:A 4.35141e-05
22 *1221:B1 *1223:B1 2.89114e-05
23 *1221:B1 *1226:B2 6.51946e-05
24 *1221:B1 *1227:A1 2.39999e-05
25 *1221:B1 *1227:A2 4.43256e-05
26 *1320:A2 *1320:A1 0.000506404
27 *1320:A2 *1535:A 0.000252431
28 *1320:A2 *1572:A 1.98839e-05
29 *1320:A2 *200:12 1.17968e-05
30 *1320:A2 *209:12 9.71197e-05
31 *1320:A2 *674:102 0
32 *187:8 *1218:C1 1.74876e-05
33 *1225:A *1320:A2 0
34 *1225:A *187:8 2.72859e-05
35 *184:60 *1221:B1 9.60939e-05
36 *184:60 *187:8 4.05247e-05
37 *186:18 *1221:B1 1.64329e-05
38 *186:33 *1221:B1 1.02821e-05
39 *186:33 *187:6 9.71197e-05
40 *186:33 *187:8 5.33005e-05
*RES
1 *1211:Y *187:6 10.2464 
2 *187:6 *187:8 4.64286 
3 *187:8 *1219:B1_N 21.1929 
4 *187:8 *1320:A2 25.8714 
5 *187:6 *1216:A 21.0857 
6 *1211:Y *1221:B1 35.2607 
*END

*D_NET *188 0.00427847
*CONN
*I *1218:A1 I *D sky130_fd_sc_hd__o211a_2
*I *1219:A1 I *D sky130_fd_sc_hd__o21bai_2
*I *1626:A I *D sky130_fd_sc_hd__buf_2
*I *1212:X O *D sky130_fd_sc_hd__and4_4
*CAP
1 *1218:A1 3.78791e-05
2 *1219:A1 9.43294e-05
3 *1626:A 0.000148049
4 *1212:X 8.65051e-05
5 *188:27 0.000759103
6 *188:8 0.000861449
7 *1218:A1 *1218:C1 2.57194e-05
8 *1218:A1 *1320:D1 7.22594e-05
9 *1218:A1 *348:56 8.15095e-05
10 *1219:A1 *1219:A2 0.000139907
11 *1219:A1 *1320:D1 0.000146474
12 *1219:A1 *300:16 1.21258e-05
13 *1219:A1 *348:56 0.000148903
14 *1219:A1 *596:8 5.03772e-05
15 *1626:A *1318:A3 5.52238e-05
16 *1626:A *1378:A1 7.65804e-05
17 *1626:A *291:16 0.000434813
18 *1626:A *732:75 0.00016641
19 *188:8 *1661:A 0
20 *188:8 *293:22 9.25014e-06
21 *188:8 *684:10 0.000148182
22 *188:27 *1218:C1 1.44428e-05
23 *188:27 *1650:A 4.43698e-05
24 *188:27 *1665:A 3.67257e-05
25 *188:27 *293:22 0.000221163
26 *188:27 *597:12 4.8035e-05
27 *188:27 *684:10 6.91157e-05
28 *188:27 *684:33 0.000289564
*RES
1 *1212:X *188:8 15.7464 
2 *188:8 *1626:A 18.7643 
3 *188:8 *188:27 19.5536 
4 *188:27 *1219:A1 17.1036 
5 *188:27 *1218:A1 15.367 
*END

*D_NET *189 0.00751267
*CONN
*I *1216:B I *D sky130_fd_sc_hd__and3_2
*I *1316:B1 I *D sky130_fd_sc_hd__o21a_2
*I *1320:B1 I *D sky130_fd_sc_hd__o2111ai_4
*I *1222:A I *D sky130_fd_sc_hd__and4_2
*I *1220:B1 I *D sky130_fd_sc_hd__a2bb2oi_4
*I *1217:B1 I *D sky130_fd_sc_hd__o211ai_2
*I *1213:Y O *D sky130_fd_sc_hd__nand4_4
*CAP
1 *1216:B 0.000121473
2 *1316:B1 0
3 *1320:B1 0.000326553
4 *1222:A 0.00037983
5 *1220:B1 1.16062e-05
6 *1217:B1 2.23854e-05
7 *1213:Y 0.000376413
8 *189:65 0.000176928
9 *189:50 0.000567493
10 *189:19 0.000522737
11 *189:6 0.000344614
12 *1216:B *1224:B2 0.000229456
13 *1216:B *1225:D 0.000295815
14 *1220:B1 *1220:B2 5.52302e-05
15 *1220:B1 *293:12 5.52302e-05
16 *1222:A *1222:C 4.98872e-05
17 *1222:A *1223:B1 9.97744e-05
18 *1222:A *1226:B2 0
19 *1222:A *1227:A1 5.41794e-05
20 *1222:A *193:10 0.000586665
21 *1222:A *196:10 6.74911e-05
22 *1222:A *209:12 5.52238e-05
23 *1222:A *555:79 0
24 *1320:B1 *1214:A1 1.3142e-05
25 *1320:B1 *1224:B2 0
26 *1320:B1 *1225:D 4.87854e-05
27 *1320:B1 *1320:C1 6.76272e-05
28 *1320:B1 *191:29 1.92789e-05
29 *1320:B1 *200:12 0
30 *1320:B1 *300:10 1.65558e-05
31 *1320:B1 *596:8 0.000181796
32 *1320:B1 *686:43 0.000384988
33 *1320:B1 *686:55 0.000197991
34 *189:6 *1211:B 9.71197e-05
35 *189:6 *1217:A2 5.52238e-05
36 *189:6 *1217:C1 0.00014183
37 *189:6 *1221:A1 0.000130029
38 *189:6 *1317:B 0.00018831
39 *189:6 *1617:A 0.000230475
40 *189:6 *560:23 0.000194422
41 *189:6 *674:63 6.88059e-05
42 *189:6 *674:74 2.14658e-05
43 *189:6 *719:29 5.71472e-05
44 *189:19 *1217:C1 5.52238e-05
45 *189:19 *1221:A1 1.74352e-05
46 *189:19 *193:10 0.000123295
47 *189:19 *337:36 1.46717e-05
48 *189:50 *1321:B2 8.24047e-05
49 *189:50 *300:10 0.000220448
50 *189:50 *686:12 0
51 *189:50 *719:61 2.8266e-06
52 *189:65 *1224:B2 8.71861e-05
53 *189:65 *1225:D 0.000224098
54 *189:65 *596:8 9.41642e-05
55 *1219:B1_N *189:50 3.34295e-05
56 *1221:B1 *1222:A 4.35141e-05
57 *1228:B *1222:A 0
*RES
1 *1213:Y *189:6 17.2286 
2 *189:6 *1217:B1 9.72857 
3 *189:6 *189:19 7.28571 
4 *189:19 *1220:B1 14.3357 
5 *189:19 *1222:A 23.8714 
6 *1213:Y *189:50 22.675 
7 *189:50 *1320:B1 27.4786 
8 *189:50 *189:65 2.58929 
9 *189:65 *1316:B1 9.3 
10 *189:65 *1216:B 13.1571 
*END

*D_NET *190 0.00212062
*CONN
*I *1218:A2 I *D sky130_fd_sc_hd__o211a_2
*I *1649:A I *D sky130_fd_sc_hd__buf_2
*I *1219:A2 I *D sky130_fd_sc_hd__o21bai_2
*I *1214:Y O *D sky130_fd_sc_hd__a22oi_2
*CAP
1 *1218:A2 0
2 *1649:A 0
3 *1219:A2 0.000103232
4 *1214:Y 0.000140138
5 *190:20 0.000200118
6 *190:10 0.000237023
7 *1219:A2 *1215:A1 9.7049e-06
8 *1219:A2 *1215:A2 5.7661e-06
9 *1219:A2 *1225:D 0
10 *1219:A2 *191:29 0.00026353
11 *1219:A2 *300:16 7.49387e-06
12 *1219:A2 *596:8 2.42516e-05
13 *190:10 *1276:A3 1.99099e-05
14 *190:10 *1320:D1 0.000195547
15 *190:10 *201:12 9.31209e-05
16 *190:10 *597:12 0
17 *190:10 *688:45 9.31209e-05
18 *190:10 *732:112 0.000115467
19 *190:20 *1215:A1 8.35358e-06
20 *190:20 *1215:A2 2.43155e-05
21 *190:20 *1320:D1 0.000197984
22 *190:20 *191:29 1.04921e-05
23 *190:20 *300:16 2.29107e-05
24 *190:20 *732:97 0.000197984
25 *190:20 *732:112 1.02504e-05
26 *1219:A1 *1219:A2 0.000139907
*RES
1 *1214:Y *190:10 18.1214 
2 *190:10 *190:20 8.14286 
3 *190:20 *1219:A2 12.7464 
4 *190:20 *1649:A 9.3 
5 *190:10 *1218:A2 13.8 
*END

*D_NET *191 0.0110886
*CONN
*I *1222:D I *D sky130_fd_sc_hd__and4_2
*I *1223:A2 I *D sky130_fd_sc_hd__a21oi_4
*I *1216:C I *D sky130_fd_sc_hd__and3_2
*I *1220:B2 I *D sky130_fd_sc_hd__a2bb2oi_4
*I *1217:C1 I *D sky130_fd_sc_hd__o211ai_2
*I *1661:A I *D sky130_fd_sc_hd__buf_2
*I *1215:X O *D sky130_fd_sc_hd__a22o_4
*CAP
1 *1222:D 0.000470974
2 *1223:A2 0.00094321
3 *1216:C 0.000103863
4 *1220:B2 6.27899e-05
5 *1217:C1 0.000176868
6 *1661:A 0.000343844
7 *1215:X 8.08812e-05
8 *191:64 0.00146039
9 *191:53 0.000198124
10 *191:31 0.000274636
11 *191:29 0.00127584
12 *191:6 0.00161753
13 *1216:C *1225:D 2.79567e-05
14 *1217:C1 *1221:A1 1.32552e-05
15 *1217:C1 *193:10 6.20884e-05
16 *1217:C1 *337:36 0.000146474
17 *1217:C1 *674:74 8.61371e-05
18 *1217:C1 *674:91 4.6025e-06
19 *1220:B2 *292:8 0.000268403
20 *1220:B2 *293:12 8.25897e-05
21 *1220:B2 *337:36 5.33005e-05
22 *1222:D *1211:A 0.000125724
23 *1222:D *1211:B 3.14626e-05
24 *1222:D *1222:B 0.000108827
25 *1222:D *1222:C 0.000368595
26 *1222:D *1225:D 6.9253e-05
27 *1222:D *209:12 1.74352e-05
28 *1222:D *674:102 0
29 *1222:D *722:8 3.34295e-05
30 *1223:A2 *1221:A1 0
31 *1223:A2 *1225:D 5.03772e-05
32 *1223:A2 *1226:B1 1.92789e-05
33 *1223:A2 *1233:C1 0.000201636
34 *1661:A *1215:B1 0
35 *1661:A *1375:B2 0
36 *1661:A *1650:A 0.000126439
37 *1661:A *292:22 0.000128146
38 *1661:A *293:22 1.37292e-05
39 *1661:A *684:10 0
40 *1661:A *732:71 0
41 *191:6 *292:22 3.14048e-05
42 *191:29 *1215:A1 9.41642e-05
43 *191:29 *1215:B1 5.33334e-05
44 *191:29 *1215:B2 1.21258e-05
45 *191:29 *292:8 0.000819872
46 *191:29 *292:22 1.58163e-05
47 *191:29 *300:10 3.69697e-05
48 *191:29 *300:16 5.01499e-06
49 *191:29 *596:8 7.49387e-06
50 *191:29 *686:12 4.46186e-06
51 *191:29 *686:43 3.69697e-05
52 *191:31 *1211:B 8.51637e-06
53 *191:31 *193:10 1.65558e-05
54 *191:31 *674:91 4.99283e-06
55 *191:53 *1211:B 2.05938e-05
56 *191:53 *193:10 2.34204e-05
57 *191:64 *1211:B 4.98055e-06
58 *191:64 *1225:D 2.94103e-05
59 *191:64 *193:10 2.6949e-05
60 *1216:A *1216:C 5.71472e-05
61 *1216:A *1222:D 3.34687e-05
62 *1216:A *191:64 5.66647e-05
63 *1219:A2 *191:29 0.00026353
64 *1220:B1 *1220:B2 5.52302e-05
65 *1225:B *1222:D 5.44167e-05
66 *1226:A2_N *1223:A2 4.01768e-05
67 *1320:B1 *191:29 1.92789e-05
68 *184:16 *1223:A2 0
69 *188:8 *1661:A 0
70 *189:6 *1217:C1 0.00014183
71 *189:19 *1217:C1 5.52238e-05
72 *190:20 *191:29 1.04921e-05
*RES
1 *1215:X *191:6 10.2464 
2 *191:6 *1661:A 24.8 
3 *191:6 *191:29 29.5714 
4 *191:29 *191:31 0.732143 
5 *191:31 *1217:C1 18.2286 
6 *191:31 *1220:B2 16.3893 
7 *191:29 *191:53 1.03571 
8 *191:53 *1216:C 15.1571 
9 *191:53 *191:64 1.64286 
10 *191:64 *1223:A2 34.425 
11 *191:64 *1222:D 24.2107 
*END

*D_NET *192 0.00136802
*CONN
*I *1224:B2 I *D sky130_fd_sc_hd__o2bb2ai_4
*I *1216:X O *D sky130_fd_sc_hd__and3_2
*CAP
1 *1224:B2 0.000405065
2 *1216:X 0.000405065
3 *1224:B2 *1320:A1 2.23987e-05
4 *1224:B2 *200:12 3.51442e-05
5 *1224:B2 *300:10 9.25014e-06
6 *1224:B2 *596:8 9.60875e-05
7 *1216:B *1224:B2 0.000229456
8 *1219:B1_N *1224:B2 7.83659e-05
9 *1320:B1 *1224:B2 0
10 *189:65 *1224:B2 8.71861e-05
*RES
1 *1216:X *1224:B2 34.1893 
*END

*D_NET *193 0.0058047
*CONN
*I *1227:A1 I *D sky130_fd_sc_hd__a22oi_2
*I *1225:C I *D sky130_fd_sc_hd__nand4_4
*I *1217:Y O *D sky130_fd_sc_hd__o211ai_2
*CAP
1 *1227:A1 0.00112577
2 *1225:C 5.44061e-05
3 *1217:Y 0.000316079
4 *193:10 0.00149626
5 *1225:C *1221:A3 9.71197e-05
6 *1225:C *1221:A4 4.58194e-05
7 *1225:C *1227:A2 0
8 *1227:A1 *1207:A1 0.000148189
9 *1227:A1 *1221:A1 6.42095e-05
10 *1227:A1 *1221:A3 0.000351149
11 *1227:A1 *1222:C 4.56251e-05
12 *1227:A1 *1315:A 0.000615963
13 *193:10 *1222:C 1.17968e-05
14 *193:10 *1225:D 0.000360123
15 *193:10 *337:36 6.09476e-05
16 *1209:C1 *1227:A1 3.93986e-05
17 *1217:C1 *193:10 6.20884e-05
18 *1221:B1 *1227:A1 2.39999e-05
19 *1222:A *1227:A1 5.41794e-05
20 *1222:A *193:10 0.000586665
21 *1227:B1 *1227:A1 0
22 *186:18 *1227:A1 5.46982e-05
23 *189:19 *193:10 0.000123295
24 *191:31 *193:10 1.65558e-05
25 *191:53 *193:10 2.34204e-05
26 *191:64 *193:10 2.6949e-05
*RES
1 *1217:Y *193:10 23.5679 
2 *193:10 *1225:C 15.175 
3 *193:10 *1227:A1 39.1571 
*END

*D_NET *194 8.11463e-05
*CONN
*I *1224:B1 I *D sky130_fd_sc_hd__o2bb2ai_4
*I *1218:X O *D sky130_fd_sc_hd__o211a_2
*CAP
1 *1224:B1 2.61224e-05
2 *1218:X 2.61224e-05
3 *1224:B1 *1218:C1 2.89016e-05
*RES
1 *1218:X *1224:B1 19.1357 
*END

*D_NET *195 0.00559953
*CONN
*I *1227:A2 I *D sky130_fd_sc_hd__a22oi_2
*I *1225:D I *D sky130_fd_sc_hd__nand4_4
*I *1219:Y O *D sky130_fd_sc_hd__o21bai_2
*CAP
1 *1227:A2 0.0007905
2 *1225:D 0.00138559
3 *1219:Y 0.000595093
4 *1225:D *1211:A 0.000125724
5 *1225:D *1222:C 5.59013e-05
6 *1227:A2 *1221:A3 0.000282756
7 *1227:A2 *1221:A4 4.22908e-05
8 *1227:A2 *1226:B2 0.000123295
9 *1227:A2 *1233:A1 0.00049789
10 *1227:A2 *209:12 7.95355e-05
11 *1227:A2 *555:79 0.000121573
12 *1216:A *1225:D 2.89114e-05
13 *1216:B *1225:D 0.000295815
14 *1216:C *1225:D 2.79567e-05
15 *1219:A2 *1225:D 0
16 *1221:B1 *1227:A2 4.43256e-05
17 *1222:D *1225:D 6.9253e-05
18 *1223:A2 *1225:D 5.03772e-05
19 *1225:C *1227:A2 0
20 *1233:A2 *1227:A2 9.7659e-05
21 *1320:B1 *1225:D 4.87854e-05
22 *184:14 *1227:A2 0.00022266
23 *189:65 *1225:D 0.000224098
24 *191:64 *1225:D 2.94103e-05
25 *193:10 *1225:D 0.000360123
*RES
1 *1219:Y *1225:D 41.725 
2 *1225:D *1227:A2 42.7071 
*END

*D_NET *196 0.00190803
*CONN
*I *1223:B1 I *D sky130_fd_sc_hd__a21oi_4
*I *1226:B1 I *D sky130_fd_sc_hd__o2bb2ai_4
*I *1220:Y O *D sky130_fd_sc_hd__a2bb2oi_4
*CAP
1 *1223:B1 0.000228052
2 *1226:B1 2.91823e-05
3 *1220:Y 0.000204493
4 *196:10 0.000461728
5 *1223:B1 *1226:B2 4.84853e-05
6 *1223:B1 *1228:A 5.36507e-05
7 *1223:B1 *1233:A1 6.09919e-05
8 *196:10 *1226:B2 2.8266e-06
9 *196:10 *292:8 0.000182694
10 *196:10 *555:75 0
11 *1221:B1 *1223:B1 2.89114e-05
12 *1222:A *1223:B1 9.97744e-05
13 *1222:A *196:10 6.74911e-05
14 *1223:A2 *1226:B1 1.92789e-05
15 *1228:B *1223:B1 2.84398e-05
16 *186:33 *1223:B1 0.000392026
*RES
1 *1220:Y *196:10 17.2107 
2 *196:10 *1226:B1 14.3357 
3 *196:10 *1223:B1 20.6036 
*END

*D_NET *197 0.00062098
*CONN
*I *1223:A1 I *D sky130_fd_sc_hd__a21oi_4
*I *1221:Y O *D sky130_fd_sc_hd__a41oi_2
*CAP
1 *1223:A1 0.000103598
2 *1221:Y 0.000103598
3 *1223:A1 *1233:C1 0.000148196
4 *1223:A1 *1312:A2 6.86792e-05
5 *1223:A1 *1315:A 0.000149904
6 *1228:B *1223:A1 4.70048e-05
*RES
1 *1221:Y *1223:A1 30.9036 
*END

*D_NET *198 0.0010553
*CONN
*I *1226:B2 I *D sky130_fd_sc_hd__o2bb2ai_4
*I *1222:X O *D sky130_fd_sc_hd__and4_2
*CAP
1 *1226:B2 0.000299169
2 *1222:X 0.000299169
3 *1226:B2 *555:75 0.000127957
4 *1226:B2 *555:79 1.08359e-05
5 *1221:B1 *1226:B2 6.51946e-05
6 *1222:A *1226:B2 0
7 *1223:B1 *1226:B2 4.84853e-05
8 *1227:A2 *1226:B2 0.000123295
9 *1228:B *1226:B2 7.83659e-05
10 *196:10 *1226:B2 2.8266e-06
*RES
1 *1222:X *1226:B2 34.4036 
*END

*D_NET *199 0.00114807
*CONN
*I *1312:A2 I *D sky130_fd_sc_hd__a21oi_4
*I *1228:A I *D sky130_fd_sc_hd__nand2_4
*I *1223:Y O *D sky130_fd_sc_hd__a21oi_4
*CAP
1 *1312:A2 0.000342638
2 *1228:A 0.000107091
3 *1223:Y 0
4 *199:4 0.000449728
5 *1228:A *1233:A1 5.52302e-05
6 *1312:A2 *1221:A1 4.25809e-05
7 *1223:A1 *1312:A2 6.86792e-05
8 *1223:B1 *1228:A 5.36507e-05
9 *1228:B *1312:A2 1.63458e-05
10 *184:16 *1312:A2 0
11 *186:33 *1228:A 1.21258e-05
*RES
1 *1223:Y *199:4 9.3 
2 *199:4 *1228:A 11.5143 
3 *199:4 *1312:A2 22.9429 
*END

*D_NET *200 0.00424487
*CONN
*I *1231:C I *D sky130_fd_sc_hd__nand3_4
*I *1624:A I *D sky130_fd_sc_hd__buf_2
*I *1224:Y O *D sky130_fd_sc_hd__o2bb2ai_4
*CAP
1 *1231:C 2.23854e-05
2 *1624:A 0.000953122
3 *1224:Y 0.000605316
4 *200:12 0.00158082
5 *1624:A *1231:A 0.000139907
6 *1624:A *1277:B1 2.89114e-05
7 *1624:A *1324:A1 0
8 *1624:A *1324:A2 0
9 *1624:A *207:10 0.00016711
10 *1624:A *219:10 0.000123288
11 *200:12 *1214:A1 6.63476e-05
12 *200:12 *1320:A1 0.000406746
13 *200:12 *1534:A 6.05161e-06
14 *200:12 *1535:A 3.75052e-05
15 *200:12 *721:8 6.04162e-05
16 *1224:B2 *200:12 3.51442e-05
17 *1320:A2 *200:12 1.17968e-05
18 *1320:B1 *200:12 0
*RES
1 *1224:Y *200:12 29.6393 
2 *200:12 *1624:A 30.7643 
3 *200:12 *1231:C 9.72857 
*END

*D_NET *201 0.00520642
*CONN
*I *1232:A2 I *D sky130_fd_sc_hd__a21oi_2
*I *1245:A2 I *D sky130_fd_sc_hd__a31o_2
*I *1276:A2 I *D sky130_fd_sc_hd__a32oi_4
*I *1231:B I *D sky130_fd_sc_hd__nand3_4
*I *1225:Y O *D sky130_fd_sc_hd__nand4_4
*CAP
1 *1232:A2 9.96767e-05
2 *1245:A2 0.000119301
3 *1276:A2 0.000545565
4 *1231:B 0.000249996
5 *1225:Y 0.000776976
6 *201:41 0.000764543
7 *201:12 0.00102697
8 *1231:B *1231:A 9.41822e-05
9 *1231:B *1276:A3 9.80029e-05
10 *1231:B *348:56 0
11 *1231:B *597:12 0
12 *1232:A2 *1232:A1 5.52238e-05
13 *1232:A2 *1324:A2 0
14 *1232:A2 *219:10 2.49484e-05
15 *1232:A2 *299:6 5.03772e-05
16 *1232:A2 *569:6 1.98839e-05
17 *1232:A2 *569:10 7.6644e-05
18 *1245:A2 *1245:A1 7.49641e-05
19 *1245:A2 *1324:A2 0
20 *1245:A2 *298:10 0
21 *1245:A2 *298:19 0
22 *1245:A2 *569:10 4.56437e-05
23 *201:12 *1221:A3 0.000264421
24 *201:12 *1221:A4 1.65169e-05
25 *201:12 *686:43 4.58194e-05
26 *201:12 *686:94 6.57914e-05
27 *201:12 *688:45 6.0509e-05
28 *201:41 *1245:A3 0.000517566
29 *201:41 *1276:A1 1.97695e-05
30 *1230:A *1231:B 0
31 *190:10 *201:12 9.31209e-05
*RES
1 *1225:Y *201:12 20.3536 
2 *201:12 *1231:B 23.2821 
3 *201:12 *1276:A2 9.3 
4 *1276:A2 *201:41 21.6571 
5 *201:41 *1245:A2 16.1036 
6 *201:41 *1232:A2 16.3893 
*END

*D_NET *202 0.00188248
*CONN
*I *1233:C1 I *D sky130_fd_sc_hd__o211ai_4
*I *1226:Y O *D sky130_fd_sc_hd__o2bb2ai_4
*CAP
1 *1233:C1 0.000511373
2 *1226:Y 0.000511373
3 *1233:C1 *1221:A1 0.000379783
4 *1233:C1 *1315:A 0.000130121
5 *1233:C1 *305:62 0
6 *1233:C1 *326:18 0
7 *1223:A1 *1233:C1 0.000148196
8 *1223:A2 *1233:C1 0.000201636
9 *184:14 *1233:C1 0
*RES
1 *1226:Y *1233:C1 38.8321 
*END

*D_NET *203 0.00261383
*CONN
*I *1314:B2 I *D sky130_fd_sc_hd__o221ai_4
*I *1313:B2 I *D sky130_fd_sc_hd__o221a_2
*I *1227:Y O *D sky130_fd_sc_hd__a22oi_2
*CAP
1 *1314:B2 0
2 *1313:B2 0.000157784
3 *1227:Y 0.000434094
4 *203:12 0.000591878
5 *1313:B2 *1314:A2 6.86792e-05
6 *1313:B2 *305:62 0.000112106
7 *203:12 *1207:A1 0.000145277
8 *203:12 *665:41 0.000722829
9 *203:12 *710:31 0
10 *203:12 *716:125 0
11 *1209:C1 *203:12 0
12 *1313:B1 *1313:B2 0.000200413
13 *184:14 *203:12 0.00018077
*RES
1 *1227:Y *203:12 29.3 
2 *203:12 *1313:B2 22.6393 
3 *203:12 *1314:B2 9.3 
*END

*D_NET *204 0.00228033
*CONN
*I *1233:A1 I *D sky130_fd_sc_hd__o211ai_4
*I *1228:Y O *D sky130_fd_sc_hd__nand2_4
*CAP
1 *1233:A1 0.000488836
2 *1228:Y 0.000488836
3 *1233:A1 *1233:B1 2.27416e-05
4 *1233:A1 *209:12 9.60939e-05
5 *1233:A1 *272:41 0.000286872
6 *1233:A1 *326:18 0.000282842
7 *1223:B1 *1233:A1 6.09919e-05
8 *1227:A2 *1233:A1 0.00049789
9 *1228:A *1233:A1 5.52302e-05
10 *184:60 *1233:A1 0
*RES
1 *1228:Y *1233:A1 39.35 
*END

*D_NET *205 0.00210901
*CONN
*I *1233:B1 I *D sky130_fd_sc_hd__o211ai_4
*I *1229:Y O *D sky130_fd_sc_hd__o21ai_4
*CAP
1 *1233:B1 0.000548985
2 *1229:Y 0.000548985
3 *1233:B1 *1153:B1 0
4 *1233:B1 *1153:C1 0
5 *1233:B1 *1537:A 5.52302e-05
6 *1233:B1 *305:62 0
7 *1233:B1 *305:75 0.000222885
8 *1233:B1 *534:132 7.17836e-05
9 *1233:B1 *665:41 0
10 *1233:B1 *722:50 7.5425e-05
11 *1233:B1 *729:8 0
12 *1153:A2 *1233:B1 0.000150625
13 *1233:A1 *1233:B1 2.27416e-05
14 *124:10 *1233:B1 0.000153047
15 *148:10 *1233:B1 5.52302e-05
16 *149:14 *1233:B1 0.000204075
*RES
1 *1229:Y *1233:B1 40.4571 
*END

*D_NET *206 0.0032387
*CONN
*I *1231:A I *D sky130_fd_sc_hd__nand3_4
*I *1276:A3 I *D sky130_fd_sc_hd__a32oi_4
*I *1630:A I *D sky130_fd_sc_hd__buf_2
*I *1245:A3 I *D sky130_fd_sc_hd__a31o_2
*I *1230:Y O *D sky130_fd_sc_hd__nand2_4
*CAP
1 *1231:A 0.000194323
2 *1276:A3 7.9913e-05
3 *1630:A 0
4 *1245:A3 0.000300581
5 *1230:Y 0.00011387
6 *206:37 0.000274236
7 *206:8 0.00041445
8 *1231:A *1320:D1 2.42082e-05
9 *1231:A *348:56 0
10 *1245:A3 *1276:A1 0.000434813
11 *1245:A3 *251:16 4.51611e-05
12 *1245:A3 *299:6 5.33005e-05
13 *1245:A3 *597:12 0.000173797
14 *1245:A3 *684:33 8.91726e-05
15 *1276:A3 *1320:D1 5.07157e-05
16 *206:8 *1232:B1 0
17 *206:8 *299:6 0.000120587
18 *1231:B *1231:A 9.41822e-05
19 *1231:B *1276:A3 9.80029e-05
20 *1624:A *1231:A 0.000139907
21 *190:10 *1276:A3 1.99099e-05
22 *201:41 *1245:A3 0.000517566
*RES
1 *1230:Y *206:8 11.9071 
2 *206:8 *1245:A3 27.6929 
3 *206:8 *1630:A 9.3 
4 *1230:Y *206:37 13.8 
5 *206:37 *1276:A3 16.05 
6 *206:37 *1231:A 18.1393 
*END

*D_NET *207 0.00601977
*CONN
*I *1248:A1_N I *D sky130_fd_sc_hd__o2bb2ai_4
*I *1249:B1 I *D sky130_fd_sc_hd__o211ai_2
*I *1631:A I *D sky130_fd_sc_hd__buf_6
*I *1244:A1_N I *D sky130_fd_sc_hd__o2bb2ai_4
*I *1633:A I *D sky130_fd_sc_hd__buf_4
*I *1231:Y O *D sky130_fd_sc_hd__nand3_4
*CAP
1 *1248:A1_N 2.23854e-05
2 *1249:B1 0.000312523
3 *1631:A 5.03498e-05
4 *1244:A1_N 0.000312676
5 *1633:A 1.69531e-05
6 *1231:Y 0.000276859
7 *207:51 0.000488586
8 *207:27 0.000363026
9 *207:25 0.000412816
10 *207:10 0.000552951
11 *1244:A1_N *1244:A2_N 0.000186662
12 *1244:A1_N *733:33 0.000187882
13 *1249:B1 *1236:A 0
14 *1249:B1 *1249:C1 0.000360894
15 *1249:B1 *228:20 5.6395e-05
16 *1249:B1 *670:35 8.57023e-05
17 *1631:A *1242:A2_N 6.05161e-06
18 *1631:A *733:33 2.58821e-05
19 *1633:A *670:16 5.33005e-05
20 *207:10 *1277:A2 0.000179643
21 *207:10 *1277:A3 0.00019384
22 *207:10 *1277:B1 5.52302e-05
23 *207:10 *1324:A1 5.97623e-05
24 *207:10 *252:8 0.000697696
25 *207:25 *1277:A3 0.000123295
26 *207:25 *217:10 0.000148196
27 *207:25 *219:10 0
28 *207:25 *670:20 0
29 *207:25 *680:88 8.31502e-05
30 *207:25 *680:111 2.26327e-05
31 *207:51 *1248:B1 1.21258e-05
32 *207:51 *217:10 0.000142797
33 *207:51 *224:12 6.05161e-06
34 *207:51 *228:20 3.47797e-05
35 *207:51 *680:111 7.92975e-05
36 *1241:D *207:10 7.6644e-05
37 *1241:D *207:25 0.000112323
38 *1624:A *207:10 0.00016711
39 *131:24 *1633:A 5.33005e-05
*RES
1 *1231:Y *207:10 23.8714 
2 *207:10 *1633:A 14.3357 
3 *207:10 *207:25 5.64286 
4 *207:25 *207:27 4.5 
5 *207:27 *1244:A1_N 16.0321 
6 *207:27 *1631:A 10.2464 
7 *207:25 *207:51 8.21429 
8 *207:51 *1249:B1 15.6036 
9 *207:51 *1248:A1_N 9.72857 
*END

*D_NET *208 0.000340547
*CONN
*I *1277:B1 I *D sky130_fd_sc_hd__a31oi_4
*I *1232:Y O *D sky130_fd_sc_hd__a21oi_2
*CAP
1 *1277:B1 9.09564e-05
2 *1232:Y 9.09564e-05
3 *1277:B1 *1277:A1 5.80706e-06
4 *1277:B1 *1576:A 5.84171e-05
5 *1277:B1 *1665:A 5.80706e-06
6 *1277:B1 *219:10 0
7 *1277:B1 *302:14 4.46186e-06
8 *1624:A *1277:B1 2.89114e-05
9 *207:10 *1277:B1 5.52302e-05
*RES
1 *1232:Y *1277:B1 29.7786 
*END

*D_NET *209 0.00733874
*CONN
*I *1576:A I *D sky130_fd_sc_hd__buf_6
*I *1665:A I *D sky130_fd_sc_hd__buf_2
*I *1233:Y O *D sky130_fd_sc_hd__o211ai_4
*CAP
1 *1576:A 0.000191437
2 *1665:A 0.00027848
3 *1233:Y 0.00160106
4 *209:12 0.00207098
5 *1576:A *1277:A1 0
6 *1576:A *1564:A 9.90367e-05
7 *1576:A *219:10 0
8 *1576:A *684:33 0.000333493
9 *1665:A *1276:B1 0.000144038
10 *1665:A *1276:B2 6.93891e-05
11 *1665:A *1319:A2_N 4.46186e-06
12 *1665:A *251:16 2.59093e-05
13 *1665:A *302:14 0
14 *1665:A *597:12 1.33343e-05
15 *1665:A *684:33 0.000428217
16 *209:12 *1222:B 0.000356035
17 *209:12 *1222:C 2.44318e-05
18 *209:12 *1320:A1 4.27437e-05
19 *209:12 *1572:A 0.00017676
20 *209:12 *299:6 0.000610071
21 *209:12 *326:18 0.000221634
22 *1222:A *209:12 5.52238e-05
23 *1222:D *209:12 1.74352e-05
24 *1227:A2 *209:12 7.95355e-05
25 *1230:B *209:12 0.000101829
26 *1233:A1 *209:12 9.60939e-05
27 *1277:B1 *1576:A 5.84171e-05
28 *1277:B1 *1665:A 5.80706e-06
29 *1320:A2 *209:12 9.71197e-05
30 *131:24 *1576:A 9.90367e-05
31 *188:27 *1665:A 3.67257e-05
*RES
1 *1233:Y *209:12 38.9071 
2 *209:12 *1665:A 21.1571 
3 *209:12 *1576:A 19.1214 
*END

*D_NET *210 0.00324046
*CONN
*I *1238:B1 I *D sky130_fd_sc_hd__a21o_2
*I *1239:C I *D sky130_fd_sc_hd__and3_2
*I *1332:A1 I *D sky130_fd_sc_hd__o211ai_2
*I *1331:B1 I *D sky130_fd_sc_hd__o2bb2ai_4
*I *1234:Y O *D sky130_fd_sc_hd__nand2_2
*CAP
1 *1238:B1 0.000278597
2 *1239:C 0.000205465
3 *1332:A1 0.000285965
4 *1331:B1 2.99572e-05
5 *1234:Y 0
6 *210:34 0.000597327
7 *210:8 0.000468267
8 *210:4 0.00026561
9 *1238:B1 *1237:B 1.24368e-05
10 *1238:B1 *1243:A 2.88053e-05
11 *1238:B1 *211:20 8.43535e-06
12 *1239:C *1236:A 5.7616e-05
13 *1239:C *1237:A 2.26327e-05
14 *1239:C *1326:B1 0
15 *1239:C *1333:A2 2.84398e-05
16 *1239:C *215:10 0
17 *1239:C *307:18 0
18 *1331:B1 *213:19 0
19 *1331:B1 *215:10 5.83233e-05
20 *1332:A1 *1249:A2 2.31791e-05
21 *1332:A1 *213:19 0
22 *1332:A1 *215:10 0.000177948
23 *1332:A1 *220:12 8.32171e-05
24 *210:8 *1237:B 1.98839e-05
25 *210:8 *680:47 1.24368e-05
26 *210:34 *1236:A 0.000162832
27 *210:34 *1237:A 3.92854e-05
28 *210:34 *1257:A2 0
29 *210:34 *680:47 4.08637e-05
30 *1239:B *1238:B1 9.46929e-05
31 *1239:B *1239:C 0.000148196
32 *131:24 *1238:B1 9.7049e-06
33 *131:32 *1238:B1 8.03379e-05
*RES
1 *1234:Y *210:4 9.3 
2 *210:4 *210:8 6.67857 
3 *210:8 *1331:B1 14.5321 
4 *210:8 *1332:A1 19.3536 
5 *210:4 *210:34 7.28571 
6 *210:34 *1239:C 17.5679 
7 *210:34 *1238:B1 18.1929 
*END

*D_NET *211 0.00547958
*CONN
*I *1237:C I *D sky130_fd_sc_hd__and3_4
*I *1236:A I *D sky130_fd_sc_hd__inv_2
*I *1235:X O *D sky130_fd_sc_hd__a31o_2
*CAP
1 *1237:C 0
2 *1236:A 0.000505617
3 *1235:X 0.00104814
4 *211:20 0.00155376
5 *1236:A *1237:B 0.00015134
6 *1236:A *1249:A1 5.52238e-05
7 *1236:A *1249:A2 5.52302e-05
8 *1236:A *1257:A2 0
9 *1236:A *215:10 0
10 *1236:A *228:20 0.000110887
11 *211:20 *1237:B 3.93247e-05
12 *211:20 *1564:A 0.000227539
13 *211:20 *214:16 0.00010326
14 *211:20 *307:18 0.000221634
15 *211:20 *670:20 5.58941e-05
16 *211:20 *680:39 3.34783e-05
17 *1238:A1 *211:20 9.90367e-05
18 *1238:B1 *211:20 8.43535e-06
19 *1239:B *211:20 0.000169359
20 *1239:C *1236:A 5.7616e-05
21 *1241:A *211:20 1.17968e-05
22 *1249:B1 *1236:A 0
23 *126:23 *211:20 0.000125547
24 *131:24 *211:20 0.000654114
25 *131:32 *211:20 2.95254e-05
26 *210:34 *1236:A 0.000162832
*RES
1 *1235:X *211:20 35.4429 
2 *211:20 *1236:A 28.6571 
3 *211:20 *1237:C 9.3 
*END

*D_NET *212 0.00173019
*CONN
*I *1332:A2 I *D sky130_fd_sc_hd__o211ai_2
*I *1331:B2 I *D sky130_fd_sc_hd__o2bb2ai_4
*I *1236:Y O *D sky130_fd_sc_hd__inv_2
*CAP
1 *1332:A2 0
2 *1331:B2 0.000228666
3 *1236:Y 0.000288438
4 *212:10 0.000517104
5 *1331:B2 *1337:C1 0.000200413
6 *1331:B2 *213:19 0
7 *1331:B2 *311:10 0.00024069
8 *212:10 *1249:A1 0.000142856
9 *212:10 *213:19 0
10 *212:10 *213:28 0
11 *212:10 *228:20 4.8035e-05
12 *212:10 *311:10 6.39901e-05
*RES
1 *1236:Y *212:10 18.4429 
2 *212:10 *1331:B2 19.2464 
3 *212:10 *1332:A2 13.8 
*END

*D_NET *213 0.00304317
*CONN
*I *1330:C I *D sky130_fd_sc_hd__nand3_4
*I *1249:A1 I *D sky130_fd_sc_hd__o211ai_2
*I *1244:B1 I *D sky130_fd_sc_hd__o2bb2ai_4
*I *1341:B1 I *D sky130_fd_sc_hd__a31oi_2
*I *1237:X O *D sky130_fd_sc_hd__and3_4
*CAP
1 *1330:C 0.000270524
2 *1249:A1 7.12002e-05
3 *1244:B1 0
4 *1341:B1 0.000196178
5 *1237:X 0.000149029
6 *213:28 0.000457774
7 *213:19 0.000384893
8 *213:8 0.000614049
9 *1249:A1 *228:20 6.62898e-05
10 *1330:C *1330:A 0
11 *1330:C *1335:A 0
12 *1330:C *1336:B1 6.17321e-05
13 *1330:C *220:12 0
14 *1330:C *311:10 0
15 *1341:B1 *1326:A1 0.000380137
16 *1341:B1 *1326:B1 0
17 *1341:B1 *1333:A1 0
18 *1341:B1 *1337:C1 0
19 *1341:B1 *1388:A1 6.8646e-06
20 *1341:B1 *1388:A2 0.000105028
21 *1341:B1 *215:10 0
22 *1341:B1 *363:19 5.80706e-06
23 *213:8 *307:18 7.55839e-05
24 *213:19 *1337:C1 0
25 *213:19 *215:10 0
26 *213:19 *220:12 0
27 *213:28 *220:12 0
28 *213:28 *311:10 0
29 *1236:A *1249:A1 5.52238e-05
30 *1331:B1 *213:19 0
31 *1331:B2 *213:19 0
32 *1332:A1 *213:19 0
33 *212:10 *1249:A1 0.000142856
34 *212:10 *213:19 0
35 *212:10 *213:28 0
*RES
1 *1237:X *213:8 16.3893 
2 *213:8 *1341:B1 19.0857 
3 *213:8 *213:19 4.67857 
4 *213:19 *1244:B1 13.8 
5 *213:19 *213:28 1.94643 
6 *213:28 *1249:A1 15.9786 
7 *213:28 *1330:C 18.3179 
*END

*D_NET *214 0.00890723
*CONN
*I *1243:A I *D sky130_fd_sc_hd__nand2_2
*I *1277:A2 I *D sky130_fd_sc_hd__a31oi_4
*I *1329:B1 I *D sky130_fd_sc_hd__a31oi_2
*I *1333:B1_N I *D sky130_fd_sc_hd__o21bai_4
*I *1334:B2 I *D sky130_fd_sc_hd__a22oi_2
*I *1238:X O *D sky130_fd_sc_hd__a21o_2
*CAP
1 *1243:A 0.00021329
2 *1277:A2 0.000516788
3 *1329:B1 0.000138022
4 *1333:B1_N 0
5 *1334:B2 0.000869292
6 *1238:X 0
7 *214:50 0.000686941
8 *214:24 0.00150213
9 *214:16 0.000910691
10 *214:4 0.000459017
11 *1243:A *1257:A2 4.25716e-05
12 *1243:A *680:47 5.71472e-05
13 *1243:A *715:27 0
14 *1243:A *733:33 1.17968e-05
15 *1243:A *733:35 3.18676e-05
16 *1277:A2 *1327:A 5.03772e-05
17 *1277:A2 *1327:C 2.89114e-05
18 *1277:A2 *252:8 4.4749e-05
19 *1329:B1 *1333:A2 0
20 *1329:B1 *1385:A2 7.17603e-05
21 *1329:B1 *715:27 0.000315165
22 *1334:B2 *1254:A 7.57035e-05
23 *1334:B2 *1328:A 0.000129868
24 *1334:B2 *1334:A2 0
25 *1334:B2 *1337:A1 0
26 *1334:B2 *1337:A2 0.000175519
27 *1334:B2 *1338:A1 0
28 *1334:B2 *1338:A2 0
29 *1334:B2 *1388:A1 3.14193e-05
30 *1334:B2 *1388:A2 0.000125057
31 *1334:B2 *1439:A4 0.00030176
32 *1334:B2 *241:35 0.000197984
33 *1334:B2 *246:37 5.52302e-05
34 *1334:B2 *249:14 0.000128043
35 *1334:B2 *304:10 8.2731e-05
36 *1334:B2 *304:23 0
37 *1334:B2 *307:32 0
38 *214:16 *1327:A 1.92905e-05
39 *214:16 *252:8 2.34059e-05
40 *214:16 *680:39 2.05938e-05
41 *214:24 *1333:A2 0.000408875
42 *214:24 *1388:A2 0.000111442
43 *214:24 *306:26 9.41642e-05
44 *214:50 *1333:A2 0
45 *214:50 *715:27 5.41794e-05
46 *1238:A1 *214:16 0
47 *1238:B1 *1243:A 2.88053e-05
48 *1239:A *1277:A2 9.60939e-05
49 *1239:A *214:16 0.000129533
50 *1239:A *214:24 0.000184745
51 *1241:A *1243:A 0.000100831
52 *1241:A *214:16 5.83304e-05
53 *131:24 *1243:A 2.62395e-05
54 *131:32 *1243:A 1.39726e-05
55 *207:10 *1277:A2 0.000179643
56 *211:20 *214:16 0.00010326
*RES
1 *1238:X *214:4 9.3 
2 *214:4 *214:16 14.1786 
3 *214:16 *214:24 12.6071 
4 *214:24 *1334:B2 38.3 
5 *214:24 *1333:B1_N 9.3 
6 *214:16 *214:50 5.23214 
7 *214:50 *1329:B1 17.8714 
8 *214:50 *1277:A2 21.3536 
9 *214:4 *1243:A 22.3893 
*END

*D_NET *215 0.00166706
*CONN
*I *1249:A2 I *D sky130_fd_sc_hd__o211ai_2
*I *1244:B2 I *D sky130_fd_sc_hd__o2bb2ai_4
*I *1239:X O *D sky130_fd_sc_hd__and3_2
*CAP
1 *1249:A2 0.000131295
2 *1244:B2 0
3 *1239:X 0.000386595
4 *215:10 0.00051789
5 *1249:A2 *220:12 7.15687e-05
6 *1249:A2 *228:20 2.89114e-05
7 *215:10 *1237:B 5.80217e-05
8 *215:10 *1326:B1 7.73662e-05
9 *215:10 *1333:A2 8.07313e-05
10 *1236:A *1249:A2 5.52302e-05
11 *1236:A *215:10 0
12 *1239:C *215:10 0
13 *1331:B1 *215:10 5.83233e-05
14 *1332:A1 *1249:A2 2.31791e-05
15 *1332:A1 *215:10 0.000177948
16 *1341:B1 *215:10 0
17 *213:19 *215:10 0
*RES
1 *1239:X *215:10 21.9607 
2 *215:10 *1244:B2 13.8 
3 *215:10 *1249:A2 16.5857 
*END

*D_NET *216 0.00171899
*CONN
*I *1243:B I *D sky130_fd_sc_hd__nand2_2
*I *1277:A3 I *D sky130_fd_sc_hd__a31oi_4
*I *1240:X O *D sky130_fd_sc_hd__a211o_2
*CAP
1 *1243:B 0.000110204
2 *1277:A3 0.000220437
3 *1240:X 0.000330642
4 *1243:B *1241:B 0.000138881
5 *1243:B *1241:C 2.14757e-05
6 *1243:B *219:10 0.000116049
7 *1243:B *680:47 0.000222666
8 *1243:B *680:84 0.000185643
9 *1243:B *733:35 4.58194e-05
10 *1277:A3 *1324:A1 1.00375e-05
11 *1277:A3 *219:10 0
12 *207:10 *1277:A3 0.00019384
13 *207:25 *1277:A3 0.000123295
*RES
1 *1240:X *1277:A3 31.975 
2 *1240:X *1243:B 22.8321 
*END

*D_NET *217 0.00216053
*CONN
*I *1246:A2 I *D sky130_fd_sc_hd__o211ai_4
*I *1248:B1 I *D sky130_fd_sc_hd__o2bb2ai_4
*I *1241:X O *D sky130_fd_sc_hd__and4_2
*CAP
1 *1246:A2 6.60344e-05
2 *1248:B1 0.000132114
3 *1241:X 0.000230588
4 *217:10 0.000428736
5 *1246:A2 *1246:B1 5.07157e-05
6 *1246:A2 *1246:C1 0
7 *1246:A2 *224:12 0.000175512
8 *1248:B1 *1246:A1 4.87953e-05
9 *1248:B1 *218:14 7.96992e-05
10 *1248:B1 *224:12 9.71197e-05
11 *1248:B1 *228:20 0.000323752
12 *217:10 *1246:B1 7.49332e-05
13 *217:10 *219:10 0.00010096
14 *217:10 *224:12 3.34295e-05
15 *217:10 *670:20 0
16 *217:10 *670:31 0
17 *217:10 *680:111 1.50181e-05
18 *207:25 *217:10 0.000148196
19 *207:51 *1248:B1 1.21258e-05
20 *207:51 *217:10 0.000142797
*RES
1 *1241:X *217:10 19.425 
2 *217:10 *1248:B1 18.0679 
3 *217:10 *1246:A2 16.05 
*END

*D_NET *218 0.00184133
*CONN
*I *1248:B2 I *D sky130_fd_sc_hd__o2bb2ai_4
*I *1246:A1 I *D sky130_fd_sc_hd__o211ai_4
*I *1242:X O *D sky130_fd_sc_hd__o2bb2a_4
*CAP
1 *1248:B2 0
2 *1246:A1 9.9238e-05
3 *1242:X 0.000202235
4 *218:14 0.000301473
5 *1246:A1 *1242:A1_N 2.14757e-05
6 *1246:A1 *680:111 0.000197262
7 *1246:A1 *733:10 0.000197984
8 *218:14 *1235:A3 0.000123288
9 *218:14 *1242:A1_N 0.00044659
10 *218:14 *684:33 0.000123288
11 *1248:B1 *1246:A1 4.87953e-05
12 *1248:B1 *218:14 7.96992e-05
*RES
1 *1242:X *218:14 24.6036 
2 *218:14 *1246:A1 21.8 
3 *218:14 *1248:B2 9.3 
*END

*D_NET *219 0.00401022
*CONN
*I *1276:B1 I *D sky130_fd_sc_hd__a32oi_4
*I *1245:B1 I *D sky130_fd_sc_hd__a31o_2
*I *1243:Y O *D sky130_fd_sc_hd__nand2_2
*CAP
1 *1276:B1 0.00030224
2 *1245:B1 7.60562e-05
3 *1243:Y 0.000898305
4 *219:10 0.0012766
5 *1245:B1 *1245:A1 3.34295e-05
6 *1245:B1 *302:14 4.62539e-05
7 *1245:B1 *569:10 0.000121573
8 *1276:B1 *1232:A1 7.26655e-05
9 *1276:B1 *1232:B1 1.24368e-05
10 *1276:B1 *1276:A1 5.33005e-05
11 *1276:B1 *251:16 1.02504e-05
12 *1276:B1 *299:6 4.22627e-05
13 *1276:B1 *302:14 4.21208e-05
14 *219:10 *1240:A1 5.83118e-05
15 *219:10 *1277:A1 5.63007e-05
16 *219:10 *1324:A1 0
17 *219:10 *1324:A2 0
18 *219:10 *1564:A 0
19 *219:10 *302:14 4.03318e-05
20 *219:10 *680:47 0.000268396
21 *219:10 *680:84 3.48705e-05
22 *219:10 *684:33 0
23 *219:10 *692:10 0
24 *1232:A2 *219:10 2.49484e-05
25 *1240:B1 *219:10 5.52238e-05
26 *1243:B *219:10 0.000116049
27 *1277:A3 *219:10 0
28 *1277:B1 *219:10 0
29 *1576:A *219:10 0
30 *1624:A *219:10 0.000123288
31 *1665:A *1276:B1 0.000144038
32 *207:25 *219:10 0
33 *217:10 *219:10 0.00010096
*RES
1 *1243:Y *219:10 29.5321 
2 *219:10 *1245:B1 15.7464 
3 *219:10 *1276:B1 27.8714 
*END

*D_NET *220 0.00255226
*CONN
*I *1254:A I *D sky130_fd_sc_hd__nand2_2
*I *1255:A I *D sky130_fd_sc_hd__nand3_4
*I *1244:Y O *D sky130_fd_sc_hd__o2bb2ai_4
*CAP
1 *1254:A 0.000509565
2 *1255:A 0
3 *1244:Y 0.000475882
4 *220:12 0.000985447
5 *1254:A *1255:B 0
6 *1254:A *1334:A2 0.000136958
7 *1254:A *230:10 0.000114882
8 *220:12 *1611:A 9.90367e-05
9 *220:12 *222:10 0
10 *1249:A2 *220:12 7.15687e-05
11 *1330:C *220:12 0
12 *1332:A1 *220:12 8.32171e-05
13 *1334:B2 *1254:A 7.57035e-05
14 *213:19 *220:12 0
15 *213:28 *220:12 0
*RES
1 *1244:Y *220:12 27.3714 
2 *220:12 *1255:A 9.3 
3 *220:12 *1254:A 18.1214 
*END

*D_NET *221 0.00025895
*CONN
*I *1324:A2 I *D sky130_fd_sc_hd__a22oi_2
*I *1245:X O *D sky130_fd_sc_hd__a31o_2
*CAP
1 *1324:A2 0.000127409
2 *1245:X 0.000127409
3 *1324:A2 *1324:A1 4.1331e-06
4 *1324:A2 *1327:C 0
5 *1324:A2 *298:19 0
6 *1232:A2 *1324:A2 0
7 *1245:A2 *1324:A2 0
8 *1624:A *1324:A2 0
9 *219:10 *1324:A2 0
*RES
1 *1245:X *1324:A2 29.85 
*END

*D_NET *222 0.00145018
*CONN
*I *1625:A I *D sky130_fd_sc_hd__buf_2
*I *1255:C I *D sky130_fd_sc_hd__nand3_4
*I *1246:Y O *D sky130_fd_sc_hd__o211ai_4
*CAP
1 *1625:A 0.000214711
2 *1255:C 0
3 *1246:Y 0.000356463
4 *222:10 0.000571174
5 *1625:A *1140:D 9.90367e-05
6 *1625:A *1247:A 1.97695e-05
7 *1625:A *1257:A2 0
8 *1625:A *1607:A 4.71964e-05
9 *1625:A *1611:A 0
10 *1625:A *549:6 0.00014183
11 *222:10 *1257:A2 0
12 *220:12 *222:10 0
*RES
1 *1246:Y *222:10 19.7643 
2 *222:10 *1255:C 13.8 
3 *222:10 *1625:A 18.55 
*END

*D_NET *223 0.000836635
*CONN
*I *1275:B1 I *D sky130_fd_sc_hd__o2bb2ai_2
*I *1263:A1 I *D sky130_fd_sc_hd__o211ai_2
*I *1247:Y O *D sky130_fd_sc_hd__inv_2
*CAP
1 *1275:B1 3.38973e-05
2 *1263:A1 6.41476e-05
3 *1247:Y 0
4 *223:4 9.8045e-05
5 *1263:A1 *1262:A 0.000129868
6 *1263:A1 *1262:B 5.52238e-05
7 *1263:A1 *1262:C 5.33005e-05
8 *1263:A1 *241:35 2.49484e-05
9 *1263:A1 *246:37 0.000175519
10 *1275:B1 *1247:A 5.33433e-05
11 *1275:B1 *1262:B 0.00012747
12 *1275:B1 *1262:C 2.08721e-05
*RES
1 *1247:Y *223:4 9.3 
2 *223:4 *1263:A1 21.0857 
3 *223:4 *1275:B1 10.6571 
*END

*D_NET *224 0.00164363
*CONN
*I *1253:B1 I *D sky130_fd_sc_hd__o211ai_2
*I *1252:C1 I *D sky130_fd_sc_hd__o211a_2
*I *1248:Y O *D sky130_fd_sc_hd__o2bb2ai_4
*CAP
1 *1253:B1 0.000110986
2 *1252:C1 0
3 *1248:Y 0.000190074
4 *224:12 0.000301061
5 *1253:B1 *1252:B1 0.000334934
6 *1253:B1 *1253:A2 0.000115912
7 *1253:B1 *227:12 1.04232e-05
8 *224:12 *225:10 0
9 *224:12 *533:50 5.35516e-05
10 *224:12 *680:111 0.00018567
11 *1246:A2 *224:12 0.000175512
12 *1248:B1 *224:12 9.71197e-05
13 *1253:A1 *1253:B1 2.89016e-05
14 *207:51 *224:12 6.05161e-06
15 *217:10 *224:12 3.34295e-05
*RES
1 *1248:Y *224:12 23.925 
2 *224:12 *1252:C1 9.3 
3 *224:12 *1253:B1 13.1571 
*END

*D_NET *225 0.00249823
*CONN
*I *1252:B1 I *D sky130_fd_sc_hd__o211a_2
*I *1253:C1 I *D sky130_fd_sc_hd__o211ai_2
*I *1249:Y O *D sky130_fd_sc_hd__o211ai_2
*CAP
1 *1252:B1 0.000264287
2 *1253:C1 0
3 *1249:Y 0.000382447
4 *225:10 0.000646734
5 *1252:B1 *1257:A2 0
6 *1252:B1 *227:12 0.000400867
7 *1252:B1 *533:50 0
8 *225:10 *1246:C1 0
9 *225:10 *1257:A2 0.000116545
10 *225:10 *228:20 0.000317082
11 *225:10 *533:50 0
12 *1251:B1 *1252:B1 0
13 *1253:A1 *1252:B1 3.53387e-05
14 *1253:B1 *1252:B1 0.000334934
15 *224:12 *225:10 0
*RES
1 *1249:Y *225:10 20.8714 
2 *225:10 *1253:C1 13.8 
3 *225:10 *1252:B1 20.4429 
*END

*D_NET *226 0.00218316
*CONN
*I *1252:A2 I *D sky130_fd_sc_hd__o211a_2
*I *1253:A2 I *D sky130_fd_sc_hd__o211ai_2
*I *1250:Y O *D sky130_fd_sc_hd__a32oi_2
*CAP
1 *1252:A2 0
2 *1253:A2 0.000255718
3 *1250:Y 0.000249987
4 *226:10 0.000505706
5 *1253:A2 *680:111 5.59013e-05
6 *1253:A2 *733:83 5.59013e-05
7 *226:10 *675:70 1.08359e-05
8 *226:10 *680:111 0.000207762
9 *226:10 *733:83 0.000220441
10 *226:10 *733:112 0.00013966
11 *1142:B1 *226:10 0.00010326
12 *1146:B *226:10 5.96516e-05
13 *1253:A1 *1253:A2 0.00018077
14 *1253:B1 *1253:A2 0.000115912
15 *74:14 *226:10 1.56e-05
16 *120:6 *226:10 6.05161e-06
*RES
1 *1250:Y *226:10 20.2464 
2 *226:10 *1253:A2 18.3893 
3 *226:10 *1252:A2 13.8 
*END

*D_NET *227 0.00385846
*CONN
*I *1255:B I *D sky130_fd_sc_hd__nand3_4
*I *1611:A I *D sky130_fd_sc_hd__buf_2
*I *1251:Y O *D sky130_fd_sc_hd__a32oi_4
*CAP
1 *1255:B 2.23854e-05
2 *1611:A 0.000227648
3 *1251:Y 0.00105667
4 *227:12 0.0013067
5 *1611:A *1607:A 0
6 *1611:A *229:12 8.35528e-05
7 *1611:A *231:8 0
8 *227:12 *1607:A 0.00010096
9 *227:12 *229:12 0.000284106
10 *1251:B1 *227:12 0.000166416
11 *1252:B1 *227:12 0.000400867
12 *1253:A1 *227:12 2.23021e-05
13 *1253:B1 *227:12 1.04232e-05
14 *1254:A *1255:B 0
15 *1625:A *1611:A 0
16 *157:14 *227:12 7.7397e-05
17 *220:12 *1611:A 9.90367e-05
*RES
1 *1251:Y *227:12 26.7286 
2 *227:12 *1611:A 22.6214 
3 *227:12 *1255:B 9.72857 
*END

*D_NET *228 0.00498613
*CONN
*I *1336:A1_N I *D sky130_fd_sc_hd__a2bb2oi_4
*I *1337:A1 I *D sky130_fd_sc_hd__o211ai_4
*I *1252:X O *D sky130_fd_sc_hd__o211a_2
*CAP
1 *1336:A1_N 0
2 *1337:A1 0.000139284
3 *1252:X 0.00140314
4 *228:20 0.00154243
5 *1337:A1 *1337:B1 9.90367e-05
6 *1337:A1 *1337:C1 0.00010096
7 *1337:A1 *1338:A2 0.000173804
8 *1337:A1 *249:14 9.25014e-06
9 *1337:A1 *317:6 2.59355e-05
10 *228:20 *1249:C1 0.000191356
11 *228:20 *1336:B2 2.89114e-05
12 *228:20 *317:6 6.86792e-05
13 *228:20 *533:37 2.06112e-05
14 *228:20 *670:35 3.67142e-05
15 *228:20 *684:33 0
16 *228:20 *733:10 6.19458e-05
17 *228:20 *733:83 3.34672e-05
18 *1236:A *228:20 0.000110887
19 *1248:B1 *228:20 0.000323752
20 *1249:A1 *228:20 6.62898e-05
21 *1249:A2 *228:20 2.89114e-05
22 *1249:B1 *228:20 5.6395e-05
23 *1334:B2 *1337:A1 0
24 *157:14 *228:20 6.44739e-05
25 *207:51 *228:20 3.47797e-05
26 *212:10 *228:20 4.8035e-05
27 *225:10 *228:20 0.000317082
*RES
1 *1252:X *228:20 43.7286 
2 *228:20 *1337:A1 22.0321 
3 *228:20 *1336:A1_N 9.3 
*END

*D_NET *229 0.00216337
*CONN
*I *1605:A I *D sky130_fd_sc_hd__buf_2
*I *1575:A I *D sky130_fd_sc_hd__buf_6
*I *1253:Y O *D sky130_fd_sc_hd__o211ai_2
*CAP
1 *1605:A 0
2 *1575:A 0.000103734
3 *1253:Y 0.000643142
4 *229:12 0.000746876
5 *1575:A *1261:A 8.07313e-05
6 *229:12 *1140:D 4.38511e-05
7 *229:12 *1607:A 0.00017738
8 *229:12 *231:8 0
9 *1611:A *229:12 8.35528e-05
10 *115:10 *229:12 0
11 *227:12 *229:12 0.000284106
*RES
1 *1253:Y *229:12 28.6571 
2 *229:12 *1575:A 11.4786 
3 *229:12 *1605:A 9.3 
*END

*D_NET *230 0.00130078
*CONN
*I *1263:A2 I *D sky130_fd_sc_hd__o211ai_2
*I *1275:B2 I *D sky130_fd_sc_hd__o2bb2ai_2
*I *1254:Y O *D sky130_fd_sc_hd__nand2_2
*CAP
1 *1263:A2 0.000140104
2 *1275:B2 0
3 *1254:Y 0.000205435
4 *230:10 0.000345539
5 *1263:A2 *1261:B 4.56437e-05
6 *1263:A2 *1275:A2_N 2.39779e-05
7 *1263:A2 *233:14 0.000128154
8 *1263:A2 *249:14 0
9 *1263:A2 *669:33 3.18676e-05
10 *230:10 *1261:A 1.27784e-05
11 *230:10 *1261:B 0.00014576
12 *230:10 *1275:A2_N 5.80706e-06
13 *230:10 *1335:B 0.000100831
14 *1254:A *230:10 0.000114882
*RES
1 *1254:Y *230:10 17.5143 
2 *230:10 *1275:B2 13.8 
3 *230:10 *1263:A2 17.1214 
*END

*D_NET *231 0.00596455
*CONN
*I *1607:A I *D sky130_fd_sc_hd__buf_2
*I *1647:A I *D sky130_fd_sc_hd__buf_2
*I *1608:A I *D sky130_fd_sc_hd__buf_2
*I *1258:A1 I *D sky130_fd_sc_hd__a21bo_4
*I *1274:B1 I *D sky130_fd_sc_hd__o21a_4
*I *1255:Y O *D sky130_fd_sc_hd__nand3_4
*CAP
1 *1607:A 0.000109384
2 *1647:A 0.000256597
3 *1608:A 6.17285e-05
4 *1258:A1 0.000814334
5 *1274:B1 2.52229e-05
6 *1255:Y 0.000602797
7 *231:32 0.000601403
8 *231:19 0.00120383
9 *231:8 0.000625055
10 *1258:A1 *1258:A2 0.000102902
11 *1258:A1 *1258:B1_N 2.58821e-05
12 *1258:A1 *1260:A1_N 0.000397924
13 *1258:A1 *233:6 0.000310292
14 *1274:B1 *1259:A2 5.52238e-05
15 *1607:A *1140:D 1.02504e-05
16 *1607:A *1257:A2 0
17 *1647:A *1133:A1 0
18 *1647:A *1267:A1 8.17615e-05
19 *1647:A *246:18 0.000229456
20 *231:8 *1259:B1 0
21 *231:8 *1261:A 0
22 *231:8 *1267:C1 0
23 *231:8 *1275:A2_N 0
24 *231:8 *1334:A1 0
25 *231:8 *233:10 0
26 *231:8 *675:97 0
27 *231:19 *1259:B1 0
28 *231:19 *232:32 4.03318e-05
29 *231:32 *1133:A1 0
30 *231:32 *1259:B1 0
31 *231:32 *1267:A1 6.58289e-05
32 *231:32 *232:32 1.88048e-05
33 *1611:A *1607:A 0
34 *1611:A *231:8 0
35 *1625:A *1607:A 4.71964e-05
36 *227:12 *1607:A 0.00010096
37 *229:12 *1607:A 0.00017738
38 *229:12 *231:8 0
*RES
1 *1255:Y *231:8 20.9071 
2 *231:8 *1274:B1 14.3357 
3 *231:8 *231:19 1.94643 
4 *231:19 *1258:A1 24.925 
5 *231:19 *231:32 5.58929 
6 *231:32 *1608:A 14.7464 
7 *231:32 *1647:A 19.6571 
8 *1255:Y *1607:A 30.7964 
*END

*D_NET *232 0.00399142
*CONN
*I *1274:A2 I *D sky130_fd_sc_hd__o21a_4
*I *1259:A2 I *D sky130_fd_sc_hd__o211ai_2
*I *1260:B1 I *D sky130_fd_sc_hd__o2bb2ai_4
*I *1256:X O *D sky130_fd_sc_hd__o21a_2
*CAP
1 *1274:A2 0
2 *1259:A2 0.000224942
3 *1260:B1 0.000851835
4 *1256:X 0.000679071
5 *232:32 0.000397706
6 *1259:A2 *1259:B1 4.16984e-05
7 *1259:A2 *1265:C 6.71657e-05
8 *1259:A2 *249:14 0.000225616
9 *1260:B1 *1133:A1 7.76647e-05
10 *232:32 *1133:A1 5.58941e-05
11 *232:32 *233:6 5.33005e-05
12 *232:32 *675:97 0
13 *1183:A2 *1260:B1 7.77652e-05
14 *1183:B1 *1260:B1 2.59355e-05
15 *1183:B2 *1260:B1 0.000135489
16 *1259:A1 *1259:A2 0.000611994
17 *1259:A1 *232:32 5.52238e-05
18 *1260:B2 *1260:B1 0
19 *1260:B2 *232:32 5.33005e-05
20 *1274:B1 *1259:A2 5.52238e-05
21 *156:44 *1260:B1 2.89016e-05
22 *160:10 *1260:B1 3.81416e-06
23 *161:8 *1260:B1 8.15843e-05
24 *165:14 *1260:B1 0.000128161
25 *231:19 *232:32 4.03318e-05
26 *231:32 *232:32 1.88048e-05
*RES
1 *1256:X *1260:B1 38.6714 
2 *1260:B1 *232:32 21.6214 
3 *232:32 *1259:A2 16.4071 
4 *232:32 *1274:A2 9.3 
*END

*D_NET *233 0.00604527
*CONN
*I *1258:B1_N I *D sky130_fd_sc_hd__a21bo_4
*I *1263:B1 I *D sky130_fd_sc_hd__o211ai_2
*I *1275:A1_N I *D sky130_fd_sc_hd__o2bb2ai_2
*I *1261:B I *D sky130_fd_sc_hd__nand2_2
*I *1262:C I *D sky130_fd_sc_hd__and3_2
*I *1257:X O *D sky130_fd_sc_hd__a31o_2
*CAP
1 *1258:B1_N 0.000217347
2 *1263:B1 0
3 *1275:A1_N 0.000275698
4 *1261:B 0.000206182
5 *1262:C 0.000264569
6 *1257:X 0.000217628
7 *233:16 0.000543132
8 *233:14 0.000384365
9 *233:10 0.00022828
10 *233:6 0.000626969
11 *1258:B1_N *1260:A1_N 0.000187768
12 *1261:B *1254:B 4.43046e-05
13 *1261:B *1334:B1 0.000174797
14 *1261:B *1335:B 2.90068e-05
15 *1261:B *1338:A2 0.000219741
16 *1261:B *249:14 3.84385e-05
17 *1262:C *1247:A 0.000176669
18 *1262:C *1262:B 6.87574e-05
19 *1275:A1_N *1247:A 0.000350211
20 *233:6 *1133:A1 0.000186669
21 *233:6 *236:12 0.000100625
22 *233:10 *1265:C 9.44259e-05
23 *233:10 *1267:C1 0.000285413
24 *233:10 *1275:A2_N 1.02504e-05
25 *233:10 *249:14 0
26 *233:14 *1275:A2_N 0.000128154
27 *233:16 *1247:A 8.36572e-05
28 *1258:A1 *1258:B1_N 2.58821e-05
29 *1258:A1 *233:6 0.000310292
30 *1260:B2 *233:6 0.000119005
31 *1263:A1 *1262:C 5.33005e-05
32 *1263:A2 *1261:B 4.56437e-05
33 *1263:A2 *233:14 0.000128154
34 *1275:B1 *1262:C 2.08721e-05
35 *1663:A *1262:C 0
36 *230:10 *1261:B 0.00014576
37 *231:8 *233:10 0
38 *232:32 *233:6 5.33005e-05
*RES
1 *1257:X *233:6 15.5857 
2 *233:6 *233:10 9.17857 
3 *233:10 *233:14 6.14286 
4 *233:14 *233:16 0.946429 
5 *233:16 *1262:C 13.9964 
6 *233:16 *1261:B 23.8893 
7 *233:14 *1275:A1_N 13.4429 
8 *233:10 *1263:B1 13.8 
9 *233:6 *1258:B1_N 13.8536 
*END

*D_NET *234 0.000767922
*CONN
*I *1265:A I *D sky130_fd_sc_hd__nand3_4
*I *1258:X O *D sky130_fd_sc_hd__a21bo_4
*CAP
1 *1265:A 0.000163623
2 *1258:X 0.000163623
3 *1265:A *1258:A2 9.25014e-06
4 *1265:A *1670:A 8.89385e-05
5 *1265:A *241:35 0.000342488
6 *1265:A *246:37 0
*RES
1 *1258:X *1265:A 32.2786 
*END

*D_NET *235 0.00172653
*CONN
*I *1265:C I *D sky130_fd_sc_hd__nand3_4
*I *1259:Y O *D sky130_fd_sc_hd__o211ai_2
*CAP
1 *1265:C 0.000381741
2 *1259:Y 0.000381741
3 *1265:C *1259:B1 0.00027032
4 *1265:C *1260:A2_N 0.000110386
5 *1265:C *1265:B 1.02504e-05
6 *1265:C *1267:A1 0
7 *1265:C *1267:C1 8.67877e-05
8 *1265:C *243:16 0.00017309
9 *1265:C *246:37 0
10 *1265:C *249:14 0.000150624
11 *1259:A2 *1265:C 6.71657e-05
12 *233:10 *1265:C 9.44259e-05
*RES
1 *1259:Y *1265:C 37.9036 
*END

*D_NET *236 0.00207918
*CONN
*I *1267:B1 I *D sky130_fd_sc_hd__o211ai_4
*I *1266:B1 I *D sky130_fd_sc_hd__o21ai_4
*I *1260:Y O *D sky130_fd_sc_hd__o2bb2ai_4
*CAP
1 *1267:B1 2.62838e-05
2 *1266:B1 0.000447028
3 *1260:Y 0.000141491
4 *236:12 0.000614803
5 *1266:B1 *1655:A 0
6 *1266:B1 *1670:A 5.33334e-05
7 *236:12 *1259:B1 0.000198698
8 *236:12 *1267:C1 0.000202128
9 *1266:A2 *1266:B1 0.000241492
10 *1266:A2 *1267:B1 5.33005e-05
11 *233:6 *236:12 0.000100625
*RES
1 *1260:Y *236:12 22.6214 
2 *236:12 *1266:B1 16.8536 
3 *236:12 *1267:B1 9.83571 
*END

*D_NET *237 0.000760317
*CONN
*I *1334:A2 I *D sky130_fd_sc_hd__a22oi_2
*I *1261:Y O *D sky130_fd_sc_hd__nand2_2
*CAP
1 *1334:A2 0.000136168
2 *1261:Y 0.000136168
3 *1334:A2 *1261:A 0.000175512
4 *1334:A2 *1335:B 0.000175512
5 *1254:A *1334:A2 0.000136958
6 *1334:B2 *1334:A2 0
*RES
1 *1261:Y *1334:A2 31.6357 
*END

*D_NET *238 0.00294446
*CONN
*I *1392:A1 I *D sky130_fd_sc_hd__o31a_4
*I *1389:A1 I *D sky130_fd_sc_hd__o2111a_2
*I *1269:A1 I *D sky130_fd_sc_hd__o21a_4
*I *1262:X O *D sky130_fd_sc_hd__and3_2
*CAP
1 *1392:A1 6.98225e-05
2 *1389:A1 0.000236697
3 *1269:A1 0.000142011
4 *1262:X 8.87135e-05
5 *238:19 0.000586527
6 *238:6 0.000510732
7 *1269:A1 *1269:A2 0.000119291
8 *1389:A1 *1337:B1 7.20217e-06
9 *1389:A1 *1337:C1 6.79329e-05
10 *1389:A1 *1389:A2 0.000220038
11 *1389:A1 *1389:B1 9.58181e-05
12 *1389:A1 *1389:D1 5.33005e-05
13 *1392:A1 *1392:A2 5.49489e-05
14 *1392:A1 *1392:A3 4.73286e-05
15 *238:6 *1269:A2 6.05161e-06
16 *238:19 *1389:A2 3.12359e-05
17 *238:19 *1390:B 8.6332e-05
18 *238:19 *1390:C 0
19 *238:19 *242:21 0.000508348
20 *1663:A *238:6 1.21258e-05
*RES
1 *1262:X *238:6 10.6571 
2 *238:6 *1269:A1 11.9071 
3 *238:6 *238:19 11.6071 
4 *238:19 *1389:A1 19.3 
5 *238:19 *1392:A1 15.1571 
*END

*D_NET *239 0.00114977
*CONN
*I *1267:C1 I *D sky130_fd_sc_hd__o211ai_4
*I *1263:Y O *D sky130_fd_sc_hd__o211ai_2
*CAP
1 *1267:C1 0.000221096
2 *1263:Y 0.000221096
3 *1267:C1 *1259:B1 0.000133253
4 *1265:C *1267:C1 8.67877e-05
5 *231:8 *1267:C1 0
6 *233:10 *1267:C1 0.000285413
7 *236:12 *1267:C1 0.000202128
*RES
1 *1263:Y *1267:C1 34.4036 
*END

*D_NET *240 0.00124945
*CONN
*I *1265:B I *D sky130_fd_sc_hd__nand3_4
*I *1264:Y O *D sky130_fd_sc_hd__a21oi_2
*CAP
1 *1265:B 0.000388032
2 *1264:Y 0.000388032
3 *1265:B *1260:A2_N 0.000275087
4 *1265:B *1264:B1 3.18676e-05
5 *1265:B *1266:A1 0.000156186
6 *1265:B *1267:A1 0
7 *1265:C *1265:B 1.02504e-05
*RES
1 *1264:Y *1265:B 36.475 
*END

*D_NET *241 0.00665754
*CONN
*I *1389:C1 I *D sky130_fd_sc_hd__o2111a_2
*I *1679:A I *D sky130_fd_sc_hd__buf_2
*I *1265:Y O *D sky130_fd_sc_hd__nand3_4
*CAP
1 *1389:C1 0
2 *1679:A 0.00023285
3 *1265:Y 0
4 *241:35 0.00133044
5 *241:4 0.00156329
6 *1679:A *1339:A3 3.9019e-05
7 *1679:A *1609:A 5.33005e-05
8 *1679:A *243:16 0.000570215
9 *1679:A *551:10 0.000136912
10 *1679:A *587:10 0.00014489
11 *241:35 *1258:A2 2.49484e-05
12 *241:35 *1262:A 0.000202835
13 *241:35 *1335:B 1.39726e-05
14 *241:35 *1338:A1 6.8646e-06
15 *241:35 *1438:A 0.000722492
16 *241:35 *1670:A 1.78447e-05
17 *241:35 *242:21 0
18 *241:35 *243:16 0.000126566
19 *241:35 *243:30 0.000291993
20 *241:35 *246:37 0.000305793
21 *241:35 *249:14 0
22 *241:35 *315:10 0.000141734
23 *241:35 *669:39 6.51946e-05
24 *241:35 *669:50 0.000100969
25 *1263:A1 *241:35 2.49484e-05
26 *1265:A *241:35 0.000342488
27 *1334:B2 *241:35 0.000197984
*RES
1 *1265:Y *241:4 9.3 
2 *241:4 *1679:A 25.7107 
3 *241:4 *241:35 48.7143 
4 *241:35 *1389:C1 9.3 
*END

*D_NET *242 0.00460254
*CONN
*I *1392:A2 I *D sky130_fd_sc_hd__o31a_4
*I *1389:A2 I *D sky130_fd_sc_hd__o2111a_2
*I *1269:A2 I *D sky130_fd_sc_hd__o21a_4
*I *1266:Y O *D sky130_fd_sc_hd__o21ai_4
*CAP
1 *1392:A2 3.45962e-05
2 *1389:A2 0.000387897
3 *1269:A2 7.82564e-05
4 *1266:Y 0.000468923
5 *242:21 0.00073969
6 *242:8 0.000864377
7 *1389:A2 *1337:C1 6.05161e-06
8 *1389:A2 *1389:D1 0.000139202
9 *1389:A2 *317:25 0.000235332
10 *1392:A2 *1392:A3 9.58126e-05
11 *242:8 *1339:A3 0
12 *242:8 *1670:A 0.000174723
13 *242:21 *1338:A1 8.24047e-05
14 *242:21 *1390:B 7.6612e-06
15 *242:21 *1438:A 0
16 *242:21 *317:25 3.17148e-05
17 *1269:A1 *1269:A2 0.000119291
18 *1389:A1 *1389:A2 0.000220038
19 *1392:A1 *1392:A2 5.49489e-05
20 *1663:A *1269:A2 0.000315987
21 *238:6 *1269:A2 6.05161e-06
22 *238:19 *1389:A2 3.12359e-05
23 *238:19 *242:21 0.000508348
24 *241:35 *242:21 0
*RES
1 *1266:Y *242:8 23.0321 
2 *242:8 *1269:A2 16.8 
3 *242:8 *242:21 7.94643 
4 *242:21 *1389:A2 21.4429 
5 *242:21 *1392:A2 14.7464 
*END

*D_NET *243 0.0100155
*CONN
*I *1271:A2 I *D sky130_fd_sc_hd__a22o_2
*I *1272:C I *D sky130_fd_sc_hd__nand4_2
*I *1268:A I *D sky130_fd_sc_hd__inv_2
*I *1394:A2 I *D sky130_fd_sc_hd__o2111ai_2
*I *1432:A2 I *D sky130_fd_sc_hd__o2111ai_2
*I *1391:A I *D sky130_fd_sc_hd__nand2_2
*I *1267:Y O *D sky130_fd_sc_hd__o211ai_4
*CAP
1 *1271:A2 4.36367e-05
2 *1272:C 0.000120705
3 *1268:A 0
4 *1394:A2 0.000319031
5 *1432:A2 0.000115716
6 *1391:A 0.000131229
7 *1267:Y 0.00111623
8 *243:36 0.000360205
9 *243:30 0.00103778
10 *243:26 0.00091639
11 *243:18 0.000530812
12 *243:16 0.00125908
13 *1271:A2 *1273:A 3.45806e-05
14 *1272:C *1272:B 0
15 *1391:A *1391:B 5.7431e-05
16 *1391:A *1433:A1 5.27816e-05
17 *1394:A2 *1394:B1 0.000198601
18 *1394:A2 *1394:C1 1.83053e-05
19 *1394:A2 *372:29 0.000128162
20 *1432:A2 *1391:B 4.16473e-05
21 *1432:A2 *1432:B1 1.02132e-05
22 *1432:A2 *1433:A1 1.98839e-05
23 *1432:A2 *604:33 3.08664e-05
24 *243:16 *1260:A2_N 0.00017309
25 *243:16 *551:10 5.23296e-05
26 *243:30 *1269:B1 0
27 *243:30 *1339:B1 1.02504e-05
28 *243:30 *1340:A 0.000320031
29 *243:30 *1390:C 0
30 *243:30 *1390:D 3.80904e-05
31 *243:30 *1393:B1 6.5185e-05
32 *243:30 *1438:B 0.000715278
33 *243:30 *1438:C 0
34 *243:30 *374:12 0
35 *243:30 *604:12 0
36 *243:36 *1393:B1 4.58096e-05
37 *243:36 *1434:B2 0
38 *243:36 *1438:B 0.000227021
39 *243:36 *604:33 0
40 *1265:C *243:16 0.00017309
41 *1679:A *243:16 0.000570215
42 *168:26 *243:16 6.67064e-05
43 *168:26 *243:18 0.000201127
44 *168:26 *243:26 0.000395427
45 *241:35 *243:16 0.000126566
46 *241:35 *243:30 0.000291993
*RES
1 *1267:Y *243:16 38.7286 
2 *243:16 *243:18 2.55357 
3 *243:18 *243:26 11.2679 
4 *243:26 *243:30 20.7143 
5 *243:30 *243:36 7.78571 
6 *243:36 *1391:A 11.9071 
7 *243:36 *1432:A2 11.9071 
8 *243:30 *1394:A2 18.8893 
9 *243:26 *1268:A 9.3 
10 *243:18 *1272:C 15.5857 
11 *243:16 *1271:A2 14.5143 
*END

*D_NET *244 0.000556543
*CONN
*I *1339:B1 I *D sky130_fd_sc_hd__a31o_2
*I *1268:Y O *D sky130_fd_sc_hd__inv_2
*CAP
1 *1339:B1 0.000195165
2 *1268:Y 0.000195165
3 *1339:B1 *1340:A 0.000101009
4 *1339:B1 *1340:B 5.49544e-05
5 *168:26 *1339:B1 0
6 *243:30 *1339:B1 1.02504e-05
*RES
1 *1268:Y *1339:B1 31.6536 
*END

*D_NET *245 0.000485418
*CONN
*I *1390:D I *D sky130_fd_sc_hd__nand4_4
*I *1269:X O *D sky130_fd_sc_hd__o21a_4
*CAP
1 *1390:D 6.05952e-05
2 *1269:X 6.05952e-05
3 *1390:D *1340:A 0.000128154
4 *1642:A *1390:D 0.000197984
5 *243:30 *1390:D 3.80904e-05
*RES
1 *1269:X *1390:D 30.1536 
*END

*D_NET *246 0.00888911
*CONN
*I *1684:A I *D sky130_fd_sc_hd__buf_4
*I *1438:A I *D sky130_fd_sc_hd__nand4_4
*I *1685:A I *D sky130_fd_sc_hd__buf_2
*I *1270:Y O *D sky130_fd_sc_hd__o211ai_4
*CAP
1 *1684:A 0
2 *1438:A 0.00034177
3 *1685:A 0.000328872
4 *1270:Y 0.000915978
5 *246:37 0.00103643
6 *246:18 0.00193951
7 *1438:A *1335:B 2.89016e-05
8 *1438:A *1335:C 0.000137983
9 *1438:A *1338:A1 1.52978e-05
10 *1438:A *310:10 1.02936e-05
11 *246:18 *1133:A1 0
12 *246:18 *1133:A2 0
13 *246:18 *1187:B 0.000184392
14 *246:18 *1188:A2 2.82057e-05
15 *246:18 *1260:A2_N 9.60939e-05
16 *246:18 *1267:A1 0.000485299
17 *246:37 *1260:A2_N 0.000113887
18 *246:37 *1262:A 4.00025e-05
19 *246:37 *1266:A1 0.000417177
20 *246:37 *249:14 0.000573736
21 *1187:C *246:18 9.57064e-05
22 *1189:C *246:18 0.000164561
23 *1191:A1 *246:18 0
24 *1191:A2 *246:18 4.87854e-05
25 *1191:B1 *246:18 7.84272e-05
26 *1192:C *246:18 0
27 *1263:A1 *246:37 0.000175519
28 *1265:A *246:37 0
29 *1265:C *246:37 0
30 *1334:B2 *246:37 5.52302e-05
31 *1647:A *246:18 0.000229456
32 *110:10 *246:18 0.000177234
33 *161:29 *246:18 0.000142083
34 *241:35 *1438:A 0.000722492
35 *241:35 *246:37 0.000305793
36 *242:21 *1438:A 0
*RES
1 *1270:Y *246:18 40.8 
2 *246:18 *1685:A 14.3714 
3 *246:18 *246:37 28.2143 
4 *246:37 *1438:A 26.8714 
5 *246:37 *1684:A 9.3 
*END

*D_NET *247 0.00205455
*CONN
*I *1273:A I *D sky130_fd_sc_hd__and2_4
*I *1271:X O *D sky130_fd_sc_hd__a22o_2
*CAP
1 *1273:A 0.000687345
2 *1271:X 0.000687345
3 *1273:A *1271:A1 0.000348869
4 *1273:A *1339:A3 0.000121573
5 *1273:A *638:10 0.000174839
6 *1271:A2 *1273:A 3.45806e-05
*RES
1 *1271:X *1273:A 38.1179 
*END

*D_NET *248 0.00127228
*CONN
*I *1273:B I *D sky130_fd_sc_hd__and2_4
*I *1272:Y O *D sky130_fd_sc_hd__nand4_2
*CAP
1 *1273:B 0.000387439
2 *1272:Y 0.000387439
3 *1273:B *1272:D 0.000103831
4 *1273:B *551:10 0.000218734
5 *1273:B *587:10 6.85338e-05
6 *168:20 *1273:B 0.000106299
*RES
1 *1272:Y *1273:B 35.9571 
*END

*D_NET *249 0.00312526
*CONN
*I *1336:A2_N I *D sky130_fd_sc_hd__a2bb2oi_4
*I *1337:A2 I *D sky130_fd_sc_hd__o211ai_4
*I *1274:X O *D sky130_fd_sc_hd__o21a_4
*CAP
1 *1336:A2_N 0
2 *1337:A2 0.000114178
3 *1274:X 0.000521655
4 *249:14 0.000635833
5 *1337:A2 *1338:A1 6.48957e-05
6 *1337:A2 *317:6 4.87953e-05
7 *249:14 *1254:B 0.000149911
8 *249:14 *1259:B1 4.58976e-05
9 *249:14 *1338:A2 0.000189533
10 *249:14 *317:6 5.33334e-05
11 *1259:A2 *249:14 0.000225616
12 *1261:B *249:14 3.84385e-05
13 *1263:A2 *249:14 0
14 *1265:C *249:14 0.000150624
15 *1334:B2 *1337:A2 0.000175519
16 *1334:B2 *249:14 0.000128043
17 *1337:A1 *249:14 9.25014e-06
18 *233:10 *249:14 0
19 *241:35 *249:14 0
20 *246:37 *249:14 0.000573736
*RES
1 *1274:X *249:14 33.6929 
2 *249:14 *1337:A2 21.4964 
3 *249:14 *1336:A2_N 9.3 
*END

*D_NET *250 0.00180371
*CONN
*I *1335:B I *D sky130_fd_sc_hd__nand3_4
*I *1275:Y O *D sky130_fd_sc_hd__o2bb2ai_2
*CAP
1 *1335:B 0.00026684
2 *1275:Y 0.00026684
3 *1335:B *1261:A 0.000126799
4 *1335:B *1334:B1 0.000150618
5 *1335:B *1335:A 0.000135933
6 *1335:B *310:10 0.000508458
7 *1261:B *1335:B 2.90068e-05
8 *1334:A2 *1335:B 0.000175512
9 *1438:A *1335:B 2.89016e-05
10 *230:10 *1335:B 0.000100831
11 *241:35 *1335:B 1.39726e-05
*RES
1 *1275:Y *1335:B 36.7429 
*END

*D_NET *251 0.00469325
*CONN
*I *1326:B1 I *D sky130_fd_sc_hd__a21oi_4
*I *1325:C I *D sky130_fd_sc_hd__nand3_4
*I *1341:A1 I *D sky130_fd_sc_hd__a31oi_2
*I *1276:Y O *D sky130_fd_sc_hd__a32oi_4
*CAP
1 *1326:B1 0.000300323
2 *1325:C 0
3 *1341:A1 7.409e-05
4 *1276:Y 0.00101268
5 *251:20 0.00040114
6 *251:16 0.00164005
7 *1326:B1 *1333:A1 0.000102545
8 *1326:B1 *1333:A2 0
9 *1326:B1 *1385:A1 8.59039e-05
10 *1326:B1 *1385:B1 0
11 *1326:B1 *1388:A1 0.00025597
12 *1341:A1 *1325:A 0.000175519
13 *1341:A1 *1341:A2 1.08359e-05
14 *1341:A1 *306:26 7.49239e-05
15 *251:16 *1276:A1 9.47463e-05
16 *251:16 *1276:B2 5.83304e-05
17 *251:16 *1329:A3 5.17614e-05
18 *251:16 *309:8 0.000162138
19 *251:20 *1325:B 3.36025e-05
20 *1239:C *1326:B1 0
21 *1245:A3 *251:16 4.51611e-05
22 *1276:B1 *251:16 1.02504e-05
23 *1341:B1 *1326:B1 0
24 *1665:A *251:16 2.59093e-05
25 *215:10 *1326:B1 7.73662e-05
*RES
1 *1276:Y *251:16 34.4964 
2 *251:16 *251:20 4.66071 
3 *251:20 *1341:A1 20.8536 
4 *251:20 *1325:C 9.3 
5 *251:16 *1326:B1 26.3179 
*END

*D_NET *252 0.00281934
*CONN
*I *1329:A1 I *D sky130_fd_sc_hd__a31oi_2
*I *1327:A I *D sky130_fd_sc_hd__nand3_4
*I *1277:Y O *D sky130_fd_sc_hd__a31oi_4
*CAP
1 *1329:A1 0.000142684
2 *1327:A 3.61096e-05
3 *1277:Y 0.000520084
4 *252:8 0.000698878
5 *1329:A1 *1327:B 0.000137939
6 *1329:A1 *1329:A3 0.000227021
7 *1329:A1 *680:39 0.000192195
8 *252:8 *1327:C 2.89114e-05
9 *1277:A2 *1327:A 5.03772e-05
10 *1277:A2 *252:8 4.4749e-05
11 *207:10 *252:8 0.000697696
12 *214:16 *1327:A 1.92905e-05
13 *214:16 *252:8 2.34059e-05
*RES
1 *1277:Y *252:8 19.1929 
2 *252:8 *1327:A 10.2464 
3 *252:8 *1329:A1 22.9786 
*END

*D_NET *253 0.00242252
*CONN
*I *1291:B1 I *D sky130_fd_sc_hd__a21oi_2
*I *1294:C I *D sky130_fd_sc_hd__nand3_2
*I *1293:A I *D sky130_fd_sc_hd__nand2_2
*I *1278:Y O *D sky130_fd_sc_hd__o21ai_2
*CAP
1 *1291:B1 0
2 *1294:C 0
3 *1293:A 0.0001861
4 *1278:Y 0.000221751
5 *253:12 0.000270225
6 *253:10 0.000305877
7 *1293:A *1293:B 0.000134773
8 *1293:A *1310:A2_N 5.71472e-05
9 *1293:A *269:12 0
10 *1293:A *270:6 1.21289e-05
11 *1293:A *710:31 5.59013e-05
12 *253:10 *1278:A2 7.43578e-06
13 *253:10 *1314:A1 3.34366e-05
14 *253:10 *289:8 0.000175512
15 *253:10 *665:35 0.000442809
16 *253:10 *710:31 0.0002253
17 *253:12 *270:21 6.95299e-05
18 *253:12 *710:31 0.000224592
*RES
1 *1278:Y *253:10 20.8893 
2 *253:10 *253:12 2.85714 
3 *253:12 *1293:A 17.1571 
4 *253:12 *1294:C 13.8 
5 *253:10 *1291:B1 13.8 
*END

*D_NET *254 0.000566249
*CONN
*I *1292:A I *D sky130_fd_sc_hd__nand3_2
*I *1279:X O *D sky130_fd_sc_hd__o21a_2
*CAP
1 *1292:A 0.000201829
2 *1279:X 0.000201829
3 *1292:A *1206:A4 0
4 *1292:A *1291:A1 0.00015234
5 *1292:A *1292:B 0
6 *1292:A *265:8 1.02504e-05
*RES
1 *1279:X *1292:A 30.9036 
*END

*D_NET *255 0.00149935
*CONN
*I *1287:B1_N I *D sky130_fd_sc_hd__o21bai_2
*I *1289:B1 I *D sky130_fd_sc_hd__o21ai_2
*I *1343:A1 I *D sky130_fd_sc_hd__o21ai_2
*I *1280:Y O *D sky130_fd_sc_hd__nand2_2
*CAP
1 *1287:B1_N 0.000153197
2 *1289:B1 0
3 *1343:A1 2.52056e-05
4 *1280:Y 0.000167706
5 *255:22 0.000295697
6 *1287:B1_N *260:34 0.000166381
7 *1287:B1_N *265:8 0.00033575
8 *1287:B1_N *716:101 8.82741e-05
9 *1343:A1 *1280:A 5.52302e-05
10 *255:22 *1280:A 5.30637e-06
11 *255:22 *1598:A 2.32517e-05
12 *255:22 *265:8 1.00887e-05
13 *255:22 *713:31 8.49275e-05
14 *255:22 *716:101 8.83386e-05
*RES
1 *1280:Y *1343:A1 19.1357 
2 *1280:Y *255:22 16.9964 
3 *255:22 *1289:B1 13.8 
4 *255:22 *1287:B1_N 18.4786 
*END

*D_NET *256 0.00408083
*CONN
*I *1289:A2 I *D sky130_fd_sc_hd__o21ai_2
*I *1667:A I *D sky130_fd_sc_hd__buf_2
*I *1600:A I *D sky130_fd_sc_hd__buf_2
*I *1343:A2 I *D sky130_fd_sc_hd__o21ai_2
*I *1598:A I *D sky130_fd_sc_hd__buf_6
*I *1281:Y O *D sky130_fd_sc_hd__a22oi_2
*CAP
1 *1289:A2 0
2 *1667:A 0.000115926
3 *1600:A 0.000291731
4 *1343:A2 0
5 *1598:A 0.000348059
6 *1281:Y 0.000228315
7 *256:32 0.000454307
8 *256:14 0.000454188
9 *256:10 0.00015278
10 *256:8 0.000228315
11 *1598:A *1280:A 0.000139907
12 *1598:A *691:12 5.52238e-05
13 *1600:A *1342:A1 5.66971e-05
14 *1600:A *1342:B1 9.2815e-05
15 *1600:A *1353:A2 9.84673e-05
16 *1600:A *260:10 5.25941e-05
17 *1600:A *673:34 6.48098e-05
18 *1667:A *993:A 5.33005e-05
19 *1667:A *1286:A1 5.33005e-05
20 *1667:A *1288:B2 0.00014261
21 *1667:A *1289:A1 9.33486e-05
22 *1667:A *555:18 5.51649e-05
23 *1667:A *691:64 0.000100698
24 *256:8 *1281:B2 3.11088e-05
25 *256:8 *712:28 0.000110694
26 *256:14 *1289:A1 3.45899e-05
27 *256:14 *1343:B1 0
28 *256:14 *691:49 1.02504e-05
29 *256:14 *691:64 0.000214358
30 *256:14 *710:31 3.70777e-05
31 *256:32 *1289:A1 0.000138425
32 *256:32 *691:64 0.000148514
33 *255:22 *1598:A 2.32517e-05
*RES
1 *1281:Y *256:8 13.55 
2 *256:8 *256:10 4.5 
3 *256:10 *256:14 7.35714 
4 *256:14 *1598:A 15.2107 
5 *256:14 *1343:A2 9.3 
6 *256:10 *256:32 1.94643 
7 *256:32 *1600:A 19.6929 
8 *256:32 *1667:A 17.4964 
9 *256:8 *1289:A2 9.3 
*END

*D_NET *257 0.00103023
*CONN
*I *1286:B1 I *D sky130_fd_sc_hd__o211ai_2
*I *1290:A I *D sky130_fd_sc_hd__nand4_2
*I *1282:X O *D sky130_fd_sc_hd__a22o_2
*CAP
1 *1286:B1 0
2 *1290:A 9.63054e-05
3 *1282:X 0.000191221
4 *257:12 0.000287526
5 *1290:A *1286:C1 5.52238e-05
6 *1290:A *1292:B 4.87854e-05
7 *257:12 *1206:A4 7.99046e-05
8 *257:12 *1504:A 6.57815e-05
9 *257:12 *673:8 5.52238e-05
10 *257:12 *673:100 0.000150257
*RES
1 *1282:X *257:12 22.0143 
2 *257:12 *1290:A 11.0679 
3 *257:12 *1286:B1 9.3 
*END

*D_NET *258 0.00341934
*CONN
*I *1348:A I *D sky130_fd_sc_hd__nand2_2
*I *1352:A1 I *D sky130_fd_sc_hd__a21oi_2
*I *1283:Y O *D sky130_fd_sc_hd__nand2_2
*CAP
1 *1348:A 0.000499264
2 *1352:A1 0
3 *1283:Y 0.000383014
4 *258:10 0.000882278
5 *1348:A *1348:B 0.000192703
6 *1348:A *1353:A1 8.59435e-05
7 *1348:A *1353:B1 5.87673e-05
8 *1348:A *1353:B2 0
9 *1348:A *325:10 1.02504e-05
10 *1348:A *712:28 1.62025e-05
11 *258:10 *1283:A 2.89114e-05
12 *258:10 *1346:A 0.000102197
13 *258:10 *1352:B1 6.53781e-05
14 *258:10 *1354:A2 2.91794e-05
15 *258:10 *325:10 0.000696498
16 *258:10 *327:8 0
17 *258:10 *327:19 0
18 *258:10 *691:26 7.60306e-05
19 *258:10 *713:37 0.000227539
20 *258:10 *716:30 6.5185e-05
*RES
1 *1283:Y *258:10 25.5143 
2 *258:10 *1352:A1 13.8 
3 *258:10 *1348:A 22.3357 
*END

*D_NET *259 0.00280418
*CONN
*I *1287:A2 I *D sky130_fd_sc_hd__o21bai_2
*I *1288:B2 I *D sky130_fd_sc_hd__o22a_2
*I *1289:A1 I *D sky130_fd_sc_hd__o21ai_2
*I *1284:X O *D sky130_fd_sc_hd__and4_2
*CAP
1 *1287:A2 0.000396181
2 *1288:B2 0.000118588
3 *1289:A1 9.12554e-05
4 *1284:X 0
5 *259:6 0.000209843
6 *259:4 0.000396181
7 *1287:A2 *1284:C 2.12647e-05
8 *1287:A2 *1292:C 3.45899e-05
9 *1287:A2 *260:6 9.58689e-05
10 *1287:A2 *260:10 0.000260152
11 *1287:A2 *608:96 5.28286e-05
12 *1287:A2 *713:6 6.05161e-06
13 *1287:A2 *716:101 6.87672e-05
14 *1288:B2 *993:A 0.000226274
15 *1288:B2 *1286:A1 9.67754e-05
16 *1288:B2 *1288:B1 2.24718e-05
17 *1288:B2 *305:25 9.67754e-05
18 *1288:B2 *710:31 6.321e-05
19 *1289:A1 *710:31 0.000138135
20 *1667:A *1288:B2 0.00014261
21 *1667:A *1289:A1 9.33486e-05
22 *256:14 *1289:A1 3.45899e-05
23 *256:32 *1289:A1 0.000138425
*RES
1 *1284:X *259:4 9.3 
2 *259:4 *259:6 4.5 
3 *259:6 *1289:A1 17.2643 
4 *259:6 *1288:B2 17.925 
5 *259:4 *1287:A2 24.0679 
*END

*D_NET *260 0.00404392
*CONN
*I *1290:B I *D sky130_fd_sc_hd__nand4_2
*I *1286:C1 I *D sky130_fd_sc_hd__o211ai_2
*I *1343:B1 I *D sky130_fd_sc_hd__o21ai_2
*I *1342:B1 I *D sky130_fd_sc_hd__o21a_2
*I *1285:Y O *D sky130_fd_sc_hd__nand4_2
*CAP
1 *1290:B 0
2 *1286:C1 0.000117434
3 *1343:B1 0.000234981
4 *1342:B1 4.82106e-05
5 *1285:Y 2.13855e-05
6 *260:34 0.000324681
7 *260:10 0.000464154
8 *260:6 0.000409596
9 *1286:C1 *716:101 5.33005e-05
10 *1342:B1 *1342:A1 5.49995e-05
11 *1342:B1 *673:28 5.89471e-05
12 *1342:B1 *673:34 0.000100165
13 *1343:B1 *1342:A1 3.14003e-05
14 *1343:B1 *1348:B 0
15 *1343:B1 *710:31 0.000335947
16 *260:6 *1284:C 8.43386e-05
17 *260:10 *1284:C 0.000136733
18 *260:10 *1284:D 1.34631e-05
19 *260:10 *673:28 1.67239e-05
20 *260:34 *1292:C 0
21 *260:34 *265:8 0.000202978
22 *260:34 *645:18 0.000113064
23 *260:34 *716:101 0.000498388
24 *1287:A2 *260:6 9.58689e-05
25 *1287:A2 *260:10 0.000260152
26 *1287:B1_N *260:34 0.000166381
27 *1290:A *1286:C1 5.52238e-05
28 *1600:A *1342:B1 9.2815e-05
29 *1600:A *260:10 5.25941e-05
30 *256:14 *1343:B1 0
*RES
1 *1285:Y *260:6 10.2464 
2 *260:6 *260:10 4.25 
3 *260:10 *1342:B1 11.4786 
4 *260:10 *1343:B1 23.5857 
5 *260:6 *260:34 16.1071 
6 *260:34 *1286:C1 11.4964 
7 *260:34 *1290:B 9.3 
*END

*D_NET *261 0.0091976
*CONN
*I *1033:A1 I *D sky130_fd_sc_hd__o22ai_4
*I *1062:A I *D sky130_fd_sc_hd__nor2_2
*I *1068:B1 I *D sky130_fd_sc_hd__o2bb2ai_4
*I *1256:A1 I *D sky130_fd_sc_hd__o21a_2
*I *1144:B1 I *D sky130_fd_sc_hd__a211o_4
*I *989:Y O *D sky130_fd_sc_hd__inv_2
*CAP
1 *1033:A1 0.000538816
2 *1062:A 0.000131899
3 *1068:B1 0
4 *1256:A1 7.64703e-05
5 *1144:B1 0.000117561
6 *989:Y 4.42861e-05
7 *261:38 0.000211281
8 *261:34 0.00240106
9 *261:10 0.000482028
10 *261:8 0.00211514
11 *1033:A1 *1066:A 9.90367e-05
12 *1033:A1 *1066:B 5.33005e-05
13 *1033:A1 *305:92 5.52302e-05
14 *1144:B1 *684:52 0
15 *1144:B1 *733:125 5.85228e-05
16 *1256:A1 *1256:A2 0.000184745
17 *261:10 *1108:A 0
18 *261:10 *1111:D 4.25809e-05
19 *261:10 *684:52 0
20 *261:10 *733:125 8.2731e-05
21 *261:10 *733:136 0
22 *261:34 *1054:A 5.41609e-05
23 *261:34 *1054:B 0.000183726
24 *261:34 *1054:C 1.92905e-05
25 *261:34 *1060:A1 0.000262498
26 *261:34 *1686:A 2.59355e-05
27 *261:34 *529:10 1.40415e-05
28 *261:34 *684:52 0
29 *1071:B2 *1033:A1 2.59355e-05
30 *1071:B2 *261:34 0.000180515
31 *1086:A4 *261:38 5.83304e-05
32 *1086:B1 *261:38 7.90803e-05
33 *1105:B2 *261:34 0.000126629
34 *1114:A *261:34 0.000307343
35 *1115:B *261:34 0.00010096
36 *1144:A1 *1144:B1 5.80706e-06
37 *1185:A1 *261:8 1.40306e-05
38 *43:10 *1062:A 4.80729e-05
39 *43:10 *261:38 0.000177234
40 *45:8 *261:34 0.000225609
41 *48:8 *1062:A 0.000197984
42 *48:8 *261:38 0.000143804
43 *50:12 *261:34 3.4879e-05
44 *64:12 *1062:A 8.56716e-05
45 *89:8 *261:10 2.8266e-06
46 *89:8 *261:34 3.34672e-05
47 *90:28 *261:34 9.50762e-05
*RES
1 *989:Y *261:8 14.3357 
2 *261:8 *261:10 5.89286 
3 *261:10 *1144:B1 16.05 
4 *261:10 *1256:A1 15.5679 
5 *261:8 *261:34 36.3571 
6 *261:34 *261:38 7.35714 
7 *261:38 *1068:B1 13.8 
8 *261:38 *1062:A 17.1929 
9 *261:34 *1033:A1 18.0679 
*END

*D_NET *262 0.000511594
*CONN
*I *1292:B I *D sky130_fd_sc_hd__nand3_2
*I *1286:Y O *D sky130_fd_sc_hd__o211ai_2
*CAP
1 *1292:B 0.000167328
2 *1286:Y 0.000167328
3 *1292:B *1292:C 0.000128154
4 *1292:B *265:8 0
5 *1290:A *1292:B 4.87854e-05
6 *1292:A *1292:B 0
*RES
1 *1286:Y *1292:B 30.6179 
*END

*D_NET *263 0.00127502
*CONN
*I *1292:C I *D sky130_fd_sc_hd__nand3_2
*I *1287:Y O *D sky130_fd_sc_hd__o21bai_2
*CAP
1 *1292:C 0.000212561
2 *1287:Y 0.000212561
3 *1292:C *1206:A4 0.000373067
4 *1292:C *265:8 0
5 *1292:C *608:96 0.000199045
6 *1292:C *716:101 0.000115045
7 *1287:A2 *1292:C 3.45899e-05
8 *1292:B *1292:C 0.000128154
9 *260:34 *1292:C 0
*RES
1 *1287:Y *1292:C 35.0107 
*END

*D_NET *264 0.00186217
*CONN
*I *1309:B1 I *D sky130_fd_sc_hd__o221ai_4
*I *1367:A1 I *D sky130_fd_sc_hd__o22ai_2
*I *1288:X O *D sky130_fd_sc_hd__o22a_2
*CAP
1 *1309:B1 0.000316261
2 *1367:A1 0
3 *1288:X 0.000280462
4 *264:10 0.000596724
5 *1309:B1 *1309:A2 7.02611e-05
6 *1309:B1 *1309:B2 3.77876e-05
7 *1309:B1 *1367:A2 0.000166919
8 *1309:B1 *269:12 1.21258e-05
9 *264:10 *993:A 0.000317503
10 *264:10 *1367:A2 9.15842e-06
11 *264:10 *305:62 5.49657e-05
*RES
1 *1288:X *264:10 18.4429 
2 *264:10 *1367:A1 13.8 
3 *264:10 *1309:B1 19.7821 
*END

*D_NET *265 0.00272299
*CONN
*I *1291:A1 I *D sky130_fd_sc_hd__a21oi_2
*I *1294:A I *D sky130_fd_sc_hd__nand3_2
*I *1289:Y O *D sky130_fd_sc_hd__o21ai_2
*CAP
1 *1291:A1 0.00016079
2 *1294:A 0
3 *1289:Y 0.000370816
4 *265:8 0.000531605
5 *1291:A1 *1206:A4 0
6 *1291:A1 *1291:A2 0.000161024
7 *1291:A1 *716:107 0
8 *265:8 *1290:C 0.000366232
9 *265:8 *1291:A2 4.1331e-06
10 *265:8 *266:8 5.66853e-05
11 *265:8 *691:64 0.000259116
12 *265:8 *713:31 0.000101178
13 *1287:B1_N *265:8 0.00033575
14 *1292:A *1291:A1 0.00015234
15 *1292:A *265:8 1.02504e-05
16 *1292:B *265:8 0
17 *1292:C *265:8 0
18 *255:22 *265:8 1.00887e-05
19 *260:34 *265:8 0.000202978
*RES
1 *1289:Y *265:8 25.4607 
2 *265:8 *1294:A 13.8 
3 *265:8 *1291:A1 18.0143 
*END

*D_NET *266 0.00158616
*CONN
*I *1291:A2 I *D sky130_fd_sc_hd__a21oi_2
*I *1294:B I *D sky130_fd_sc_hd__nand3_2
*I *1293:B I *D sky130_fd_sc_hd__nand2_2
*I *1290:Y O *D sky130_fd_sc_hd__nand4_2
*CAP
1 *1291:A2 0.000124151
2 *1294:B 0
3 *1293:B 0.000150974
4 *1290:Y 9.44276e-05
5 *266:10 0.000150974
6 *266:8 0.000218578
7 *1291:A2 *1308:A2_N 0
8 *1291:A2 *716:107 0.000166983
9 *1293:B *268:6 2.60984e-05
10 *1293:B *270:6 9.60771e-05
11 *266:8 *1290:C 1.7845e-05
12 *266:8 *710:31 9.10877e-06
13 *266:8 *716:107 0.000174329
14 *1291:A1 *1291:A2 0.000161024
15 *1293:A *1293:B 0.000134773
16 *265:8 *1291:A2 4.1331e-06
17 *265:8 *266:8 5.66853e-05
*RES
1 *1290:Y *266:8 16.3536 
2 *266:8 *266:10 4.5 
3 *266:10 *1293:B 12.7464 
4 *266:10 *1294:B 9.3 
5 *266:8 *1291:A2 17.425 
*END

*D_NET *267 0.00443757
*CONN
*I *1314:A2 I *D sky130_fd_sc_hd__o221ai_4
*I *1313:A1 I *D sky130_fd_sc_hd__o221a_2
*I *1367:B2 I *D sky130_fd_sc_hd__o22ai_2
*I *1291:Y O *D sky130_fd_sc_hd__a21oi_2
*CAP
1 *1314:A2 0.00044083
2 *1313:A1 2.21001e-05
3 *1367:B2 0.00033967
4 *1291:Y 0.000538691
5 *267:23 0.000525854
6 *267:8 0.000941285
7 *1313:A1 *1313:C1 5.52302e-05
8 *1313:A1 *291:12 3.69047e-06
9 *1314:A2 *1221:A1 0
10 *1314:A2 *1314:C1 5.51682e-05
11 *1314:A2 *291:12 3.69697e-05
12 *1314:A2 *305:62 0.000132442
13 *1367:B2 *1307:B 0
14 *1367:B2 *1308:A1_N 0.000127446
15 *1367:B2 *1309:A2 0.000146316
16 *1367:B2 *1310:B2 0.000207156
17 *1367:B2 *1315:C 0
18 *1367:B2 *1367:B1 9.15842e-06
19 *1367:B2 *282:10 9.89473e-05
20 *1367:B2 *288:10 7.64038e-05
21 *1367:B2 *305:62 5.49161e-05
22 *1367:B2 *350:12 3.48682e-05
23 *267:8 *1308:A2_N 0.000101149
24 *267:8 *1311:A2 0.000315165
25 *267:23 *1314:C1 1.19402e-05
26 *267:23 *288:10 3.15739e-05
27 *267:23 *305:62 6.19181e-05
28 *1313:B2 *1314:A2 6.86792e-05
*RES
1 *1291:Y *267:8 20.9071 
2 *267:8 *1367:B2 22.7821 
3 *267:8 *267:23 1.64286 
4 *267:23 *1313:A1 14.3357 
5 *267:23 *1314:A2 22.0321 
*END

*D_NET *268 0.00367897
*CONN
*I *1308:A1_N I *D sky130_fd_sc_hd__o2bb2ai_2
*I *1310:A1_N I *D sky130_fd_sc_hd__o2bb2ai_4
*I *1309:C1 I *D sky130_fd_sc_hd__o221ai_4
*I *1292:Y O *D sky130_fd_sc_hd__nand3_2
*CAP
1 *1308:A1_N 0.000132992
2 *1310:A1_N 0
3 *1309:C1 0.000260194
4 *1292:Y 0.000506691
5 *268:10 0.000356377
6 *268:6 0.000735865
7 *1308:A1_N *1310:B2 6.05161e-06
8 *1308:A1_N *305:62 0.000125731
9 *1309:C1 *1307:B 0.000135028
10 *1309:C1 *1309:A2 0.000189716
11 *1309:C1 *1310:B2 0.000184745
12 *1309:C1 *1315:C 0.000172681
13 *268:6 *1310:A2_N 0.000405727
14 *268:6 *270:6 0.00022459
15 *268:10 *1310:A2_N 3.57366e-05
16 *268:10 *1310:B2 5.33005e-05
17 *1293:B *268:6 2.60984e-05
18 *1367:B2 *1308:A1_N 0.000127446
*RES
1 *1292:Y *268:6 18.4607 
2 *268:6 *268:10 2.08929 
3 *268:10 *1309:C1 24.4964 
4 *268:10 *1310:A1_N 9.3 
5 *268:6 *1308:A1_N 21.3179 
*END

*D_NET *269 0.00177751
*CONN
*I *1367:A2 I *D sky130_fd_sc_hd__o22ai_2
*I *1309:B2 I *D sky130_fd_sc_hd__o221ai_4
*I *1293:Y O *D sky130_fd_sc_hd__nand2_2
*CAP
1 *1367:A2 0.00011814
2 *1309:B2 0.000159387
3 *1293:Y 0.000294796
4 *269:12 0.000572323
5 *1309:B2 *1309:A2 0.000135028
6 *1367:A2 *305:62 0.000243309
7 *1367:A2 *555:22 2.85321e-05
8 *269:12 *305:62 0
9 *269:12 *710:31 0
10 *1293:A *269:12 0
11 *1309:B1 *1309:B2 3.77876e-05
12 *1309:B1 *1367:A2 0.000166919
13 *1309:B1 *269:12 1.21258e-05
14 *264:10 *1367:A2 9.15842e-06
*RES
1 *1293:Y *269:12 22.9429 
2 *269:12 *1309:B2 11.9071 
3 *269:12 *1367:A2 21.9964 
*END

*D_NET *270 0.00252666
*CONN
*I *1311:B1 I *D sky130_fd_sc_hd__o21ai_4
*I *1308:A2_N I *D sky130_fd_sc_hd__o2bb2ai_2
*I *1310:A2_N I *D sky130_fd_sc_hd__o2bb2ai_4
*I *1294:Y O *D sky130_fd_sc_hd__nand3_2
*CAP
1 *1311:B1 0
2 *1308:A2_N 0.000234792
3 *1310:A2_N 0.000138795
4 *1294:Y 5.28857e-05
5 *270:21 0.000368065
6 *270:6 0.000324954
7 *1308:A2_N *1311:A1 9.88771e-05
8 *1308:A2_N *1311:A2 0.000306207
9 *1291:A2 *1308:A2_N 0
10 *1293:A *1310:A2_N 5.71472e-05
11 *1293:A *270:6 1.21289e-05
12 *1293:B *270:6 9.60771e-05
13 *253:12 *270:21 6.95299e-05
14 *267:8 *1308:A2_N 0.000101149
15 *268:6 *1310:A2_N 0.000405727
16 *268:6 *270:6 0.00022459
17 *268:10 *1310:A2_N 3.57366e-05
*RES
1 *1294:Y *270:6 11.4786 
2 *270:6 *1310:A2_N 13.55 
3 *270:6 *270:21 11.5536 
4 *270:21 *1308:A2_N 15.7464 
5 *270:21 *1311:B1 9.3 
*END

*D_NET *271 0.00313536
*CONN
*I *1302:B1 I *D sky130_fd_sc_hd__o21a_4
*I *1305:C I *D sky130_fd_sc_hd__and3_4
*I *1295:X O *D sky130_fd_sc_hd__and2_2
*CAP
1 *1302:B1 0.00060395
2 *1305:C 0
3 *1295:X 0.000106574
4 *271:10 0.000710524
5 *1302:B1 *1307:B 4.15856e-05
6 *1302:B1 *1541:A 2.49278e-05
7 *1302:B1 *272:41 0.000143635
8 *1302:B1 *278:10 0.000554415
9 *1302:B1 *279:6 0.000487467
10 *1302:B1 *326:18 0.000257967
11 *271:10 *995:A 3.59945e-05
12 *271:10 *1307:A 5.50052e-05
13 *271:10 *1307:B 3.67279e-06
14 *271:10 *326:18 5.29477e-05
15 *271:10 *334:20 5.66971e-05
*RES
1 *1295:X *271:10 16.5857 
2 *271:10 *1305:C 13.8 
3 *271:10 *1302:B1 30.4429 
*END

*D_NET *272 0.00744419
*CONN
*I *1151:A1_N I *D sky130_fd_sc_hd__a2bb2oi_4
*I *1505:A I *D sky130_fd_sc_hd__clkbuf_4
*I *990:Y O *D sky130_fd_sc_hd__inv_2
*CAP
1 *1151:A1_N 0
2 *1505:A 0
3 *990:Y 0.000215518
4 *272:41 0.00146037
5 *272:12 0.00167589
6 *272:12 *1299:C 1.98839e-05
7 *272:12 *674:37 6.53781e-05
8 *272:12 *683:31 0.000103266
9 *272:12 *719:25 7.03856e-05
10 *272:12 *725:8 9.71197e-05
11 *272:12 *725:12 1.52978e-05
12 *272:12 *725:72 7.8327e-05
13 *272:12 *732:61 0.000139907
14 *272:41 *1153:C1 4.45994e-05
15 *272:41 *1302:A1 0.000185643
16 *272:41 *1302:A2 5.52302e-05
17 *272:41 *1303:B1 1.21258e-05
18 *272:41 *274:19 0.000142856
19 *272:41 *277:68 0.000235479
20 *272:41 *279:6 0.000317082
21 *272:41 *293:12 7.83174e-05
22 *272:41 *326:18 0.000787798
23 *272:41 *326:39 1.02504e-05
24 *272:41 *555:75 0.000362424
25 *272:41 *555:79 1.4396e-05
26 *272:41 *574:10 0.000151356
27 *272:41 *716:125 0.000478975
28 *272:41 *729:8 4.86866e-05
29 *1229:A1 *272:41 0.000147125
30 *1233:A1 *272:41 0.000286872
31 *1302:B1 *272:41 0.000143635
*RES
1 *990:Y *272:12 24.6393 
2 *272:12 *1505:A 9.3 
3 *272:12 *272:41 45.3571 
4 *272:41 *1151:A1_N 9.3 
*END

*D_NET *273 0.002354
*CONN
*I *1362:A1 I *D sky130_fd_sc_hd__o21a_2
*I *1418:A1 I *D sky130_fd_sc_hd__o211ai_2
*I *1358:A I *D sky130_fd_sc_hd__or2_2
*I *1415:B1 I *D sky130_fd_sc_hd__o2bb2ai_2
*I *1296:Y O *D sky130_fd_sc_hd__nand2_2
*CAP
1 *1362:A1 0
2 *1418:A1 0
3 *1358:A 0.000281166
4 *1415:B1 9.01965e-05
5 *1296:Y 8.48204e-05
6 *273:25 0.000379324
7 *273:14 0.000377439
8 *273:12 0.000273906
9 *1358:A *1358:B 9.3728e-05
10 *1358:A *1359:B1 6.0178e-05
11 *1358:A *1415:B2 3.67279e-06
12 *1358:A *336:19 8.24874e-05
13 *1358:A *398:10 7.15503e-05
14 *1358:A *426:29 4.27842e-06
15 *1358:A *678:38 8.08608e-06
16 *1358:A *678:47 2.11693e-05
17 *1358:A *678:58 1.50223e-05
18 *273:12 *1377:C 5.33005e-05
19 *273:12 *680:39 0.000198542
20 *273:12 *715:27 0.000200263
21 *273:25 *1415:B2 5.48645e-05
*RES
1 *1296:Y *273:12 21.3893 
2 *273:12 *273:14 3 
3 *273:14 *1415:B1 10.6571 
4 *273:14 *273:25 6.75 
5 *273:25 *1358:A 20.2464 
6 *273:25 *1418:A1 13.8 
7 *273:12 *1362:A1 9.3 
*END

*D_NET *274 0.0014096
*CONN
*I *1302:A1 I *D sky130_fd_sc_hd__o21a_4
*I *1628:A I *D sky130_fd_sc_hd__buf_2
*I *1629:A I *D sky130_fd_sc_hd__buf_2
*I *1297:Y O *D sky130_fd_sc_hd__a22oi_2
*CAP
1 *1302:A1 2.81922e-05
2 *1628:A 0
3 *1629:A 0
4 *1297:Y 0.000246712
5 *274:19 4.94506e-05
6 *274:12 0.00026797
7 *1302:A1 *277:68 0.000172309
8 *274:12 *1297:B2 2.89016e-05
9 *274:12 *674:37 7.2754e-05
10 *274:12 *683:46 7.1959e-05
11 *274:12 *683:59 0
12 *274:19 *277:68 0.000142856
13 *272:41 *1302:A1 0.000185643
14 *272:41 *274:19 0.000142856
*RES
1 *1297:Y *274:12 22.0143 
2 *274:12 *1629:A 9.3 
3 *274:12 *274:19 1.35714 
4 *274:19 *1628:A 9.3 
5 *274:19 *1302:A1 11.0679 
*END

*D_NET *275 0.0031813
*CONN
*I *1305:A I *D sky130_fd_sc_hd__and3_4
*I *1301:B1 I *D sky130_fd_sc_hd__o211a_4
*I *1306:A I *D sky130_fd_sc_hd__nand4_2
*I *1372:A1 I *D sky130_fd_sc_hd__a31o_2
*I *1304:B1 I *D sky130_fd_sc_hd__a22o_2
*I *1298:X O *D sky130_fd_sc_hd__a22o_4
*CAP
1 *1305:A 3.5066e-05
2 *1301:B1 0
3 *1306:A 7.40105e-05
4 *1372:A1 0.000402718
5 *1304:B1 0.000107104
6 *1298:X 3.5066e-05
7 *275:32 0.000227757
8 *275:17 0.000644211
9 *275:6 0.00019485
10 *1304:B1 *348:10 0.000196649
11 *1305:A *995:A 0.000100074
12 *1305:A *1305:B 9.84673e-05
13 *1305:A *350:12 4.77002e-05
14 *1306:A *277:42 0.000195853
15 *1306:A *326:18 7.27028e-05
16 *1372:A1 *1301:A1 1.97617e-05
17 *1372:A1 *1306:D 6.62144e-05
18 *1372:A1 *1372:A2 0.000181703
19 *1372:A1 *1541:A 0.000141935
20 *275:17 *337:19 0
21 *275:17 *348:10 0.000146254
22 *275:32 *1306:D 0
23 *275:32 *1541:A 6.10411e-05
24 *275:32 *277:42 5.50052e-05
25 *275:32 *348:10 5.51716e-05
26 *275:32 *348:25 2.19895e-05
*RES
1 *1298:X *275:6 13.8 
2 *275:6 *1304:B1 16.3536 
3 *275:6 *275:17 1.94643 
4 *275:17 *1372:A1 19.2643 
5 *275:17 *275:32 7.30357 
6 *275:32 *1306:A 20.8536 
7 *275:32 *1301:B1 9.3 
8 *1298:X *1305:A 20.3679 
*END

*D_NET *276 0.00180548
*CONN
*I *1302:A2 I *D sky130_fd_sc_hd__o21a_4
*I *1303:B2 I *D sky130_fd_sc_hd__o22a_4
*I *1372:B1 I *D sky130_fd_sc_hd__a31o_2
*I *1299:X O *D sky130_fd_sc_hd__and4_4
*CAP
1 *1302:A2 0.000100873
2 *1303:B2 4.76687e-05
3 *1372:B1 8.49762e-05
4 *1299:X 5.37304e-05
5 *276:19 0.000250509
6 *276:8 0.000240674
7 *1302:A2 *277:68 0.000159467
8 *1302:A2 *348:44 0.000142082
9 *1302:A2 *683:59 3.25078e-05
10 *1303:B2 *348:25 5.03772e-05
11 *1372:B1 *1299:A 1.17508e-05
12 *1372:B1 *1299:B 6.5185e-05
13 *1372:B1 *555:43 1.78465e-05
14 *1372:B1 *732:29 3.20782e-05
15 *1372:B1 *732:49 0.000162587
16 *276:8 *1306:C 4.08637e-05
17 *276:8 *732:61 5.33005e-05
18 *276:19 *1299:D 7.71321e-05
19 *276:19 *1301:A1 0
20 *276:19 *277:21 1.31516e-05
21 *276:19 *277:68 7.252e-05
22 *276:19 *348:44 9.25014e-06
23 *276:19 *732:49 3.17148e-05
24 *272:41 *1302:A2 5.52302e-05
*RES
1 *1299:X *276:8 14.7464 
2 *276:8 *1372:B1 16.3536 
3 *276:8 *276:19 2.55357 
4 *276:19 *1303:B2 14.7464 
5 *276:19 *1302:A2 17.1929 
*END

*D_NET *277 0.00893123
*CONN
*I *1371:B1 I *D sky130_fd_sc_hd__o21a_2
*I *1373:B1 I *D sky130_fd_sc_hd__o31a_2
*I *1301:C1 I *D sky130_fd_sc_hd__o211a_4
*I *1305:B I *D sky130_fd_sc_hd__and3_4
*I *1306:B I *D sky130_fd_sc_hd__nand4_2
*I *1304:B2 I *D sky130_fd_sc_hd__a22o_2
*I *1300:Y O *D sky130_fd_sc_hd__nand4_4
*CAP
1 *1371:B1 0
2 *1373:B1 5.13376e-05
3 *1301:C1 0
4 *1305:B 0.000127216
5 *1306:B 0
6 *1304:B2 0.000175068
7 *1300:Y 9.08439e-05
8 *277:68 0.000437569
9 *277:42 0.000321009
10 *277:27 0.000426249
11 *277:21 0.000782594
12 *277:8 0.000429818
13 *1304:B2 *334:20 0.000281866
14 *1304:B2 *679:50 0.000238129
15 *1304:B2 *732:29 0.000439888
16 *1305:B *995:A 3.09985e-05
17 *1305:B *1298:B2 2.90501e-05
18 *1305:B *326:18 6.66211e-05
19 *1305:B *350:12 0.000182811
20 *1305:B *555:35 1.30914e-05
21 *1373:B1 *1373:A2 9.71197e-05
22 *1373:B1 *348:46 1.38323e-05
23 *1373:B1 *348:88 9.71197e-05
24 *1373:B1 *574:10 0.000225609
25 *277:8 *1298:A1 0.000221978
26 *277:8 *1300:A 9.84673e-05
27 *277:8 *1300:C 7.14308e-05
28 *277:8 *350:12 0.00043575
29 *277:21 *337:19 0.00011328
30 *277:21 *679:50 0.000143825
31 *277:21 *732:29 0.000154412
32 *277:21 *732:49 0.000193675
33 *277:27 *1306:C 0.000212667
34 *277:42 *1307:B 5.33005e-05
35 *277:42 *1541:A 9.84673e-05
36 *277:42 *326:18 0
37 *277:42 *555:35 4.29498e-05
38 *277:42 *555:75 0.000185383
39 *277:68 *1303:B1 0.000377637
40 *277:68 *1371:A1 5.33005e-05
41 *277:68 *1373:A2 0
42 *277:68 *337:19 9.42111e-05
43 *277:68 *348:44 0.000429254
44 *277:68 *348:46 9.71197e-05
45 *277:68 *348:88 1.04232e-05
46 *277:68 *574:10 0.000140748
47 *1302:A1 *277:68 0.000172309
48 *1302:A2 *277:68 0.000159467
49 *1305:A *1305:B 9.84673e-05
50 *1306:A *277:42 0.000195853
51 *272:41 *277:68 0.000235479
52 *274:19 *277:68 0.000142856
53 *275:32 *277:42 5.50052e-05
54 *276:19 *277:21 1.31516e-05
55 *276:19 *277:68 7.252e-05
*RES
1 *1300:Y *277:8 18.0321 
2 *277:8 *1304:B2 19.9607 
3 *277:8 *277:21 4.98214 
4 *277:21 *277:27 8.75 
5 *277:27 *1306:B 9.3 
6 *277:27 *277:42 14.1607 
7 *277:42 *1305:B 22.0143 
8 *277:42 *1301:C1 9.3 
9 *277:21 *277:68 18.875 
10 *277:68 *1373:B1 11.4786 
11 *277:68 *1371:B1 9.3 
*END

*D_NET *278 0.00222319
*CONN
*I *1308:B1 I *D sky130_fd_sc_hd__o2bb2ai_2
*I *1311:A1 I *D sky130_fd_sc_hd__o21ai_4
*I *1301:X O *D sky130_fd_sc_hd__o211a_4
*CAP
1 *1308:B1 0
2 *1311:A1 0.000332569
3 *1301:X 0.000204977
4 *278:10 0.000537546
5 *1311:A1 *1311:A2 0.000133541
6 *1311:A1 *279:6 2.89114e-05
7 *278:10 *1315:C 0.000120207
8 *278:10 *1541:A 0.000212145
9 *1302:B1 *278:10 0.000554415
10 *1308:A2_N *1311:A1 9.88771e-05
*RES
1 *1301:X *278:10 25.4071 
2 *278:10 *1311:A1 15.2107 
3 *278:10 *1308:B1 9.3 
*END

*D_NET *279 0.00244115
*CONN
*I *1311:A2 I *D sky130_fd_sc_hd__o21ai_4
*I *1308:B2 I *D sky130_fd_sc_hd__o2bb2ai_2
*I *1302:X O *D sky130_fd_sc_hd__o21a_4
*CAP
1 *1311:A2 0.000216741
2 *1308:B2 0
3 *1302:X 0.000160639
4 *279:6 0.00037738
5 *1311:A2 *1315:B 9.80173e-05
6 *1302:B1 *279:6 0.000487467
7 *1308:A2_N *1311:A2 0.000306207
8 *1311:A1 *1311:A2 0.000133541
9 *1311:A1 *279:6 2.89114e-05
10 *267:8 *1311:A2 0.000315165
11 *272:41 *279:6 0.000317082
*RES
1 *1302:X *279:6 14.7643 
2 *279:6 *1308:B2 9.3 
3 *279:6 *1311:A2 16.1571 
*END

*D_NET *280 0.00208857
*CONN
*I *1309:A2 I *D sky130_fd_sc_hd__o221ai_4
*I *1310:B1 I *D sky130_fd_sc_hd__o2bb2ai_4
*I *1303:X O *D sky130_fd_sc_hd__o22a_4
*CAP
1 *1309:A2 0.000446491
2 *1310:B1 2.23854e-05
3 *1303:X 0.000162547
4 *280:6 0.000631424
5 *1309:A2 *1310:B2 0.000108525
6 *1309:A2 *288:10 3.30237e-05
7 *1310:B1 *1310:B2 0
8 *280:6 *348:25 0.00014285
9 *1309:B1 *1309:A2 7.02611e-05
10 *1309:B2 *1309:A2 0.000135028
11 *1309:C1 *1309:A2 0.000189716
12 *1367:B2 *1309:A2 0.000146316
*RES
1 *1303:X *280:6 12.3 
2 *280:6 *1310:B1 9.72857 
3 *280:6 *1309:A2 27.0679 
*END

*D_NET *281 0.00146992
*CONN
*I *1307:A I *D sky130_fd_sc_hd__nand2_2
*I *1304:X O *D sky130_fd_sc_hd__a22o_2
*CAP
1 *1307:A 0.000536722
2 *1304:X 0.000536722
3 *1307:A *282:10 1.6815e-05
4 *1307:A *334:20 0.000269654
5 *1307:A *673:34 5.50052e-05
6 *271:10 *1307:A 5.50052e-05
*RES
1 *1304:X *1307:A 35.4214 
*END

*D_NET *282 0.00276556
*CONN
*I *1310:B2 I *D sky130_fd_sc_hd__o2bb2ai_4
*I *1309:A1 I *D sky130_fd_sc_hd__o221ai_4
*I *1305:X O *D sky130_fd_sc_hd__and3_4
*CAP
1 *1310:B2 0.00023892
2 *1309:A1 0
3 *1305:X 0.000256805
4 *282:10 0.000495725
5 *1310:B2 *288:10 0.000268403
6 *1310:B2 *305:62 0.000217406
7 *282:10 *1307:B 5.66971e-05
8 *282:10 *1367:B1 7.84156e-05
9 *282:10 *305:62 0.000317442
10 *282:10 *350:12 0.000160207
11 *1307:A *282:10 1.6815e-05
12 *1308:A1_N *1310:B2 6.05161e-06
13 *1309:A2 *1310:B2 0.000108525
14 *1309:C1 *1310:B2 0.000184745
15 *1310:B1 *1310:B2 0
16 *1367:B2 *1310:B2 0.000207156
17 *1367:B2 *282:10 9.89473e-05
18 *268:10 *1310:B2 5.33005e-05
*RES
1 *1305:X *282:10 20.9607 
2 *282:10 *1309:A1 13.8 
3 *282:10 *1310:B2 21.3179 
*END

*D_NET *283 0.00240205
*CONN
*I *1163:A1 I *D sky130_fd_sc_hd__o211ai_2
*I *1167:A1 I *D sky130_fd_sc_hd__o22ai_2
*I *991:Y O *D sky130_fd_sc_hd__inv_2
*CAP
1 *1163:A1 0.000168894
2 *1167:A1 0
3 *991:Y 0.000369449
4 *283:10 0.000538343
5 *1163:A1 *1163:A2 0.000101761
6 *1163:A1 *1502:A 0.000214984
7 *1163:A1 *701:41 8.14438e-05
8 *1163:A1 *708:65 0.000156661
9 *283:10 *991:A 2.32625e-05
10 *283:10 *1159:B1 0.000177227
11 *283:10 *1166:D 5.71472e-05
12 *283:10 *1502:A 4.73656e-05
13 *283:10 *673:138 5.51502e-05
14 *283:10 *700:26 1.65169e-05
15 *283:10 *708:50 0.000140318
16 *283:10 *708:65 9.25014e-06
17 *1172:A2_N *283:10 9.60875e-05
18 *136:15 *283:10 0.000148189
*RES
1 *991:Y *283:10 21.175 
2 *283:10 *1167:A1 13.8 
3 *283:10 *1163:A1 18.7821 
*END

*D_NET *284 0.00168498
*CONN
*I *1307:B I *D sky130_fd_sc_hd__nand2_2
*I *1306:Y O *D sky130_fd_sc_hd__nand4_2
*CAP
1 *1307:B 0.000538879
2 *1306:Y 0.000538879
3 *1307:B *995:A 6.05161e-06
4 *1307:B *1315:C 9.25014e-06
5 *1307:B *1541:A 0.0002254
6 *1307:B *350:12 7.62323e-05
7 *1302:B1 *1307:B 4.15856e-05
8 *1309:C1 *1307:B 0.000135028
9 *1367:B2 *1307:B 0
10 *271:10 *1307:B 3.67279e-06
11 *277:42 *1307:B 5.33005e-05
12 *282:10 *1307:B 5.66971e-05
*RES
1 *1306:Y *1307:B 38.2786 
*END

*D_NET *285 0.000614616
*CONN
*I *1367:B1 I *D sky130_fd_sc_hd__o22ai_2
*I *1307:Y O *D sky130_fd_sc_hd__nand2_2
*CAP
1 *1367:B1 0.00017254
2 *1307:Y 0.00017254
3 *1367:B1 *350:12 0.000153439
4 *1367:B1 *555:22 2.85234e-05
5 *1367:B2 *1367:B1 9.15842e-06
6 *282:10 *1367:B1 7.84156e-05
*RES
1 *1307:Y *1367:B1 31.4393 
*END

*D_NET *286 0.000539496
*CONN
*I *1315:B I *D sky130_fd_sc_hd__nand3_4
*I *1308:Y O *D sky130_fd_sc_hd__o2bb2ai_2
*CAP
1 *1315:B 0.000115047
2 *1308:Y 0.000115047
3 *1315:B *1221:A1 5.83304e-05
4 *1315:B *1315:C 0.000153054
5 *1315:B *326:18 0
6 *1311:A2 *1315:B 9.80173e-05
*RES
1 *1308:Y *1315:B 30.4929 
*END

*D_NET *287 0.00116207
*CONN
*I *1315:C I *D sky130_fd_sc_hd__nand3_4
*I *1309:Y O *D sky130_fd_sc_hd__o221ai_4
*CAP
1 *1315:C 0.00025742
2 *1309:Y 0.00025742
3 *1315:C *1314:C1 1.41029e-05
4 *1315:C *1541:A 1.39158e-05
5 *1315:C *288:10 0.000164018
6 *1315:C *326:18 0
7 *1307:B *1315:C 9.25014e-06
8 *1309:C1 *1315:C 0.000172681
9 *1315:B *1315:C 0.000153054
10 *1367:B2 *1315:C 0
11 *278:10 *1315:C 0.000120207
*RES
1 *1309:Y *1315:C 35.0107 
*END

*D_NET *288 0.00239989
*CONN
*I *1314:C1 I *D sky130_fd_sc_hd__o221ai_4
*I *1313:C1 I *D sky130_fd_sc_hd__o221a_2
*I *1310:Y O *D sky130_fd_sc_hd__o2bb2ai_4
*CAP
1 *1314:C1 0.000134126
2 *1313:C1 0.0002629
3 *1310:Y 0.000340787
4 *288:10 0.000737812
5 *1313:C1 *1313:A2 9.74618e-05
6 *1313:C1 *291:12 2.47724e-05
7 *1314:C1 *1221:A1 0
8 *1314:C1 *291:12 7.83587e-05
9 *1309:A2 *288:10 3.30237e-05
10 *1310:B2 *288:10 0.000268403
11 *1313:A1 *1313:C1 5.52302e-05
12 *1313:B1 *1313:C1 1.38106e-05
13 *1314:A2 *1314:C1 5.51682e-05
14 *1315:C *1314:C1 1.41029e-05
15 *1315:C *288:10 0.000164018
16 *1367:B2 *288:10 7.64038e-05
17 *267:23 *1314:C1 1.19402e-05
18 *267:23 *288:10 3.15739e-05
*RES
1 *1310:Y *288:10 21.2821 
2 *288:10 *1313:C1 18.4607 
3 *288:10 *1314:C1 16.9607 
*END

*D_NET *289 0.00146277
*CONN
*I *1314:A1 I *D sky130_fd_sc_hd__o221ai_4
*I *1313:A2 I *D sky130_fd_sc_hd__o221a_2
*I *1311:Y O *D sky130_fd_sc_hd__o21ai_4
*CAP
1 *1314:A1 0.00013591
2 *1313:A2 0.000193291
3 *1311:Y 9.41014e-05
4 *289:8 0.000423302
5 *1313:A2 *665:35 0.000224356
6 *1314:A1 *665:41 0
7 *1314:A1 *710:31 7.252e-05
8 *1313:B1 *1313:A2 1.28809e-05
9 *1313:B1 *1314:A1 0
10 *1313:C1 *1313:A2 9.74618e-05
11 *253:10 *1314:A1 3.34366e-05
12 *253:10 *289:8 0.000175512
*RES
1 *1311:Y *289:8 16.05 
2 *289:8 *1313:A2 18.8536 
3 *289:8 *1314:A1 16.5857 
*END

*D_NET *290 0.00286647
*CONN
*I *1315:A I *D sky130_fd_sc_hd__nand3_4
*I *1312:Y O *D sky130_fd_sc_hd__a21oi_4
*CAP
1 *1315:A 0.00045713
2 *1312:Y 0.00045713
3 *1315:A *1221:A1 0.000288679
4 *1315:A *326:18 0.000251477
5 *1223:A1 *1315:A 0.000149904
6 *1226:A1_N *1315:A 0.000170654
7 *1227:A1 *1315:A 0.000615963
8 *1233:C1 *1315:A 0.000130121
9 *186:18 *1315:A 0.000345415
*RES
1 *1312:Y *1315:A 43.9214 
*END

*D_NET *291 0.00963087
*CONN
*I *1378:B1 I *D sky130_fd_sc_hd__a21o_4
*I *1381:A1 I *D sky130_fd_sc_hd__o21ai_2
*I *1428:A1 I *D sky130_fd_sc_hd__o2111ai_2
*I *1313:X O *D sky130_fd_sc_hd__o221a_2
*CAP
1 *1378:B1 0
2 *1381:A1 0.000107083
3 *1428:A1 2.08056e-05
4 *1313:X 0.000111697
5 *291:18 0.000341916
6 *291:16 0.00288423
7 *291:12 0.0027819
8 *1381:A1 *1381:A2 6.26559e-05
9 *1381:A1 *301:10 4.1331e-06
10 *1381:A1 *715:27 0
11 *1428:A1 *361:8 5.52238e-05
12 *291:16 *1378:A1 4.89867e-05
13 *291:16 *1378:A2 5.23142e-05
14 *291:16 *292:8 0.000142381
15 *291:16 *293:12 0.00145683
16 *291:16 *293:22 0.000738116
17 *291:16 *732:75 1.5424e-05
18 *291:18 *361:8 0.000228558
19 *1313:A1 *291:12 3.69047e-06
20 *1313:C1 *291:12 2.47724e-05
21 *1314:A2 *291:12 3.69697e-05
22 *1314:C1 *291:12 7.83587e-05
23 *1626:A *291:16 0.000434813
*RES
1 *1313:X *291:12 20.2821 
2 *291:12 *291:16 36.4821 
3 *291:16 *291:18 4.23214 
4 *291:18 *1428:A1 9.83571 
5 *291:18 *1381:A1 20.55 
6 *291:16 *1378:B1 9.3 
*END

*D_NET *292 0.00860921
*CONN
*I *1320:D1 I *D sky130_fd_sc_hd__o2111ai_4
*I *1321:A2_N I *D sky130_fd_sc_hd__o2bb2ai_4
*I *1319:A2_N I *D sky130_fd_sc_hd__o2bb2ai_4
*I *1323:B1 I *D sky130_fd_sc_hd__o211ai_4
*I *1314:Y O *D sky130_fd_sc_hd__o221ai_4
*CAP
1 *1320:D1 0.000335529
2 *1321:A2_N 0
3 *1319:A2_N 0.000114968
4 *1323:B1 3.80302e-05
5 *1314:Y 0.000860935
6 *292:22 0.000461472
7 *292:12 0.000344409
8 *292:8 0.0012324
9 *1319:A2_N *1276:B2 2.89016e-05
10 *1319:A2_N *1319:A1_N 7.80714e-06
11 *1319:A2_N *302:14 9.24299e-05
12 *1319:A2_N *684:33 6.44449e-05
13 *1320:D1 *1215:A1 0.000121573
14 *1320:D1 *348:56 0.000257079
15 *1320:D1 *732:97 2.04866e-05
16 *1323:B1 *293:22 5.71472e-05
17 *1323:B1 *293:24 9.90431e-05
18 *1323:B1 *293:26 5.52238e-05
19 *1323:B1 *300:16 4.43256e-05
20 *1323:B1 *302:14 9.90367e-05
21 *292:8 *1215:A2 0.00026353
22 *292:8 *1316:A2 0.000142856
23 *292:8 *293:12 0.000319334
24 *292:8 *293:22 5.91367e-05
25 *292:8 *293:74 5.28563e-05
26 *292:8 *337:36 9.95075e-05
27 *292:12 *1215:A2 6.37237e-05
28 *292:12 *293:22 1.56e-05
29 *292:12 *293:74 0
30 *292:22 *1215:A2 6.90561e-05
31 *292:22 *1215:B1 6.26559e-05
32 *292:22 *1650:A 3.90513e-05
33 *292:22 *293:22 0.000231126
34 *292:22 *300:16 0.000154433
35 *292:22 *302:14 9.90431e-05
36 *292:22 *688:8 5.33005e-05
37 *292:22 *688:26 0
38 *292:22 *732:75 0.000268396
39 *1218:A1 *1320:D1 7.22594e-05
40 *1219:A1 *1320:D1 0.000146474
41 *1220:B2 *292:8 0.000268403
42 *1231:A *1320:D1 2.42082e-05
43 *1276:A3 *1320:D1 5.07157e-05
44 *1661:A *292:22 0.000128146
45 *1665:A *1319:A2_N 4.46186e-06
46 *190:10 *1320:D1 0.000195547
47 *190:20 *1320:D1 0.000197984
48 *191:6 *292:22 3.14048e-05
49 *191:29 *292:8 0.000819872
50 *191:29 *292:22 1.58163e-05
51 *196:10 *292:8 0.000182694
52 *291:16 *292:8 0.000142381
*RES
1 *1314:Y *292:8 31.5143 
2 *292:8 *292:12 0.964286 
3 *292:12 *292:22 18.375 
4 *292:22 *1323:B1 11.0679 
5 *292:22 *1319:A2_N 21.3893 
6 *292:12 *1321:A2_N 9.3 
7 *292:8 *1320:D1 27.8357 
*END

*D_NET *293 0.00974851
*CONN
*I *1321:A1_N I *D sky130_fd_sc_hd__o2bb2ai_4
*I *1320:C1 I *D sky130_fd_sc_hd__o2111ai_4
*I *1323:C1 I *D sky130_fd_sc_hd__o211ai_4
*I *1319:A1_N I *D sky130_fd_sc_hd__o2bb2ai_4
*I *1378:A2 I *D sky130_fd_sc_hd__a21o_4
*I *1613:A I *D sky130_fd_sc_hd__buf_2
*I *1315:Y O *D sky130_fd_sc_hd__nand3_4
*CAP
1 *1321:A1_N 0
2 *1320:C1 0.000323169
3 *1323:C1 0
4 *1319:A1_N 0.000160851
5 *1378:A2 0.000148978
6 *1613:A 0.000174031
7 *1315:Y 0.000375251
8 *293:74 0.000374154
9 *293:26 0.000434199
10 *293:24 0.000306147
11 *293:22 0.000385375
12 *293:12 0.000777505
13 *1319:A1_N *1319:B2 0
14 *1319:A1_N *302:14 0.000175512
15 *1320:C1 *1214:B1 0.000539826
16 *1320:C1 *348:56 0.000388551
17 *1320:C1 *686:43 1.41029e-05
18 *1378:A2 *1378:A1 0.0001399
19 *1378:A2 *296:12 0.000170661
20 *1613:A *1319:B1 0.000152079
21 *1613:A *300:16 5.74499e-06
22 *293:12 *1316:A2 7.32955e-05
23 *293:12 *337:36 0.000262498
24 *293:12 *555:75 7.83174e-05
25 *293:22 *1650:A 9.34004e-05
26 *293:22 *732:75 0.000438788
27 *293:26 *300:16 8.3725e-05
28 *1220:B1 *293:12 5.52302e-05
29 *1220:B2 *293:12 8.25897e-05
30 *1319:A2_N *1319:A1_N 7.80714e-06
31 *1320:B1 *1320:C1 6.76272e-05
32 *1323:B1 *293:22 5.71472e-05
33 *1323:B1 *293:24 9.90431e-05
34 *1323:B1 *293:26 5.52238e-05
35 *1661:A *293:22 1.37292e-05
36 *188:8 *293:22 9.25014e-06
37 *188:27 *293:22 0.000221163
38 *272:41 *293:12 7.83174e-05
39 *291:16 *1378:A2 5.23142e-05
40 *291:16 *293:12 0.00145683
41 *291:16 *293:22 0.000738116
42 *292:8 *293:12 0.000319334
43 *292:8 *293:22 5.91367e-05
44 *292:8 *293:74 5.28563e-05
45 *292:12 *293:22 1.56e-05
46 *292:12 *293:74 0
47 *292:22 *293:22 0.000231126
*RES
1 *1315:Y *293:12 34.3402 
2 *293:12 *293:22 21.5491 
3 *293:22 *293:24 0.946429 
4 *293:24 *293:26 2.58929 
5 *293:26 *1613:A 12.8179 
6 *293:26 *1378:A2 21.9071 
7 *293:24 *1319:A1_N 21.6929 
8 *293:22 *1323:C1 9.3 
9 *293:12 *293:74 1.26339 
10 *293:74 *1320:C1 28.1393 
11 *293:74 *1321:A1_N 9.3 
*END

*D_NET *294 0.0162197
*CONN
*I *1056:A2 I *D sky130_fd_sc_hd__o22ai_4
*I *1109:A2 I *D sky130_fd_sc_hd__o21ai_2
*I *1205:A1 I *D sky130_fd_sc_hd__o22ai_4
*I *1203:A1 I *D sky130_fd_sc_hd__o211ai_2
*I *992:Y O *D sky130_fd_sc_hd__inv_2
*CAP
1 *1056:A2 0.000238365
2 *1109:A2 0.000985627
3 *1205:A1 0
4 *1203:A1 0.000101747
5 *992:Y 0.00108526
6 *294:45 0.0036055
7 *294:39 0.00338102
8 *294:8 0.000187499
9 *1056:A2 *1056:A1 8.16036e-05
10 *1056:A2 *1057:A2 8.98585e-05
11 *1056:A2 *646:56 0
12 *1056:A2 *674:108 3.57844e-05
13 *1109:A2 *1051:A1 0.000191874
14 *1109:A2 *1051:A2 7.13226e-06
15 *1109:A2 *1053:D 0
16 *1109:A2 *1057:B1 4.59075e-05
17 *1109:A2 *526:10 1.07719e-05
18 *1109:A2 *597:53 0.000129868
19 *1109:A2 *727:31 1.80095e-05
20 *1203:A1 *1206:A2 3.69047e-06
21 *1203:A1 *1206:A3 5.33005e-05
22 *1203:A1 *703:10 0.000147834
23 *1203:A1 *703:83 5.41794e-05
24 *1203:A1 *708:42 0.000192968
25 *294:8 *703:83 0.000308351
26 *294:8 *708:42 0.000319309
27 *294:39 *1010:A 6.40962e-05
28 *294:39 *1012:B 3.34672e-05
29 *294:39 *1029:A 0.00059755
30 *294:39 *1163:A2 4.98055e-06
31 *294:39 *484:8 0
32 *294:39 *533:27 0.000204699
33 *294:39 *694:60 4.52569e-05
34 *294:45 *1013:A1 1.6185e-05
35 *294:45 *1013:A2 2.45656e-05
36 *294:45 *1013:B1 1.92789e-05
37 *294:45 *1013:B2 9.77061e-05
38 *294:45 *1014:B2 0.000476709
39 *294:45 *1057:A2 5.58941e-05
40 *294:45 *1524:A 1.21012e-05
41 *294:45 *489:6 0.000224583
42 *294:45 *523:28 0
43 *294:45 *534:47 0.000288639
44 *294:45 *674:108 0.000271108
45 *1060:C1 *1056:A2 4.1331e-06
46 *1102:A1 *294:45 0.000163999
47 *1102:C1 *294:45 8.43535e-06
48 *1103:A1 *294:45 0.00038907
49 *1164:A2 *294:39 0.000135855
50 *1164:B1_N *294:39 5.30637e-06
51 *1166:A *294:39 0.000516499
52 *1173:C *294:39 0.000344096
53 *1196:A1 *294:39 4.34273e-05
54 *36:10 *1056:A2 0
55 *36:10 *1109:A2 0.000484505
56 *79:20 *294:45 0
57 *81:23 *294:45 5.52238e-05
58 *137:19 *294:39 5.31101e-05
59 *137:21 *294:39 0.000241716
60 *158:22 *1109:A2 6.20547e-05
*RES
1 *992:Y *294:8 17.8714 
2 *294:8 *1203:A1 16.8893 
3 *294:8 *1205:A1 13.8 
4 *992:Y *294:39 42.0857 
5 *294:39 *294:45 38.3214 
6 *294:45 *1109:A2 36.4786 
7 *294:45 *1056:A2 18.175 
*END

*D_NET *295 0.000228816
*CONN
*I *1321:B1 I *D sky130_fd_sc_hd__o2bb2ai_4
*I *1316:X O *D sky130_fd_sc_hd__o21a_2
*CAP
1 *1321:B1 8.27762e-05
2 *1316:X 8.27762e-05
3 *1321:B1 *1316:A2 0
4 *1321:B1 *1321:B2 6.32633e-05
*RES
1 *1316:X *1321:B1 29.2429 
*END

*D_NET *296 0.00205481
*CONN
*I *1322:A2 I *D sky130_fd_sc_hd__o21a_2
*I *1319:B1 I *D sky130_fd_sc_hd__o2bb2ai_4
*I *1323:A2 I *D sky130_fd_sc_hd__o211ai_4
*I *1317:X O *D sky130_fd_sc_hd__and3_2
*CAP
1 *1322:A2 0
2 *1319:B1 0.00020781
3 *1323:A2 0
4 *1317:X 0.000198839
5 *296:12 0.00043013
6 *296:6 0.00042116
7 *1319:B1 *1319:B2 0
8 *1319:B1 *298:10 6.0038e-05
9 *1319:B1 *300:16 0.000170964
10 *1319:B1 *680:39 7.49239e-05
11 *296:6 *1317:A 1.92905e-05
12 *296:6 *1322:A1 0.000102197
13 *296:12 *1319:B2 4.1331e-06
14 *296:12 *1322:A1 0
15 *296:12 *1322:B1 0
16 *296:12 *571:10 4.25809e-05
17 *1378:A2 *296:12 0.000170661
18 *1613:A *1319:B1 0.000152079
*RES
1 *1317:X *296:6 12.7107 
2 *296:6 *296:12 13.375 
3 *296:12 *1323:A2 9.3 
4 *296:12 *1319:B1 24.2821 
5 *296:6 *1322:A2 9.3 
*END

*D_NET *297 0.00121491
*CONN
*I *1378:A1 I *D sky130_fd_sc_hd__a21o_4
*I *1318:X O *D sky130_fd_sc_hd__a31o_2
*CAP
1 *1378:A1 0.000197866
2 *1318:X 0.000197866
3 *1378:A1 *1318:A2 0.00014285
4 *1378:A1 *1318:A3 2.89016e-05
5 *1378:A1 *571:10 0.000226507
6 *1378:A1 *571:32 0.000129515
7 *1378:A1 *732:75 2.59355e-05
8 *1378:A2 *1378:A1 0.0001399
9 *1626:A *1378:A1 7.65804e-05
10 *291:16 *1378:A1 4.89867e-05
*RES
1 *1318:X *1378:A1 24.9036 
*END

*D_NET *298 0.00165833
*CONN
*I *1327:C I *D sky130_fd_sc_hd__nand3_4
*I *1324:B2 I *D sky130_fd_sc_hd__a22oi_2
*I *1329:A2 I *D sky130_fd_sc_hd__a31oi_2
*I *1319:Y O *D sky130_fd_sc_hd__o2bb2ai_4
*CAP
1 *1327:C 0.000139278
2 *1324:B2 9.89003e-05
3 *1329:A2 0
4 *1319:Y 0.000175864
5 *298:19 0.000332624
6 *298:10 0.00027031
7 *1324:B2 *1324:B1 5.7661e-06
8 *1324:B2 *299:10 2.59355e-05
9 *1324:B2 *302:14 1.21258e-05
10 *1327:C *1324:A1 8.5896e-05
11 *1327:C *1327:B 0.000148189
12 *1327:C *1329:A3 7.05447e-05
13 *298:10 *1319:B2 2.19778e-05
14 *298:10 *680:39 0
15 *298:19 *1329:A3 0.000153054
16 *298:19 *680:39 0
17 *1245:A2 *298:10 0
18 *1245:A2 *298:19 0
19 *1277:A2 *1327:C 2.89114e-05
20 *1319:B1 *298:10 6.0038e-05
21 *1324:A2 *1327:C 0
22 *1324:A2 *298:19 0
23 *252:8 *1327:C 2.89114e-05
*RES
1 *1319:Y *298:10 17.1929 
2 *298:10 *1329:A2 13.8 
3 *298:10 *298:19 2.25 
4 *298:19 *1324:B2 15.6036 
5 *298:19 *1327:C 17.1929 
*END

*D_NET *299 0.00381717
*CONN
*I *1324:B1 I *D sky130_fd_sc_hd__a22oi_2
*I *1327:B I *D sky130_fd_sc_hd__nand3_4
*I *1329:A3 I *D sky130_fd_sc_hd__a31oi_2
*I *1320:Y O *D sky130_fd_sc_hd__o2111ai_4
*CAP
1 *1324:B1 2.03441e-05
2 *1327:B 5.14261e-05
3 *1329:A3 0.000106875
4 *1320:Y 0.000435867
5 *299:10 0.000178743
6 *299:6 0.000476654
7 *299:6 *1232:A1 6.74408e-05
8 *299:6 *1232:B1 4.70048e-05
9 *299:6 *302:14 0.000614039
10 *299:6 *569:6 1.15172e-05
11 *299:10 *302:14 5.33005e-05
12 *1230:B *299:6 5.71472e-05
13 *1232:A2 *299:6 5.03772e-05
14 *1245:A3 *299:6 5.33005e-05
15 *1276:B1 *299:6 4.22627e-05
16 *1324:B2 *1324:B1 5.7661e-06
17 *1324:B2 *299:10 2.59355e-05
18 *1327:C *1327:B 0.000148189
19 *1327:C *1329:A3 7.05447e-05
20 *1329:A1 *1327:B 0.000137939
21 *1329:A1 *1329:A3 0.000227021
22 *206:8 *299:6 0.000120587
23 *209:12 *299:6 0.000610071
24 *251:16 *1329:A3 5.17614e-05
25 *298:19 *1329:A3 0.000153054
*RES
1 *1320:Y *299:6 22.5679 
2 *299:6 *299:10 5.03571 
3 *299:10 *1329:A3 17.6036 
4 *299:10 *1327:B 15.7464 
5 *299:6 *1324:B1 9.72857 
*END

*D_NET *300 0.00941488
*CONN
*I *1326:A1 I *D sky130_fd_sc_hd__a21oi_4
*I *1341:A2 I *D sky130_fd_sc_hd__a31oi_2
*I *1325:B I *D sky130_fd_sc_hd__nand3_4
*I *1321:Y O *D sky130_fd_sc_hd__o2bb2ai_4
*CAP
1 *1326:A1 0.000261988
2 *1341:A2 0.000418161
3 *1325:B 7.94137e-05
4 *1321:Y 0.000137266
5 *300:16 0.00290206
6 *300:10 0.00280374
7 *1325:B *1325:A 0.0001399
8 *1326:A1 *1326:A2 0
9 *1326:A1 *1337:C1 0
10 *1326:A1 *1341:A3 6.05161e-06
11 *1326:A1 *302:14 0.000113073
12 *1326:A1 *306:26 0.000171375
13 *1326:A1 *368:10 7.49499e-05
14 *1341:A2 *1325:A 0.000175519
15 *1341:A2 *304:10 0
16 *1341:A2 *306:26 0
17 *300:10 *686:12 0
18 *300:10 *686:43 0
19 *300:16 *1215:A1 5.74499e-06
20 *300:16 *1215:A2 2.59355e-05
21 *300:16 *1215:B1 1.74352e-05
22 *300:16 *1215:B2 5.33334e-05
23 *300:16 *1381:A2 1.39841e-05
24 *300:16 *1381:B1 1.07719e-05
25 *300:16 *1387:A1 0
26 *300:16 *1387:A2 9.76491e-05
27 *300:16 *1436:A1 0
28 *300:16 *302:14 0.000183726
29 *300:16 *306:26 0
30 *300:16 *364:10 0.00014285
31 *300:16 *366:25 0
32 *300:16 *596:8 0.000348207
33 *1219:A1 *300:16 1.21258e-05
34 *1219:A2 *300:16 7.49387e-06
35 *1219:B1_N *300:10 1.721e-05
36 *1224:B2 *300:10 9.25014e-06
37 *1319:B1 *300:16 0.000170964
38 *1320:B1 *300:10 1.65558e-05
39 *1323:B1 *300:16 4.43256e-05
40 *1341:A1 *1341:A2 1.08359e-05
41 *1341:B1 *1326:A1 0.000380137
42 *1613:A *300:16 5.74499e-06
43 *189:50 *300:10 0.000220448
44 *190:20 *300:16 2.29107e-05
45 *191:29 *300:10 3.69697e-05
46 *191:29 *300:16 5.01499e-06
47 *251:20 *1325:B 3.36025e-05
48 *292:22 *300:16 0.000154433
49 *293:26 *300:16 8.3725e-05
*RES
1 *1321:Y *300:10 21.7643 
2 *300:10 *300:16 38.7857 
3 *300:16 *1325:B 15.5857 
4 *300:16 *1341:A2 17.3179 
5 *1341:A2 *1326:A1 34.7607 
*END

*D_NET *301 0.00183577
*CONN
*I *1381:A2 I *D sky130_fd_sc_hd__o21ai_2
*I *1428:A2 I *D sky130_fd_sc_hd__o2111ai_2
*I *1322:X O *D sky130_fd_sc_hd__o21a_2
*CAP
1 *1381:A2 0.000106759
2 *1428:A2 0
3 *1322:X 0.000619749
4 *301:10 0.000726508
5 *1381:A2 *359:19 5.7599e-05
6 *1381:A2 *364:10 7.43578e-06
7 *301:10 *1322:B1 7.77751e-05
8 *301:10 *1380:A1 0.000101146
9 *301:10 *359:19 5.80217e-05
10 *301:10 *715:27 0
11 *1381:A1 *1381:A2 6.26559e-05
12 *1381:A1 *301:10 4.1331e-06
13 *300:16 *1381:A2 1.39841e-05
*RES
1 *1322:X *301:10 22.4429 
2 *301:10 *1428:A2 13.8 
3 *301:10 *1381:A2 16.5857 
*END

*D_NET *302 0.0075551
*CONN
*I *1326:A2 I *D sky130_fd_sc_hd__a21oi_4
*I *1325:A I *D sky130_fd_sc_hd__nand3_4
*I *1341:A3 I *D sky130_fd_sc_hd__a31oi_2
*I *1323:Y O *D sky130_fd_sc_hd__o211ai_4
*CAP
1 *1326:A2 0.000223028
2 *1325:A 0.000281161
3 *1341:A3 0.000123268
4 *1323:Y 0.00185222
5 *302:25 0.00050419
6 *302:14 0.00197548
7 *1325:A *1436:A1 7.77652e-05
8 *1325:A *304:10 0
9 *1325:A *306:26 0
10 *1326:A2 *1337:C1 0.000172368
11 *1326:A2 *304:10 0
12 *1326:A2 *306:26 0
13 *1341:A3 *368:10 7.52646e-06
14 *302:14 *1245:A1 0
15 *302:14 *1276:B2 0.000127439
16 *302:14 *1385:A1 9.23967e-05
17 *302:14 *303:8 3.2342e-05
18 *302:14 *368:10 1.34703e-05
19 *1245:B1 *302:14 4.62539e-05
20 *1276:B1 *302:14 4.21208e-05
21 *1277:B1 *302:14 4.46186e-06
22 *1319:A1_N *302:14 0.000175512
23 *1319:A2_N *302:14 9.24299e-05
24 *1323:B1 *302:14 9.90367e-05
25 *1324:B2 *302:14 1.21258e-05
26 *1325:B *1325:A 0.0001399
27 *1326:A1 *1326:A2 0
28 *1326:A1 *1341:A3 6.05161e-06
29 *1326:A1 *302:14 0.000113073
30 *1341:A1 *1325:A 0.000175519
31 *1341:A2 *1325:A 0.000175519
32 *1665:A *302:14 0
33 *219:10 *302:14 4.03318e-05
34 *292:22 *302:14 9.90431e-05
35 *299:6 *302:14 0.000614039
36 *299:10 *302:14 5.33005e-05
37 *300:16 *302:14 0.000183726
*RES
1 *1323:Y *302:14 46.3893 
2 *302:14 *1341:A3 10.9786 
3 *302:14 *302:25 4.5 
4 *302:25 *1325:A 20.3893 
5 *302:25 *1326:A2 17.8714 
*END

*D_NET *303 0.00316791
*CONN
*I *1333:A2 I *D sky130_fd_sc_hd__o21bai_4
*I *1602:A I *D sky130_fd_sc_hd__buf_4
*I *1601:A I *D sky130_fd_sc_hd__buf_2
*I *1324:Y O *D sky130_fd_sc_hd__a22oi_2
*CAP
1 *1333:A2 0.000424046
2 *1602:A 0
3 *1601:A 8.96383e-05
4 *1324:Y 0.00030874
5 *303:10 0.000146737
6 *303:8 0.000789885
7 *1333:A2 *1385:A2 8.08022e-05
8 *1333:A2 *1385:B2 2.6949e-05
9 *1333:A2 *1388:A1 1.98839e-05
10 *1333:A2 *1388:A2 0.000224583
11 *1333:A2 *306:26 9.41642e-05
12 *1333:A2 *307:18 4.46186e-06
13 *1601:A *1384:B2 0
14 *1601:A *1385:A2 0.000177234
15 *303:8 *1385:A1 6.05161e-06
16 *303:10 *1384:B2 0
17 *303:10 *1385:A2 0.000150618
18 *303:10 *1385:B2 4.48206e-05
19 *1239:B *1333:A2 2.89114e-05
20 *1239:C *1333:A2 2.84398e-05
21 *1326:B1 *1333:A2 0
22 *1329:B1 *1333:A2 0
23 *214:24 *1333:A2 0.000408875
24 *214:50 *1333:A2 0
25 *215:10 *1333:A2 8.07313e-05
26 *302:14 *303:8 3.2342e-05
*RES
1 *1324:Y *303:8 17.2107 
2 *303:8 *303:10 1.94643 
3 *303:10 *1601:A 16.05 
4 *303:10 *1602:A 13.8 
5 *303:8 *1333:A2 24.8 
*END

*D_NET *304 0.00356648
*CONN
*I *1330:B I *D sky130_fd_sc_hd__nand3_4
*I *1332:B1 I *D sky130_fd_sc_hd__o211ai_2
*I *1331:A2_N I *D sky130_fd_sc_hd__o2bb2ai_4
*I *1627:A I *D sky130_fd_sc_hd__buf_2
*I *1325:Y O *D sky130_fd_sc_hd__nand3_4
*CAP
1 *1330:B 0.000353169
2 *1332:B1 0
3 *1331:A2_N 2.44054e-05
4 *1627:A 0
5 *1325:Y 0.000398872
6 *304:36 0.000479527
7 *304:23 0.000408103
8 *304:10 0.00065621
9 *1330:B *1330:A 9.41642e-05
10 *1330:B *1334:B1 0.000115189
11 *1330:B *1335:A 0.000215426
12 *1330:B *311:10 0.000177941
13 *1331:A2_N *1331:A1_N 1.33343e-05
14 *1331:A2_N *307:32 5.52302e-05
15 *304:10 *1337:C1 0
16 *304:10 *1439:A3 0
17 *304:10 *1439:A4 0
18 *304:23 *1328:B 8.07313e-05
19 *304:23 *1337:C1 0
20 *304:23 *307:26 0.000128161
21 *304:23 *307:32 1.76135e-05
22 *304:36 *1334:B1 4.94455e-05
23 *304:36 *1337:C1 1.41029e-05
24 *304:36 *307:32 0
25 *304:36 *311:10 0.000202128
26 *1325:A *304:10 0
27 *1326:A2 *304:10 0
28 *1334:B2 *304:10 8.2731e-05
29 *1334:B2 *304:23 0
30 *1341:A2 *304:10 0
*RES
1 *1325:Y *304:10 25.7107 
2 *304:10 *1627:A 9.3 
3 *304:10 *304:23 9.46429 
4 *304:23 *1331:A2_N 14.3357 
5 *304:23 *304:36 3.39286 
6 *304:36 *1332:B1 13.8 
7 *304:36 *1330:B 21.4964 
*END

*D_NET *305 0.0160724
*CONN
*I *1033:A2 I *D sky130_fd_sc_hd__o22ai_4
*I *1154:A1 I *D sky130_fd_sc_hd__o2111ai_2
*I *1153:A1 I *D sky130_fd_sc_hd__o2111a_2
*I *1286:A1 I *D sky130_fd_sc_hd__o211ai_2
*I *1288:A1 I *D sky130_fd_sc_hd__o22a_2
*I *1342:A1 I *D sky130_fd_sc_hd__o21a_2
*I *993:Y O *D sky130_fd_sc_hd__inv_2
*CAP
1 *1033:A2 0
2 *1154:A1 0
3 *1153:A1 4.60054e-05
4 *1286:A1 0.000582145
5 *1288:A1 0
6 *1342:A1 0.00012028
7 *993:Y 0.0014689
8 *305:92 0.00170749
9 *305:75 0.00182393
10 *305:62 0.00126987
11 *305:25 0.000655992
12 *305:8 0.000555609
13 *1153:A1 *694:60 9.60875e-05
14 *1286:A1 *993:A 3.37161e-05
15 *1286:A1 *1205:A2 0.000201638
16 *1286:A1 *1287:A1 0.000177591
17 *1286:A1 *1288:B1 8.43386e-05
18 *1286:A1 *316:10 0.000165017
19 *1286:A1 *555:18 0.000354216
20 *1286:A1 *588:29 8.75756e-05
21 *1286:A1 *665:35 0.000139331
22 *1286:A1 *673:18 3.50409e-05
23 *1286:A1 *712:14 5.83768e-05
24 *1342:A1 *673:28 7.58841e-05
25 *1342:A1 *710:31 1.9516e-05
26 *305:8 *993:A 0.000116543
27 *305:8 *1288:B1 9.84673e-05
28 *305:25 *1288:B1 9.67754e-05
29 *305:25 *673:28 9.15842e-06
30 *305:25 *710:31 2.07809e-05
31 *305:62 *993:A 5.66971e-05
32 *305:62 *1221:A1 0
33 *305:62 *665:41 0
34 *305:62 *694:60 0.000140933
35 *305:75 *665:41 0
36 *305:92 *1013:B1 0
37 *305:92 *1024:A 6.74911e-05
38 *305:92 *1026:C 0.000160396
39 *305:92 *1027:A1 0.000133544
40 *305:92 *1027:A2 0.000419606
41 *305:92 *1090:B 4.78056e-05
42 *305:92 *1090:C 0.000286128
43 *305:92 *1537:A 0.000170382
44 *305:92 *488:21 0
45 *305:92 *503:8 0.000125736
46 *305:92 *509:8 0
47 *305:92 *613:12 3.71391e-05
48 *305:92 *665:41 0
49 *305:92 *700:30 0
50 *305:92 *700:41 0
51 *305:92 *700:78 0
52 *305:92 *714:76 0.000358902
53 *305:92 *717:37 7.25296e-05
54 *305:92 *717:48 0.000546522
55 *305:92 *717:63 0.000192983
56 *305:92 *727:25 0
57 *305:92 *731:42 0.000153047
58 *1033:A1 *305:92 5.52302e-05
59 *1175:A1_N *305:92 0.000188345
60 *1226:A2_N *305:62 0.000151333
61 *1233:A2 *305:62 6.36455e-05
62 *1233:B1 *305:62 0
63 *1233:B1 *305:75 0.000222885
64 *1233:C1 *305:62 0
65 *1288:B2 *1286:A1 9.67754e-05
66 *1288:B2 *305:25 9.67754e-05
67 *1308:A1_N *305:62 0.000125731
68 *1310:B2 *305:62 0.000217406
69 *1313:B1 *305:62 1.00375e-05
70 *1313:B2 *305:62 0.000112106
71 *1314:A2 *305:62 0.000132442
72 *1342:B1 *1342:A1 5.49995e-05
73 *1343:B1 *1342:A1 3.14003e-05
74 *1367:A2 *305:62 0.000243309
75 *1367:B2 *305:62 5.49161e-05
76 *1600:A *1342:A1 5.66971e-05
77 *1667:A *1286:A1 5.33005e-05
78 *184:14 *305:62 0.000144896
79 *184:16 *305:62 0.000250208
80 *185:8 *305:62 0.000154801
81 *185:28 *305:62 5.0725e-05
82 *264:10 *305:62 5.49657e-05
83 *267:23 *305:62 6.19181e-05
84 *269:12 *305:62 0
85 *282:10 *305:62 0.000317442
*RES
1 *993:Y *305:8 18.8536 
2 *305:8 *1342:A1 16.2821 
3 *305:8 *305:25 6.17857 
4 *305:25 *1288:A1 9.3 
5 *305:25 *1286:A1 32.5857 
6 *993:Y *305:62 46.1214 
7 *305:62 *1153:A1 10.2464 
8 *305:62 *305:75 11.8571 
9 *305:75 *1154:A1 9.3 
10 *305:75 *305:92 49.6607 
11 *305:92 *1033:A2 9.3 
*END

*D_NET *306 0.002354
*CONN
*I *1386:A1_N I *D sky130_fd_sc_hd__a2bb2oi_2
*I *1387:A1 I *D sky130_fd_sc_hd__o22ai_2
*I *1333:A1 I *D sky130_fd_sc_hd__o21bai_4
*I *1326:Y O *D sky130_fd_sc_hd__a21oi_4
*CAP
1 *1386:A1_N 4.05809e-05
2 *1387:A1 0.000157436
3 *1333:A1 0.000359254
4 *1326:Y 5.95421e-05
5 *306:26 0.000497729
6 *1333:A1 *1388:A1 9.25014e-06
7 *1386:A1_N *1386:B1 9.90367e-05
8 *1387:A1 *1387:A2 0.000251493
9 *1387:A1 *366:25 0
10 *306:26 *1387:A2 9.25014e-06
11 *306:26 *321:8 0.000333252
12 *306:26 *363:19 0
13 *1325:A *306:26 0
14 *1326:A1 *306:26 0.000171375
15 *1326:A2 *306:26 0
16 *1326:B1 *1333:A1 0.000102545
17 *1333:A2 *306:26 9.41642e-05
18 *1341:A1 *306:26 7.49239e-05
19 *1341:A2 *306:26 0
20 *1341:B1 *1333:A1 0
21 *214:24 *306:26 9.41642e-05
22 *300:16 *1387:A1 0
23 *300:16 *306:26 0
*RES
1 *1326:Y *1333:A1 28.9393 
2 *1333:A1 *306:26 21.8536 
3 *306:26 *1387:A1 17.1929 
4 *306:26 *1386:A1_N 14.7464 
*END

*D_NET *307 0.00518706
*CONN
*I *1648:A I *D sky130_fd_sc_hd__buf_2
*I *1331:A1_N I *D sky130_fd_sc_hd__o2bb2ai_4
*I *1330:A I *D sky130_fd_sc_hd__nand3_4
*I *1332:C1 I *D sky130_fd_sc_hd__o211ai_2
*I *1327:Y O *D sky130_fd_sc_hd__nand3_4
*CAP
1 *1648:A 0
2 *1331:A1_N 5.14705e-05
3 *1330:A 0.000352836
4 *1332:C1 3.34103e-05
5 *1327:Y 0.000896519
6 *307:32 0.000546534
7 *307:26 0.000277816
8 *307:18 0.000962576
9 *1330:A *1261:A 4.46186e-06
10 *1330:A *1334:B1 0.00036083
11 *1330:A *1335:A 0.000142821
12 *1330:A *1336:B1 2.84494e-05
13 *1330:A *1338:A2 0.000354017
14 *1332:C1 *1337:C1 5.33005e-05
15 *307:18 *1237:A 1.76039e-05
16 *307:18 *1237:B 1.74352e-05
17 *307:18 *1257:A2 9.95988e-05
18 *307:18 *715:27 2.15512e-05
19 *307:26 *1337:C1 4.79842e-05
20 *307:32 *1328:B 1.99099e-05
21 *307:32 *1334:B1 0.000115586
22 *307:32 *1338:A2 0.000150625
23 *1239:B *307:18 2.15363e-05
24 *1239:C *307:18 0
25 *1330:B *1330:A 9.41642e-05
26 *1330:C *1330:A 0
27 *1331:A2_N *1331:A1_N 1.33343e-05
28 *1331:A2_N *307:32 5.52302e-05
29 *1333:A2 *307:18 4.46186e-06
30 *1334:B2 *307:32 0
31 *211:20 *307:18 0.000221634
32 *213:8 *307:18 7.55839e-05
33 *304:23 *307:26 0.000128161
34 *304:23 *307:32 1.76135e-05
35 *304:36 *307:32 0
*RES
1 *1327:Y *307:18 31.8179 
2 *307:18 *307:26 11.0714 
3 *307:26 *307:32 8.41071 
4 *307:32 *1332:C1 14.3357 
5 *307:32 *1330:A 31.1036 
6 *307:26 *1331:A1_N 10.2643 
7 *307:18 *1648:A 9.3 
*END

*D_NET *308 0.00189592
*CONN
*I *1334:B1 I *D sky130_fd_sc_hd__a22oi_2
*I *1328:Y O *D sky130_fd_sc_hd__nand2_2
*CAP
1 *1334:B1 0.000418004
2 *1328:Y 0.000418004
3 *1334:B1 *1261:A 6.8646e-06
4 *1334:B1 *1335:A 0
5 *1334:B1 *1338:A2 8.65776e-05
6 *1261:B *1334:B1 0.000174797
7 *1330:A *1334:B1 0.00036083
8 *1330:B *1334:B1 0.000115189
9 *1335:B *1334:B1 0.000150618
10 *304:36 *1334:B1 4.94455e-05
11 *307:32 *1334:B1 0.000115586
*RES
1 *1328:Y *1334:B1 38.2964 
*END

*D_NET *309 0.0016358
*CONN
*I *1385:B1 I *D sky130_fd_sc_hd__o221ai_4
*I *1384:B2 I *D sky130_fd_sc_hd__o22a_2
*I *1329:Y O *D sky130_fd_sc_hd__a31oi_2
*CAP
1 *1385:B1 6.01346e-05
2 *1384:B2 0.000153677
3 *1329:Y 0.000244898
4 *309:8 0.00045871
5 *1384:B2 *1384:A1 5.52302e-05
6 *1384:B2 *1384:B1 2.28499e-05
7 *1384:B2 *1385:A1 0.000225314
8 *1384:B2 *1385:B2 1.76039e-05
9 *1385:B1 *1385:A1 0.000142797
10 *1385:B1 *1385:B2 9.24491e-05
11 *1326:B1 *1385:B1 0
12 *1601:A *1384:B2 0
13 *251:16 *309:8 0.000162138
14 *303:10 *1384:B2 0
*RES
1 *1329:Y *309:8 18.0321 
2 *309:8 *1384:B2 17.6036 
3 *309:8 *1385:B1 16.05 
*END

*D_NET *310 0.00370697
*CONN
*I *1336:B1 I *D sky130_fd_sc_hd__a2bb2oi_4
*I *1338:A1 I *D sky130_fd_sc_hd__a21oi_4
*I *1335:C I *D sky130_fd_sc_hd__nand3_4
*I *1330:Y O *D sky130_fd_sc_hd__nand3_4
*CAP
1 *1336:B1 8.29091e-05
2 *1338:A1 0.000325074
3 *1335:C 6.53486e-05
4 *1330:Y 0.000617855
5 *310:10 0.000925369
6 *1336:B1 *1335:A 3.9745e-05
7 *1338:A1 *1338:A2 5.33005e-05
8 *1338:A1 *1439:A4 8.68569e-05
9 *1338:A1 *317:25 0.000534266
10 *310:10 *1261:A 4.58976e-05
11 *310:10 *1335:A 1.39726e-05
12 *1330:A *1336:B1 2.84494e-05
13 *1330:C *1336:B1 6.17321e-05
14 *1334:B2 *1338:A1 0
15 *1335:B *310:10 0.000508458
16 *1337:A2 *1338:A1 6.48957e-05
17 *1438:A *1335:C 0.000137983
18 *1438:A *1338:A1 1.52978e-05
19 *1438:A *310:10 1.02936e-05
20 *241:35 *1338:A1 6.8646e-06
21 *242:21 *1338:A1 8.24047e-05
*RES
1 *1330:Y *310:10 16.7464 
2 *310:10 *1335:C 10.6571 
3 *310:10 *1338:A1 27.3714 
4 *1330:Y *1336:B1 29.85 
*END

*D_NET *311 0.00271493
*CONN
*I *1335:A I *D sky130_fd_sc_hd__nand3_4
*I *1336:B2 I *D sky130_fd_sc_hd__a2bb2oi_4
*I *1331:Y O *D sky130_fd_sc_hd__o2bb2ai_4
*CAP
1 *1335:A 0.000272264
2 *1336:B2 2.76349e-05
3 *1331:Y 0.000267244
4 *311:10 0.000567143
5 *1335:A *1261:A 0.000142856
6 *311:10 *1337:C1 0.000176234
7 *1330:A *1335:A 0.000142821
8 *1330:B *1335:A 0.000215426
9 *1330:B *311:10 0.000177941
10 *1330:C *1335:A 0
11 *1330:C *311:10 0
12 *1331:B2 *311:10 0.00024069
13 *1334:B1 *1335:A 0
14 *1335:B *1335:A 0.000135933
15 *1336:B1 *1335:A 3.9745e-05
16 *212:10 *311:10 6.39901e-05
17 *213:28 *311:10 0
18 *228:20 *1336:B2 2.89114e-05
19 *304:36 *311:10 0.000202128
20 *310:10 *1335:A 1.39726e-05
*RES
1 *1331:Y *311:10 21.4786 
2 *311:10 *1336:B2 14.3357 
3 *311:10 *1335:A 21.0143 
*END

*D_NET *312 0.0011663
*CONN
*I *1337:B1 I *D sky130_fd_sc_hd__o211ai_4
*I *1332:Y O *D sky130_fd_sc_hd__o211ai_2
*CAP
1 *1337:B1 0.000402302
2 *1332:Y 0.000402302
3 *1337:B1 *1337:C1 0.000210066
4 *1337:B1 *1439:A4 4.53889e-05
5 *1337:A1 *1337:B1 9.90367e-05
6 *1389:A1 *1337:B1 7.20217e-06
*RES
1 *1332:Y *1337:B1 25.7429 
*END

*D_NET *313 0.00296077
*CONN
*I *1337:C1 I *D sky130_fd_sc_hd__o211ai_4
*I *1333:Y O *D sky130_fd_sc_hd__o21bai_4
*CAP
1 *1337:C1 0.000886686
2 *1333:Y 0.000886686
3 *1337:C1 *1439:A4 0.000137983
4 *1326:A1 *1337:C1 0
5 *1326:A2 *1337:C1 0.000172368
6 *1331:B2 *1337:C1 0.000200413
7 *1332:C1 *1337:C1 5.33005e-05
8 *1337:A1 *1337:C1 0.00010096
9 *1337:B1 *1337:C1 0.000210066
10 *1341:B1 *1337:C1 0
11 *1389:A1 *1337:C1 6.79329e-05
12 *1389:A2 *1337:C1 6.05161e-06
13 *213:19 *1337:C1 0
14 *304:10 *1337:C1 0
15 *304:23 *1337:C1 0
16 *304:36 *1337:C1 1.41029e-05
17 *307:26 *1337:C1 4.79842e-05
18 *311:10 *1337:C1 0.000176234
*RES
1 *1333:Y *1337:C1 45.725 
*END

*D_NET *314 0.00244764
*CONN
*I *1338:A2 I *D sky130_fd_sc_hd__a21oi_4
*I *1334:Y O *D sky130_fd_sc_hd__a22oi_2
*CAP
1 *1338:A2 0.000581212
2 *1334:Y 0.000581212
3 *1338:A2 *1254:B 5.7616e-05
4 *1261:B *1338:A2 0.000219741
5 *1330:A *1338:A2 0.000354017
6 *1334:B1 *1338:A2 8.65776e-05
7 *1334:B2 *1338:A2 0
8 *1337:A1 *1338:A2 0.000173804
9 *1338:A1 *1338:A2 5.33005e-05
10 *249:14 *1338:A2 0.000189533
11 *307:32 *1338:A2 0.000150625
*RES
1 *1334:Y *1338:A2 41.975 
*END

*D_NET *315 0.00224699
*CONN
*I *1656:A I *D sky130_fd_sc_hd__buf_4
*I *1389:B1 I *D sky130_fd_sc_hd__o2111a_2
*I *1335:Y O *D sky130_fd_sc_hd__nand3_4
*CAP
1 *1656:A 0.000293559
2 *1389:B1 0.000264947
3 *1335:Y 0.000173882
4 *315:10 0.000732388
5 *1389:B1 *1389:D1 6.96796e-05
6 *1389:B1 *1390:C 3.57844e-05
7 *1389:B1 *604:12 0.000101545
8 *1656:A *1392:A3 5.52238e-05
9 *1656:A *1392:B1 2.14757e-05
10 *1656:A *376:14 9.76491e-05
11 *1656:A *604:8 0.000100263
12 *315:10 *1390:C 6.30388e-05
13 *1389:A1 *1389:B1 9.58181e-05
14 *241:35 *315:10 0.000141734
*RES
1 *1335:Y *315:10 16.8 
2 *315:10 *1389:B1 18.6571 
3 *315:10 *1656:A 19.6929 
*END

*D_NET *316 0.00644407
*CONN
*I *1205:A2 I *D sky130_fd_sc_hd__o22ai_4
*I *1504:A I *D sky130_fd_sc_hd__buf_2
*I *994:Y O *D sky130_fd_sc_hd__inv_2
*CAP
1 *1205:A2 0.000555709
2 *1504:A 0.000172993
3 *994:Y 0.000600244
4 *316:10 0.00132895
5 *1205:A2 *1199:B2 0.000104974
6 *1205:A2 *562:58 0.000955372
7 *1205:A2 *562:71 0.000175519
8 *1205:A2 *588:29 0
9 *1205:A2 *673:125 0.000145406
10 *1205:A2 *673:138 0.000172925
11 *1205:A2 *703:10 0.000160805
12 *1205:A2 *703:12 0.000159689
13 *1205:A2 *703:14 0.00021192
14 *1205:A2 *703:16 0.000115474
15 *1205:A2 *703:83 2.48938e-05
16 *1504:A *1282:A2 0.000112158
17 *1504:A *1282:B1 5.49995e-05
18 *1504:A *1282:B2 2.54852e-05
19 *1504:A *673:8 0.000267377
20 *1504:A *698:63 3.47538e-05
21 *316:10 *1287:A1 0.000290358
22 *316:10 *1530:A 5.52302e-05
23 *316:10 *562:43 1.05603e-05
24 *316:10 *562:58 7.60491e-05
25 *316:10 *588:18 0
26 *316:10 *665:35 3.11713e-05
27 *316:10 *698:18 0
28 *316:10 *712:14 0.000135378
29 *1203:B1 *1205:A2 3.32442e-05
30 *1286:A1 *1205:A2 0.000201638
31 *1286:A1 *316:10 0.000165017
32 *257:12 *1504:A 6.57815e-05
*RES
1 *994:Y *316:10 27.2107 
2 *316:10 *1504:A 18.4607 
3 *316:10 *1205:A2 33.05 
*END

*D_NET *317 0.00406144
*CONN
*I *1394:A1 I *D sky130_fd_sc_hd__o2111ai_2
*I *1432:A1 I *D sky130_fd_sc_hd__o2111ai_2
*I *1338:B1 I *D sky130_fd_sc_hd__a21oi_4
*I *1392:A3 I *D sky130_fd_sc_hd__o31a_4
*I *1336:Y O *D sky130_fd_sc_hd__a2bb2oi_4
*CAP
1 *1394:A1 0
2 *1432:A1 0.000109914
3 *1338:B1 6.77655e-05
4 *1392:A3 0.000243402
5 *1336:Y 0.000356808
6 *317:38 0.000189847
7 *317:25 0.000522928
8 *317:6 0.00097544
9 *1392:A3 *1392:B1 1.73305e-05
10 *1432:A1 *604:33 0.0002253
11 *317:25 *1439:A4 6.8646e-06
12 *317:25 *604:12 0
13 *317:38 *604:12 0.000137678
14 *317:38 *604:33 1.17396e-05
15 *1337:A1 *317:6 2.59355e-05
16 *1337:A2 *317:6 4.87953e-05
17 *1338:A1 *317:25 0.000534266
18 *1389:A2 *317:25 0.000235332
19 *1392:A1 *1392:A3 4.73286e-05
20 *1392:A2 *1392:A3 9.58126e-05
21 *1656:A *1392:A3 5.52238e-05
22 *228:20 *317:6 6.86792e-05
23 *242:21 *317:25 3.17148e-05
24 *249:14 *317:6 5.33334e-05
*RES
1 *1336:Y *317:6 14.7643 
2 *317:6 *1392:A3 13.5679 
3 *317:6 *317:25 17.8929 
4 *317:25 *1338:B1 10.2643 
5 *317:25 *317:38 6.44643 
6 *317:38 *1432:A1 16.6571 
7 *317:38 *1394:A1 13.8 
*END

*D_NET *318 0.00203894
*CONN
*I *1439:A4 I *D sky130_fd_sc_hd__a41oi_4
*I *1389:D1 I *D sky130_fd_sc_hd__o2111a_2
*I *1337:Y O *D sky130_fd_sc_hd__o211ai_4
*CAP
1 *1439:A4 0.000412639
2 *1389:D1 0.000137217
3 *1337:Y 0.000549856
4 *1439:A4 *1388:B1 8.89385e-05
5 *1439:A4 *1439:A3 9.25014e-06
6 *1334:B2 *1439:A4 0.00030176
7 *1337:B1 *1439:A4 4.53889e-05
8 *1337:C1 *1439:A4 0.000137983
9 *1338:A1 *1439:A4 8.68569e-05
10 *1389:A1 *1389:D1 5.33005e-05
11 *1389:A2 *1389:D1 0.000139202
12 *1389:B1 *1389:D1 6.96796e-05
13 *304:10 *1439:A4 0
14 *317:25 *1439:A4 6.8646e-06
*RES
1 *1337:Y *1389:D1 21.6 
2 *1337:Y *1439:A4 38.1893 
*END

*D_NET *319 0.00227902
*CONN
*I *1662:A I *D sky130_fd_sc_hd__buf_2
*I *1390:C I *D sky130_fd_sc_hd__nand4_4
*I *1338:Y O *D sky130_fd_sc_hd__a21oi_4
*CAP
1 *1662:A 0.000160237
2 *1390:C 0.000709329
3 *1338:Y 0.000549091
4 *1390:C *604:12 0.000287842
5 *1662:A *1340:A 0.000169373
6 *1662:A *374:12 0.000249097
7 *1389:B1 *1390:C 3.57844e-05
8 *1642:A *1662:A 5.52238e-05
9 *238:19 *1390:C 0
10 *243:30 *1390:C 0
11 *315:10 *1390:C 6.30388e-05
*RES
1 *1338:Y *1390:C 37.7786 
2 *1390:C *1662:A 23.6893 
*END

*D_NET *320 0.000626417
*CONN
*I *1340:B I *D sky130_fd_sc_hd__xor2_2
*I *1339:X O *D sky130_fd_sc_hd__a31o_2
*CAP
1 *1340:B 0.000285731
2 *1339:X 0.000285731
3 *1339:B1 *1340:B 5.49544e-05
*RES
1 *1339:X *1340:B 13.4875 
*END

*D_NET *321 0.0014541
*CONN
*I *1386:A2_N I *D sky130_fd_sc_hd__a2bb2oi_2
*I *1387:A2 I *D sky130_fd_sc_hd__o22ai_2
*I *1341:Y O *D sky130_fd_sc_hd__a31oi_2
*CAP
1 *1386:A2_N 0
2 *1387:A2 0.000160948
3 *1341:Y 0.000114956
4 *321:8 0.000275904
5 *1387:A2 *1387:B2 9.7049e-06
6 *1387:A2 *363:8 6.04162e-05
7 *1387:A2 *363:19 9.11365e-06
8 *1387:A2 *371:8 5.7661e-06
9 *321:8 *363:19 0.000125649
10 *1387:A1 *1387:A2 0.000251493
11 *300:16 *1387:A2 9.76491e-05
12 *306:26 *1387:A2 9.25014e-06
13 *306:26 *321:8 0.000333252
*RES
1 *1341:Y *321:8 18.175 
2 *321:8 *1387:A2 18.55 
3 *321:8 *1386:A2_N 13.8 
*END

*D_NET *322 0.000466835
*CONN
*I *1353:A2 I *D sky130_fd_sc_hd__o22ai_4
*I *1342:X O *D sky130_fd_sc_hd__o21a_2
*CAP
1 *1353:A2 0.000167722
2 *1342:X 0.000167722
3 *1353:A2 *1348:B 3.2923e-05
4 *1600:A *1353:A2 9.84673e-05
*RES
1 *1342:X *1353:A2 30.1893 
*END

*D_NET *323 0.00161588
*CONN
*I *1354:B1 I *D sky130_fd_sc_hd__o211ai_4
*I *1343:Y O *D sky130_fd_sc_hd__o21ai_2
*CAP
1 *1354:B1 0.000512158
2 *1343:Y 0.000512158
3 *1354:B1 *1354:A1 0.000168666
4 *1354:B1 *1404:A2 3.18676e-05
5 *1354:B1 *1691:A 2.46999e-05
6 *1354:B1 *1692:A 0.000212627
7 *1354:B1 *325:10 0
8 *1354:B1 *644:8 7.38748e-05
9 *1354:B1 *676:16 3.34366e-05
10 *1354:B1 *691:16 0
11 *1354:B1 *691:49 0
12 *1354:B1 *697:8 1.98839e-05
13 *1354:B1 *716:30 2.65105e-05
*RES
1 *1343:Y *1354:B1 37.6536 
*END

*D_NET *324 0.000344979
*CONN
*I *1404:A1 I *D sky130_fd_sc_hd__o21ai_2
*I *1344:Y O *D sky130_fd_sc_hd__nand2_2
*CAP
1 *1404:A1 0.000118645
2 *1344:Y 0.000118645
3 *1404:A1 *1351:B 2.14658e-05
4 *1404:A1 *1674:A 3.93986e-05
5 *1404:A1 *568:34 7.43578e-06
6 *1404:A1 *710:10 3.93893e-05
*RES
1 *1344:Y *1404:A1 29.7786 
*END

*D_NET *325 0.00345736
*CONN
*I *1348:B I *D sky130_fd_sc_hd__nand2_2
*I *1352:A2 I *D sky130_fd_sc_hd__a21oi_2
*I *1345:Y O *D sky130_fd_sc_hd__nand2_2
*CAP
1 *1348:B 0.000282482
2 *1352:A2 1.79896e-05
3 *1345:Y 0.000352323
4 *325:10 0.000652795
5 *1348:B *1353:A1 0.000228876
6 *1348:B *1353:B1 4.84159e-05
7 *1348:B *712:28 0.000525347
8 *1352:A2 *691:12 2.89114e-05
9 *1352:A2 *710:31 1.92905e-05
10 *325:10 *1346:C 1.33343e-05
11 *325:10 *1566:A 0.000108848
12 *325:10 *1691:A 0.000103041
13 *325:10 *644:12 4.53124e-05
14 *325:10 *691:49 0
15 *325:10 *713:37 9.80173e-05
16 *1343:B1 *1348:B 0
17 *1348:A *1348:B 0.000192703
18 *1348:A *325:10 1.02504e-05
19 *1353:A2 *1348:B 3.2923e-05
20 *1354:B1 *325:10 0
21 *258:10 *325:10 0.000696498
*RES
1 *1345:Y *325:10 23.675 
2 *325:10 *1352:A2 14.3357 
3 *325:10 *1348:B 22.4429 
*END

*D_NET *326 0.0159608
*CONN
*I *1349:A2_N I *D sky130_fd_sc_hd__a2bb2oi_2
*I *1350:B2 I *D sky130_fd_sc_hd__o2bb2ai_2
*I *1151:A2_N I *D sky130_fd_sc_hd__a2bb2oi_4
*I *1062:B I *D sky130_fd_sc_hd__nor2_2
*I *1068:B2 I *D sky130_fd_sc_hd__o2bb2ai_4
*I *1152:B2 I *D sky130_fd_sc_hd__o2bb2ai_2
*I *995:Y O *D sky130_fd_sc_hd__inv_2
*CAP
1 *1349:A2_N 0
2 *1350:B2 0.000192232
3 *1151:A2_N 2.15381e-05
4 *1062:B 8.66065e-05
5 *1068:B2 0.000114302
6 *1152:B2 2.72788e-05
7 *995:Y 0
8 *326:72 0.000436698
9 *326:39 0.0013625
10 *326:35 0.0014628
11 *326:18 0.00185794
12 *326:4 0.00179545
13 *1151:A2_N *1147:B 9.71197e-05
14 *1151:A2_N *722:44 4.58976e-05
15 *1152:B2 *1152:B1 7.51141e-05
16 *1350:B2 *1350:A1_N 4.58976e-05
17 *1350:B2 *1350:A2_N 0.00018372
18 *1350:B2 *1350:B1 0.000260333
19 *1350:B2 *1351:A 2.89114e-05
20 *1350:B2 *673:36 3.75052e-05
21 *1350:B2 *673:48 1.19402e-05
22 *1350:B2 *710:10 0.000149904
23 *1350:B2 *716:30 2.54632e-05
24 *326:18 *1221:A1 0
25 *326:18 *1295:B 9.84729e-05
26 *326:18 *1615:A 0
27 *326:18 *334:20 7.83563e-05
28 *326:18 *555:75 0
29 *326:18 *555:79 0.000173804
30 *326:18 *722:8 0
31 *326:35 *1147:B 0.000120895
32 *326:35 *555:79 0.000350236
33 *326:35 *558:31 0.000100831
34 *326:35 *722:44 0.000259549
35 *326:39 *1023:A1 0.000359259
36 *326:39 *1023:A2 5.11958e-05
37 *326:39 *1066:C 0
38 *326:39 *1574:A 0.000233774
39 *326:39 *534:30 0.000220455
40 *326:39 *534:39 0.000200413
41 *326:39 *534:77 0.000592786
42 *326:39 *705:14 5.48581e-05
43 *326:39 *716:125 0.000121623
44 *326:39 *722:50 0
45 *326:39 *722:69 0
46 *326:39 *729:8 0.000145584
47 *326:39 *734:57 0
48 *326:72 *1444:B2 0
49 *326:72 *673:34 0.000105639
50 *326:72 *673:36 4.1331e-06
51 *1065:C1 *326:39 7.35585e-05
52 *1067:B1 *1062:B 0.000237521
53 *1067:B1 *326:39 0.000694068
54 *1072:D *1062:B 0
55 *1086:A4 *326:39 1.3142e-05
56 *1086:B1 *326:39 0
57 *1152:A1_N *326:35 0
58 *1153:D1 *1152:B2 9.60939e-05
59 *1156:B *326:35 0.000171171
60 *1168:D1 *326:39 0
61 *1175:A1_N *326:35 8.64053e-06
62 *1226:A1_N *326:18 0.000170654
63 *1229:A1 *326:39 0.000199539
64 *1233:A1 *326:18 0.000282842
65 *1233:C1 *326:18 0
66 *1302:B1 *326:18 0.000257967
67 *1305:B *326:18 6.66211e-05
68 *1306:A *326:18 7.27028e-05
69 *1315:A *326:18 0.000251477
70 *1315:B *326:18 0
71 *1315:C *326:18 0
72 *64:12 *1062:B 0.000271958
73 *64:12 *326:39 0.000265385
74 *127:44 *326:35 0
75 *186:18 *326:18 0.000163847
76 *209:12 *326:18 0.000221634
77 *271:10 *326:18 5.29477e-05
78 *272:41 *326:18 0.000787798
79 *272:41 *326:39 1.02504e-05
80 *277:42 *326:18 0
*RES
1 *995:Y *326:4 9.3 
2 *326:4 *326:18 48.6786 
3 *326:18 *1152:B2 14.7464 
4 *326:18 *326:35 12.1964 
5 *326:35 *326:39 38.0179 
6 *326:39 *1068:B2 15.6036 
7 *326:39 *1062:B 17.2643 
8 *326:35 *1151:A2_N 10.2464 
9 *326:4 *326:72 8.875 
10 *326:72 *1350:B2 19.5857 
11 *326:72 *1349:A2_N 13.8 
*END

*D_NET *327 0.00262017
*CONN
*I *1349:B1 I *D sky130_fd_sc_hd__a2bb2oi_2
*I *1351:A I *D sky130_fd_sc_hd__nand3_2
*I *1350:A1_N I *D sky130_fd_sc_hd__o2bb2ai_2
*I *1404:B1 I *D sky130_fd_sc_hd__o21ai_2
*I *1346:Y O *D sky130_fd_sc_hd__nand4_2
*CAP
1 *1349:B1 0.000185714
2 *1351:A 5.48391e-05
3 *1350:A1_N 5.68219e-05
4 *1404:B1 0.000104063
5 *1346:Y 0.000213807
6 *327:21 0.000111661
7 *327:19 0.000322125
8 *327:8 0.000454281
9 *1349:B1 *1349:B2 5.52302e-05
10 *1349:B1 *1350:A2_N 8.03134e-05
11 *1349:B1 *1352:B1 0
12 *1349:B1 *329:8 1.76135e-05
13 *1349:B1 *608:20 2.70413e-05
14 *1349:B1 *710:31 2.89114e-05
15 *1350:A1_N *1350:A2_N 0.00014183
16 *1350:A1_N *1351:B 6.42095e-05
17 *1350:A1_N *716:30 9.60875e-05
18 *1351:A *1350:B1 2.32013e-05
19 *1351:A *1351:B 0.000121823
20 *1351:A *608:20 2.27416e-05
21 *1404:B1 *1404:A2 0.00019067
22 *327:8 *691:26 0
23 *327:8 *710:10 0
24 *327:19 *1352:B1 0
25 *327:19 *1354:A2 0
26 *327:19 *1354:C1 0.000172375
27 *1350:B2 *1350:A1_N 4.58976e-05
28 *1350:B2 *1351:A 2.89114e-05
29 *258:10 *327:8 0
30 *258:10 *327:19 0
*RES
1 *1346:Y *327:8 17.5679 
2 *327:8 *1404:B1 15.9786 
3 *327:8 *327:19 2.85714 
4 *327:19 *327:21 4.5 
5 *327:21 *1350:A1_N 11.4786 
6 *327:21 *1351:A 11.4964 
7 *327:19 *1349:B1 17.1929 
*END

*D_NET *328 0.00177609
*CONN
*I *1404:A2 I *D sky130_fd_sc_hd__o21ai_2
*I *1354:A1 I *D sky130_fd_sc_hd__o211ai_4
*I *1347:Y O *D sky130_fd_sc_hd__a22oi_2
*CAP
1 *1404:A2 0.000225427
2 *1354:A1 0.000339472
3 *1347:Y 0.000114044
4 *1354:A1 *608:36 3.51442e-05
5 *1354:A1 *644:8 0.00017309
6 *1354:A1 *644:12 3.51442e-05
7 *1354:A1 *676:16 6.80677e-05
8 *1354:A1 *697:8 9.41642e-05
9 *1404:A2 *335:24 1.74352e-05
10 *1404:A2 *673:48 9.6087e-05
11 *1404:A2 *716:30 0.000186808
12 *1354:B1 *1354:A1 0.000168666
13 *1354:B1 *1404:A2 3.18676e-05
14 *1404:B1 *1404:A2 0.00019067
*RES
1 *1347:Y *1354:A1 31.5107 
2 *1354:A1 *1404:A2 25.0286 
*END

*D_NET *329 0.00146077
*CONN
*I *1349:B2 I *D sky130_fd_sc_hd__a2bb2oi_2
*I *1350:A2_N I *D sky130_fd_sc_hd__o2bb2ai_2
*I *1348:Y O *D sky130_fd_sc_hd__nand2_2
*CAP
1 *1349:B2 4.1887e-05
2 *1350:A2_N 0.000130552
3 *1348:Y 5.62295e-05
4 *329:8 0.000228668
5 *1349:B2 *1353:B2 7.43578e-06
6 *1349:B2 *691:12 0.000183726
7 *1349:B2 *710:31 4.17014e-05
8 *1350:A2_N *673:34 5.80706e-06
9 *1350:A2_N *673:36 6.09572e-05
10 *1350:A2_N *673:48 2.61337e-05
11 *1350:A2_N *716:30 2.44318e-05
12 *329:8 *1353:B1 0.000101527
13 *329:8 *673:34 7.30056e-05
14 *1349:B1 *1349:B2 5.52302e-05
15 *1349:B1 *1350:A2_N 8.03134e-05
16 *1349:B1 *329:8 1.76135e-05
17 *1350:A1_N *1350:A2_N 0.00014183
18 *1350:B2 *1350:A2_N 0.00018372
*RES
1 *1348:Y *329:8 15.7464 
2 *329:8 *1350:A2_N 17.8179 
3 *329:8 *1349:B2 15.5679 
*END

*D_NET *330 0.000540463
*CONN
*I *1353:B1 I *D sky130_fd_sc_hd__o22ai_4
*I *1349:Y O *D sky130_fd_sc_hd__a2bb2oi_2
*CAP
1 *1353:B1 0.000124516
2 *1349:Y 0.000124516
3 *1353:B1 *1353:B2 3.34813e-05
4 *1353:B1 *334:20 3.14003e-05
5 *1353:B1 *673:34 1.78393e-05
6 *1348:A *1353:B1 5.87673e-05
7 *1348:B *1353:B1 4.84159e-05
8 *329:8 *1353:B1 0.000101527
*RES
1 *1349:Y *1353:B1 30.4929 
*END

*D_NET *331 0.000425848
*CONN
*I *1354:C1 I *D sky130_fd_sc_hd__o211ai_4
*I *1350:Y O *D sky130_fd_sc_hd__o2bb2ai_2
*CAP
1 *1354:C1 0.000102834
2 *1350:Y 0.000102834
3 *1354:C1 *710:10 0
4 *1354:C1 *716:30 4.78056e-05
5 *327:19 *1354:C1 0.000172375
*RES
1 *1350:Y *1354:C1 29.85 
*END

*D_NET *332 0.00104551
*CONN
*I *1352:B1 I *D sky130_fd_sc_hd__a21oi_2
*I *1354:A2 I *D sky130_fd_sc_hd__o211ai_4
*I *1351:Y O *D sky130_fd_sc_hd__nand3_2
*CAP
1 *1352:B1 0.000210507
2 *1354:A2 9.29543e-05
3 *1351:Y 3.92359e-05
4 *332:8 0.000342697
5 *1352:B1 *1353:B2 2.89016e-05
6 *1352:B1 *608:20 1.99881e-05
7 *1352:B1 *691:12 2.89016e-05
8 *1352:B1 *716:30 5.59013e-05
9 *1354:A2 *716:30 7.6644e-05
10 *332:8 *1351:B 5.52238e-05
11 *1349:B1 *1352:B1 0
12 *258:10 *1352:B1 6.53781e-05
13 *258:10 *1354:A2 2.91794e-05
14 *327:19 *1352:B1 0
15 *327:19 *1354:A2 0
*RES
1 *1351:Y *332:8 14.3357 
2 *332:8 *1354:A2 15.7464 
3 *332:8 *1352:B1 17.4964 
*END

*D_NET *333 0.000634928
*CONN
*I *1353:B2 I *D sky130_fd_sc_hd__o22ai_4
*I *1352:Y O *D sky130_fd_sc_hd__a21oi_2
*CAP
1 *1353:B2 0.000150412
2 *1352:Y 0.000150412
3 *1353:B2 *1353:A1 1.00887e-05
4 *1353:B2 *334:20 2.93426e-05
5 *1353:B2 *691:12 3.81843e-05
6 *1353:B2 *710:31 0.000186669
7 *1348:A *1353:B2 0
8 *1349:B2 *1353:B2 7.43578e-06
9 *1352:B1 *1353:B2 2.89016e-05
10 *1353:B1 *1353:B2 3.34813e-05
*RES
1 *1352:Y *1353:B2 31.6179 
*END

*D_NET *334 0.00846108
*CONN
*I *1365:B1 I *D sky130_fd_sc_hd__o211a_2
*I *1363:A1 I *D sky130_fd_sc_hd__a21oi_2
*I *1398:A1 I *D sky130_fd_sc_hd__a21boi_2
*I *1364:A1 I *D sky130_fd_sc_hd__a21o_2
*I *1366:A I *D sky130_fd_sc_hd__nand3_4
*I *1353:Y O *D sky130_fd_sc_hd__o22ai_4
*CAP
1 *1365:B1 4.15189e-05
2 *1363:A1 0.000102378
3 *1398:A1 0
4 *1364:A1 0.000319883
5 *1366:A 7.41495e-05
6 *1353:Y 0.000906017
7 *334:43 0.000416528
8 *334:39 0.00034588
9 *334:26 0.000427921
10 *334:20 0.00115445
11 *1363:A1 *1363:A2 9.43804e-05
12 *1363:A1 *1369:A1 5.74242e-05
13 *1363:A1 *1369:A2 0.000167026
14 *1364:A1 *1368:B1 0.000206919
15 *1364:A1 *1398:A2 0.000145078
16 *1364:A1 *335:68 1.62025e-05
17 *1364:A1 *344:18 4.69857e-05
18 *1364:A1 *346:8 0.000195344
19 *1365:B1 *1365:A2 5.87643e-05
20 *1366:A *683:10 7.24537e-05
21 *334:20 *1295:A 0.000219428
22 *334:20 *1295:B 4.63305e-05
23 *334:20 *1304:A2 1.46576e-05
24 *334:20 *1353:A1 3.34634e-05
25 *334:20 *1360:A 7.65637e-05
26 *334:20 *1360:B 0.000692241
27 *334:20 *1360:C 1.51955e-05
28 *334:20 *1365:A2 9.86486e-06
29 *334:20 *1365:C1 7.62237e-05
30 *334:20 *335:24 7.13258e-05
31 *334:20 *673:34 0.000183711
32 *334:20 *732:29 9.82059e-05
33 *334:26 *1360:B 0.00023177
34 *334:26 *1365:A1 6.26774e-06
35 *334:26 *1365:A2 2.41072e-05
36 *334:26 *561:10 0.000163576
37 *334:26 *683:10 9.84729e-05
38 *334:26 *683:31 0.00016867
39 *334:39 *1369:A2 0.000174429
40 *334:39 *1414:B 0
41 *334:39 *718:25 7.80059e-05
42 *334:43 *1368:B1 0.000100165
43 *334:43 *1413:C 2.85321e-05
44 *334:43 *335:39 9.84673e-05
45 *334:43 *335:68 7.06034e-05
46 *334:43 *350:12 8.41866e-05
47 *1304:B2 *334:20 0.000281866
48 *1307:A *334:20 0.000269654
49 *1353:B1 *334:20 3.14003e-05
50 *1353:B2 *334:20 2.93426e-05
51 *271:10 *334:20 5.66971e-05
52 *326:18 *334:20 7.83563e-05
*RES
1 *1353:Y *334:20 42.7107 
2 *334:20 *334:26 6.21429 
3 *334:26 *1366:A 10.675 
4 *334:26 *334:39 7.66071 
5 *334:39 *334:43 7.91071 
6 *334:43 *1364:A1 16.3179 
7 *334:43 *1398:A1 9.3 
8 *334:39 *1363:A1 16.5857 
9 *334:20 *1365:B1 10.5679 
*END

*D_NET *335 0.0126622
*CONN
*I *1399:A I *D sky130_fd_sc_hd__nand2_2
*I *1364:A2 I *D sky130_fd_sc_hd__a21o_2
*I *1366:B I *D sky130_fd_sc_hd__nand3_4
*I *1398:B1_N I *D sky130_fd_sc_hd__a21boi_2
*I *1363:A2 I *D sky130_fd_sc_hd__a21oi_2
*I *1365:C1 I *D sky130_fd_sc_hd__o211a_2
*I *1354:Y O *D sky130_fd_sc_hd__o211ai_4
*CAP
1 *1399:A 0.000210753
2 *1364:A2 2.04121e-05
3 *1366:B 0.00052151
4 *1398:B1_N 0.00061202
5 *1363:A2 0.000129179
6 *1365:C1 2.96554e-05
7 *1354:Y 0.00169269
8 *335:85 0.000296149
9 *335:68 0.00119851
10 *335:39 0.000499603
11 *335:24 0.00209277
12 *1363:A2 *1369:A1 8.21558e-05
13 *1363:A2 *1414:B 8.94186e-05
14 *1363:A2 *725:20 0.000107869
15 *1364:A2 *344:18 5.23822e-05
16 *1364:A2 *346:8 9.84729e-05
17 *1365:C1 *1365:A2 9.84673e-05
18 *1365:C1 *561:10 2.24804e-05
19 *1366:B *1411:A1 5.51716e-05
20 *1366:B *1560:A 5.66943e-05
21 *1366:B *336:70 0.000245199
22 *1366:B *349:10 2.29031e-05
23 *1366:B *426:12 4.23387e-05
24 *1366:B *683:10 0.000108
25 *1399:A *1399:B 8.30859e-05
26 *1399:A *1621:A 7.589e-05
27 *1399:A *349:19 4.42522e-05
28 *1399:A *426:12 3.14984e-05
29 *335:24 *1360:A 0.000221708
30 *335:24 *1361:A1 1.66067e-05
31 *335:24 *1402:B1 0.000238692
32 *335:24 *1403:C 0.000172259
33 *335:24 *1442:B1 1.01912e-05
34 *335:24 *1444:B2 5.33005e-05
35 *335:24 *1446:A1 0.00035013
36 *335:24 *561:10 2.76499e-05
37 *335:24 *561:16 0
38 *335:24 *673:48 0.000356028
39 *335:24 *712:28 0.000127971
40 *335:24 *712:30 8.69449e-05
41 *335:24 *712:34 5.86416e-05
42 *335:39 *1300:B 3.10819e-05
43 *335:39 *1300:C 5.23735e-05
44 *335:39 *1300:D 0.000182804
45 *335:39 *1356:A 2.51304e-05
46 *335:39 *1533:A 2.28776e-05
47 *335:39 *350:12 0.000771448
48 *335:39 *683:31 0.000168075
49 *335:39 *719:14 0
50 *335:68 *1398:A2 0.000167771
51 *335:68 *1413:C 5.50052e-05
52 *335:68 *344:18 0.000354985
53 *335:85 *349:10 1.67642e-05
54 *335:85 *349:19 5.87541e-06
55 *335:85 *426:12 2.37147e-05
56 *1363:A1 *1363:A2 9.43804e-05
57 *1364:A1 *335:68 1.62025e-05
58 *1404:A2 *335:24 1.74352e-05
59 *334:20 *1365:C1 7.62237e-05
60 *334:20 *335:24 7.13258e-05
61 *334:43 *335:39 9.84673e-05
62 *334:43 *335:68 7.06034e-05
*RES
1 *1354:Y *335:24 44.8357 
2 *335:24 *1365:C1 10.6571 
3 *335:24 *335:39 19.6786 
4 *335:39 *1363:A2 21.9071 
5 *335:39 *1398:B1_N 9.3 
6 *1398:B1_N *335:68 22.4607 
7 *335:68 *1366:B 22.2643 
8 *335:68 *335:85 1.03571 
9 *335:85 *1364:A2 14.7464 
10 *335:85 *1399:A 18.7821 
*END

*D_NET *336 0.00748227
*CONN
*I *1411:B1 I *D sky130_fd_sc_hd__o21ai_2
*I *1409:B1_N I *D sky130_fd_sc_hd__o21bai_2
*I *1410:A I *D sky130_fd_sc_hd__nand3_2
*I *1362:A2 I *D sky130_fd_sc_hd__o21a_2
*I *1415:B2 I *D sky130_fd_sc_hd__o2bb2ai_2
*I *1418:A2 I *D sky130_fd_sc_hd__o211ai_2
*I *1358:B I *D sky130_fd_sc_hd__or2_2
*I *1355:Y O *D sky130_fd_sc_hd__nand2_2
*CAP
1 *1411:B1 0
2 *1409:B1_N 0
3 *1410:A 0.000518567
4 *1362:A2 0.000206871
5 *1415:B2 0.00015438
6 *1418:A2 0
7 *1358:B 8.75469e-05
8 *1355:Y 0
9 *336:76 0.000843966
10 *336:70 0.000718542
11 *336:45 0.000874975
12 *336:19 0.000297387
13 *336:6 0.000230554
14 *336:4 0.000274961
15 *1358:B *340:12 4.26814e-05
16 *1358:B *398:10 5.66971e-05
17 *1362:A2 *1357:B 0.000290727
18 *1362:A2 *1357:C 1.30914e-05
19 *1362:A2 *1359:A1 0.000127939
20 *1362:A2 *1362:B1 4.42479e-05
21 *1362:A2 *680:39 9.5584e-05
22 *1362:A2 *725:26 0.000124749
23 *1410:A *1450:A 0
24 *1410:A *386:42 9.54798e-06
25 *1410:A *433:6 5.62995e-05
26 *1410:A *433:12 0.000213688
27 *1410:A *684:10 0
28 *1410:A *689:22 0.000150625
29 *1410:A *718:10 0.000141447
30 *336:19 *340:12 6.93626e-06
31 *336:45 *1355:A 0.000125173
32 *336:45 *1355:B 9.84673e-05
33 *336:45 *1357:C 5.61819e-05
34 *336:45 *1357:D 0.000140243
35 *336:45 *339:10 2.97578e-05
36 *336:70 *1357:C 0.00010182
37 *336:70 *1411:A2 5.50052e-05
38 *336:70 *683:10 0.000283505
39 *336:70 *718:25 5.4401e-05
40 *336:76 *1409:A2 0
41 *336:76 *1413:A 8.06331e-05
42 *336:76 *1414:A 0.000144139
43 *336:76 *689:22 0.000250977
44 *1358:A *1358:B 9.3728e-05
45 *1358:A *1415:B2 3.67279e-06
46 *1358:A *336:19 8.24874e-05
47 *1366:B *336:70 0.000245199
48 *273:25 *1415:B2 5.48645e-05
*RES
1 *1355:Y *336:4 9.3 
2 *336:4 *336:6 4.5 
3 *336:6 *1358:B 16.2821 
4 *336:6 *336:19 3.16071 
5 *336:19 *1418:A2 13.8 
6 *336:19 *1415:B2 17.1214 
7 *336:4 *336:45 5.60714 
8 *336:45 *1362:A2 24.425 
9 *336:45 *336:70 9.05357 
10 *336:70 *336:76 11.8393 
11 *336:76 *1410:A 31.3357 
12 *336:76 *1409:B1_N 13.8 
13 *336:70 *1411:B1 9.3 
*END

*D_NET *337 0.00553135
*CONN
*I *1220:A2_N I *D sky130_fd_sc_hd__a2bb2oi_4
*I *1316:A2 I *D sky130_fd_sc_hd__o21a_2
*I *1217:A2 I *D sky130_fd_sc_hd__o211ai_2
*I *1402:B2 I *D sky130_fd_sc_hd__o2bb2ai_2
*I *996:Y O *D sky130_fd_sc_hd__inv_2
*CAP
1 *1220:A2_N 0
2 *1316:A2 0.000127455
3 *1217:A2 1.40568e-05
4 *1402:B2 0.000198441
5 *996:Y 7.26954e-05
6 *337:36 0.000328265
7 *337:19 0.00103844
8 *337:8 0.00109471
9 *1217:A2 *1221:A1 2.89016e-05
10 *1316:A2 *1321:B2 0
11 *1316:A2 *674:91 0.00016185
12 *1402:B2 *1401:B1 0
13 *1402:B2 *1443:A 0
14 *1402:B2 *1443:D 0.000127446
15 *1402:B2 *568:10 0
16 *1402:B2 *679:33 0.000145649
17 *1402:B2 *690:55 5.74562e-05
18 *337:8 *678:109 9.58632e-05
19 *337:19 *997:A 2.72055e-05
20 *337:19 *1298:B1 6.27272e-06
21 *337:19 *1303:B1 0.000153047
22 *337:19 *1306:D 0.000112691
23 *337:19 *348:25 0
24 *337:19 *555:75 0
25 *337:19 *674:74 1.19402e-05
26 *337:19 *679:33 9.10894e-05
27 *337:19 *679:50 0.000508823
28 *337:19 *683:59 0
29 *337:36 *674:74 1.27784e-05
30 *1217:C1 *337:36 0.000146474
31 *1220:B2 *337:36 5.33005e-05
32 *1321:B1 *1316:A2 0
33 *189:6 *1217:A2 5.52238e-05
34 *189:19 *337:36 1.46717e-05
35 *193:10 *337:36 6.09476e-05
36 *275:17 *337:19 0
37 *277:21 *337:19 0.00011328
38 *277:68 *337:19 9.42111e-05
39 *292:8 *1316:A2 0.000142856
40 *292:8 *337:36 9.95075e-05
41 *293:12 *1316:A2 7.32955e-05
42 *293:12 *337:36 0.000262498
*RES
1 *996:Y *337:8 14.7464 
2 *337:8 *1402:B2 17.8714 
3 *337:8 *337:19 17.7321 
4 *337:19 *1217:A2 14.3357 
5 *337:19 *337:36 10.0714 
6 *337:36 *1316:A2 21.9071 
7 *337:36 *1220:A2_N 9.3 
*END

*D_NET *338 0.00106924
*CONN
*I *1360:A I *D sky130_fd_sc_hd__and3_2
*I *1361:B1 I *D sky130_fd_sc_hd__a21oi_2
*I *1356:Y O *D sky130_fd_sc_hd__nand2_2
*CAP
1 *1360:A 0.000206668
2 *1361:B1 1.95599e-05
3 *1356:Y 0.000226228
4 *1360:A *1356:A 7.00805e-05
5 *1360:A *1360:C 5.33005e-05
6 *1360:A *720:21 0
7 *1361:B1 *1361:A1 9.75679e-05
8 *1361:B1 *1501:A 9.75679e-05
9 *334:20 *1360:A 7.65637e-05
10 *335:24 *1360:A 0.000221708
*RES
1 *1356:Y *1361:B1 19.5464 
2 *1356:Y *1360:A 32.3321 
*END

*D_NET *339 0.00221843
*CONN
*I *1417:B I *D sky130_fd_sc_hd__nand3_2
*I *1416:B I *D sky130_fd_sc_hd__nand2_2
*I *1357:X O *D sky130_fd_sc_hd__and4_2
*CAP
1 *1417:B 0.000141095
2 *1416:B 0
3 *1357:X 0.000650875
4 *339:10 0.00079197
5 *339:10 *1355:A 0.000225374
6 *339:10 *1421:A 9.75679e-05
7 *339:10 *1451:A1 7.62323e-05
8 *339:10 *1476:A1 0.000113417
9 *339:10 *340:12 9.21413e-05
10 *336:45 *339:10 2.97578e-05
*RES
1 *1357:X *339:10 26.0321 
2 *339:10 *1416:B 13.8 
3 *339:10 *1417:B 16.05 
*END

*D_NET *340 0.00131183
*CONN
*I *1419:B1 I *D sky130_fd_sc_hd__a21o_2
*I *1451:A1 I *D sky130_fd_sc_hd__a21bo_2
*I *1358:X O *D sky130_fd_sc_hd__or2_2
*CAP
1 *1419:B1 0
2 *1451:A1 0.000144091
3 *1358:X 0.000120872
4 *340:12 0.000264963
5 *1451:A1 *1421:A 0.000126416
6 *1451:A1 *1476:A1 0.000143633
7 *1451:A1 *398:47 1.00887e-05
8 *340:12 *1476:A1 0.000126102
9 *340:12 *398:10 0.000126272
10 *340:12 *398:32 3.14003e-05
11 *1358:B *340:12 4.26814e-05
12 *336:19 *340:12 6.93626e-06
13 *339:10 *1451:A1 7.62323e-05
14 *339:10 *340:12 9.21413e-05
*RES
1 *1358:X *340:12 22.0143 
2 *340:12 *1451:A1 22.2107 
3 *340:12 *1419:B1 9.3 
*END

*D_NET *341 0.000644793
*CONN
*I *1362:B1 I *D sky130_fd_sc_hd__o21a_2
*I *1359:X O *D sky130_fd_sc_hd__a22o_2
*CAP
1 *1362:B1 0.000108946
2 *1359:X 0.000108946
3 *1362:B1 *1357:C 5.74242e-05
4 *1362:B1 *1359:A1 1.00887e-05
5 *1362:B1 *564:10 0.000164455
6 *1362:B1 *725:20 2.59355e-05
7 *1362:B1 *725:26 0.000124749
8 *1362:A2 *1362:B1 4.42479e-05
*RES
1 *1359:X *1362:B1 30.9929 
*END

*D_NET *342 0.00212818
*CONN
*I *1365:A1 I *D sky130_fd_sc_hd__o211a_2
*I *1360:X O *D sky130_fd_sc_hd__and3_2
*CAP
1 *1365:A1 0.000990352
2 *1360:X 0.000990352
3 *1365:A1 *996:A 4.19624e-06
4 *1365:A1 *1442:B1 0
5 *1365:A1 *1533:A 4.21996e-05
6 *1365:A1 *561:10 6.26774e-06
7 *1365:A1 *679:50 2.06178e-05
8 *1365:A1 *681:51 0
9 *1365:A1 *683:31 2.53112e-06
10 *1365:A1 *686:12 6.53937e-05
11 *334:26 *1365:A1 6.26774e-06
*RES
1 *1360:X *1365:A1 37.2706 
*END

*D_NET *343 0.000773076
*CONN
*I *1365:A2 I *D sky130_fd_sc_hd__o211a_2
*I *1361:Y O *D sky130_fd_sc_hd__a21oi_2
*CAP
1 *1365:A2 0.000147471
2 *1361:Y 0.000147471
3 *1365:A2 *1356:A 0
4 *1365:A2 *1464:B1 9.15842e-06
5 *1365:A2 *561:10 0.000256246
6 *1365:A2 *719:14 2.15261e-05
7 *1365:B1 *1365:A2 5.87643e-05
8 *1365:C1 *1365:A2 9.84673e-05
9 *334:20 *1365:A2 9.86486e-06
10 *334:26 *1365:A2 2.41072e-05
*RES
1 *1361:Y *1365:A2 31.5464 
*END

*D_NET *344 0.00443948
*CONN
*I *1363:B1 I *D sky130_fd_sc_hd__a21oi_2
*I *1364:B1 I *D sky130_fd_sc_hd__a21o_2
*I *1398:A2 I *D sky130_fd_sc_hd__a21boi_2
*I *1366:C I *D sky130_fd_sc_hd__nand3_4
*I *1362:X O *D sky130_fd_sc_hd__o21a_2
*CAP
1 *1363:B1 0.000310631
2 *1364:B1 0
3 *1398:A2 6.41119e-05
4 *1366:C 0.000112918
5 *1362:X 0.00056677
6 *344:18 0.000316942
7 *344:14 0.000396052
8 *1363:B1 *1370:B 0.000117392
9 *1363:B1 *1440:A 2.38501e-05
10 *1363:B1 *681:83 0.000183711
11 *1363:B1 *725:20 0.00104232
12 *1366:C *689:22 0.000166374
13 *344:14 *1440:A 5.86706e-05
14 *344:14 *346:8 9.84729e-05
15 *344:14 *681:27 2.11419e-05
16 *344:14 *681:83 0.000138515
17 *344:18 *346:8 5.4401e-05
18 *1364:A1 *1398:A2 0.000145078
19 *1364:A1 *344:18 4.69857e-05
20 *1364:A2 *344:18 5.23822e-05
21 *335:68 *1398:A2 0.000167771
22 *335:68 *344:18 0.000354985
*RES
1 *1362:X *344:14 23.0679 
2 *344:14 *344:18 4.55357 
3 *344:18 *1366:C 20.55 
4 *344:18 *1398:A2 11.4964 
5 *344:14 *1364:B1 9.3 
6 *1362:X *1363:B1 28.5821 
*END

*D_NET *345 0.000860172
*CONN
*I *1369:A1 I *D sky130_fd_sc_hd__o21bai_4
*I *1363:Y O *D sky130_fd_sc_hd__a21oi_2
*CAP
1 *1369:A1 0.000226372
2 *1363:Y 0.000226372
3 *1369:A1 *1369:A2 9.31205e-05
4 *1369:A1 *1369:B1_N 0
5 *1369:A1 *1414:B 4.53031e-05
6 *1369:A1 *355:22 0.000129423
7 *1363:A1 *1369:A1 5.74242e-05
8 *1363:A2 *1369:A1 8.21558e-05
*RES
1 *1363:Y *1369:A1 32.5464 
*END

*D_NET *346 0.00110259
*CONN
*I *1368:A1 I *D sky130_fd_sc_hd__a21oi_2
*I *1370:A I *D sky130_fd_sc_hd__nand3_4
*I *1364:X O *D sky130_fd_sc_hd__a21o_2
*CAP
1 *1368:A1 0
2 *1370:A 0.000120205
3 *1364:X 0.000146259
4 *346:8 0.000266464
5 *1370:A *1397:A2 3.79336e-05
6 *1370:A *1399:B 1.6815e-05
7 *1370:A *349:19 6.82262e-05
8 *1370:A *689:22 0
9 *1364:A1 *346:8 0.000195344
10 *1364:A2 *346:8 9.84729e-05
11 *344:14 *346:8 9.84729e-05
12 *344:18 *346:8 5.4401e-05
*RES
1 *1364:X *346:8 13.1393 
2 *346:8 *1370:A 20.55 
3 *346:8 *1368:A1 9.3 
*END

*D_NET *347 0.00153915
*CONN
*I *1369:A2 I *D sky130_fd_sc_hd__o21bai_4
*I *1365:X O *D sky130_fd_sc_hd__o211a_2
*CAP
1 *1369:A2 0.000372624
2 *1365:X 0.000372624
3 *1369:A2 *1360:B 5.33005e-05
4 *1369:A2 *1369:B1_N 0
5 *1369:A2 *348:111 0.000167375
6 *1369:A2 *681:37 9.59532e-06
7 *1369:A2 *683:10 3.11088e-05
8 *1369:A2 *683:31 9.21413e-05
9 *1369:A2 *732:71 5.80706e-06
10 *1363:A1 *1369:A2 0.000167026
11 *1369:A1 *1369:A2 9.31205e-05
12 *334:39 *1369:A2 0.000174429
*RES
1 *1365:X *1369:A2 36.8857 
*END

*D_NET *348 0.0246246
*CONN
*I *1444:B2 I *D sky130_fd_sc_hd__o2bb2a_2
*I *1371:A2 I *D sky130_fd_sc_hd__o21a_2
*I *1486:B I *D sky130_fd_sc_hd__or3b_2
*I *1373:A2 I *D sky130_fd_sc_hd__o31a_2
*I *1256:A2 I *D sky130_fd_sc_hd__o21a_2
*I *1144:C1 I *D sky130_fd_sc_hd__a211o_4
*I *1303:A2 I *D sky130_fd_sc_hd__o22a_4
*I *1301:A2 I *D sky130_fd_sc_hd__o211a_4
*I *997:Y O *D sky130_fd_sc_hd__inv_2
*CAP
1 *1444:B2 0.000439494
2 *1371:A2 0
3 *1486:B 0.00116036
4 *1373:A2 0.000110123
5 *1256:A2 0.000466406
6 *1144:C1 0.000284793
7 *1303:A2 3.62241e-05
8 *1301:A2 0
9 *997:Y 3.80292e-05
10 *348:111 0.00192672
11 *348:88 0.000932234
12 *348:62 0.0018114
13 *348:56 0.0027464
14 *348:46 0.0018177
15 *348:44 0.000682515
16 *348:25 0.00133046
17 *348:10 0.000941415
18 *348:6 0.000731473
19 *1256:A2 *730:68 0
20 *1373:A2 *1373:A1 2.60117e-05
21 *1373:A2 *574:10 3.03071e-05
22 *1444:B2 *1402:B1 5.52238e-05
23 *1444:B2 *1674:A 0.000171368
24 *1444:B2 *568:10 0
25 *1444:B2 *678:126 1.35465e-05
26 *1444:B2 *690:23 0.0001139
27 *1444:B2 *710:10 0
28 *1444:B2 *712:28 0.000224575
29 *1486:B *1486:A 2.59355e-05
30 *1486:B *397:10 0.000171377
31 *1486:B *618:37 2.42516e-05
32 *1486:B *685:16 0.000368141
33 *348:6 *1501:A 5.4959e-05
34 *348:6 *678:126 4.86074e-05
35 *348:6 *712:28 0.00022887
36 *348:10 *1298:B2 0.000124019
37 *348:10 *1304:A2 4.66056e-05
38 *348:10 *555:35 4.66056e-05
39 *348:10 *678:126 9.96553e-05
40 *348:25 *1306:D 0
41 *348:25 *555:35 4.29498e-05
42 *348:25 *555:75 0.000295977
43 *348:44 *1299:D 3.34366e-05
44 *348:44 *1303:B1 9.60875e-05
45 *348:44 *683:59 0.000128146
46 *348:56 *1148:A 0.000102184
47 *348:56 *1214:B1 6.40035e-05
48 *348:56 *1215:A1 5.12344e-05
49 *348:56 *1240:C1 0
50 *348:56 *1516:A 0
51 *348:56 *1517:A 0
52 *348:56 *1565:A 3.90558e-05
53 *348:56 *548:10 0
54 *348:56 *686:55 0
55 *348:56 *686:76 0
56 *348:56 *688:74 0.000188967
57 *348:56 *696:12 0
58 *348:56 *725:85 9.11365e-06
59 *348:56 *732:71 0
60 *348:62 *1235:A3 0
61 *348:62 *592:8 0.000119135
62 *348:62 *684:33 0
63 *348:62 *730:59 0
64 *348:62 *730:68 0
65 *348:62 *733:83 0
66 *348:111 *1299:C 4.38511e-05
67 *348:111 *1361:A2 0.000236751
68 *348:111 *1375:B1 0.000154762
69 *348:111 *1407:C 6.94441e-06
70 *348:111 *1413:C 0.000124157
71 *348:111 *1464:B1 0.000208826
72 *348:111 *565:8 6.88475e-05
73 *348:111 *678:82 0.000155074
74 *348:111 *678:109 0.000100165
75 *348:111 *681:37 1.90936e-05
76 *348:111 *686:12 0
77 *348:111 *688:74 5.90443e-06
78 *348:111 *732:71 0.000210127
79 *1137:A *348:62 5.48581e-05
80 *1144:A1 *1144:C1 5.33005e-05
81 *1174:A1 *348:56 0
82 *1182:B1 *1256:A2 0.000166983
83 *1182:B1 *348:62 0.000769471
84 *1218:A1 *348:56 8.15095e-05
85 *1219:A1 *348:56 0.000148903
86 *1231:A *348:56 0
87 *1231:B *348:56 0
88 *1235:A1 *348:56 2.56694e-05
89 *1251:A2 *348:56 4.87834e-05
90 *1251:B1 *348:62 0.000450615
91 *1256:A1 *1256:A2 0.000184745
92 *1302:A2 *348:44 0.000142082
93 *1303:B2 *348:25 5.03772e-05
94 *1304:B1 *348:10 0.000196649
95 *1320:C1 *348:56 0.000388551
96 *1320:D1 *348:56 0.000257079
97 *1369:A2 *348:111 0.000167375
98 *1373:B1 *1373:A2 9.71197e-05
99 *1373:B1 *348:46 1.38323e-05
100 *1373:B1 *348:88 9.71197e-05
101 *127:29 *348:56 1.30905e-05
102 *149:49 *348:56 0.000170654
103 *151:10 *348:56 5.56557e-05
104 *155:12 *348:56 0
105 *157:14 *348:62 3.34295e-05
106 *158:22 *1144:C1 0.000156589
107 *275:17 *348:10 0.000146254
108 *275:32 *348:10 5.51716e-05
109 *275:32 *348:25 2.19895e-05
110 *276:19 *348:44 9.25014e-06
111 *277:68 *1373:A2 0
112 *277:68 *348:44 0.000429254
113 *277:68 *348:46 9.71197e-05
114 *277:68 *348:88 1.04232e-05
115 *280:6 *348:25 0.00014285
116 *326:72 *1444:B2 0
117 *335:24 *1444:B2 5.33005e-05
118 *337:19 *348:25 0
*RES
1 *997:Y *348:6 11.4786 
2 *348:6 *348:10 11.3036 
3 *348:10 *1301:A2 13.8 
4 *348:10 *348:25 15.0714 
5 *348:25 *1303:A2 9.83571 
6 *348:25 *348:44 19.0179 
7 *348:44 *348:46 1.35714 
8 *348:46 *348:56 41.3571 
9 *348:56 *348:62 26.4286 
10 *348:62 *1144:C1 18.8714 
11 *348:62 *1256:A2 22.3357 
12 *348:46 *348:88 1.375 
13 *348:88 *1373:A2 11.4964 
14 *348:88 *348:111 38.1607 
15 *348:111 *1486:B 23.8 
16 *348:44 *1371:A2 9.3 
17 *348:6 *1444:B2 28.425 
*END

*D_NET *349 0.00206307
*CONN
*I *1399:B I *D sky130_fd_sc_hd__nand2_2
*I *1370:B I *D sky130_fd_sc_hd__nand3_4
*I *1368:A2 I *D sky130_fd_sc_hd__a21oi_2
*I *1366:Y O *D sky130_fd_sc_hd__nand3_4
*CAP
1 *1399:B 0.000175776
2 *1370:B 0.000144186
3 *1368:A2 0
4 *1366:Y 0.000275342
5 *349:19 0.000419217
6 *349:10 0.000374596
7 *1399:B *1397:A2 0
8 *1399:B *1414:B 2.89016e-05
9 *1399:B *353:12 0
10 *349:10 *718:25 0.000269734
11 *349:19 *689:22 0
12 *1363:B1 *1370:B 0.000117392
13 *1366:B *349:10 2.29031e-05
14 *1370:A *1399:B 1.6815e-05
15 *1370:A *349:19 6.82262e-05
16 *1399:A *1399:B 8.30859e-05
17 *1399:A *349:19 4.42522e-05
18 *335:85 *349:10 1.67642e-05
19 *335:85 *349:19 5.87541e-06
*RES
1 *1366:Y *349:10 18.0321 
2 *349:10 *1368:A2 13.8 
3 *349:10 *349:19 2.25 
4 *349:19 *1370:B 16.4071 
5 *349:19 *1399:B 17.4964 
*END

*D_NET *350 0.00768588
*CONN
*I *1369:B1_N I *D sky130_fd_sc_hd__o21bai_4
*I *1370:C I *D sky130_fd_sc_hd__nand3_4
*I *1368:B1 I *D sky130_fd_sc_hd__a21oi_2
*I *1367:Y O *D sky130_fd_sc_hd__o22ai_2
*CAP
1 *1369:B1_N 0.000169151
2 *1370:C 0
3 *1368:B1 0.000157806
4 *1367:Y 0.00202377
5 *350:27 0.00024603
6 *350:12 0.00225846
7 *1369:B1_N *1414:B 0.000138787
8 *1369:B1_N *352:10 9.90367e-05
9 *1369:B1_N *684:10 0
10 *350:12 *995:A 0.000100173
11 *350:12 *1298:A1 1.98839e-05
12 *350:12 *1298:B2 9.21413e-05
13 *350:12 *1300:C 5.0241e-05
14 *350:12 *687:36 1.21258e-05
15 *350:27 *1414:B 6.45442e-05
16 *1305:A *350:12 4.77002e-05
17 *1305:B *350:12 0.000182811
18 *1307:B *350:12 7.62323e-05
19 *1364:A1 *1368:B1 0.000206919
20 *1367:B1 *350:12 0.000153439
21 *1367:B2 *350:12 3.48682e-05
22 *1369:A1 *1369:B1_N 0
23 *1369:A2 *1369:B1_N 0
24 *277:8 *350:12 0.00043575
25 *282:10 *350:12 0.000160207
26 *334:43 *1368:B1 0.000100165
27 *334:43 *350:12 8.41866e-05
28 *335:39 *350:12 0.000771448
*RES
1 *1367:Y *350:12 46.6571 
2 *350:12 *1368:B1 12.7464 
3 *350:12 *350:27 6.14286 
4 *350:27 *1370:C 13.8 
5 *350:27 *1369:B1_N 17.6036 
*END

*D_NET *351 0.00187192
*CONN
*I *1397:A2 I *D sky130_fd_sc_hd__o21ai_2
*I *1368:Y O *D sky130_fd_sc_hd__a21oi_2
*CAP
1 *1397:A2 0.000277048
2 *1368:Y 0.000277048
3 *1397:A2 *1397:A1 1.98839e-05
4 *1397:A2 *1397:B1 5.7661e-06
5 *1397:A2 *352:18 0.000271339
6 *1397:A2 *353:12 0.00028855
7 *1397:A2 *353:18 0.000221517
8 *1397:A2 *689:22 0.000472835
9 *1370:A *1397:A2 3.79336e-05
10 *1399:B *1397:A2 0
*RES
1 *1368:Y *1397:A2 36.8143 
*END

*D_NET *352 0.00488054
*CONN
*I *1375:A1_N I *D sky130_fd_sc_hd__o2bb2ai_4
*I *1668:A I *D sky130_fd_sc_hd__buf_2
*I *1396:A1 I *D sky130_fd_sc_hd__a21boi_4
*I *1377:A I *D sky130_fd_sc_hd__nand3_4
*I *1376:A I *D sky130_fd_sc_hd__and3_4
*I *1369:Y O *D sky130_fd_sc_hd__o21bai_4
*CAP
1 *1375:A1_N 2.47148e-05
2 *1668:A 0
3 *1396:A1 0.000175347
4 *1377:A 0.000137165
5 *1376:A 2.61022e-05
6 *1369:Y 0.000195865
7 *352:29 0.000312512
8 *352:20 5.50349e-05
9 *352:18 0.000807407
10 *352:10 0.000999055
11 *1375:A1_N *1375:B2 0
12 *1375:A1_N *684:10 4.90803e-05
13 *1376:A *1376:C 0.000186662
14 *1376:A *381:10 0.000186662
15 *1377:A *1377:B 0
16 *1377:A *1421:B 0
17 *1377:A *1421:C 0
18 *1377:A *360:12 0
19 *1396:A1 *353:35 0
20 *1396:A1 *353:61 0
21 *1396:A1 *359:10 0
22 *1396:A1 *360:12 0
23 *1396:A1 *715:27 0
24 *352:10 *1414:B 4.70078e-05
25 *352:10 *355:22 1.15281e-05
26 *352:10 *684:10 0.000103253
27 *352:18 *1376:C 0.0002083
28 *352:18 *1397:A1 5.38242e-05
29 *352:18 *1397:B1 5.62995e-05
30 *352:18 *353:18 2.95641e-05
31 *352:18 *381:10 0.000396254
32 *352:20 *1376:C 0.000218045
33 *352:20 *381:10 0.000230482
34 *1369:B1_N *352:10 9.90367e-05
35 *1397:A2 *352:18 0.000271339
*RES
1 *1369:Y *352:10 17.7286 
2 *352:10 *352:18 16.9821 
3 *352:18 *352:20 2.17857 
4 *352:20 *1376:A 11.0679 
5 *352:20 *352:29 4.5 
6 *352:29 *1377:A 16.05 
7 *352:29 *1396:A1 16.6571 
8 *352:18 *1668:A 9.3 
9 *352:10 *1375:A1_N 14.5321 
*END

*D_NET *353 0.0066862
*CONN
*I *1375:A2_N I *D sky130_fd_sc_hd__o2bb2ai_4
*I *1374:A2 I *D sky130_fd_sc_hd__a21oi_2
*I *1396:B1_N I *D sky130_fd_sc_hd__a21boi_4
*I *1376:B I *D sky130_fd_sc_hd__and3_4
*I *1377:B I *D sky130_fd_sc_hd__nand3_4
*I *1397:B1 I *D sky130_fd_sc_hd__o21ai_2
*I *1370:Y O *D sky130_fd_sc_hd__nand3_4
*CAP
1 *1375:A2_N 0
2 *1374:A2 0
3 *1396:B1_N 0.000268954
4 *1376:B 0.000361016
5 *1377:B 0.000128058
6 *1397:B1 3.03213e-05
7 *1370:Y 0.000401869
8 *353:61 0.000350624
9 *353:35 0.000555321
10 *353:33 0.0004536
11 *353:18 0.000400834
12 *353:12 0.0004667
13 *1376:B *1376:C 0.000525265
14 *1377:B *715:27 0.000126439
15 *1396:B1_N *1396:A2 9.90367e-05
16 *1396:B1_N *358:18 0.000261178
17 *1396:B1_N *380:10 9.60939e-05
18 *1397:B1 *381:10 5.71472e-05
19 *353:12 *689:22 1.08359e-05
20 *353:12 *725:20 0.00031119
21 *353:18 *1397:A1 0.00014285
22 *353:18 *358:18 0.000117956
23 *353:33 *1374:A1 5.52302e-05
24 *353:33 *381:10 0.000615963
25 *353:35 *715:27 9.91086e-05
26 *353:61 *715:27 0.000148911
27 *1377:A *1377:B 0
28 *1396:A1 *353:35 0
29 *1396:A1 *353:61 0
30 *1397:A2 *1397:B1 5.7661e-06
31 *1397:A2 *353:12 0.00028855
32 *1397:A2 *353:18 0.000221517
33 *1399:B *353:12 0
34 *352:18 *1397:B1 5.62995e-05
35 *352:18 *353:18 2.95641e-05
*RES
1 *1370:Y *353:12 25.3714 
2 *353:12 *353:18 3.55357 
3 *353:18 *1397:B1 10.675 
4 *353:18 *353:33 11.2143 
5 *353:33 *353:35 1.33929 
6 *353:35 *1377:B 16.3893 
7 *353:35 *1376:B 19.2821 
8 *353:33 *353:61 6.44643 
9 *353:61 *1396:B1_N 15.5857 
10 *353:61 *1374:A2 9.3 
11 *353:12 *1375:A2_N 9.3 
*END

*D_NET *354 0.000322499
*CONN
*I *1375:B1 I *D sky130_fd_sc_hd__o2bb2ai_4
*I *1371:X O *D sky130_fd_sc_hd__o21a_2
*CAP
1 *1375:B1 4.19184e-05
2 *1371:X 4.19184e-05
3 *1375:B1 *1299:C 5.80706e-06
4 *1375:B1 *688:74 7.80929e-05
5 *348:111 *1375:B1 0.000154762
*RES
1 *1371:X *1375:B1 29.5464 
*END

*D_NET *355 0.00847408
*CONN
*I *1374:B1 I *D sky130_fd_sc_hd__a21oi_2
*I *1396:A2 I *D sky130_fd_sc_hd__a21boi_4
*I *1376:C I *D sky130_fd_sc_hd__and3_4
*I *1377:C I *D sky130_fd_sc_hd__nand3_4
*I *1372:X O *D sky130_fd_sc_hd__a31o_2
*CAP
1 *1374:B1 0
2 *1396:A2 0.000193341
3 *1376:C 0.000303142
4 *1377:C 0.000200374
5 *1372:X 0.00150656
6 *355:56 0.000337004
7 *355:35 0.000560476
8 *355:22 0.0018206
9 *1376:C *381:10 0.000116039
10 *1376:C *680:39 2.04825e-05
11 *1396:A2 *358:18 0.000123012
12 *355:22 *1299:A 0
13 *355:22 *1301:A1 4.25716e-05
14 *355:22 *1414:B 0.000694747
15 *355:22 *1536:A 2.89114e-05
16 *355:22 *1573:A 0.000174846
17 *355:22 *564:8 0.000142856
18 *355:22 *732:61 0.000362568
19 *355:22 *732:71 0.000184787
20 *355:35 *1296:A 5.83304e-05
21 *355:35 *1296:B 5.83304e-05
22 *355:35 *680:39 4.88223e-05
23 *355:56 *358:18 0
24 *355:56 *680:39 6.47136e-05
25 *1369:A1 *355:22 0.000129423
26 *1376:A *1376:C 0.000186662
27 *1376:B *1376:C 0.000525265
28 *1396:B1_N *1396:A2 9.90367e-05
29 *273:12 *1377:C 5.33005e-05
30 *352:10 *355:22 1.15281e-05
31 *352:18 *1376:C 0.0002083
32 *352:20 *1376:C 0.000218045
*RES
1 *1372:X *355:22 42.9607 
2 *355:22 *1377:C 12.2107 
3 *355:22 *355:35 7.20536 
4 *355:35 *1376:C 22.6839 
5 *355:35 *355:56 7.20536 
6 *355:56 *1396:A2 13.2643 
7 *355:56 *1374:B1 9.3 
*END

*D_NET *356 0.00138817
*CONN
*I *1397:A1 I *D sky130_fd_sc_hd__o21ai_2
*I *1373:X O *D sky130_fd_sc_hd__o31a_2
*CAP
1 *1397:A1 0.000276352
2 *1373:X 0.000276352
3 *1397:A1 *1375:B2 0
4 *1397:A1 *358:18 0.000618905
5 *1397:A1 *684:10 0
6 *1397:A2 *1397:A1 1.98839e-05
7 *352:18 *1397:A1 5.38242e-05
8 *353:18 *1397:A1 0.00014285
*RES
1 *1373:X *1397:A1 35.1179 
*END

*D_NET *357 0.000680915
*CONN
*I *1380:A1 I *D sky130_fd_sc_hd__o21bai_4
*I *1374:Y O *D sky130_fd_sc_hd__a21oi_2
*CAP
1 *1380:A1 0.000161731
2 *1374:Y 0.000161731
3 *1380:A1 *680:39 0.000128154
4 *1380:A1 *715:27 0.000128154
5 *301:10 *1380:A1 0.000101146
*RES
1 *1374:Y *1380:A1 31.8321 
*END

*D_NET *358 0.00881818
*CONN
*I *1381:B1 I *D sky130_fd_sc_hd__o21ai_2
*I *1428:B1 I *D sky130_fd_sc_hd__o2111ai_2
*I *1379:A1 I *D sky130_fd_sc_hd__a21oi_2
*I *1383:A I *D sky130_fd_sc_hd__nand3_2
*I *1382:A I *D sky130_fd_sc_hd__and3_2
*I *1425:A1 I *D sky130_fd_sc_hd__a32oi_2
*I *1426:A1 I *D sky130_fd_sc_hd__a32o_2
*I *1375:Y O *D sky130_fd_sc_hd__o2bb2ai_4
*CAP
1 *1381:B1 0.000118483
2 *1428:B1 0
3 *1379:A1 0
4 *1383:A 9.62835e-06
5 *1382:A 6.96963e-05
6 *1425:A1 6.50242e-05
7 *1426:A1 0.000133432
8 *1375:Y 0.00147994
9 *358:79 0.000175384
10 *358:45 0.00020269
11 *358:43 0.000204149
12 *358:30 0.000462448
13 *358:26 0.000476621
14 *358:18 0.001811
15 *1381:B1 *359:19 0.000150625
16 *1381:B1 *363:8 0
17 *1382:A *1382:B 1.41029e-05
18 *1382:A *1382:C 0.000104974
19 *1382:A *1383:B 0
20 *1382:A *1439:A3 4.79842e-05
21 *1382:A *406:24 0
22 *1383:A *1383:B 4.27935e-05
23 *1383:A *361:8 5.52302e-05
24 *1425:A1 *1427:B1 4.8843e-05
25 *1425:A1 *1439:A3 6.05161e-06
26 *1426:A1 *1426:A3 5.03772e-05
27 *1426:A1 *360:26 1.02821e-05
28 *1426:A1 *360:32 2.27416e-05
29 *358:18 *1375:B2 3.18676e-05
30 *358:18 *359:10 0.000250208
31 *358:18 *359:19 2.31791e-05
32 *358:18 *360:12 0.000145584
33 *358:18 *689:22 0
34 *358:26 *1380:B1_N 0.000306183
35 *358:26 *360:26 0.00010096
36 *358:26 *406:12 0.000110771
37 *358:30 *1426:A3 2.59355e-05
38 *358:30 *360:26 5.73015e-05
39 *358:43 *1387:B1 2.16719e-05
40 *358:43 *361:14 0.000136754
41 *358:43 *557:10 5.66157e-05
42 *358:43 *557:32 0.000159689
43 *358:45 *1383:B 5.52238e-05
44 *358:45 *1427:B1 3.98662e-05
45 *358:45 *361:8 9.71197e-05
46 *358:79 *359:19 0.000202842
47 *358:79 *360:12 0.00010209
48 *1396:A2 *358:18 0.000123012
49 *1396:B1_N *358:18 0.000261178
50 *1397:A1 *358:18 0.000618905
51 *300:16 *1381:B1 1.07719e-05
52 *353:18 *358:18 0.000117956
53 *355:56 *358:18 0
*RES
1 *1375:Y *358:18 47.1571 
2 *358:18 *358:26 11.3393 
3 *358:26 *358:30 2.91071 
4 *358:30 *1426:A1 11.0679 
5 *358:30 *358:43 12.4643 
6 *358:43 *358:45 1.76786 
7 *358:45 *1425:A1 10.6571 
8 *358:45 *1382:A 20.3714 
9 *358:43 *1383:A 9.83571 
10 *358:26 *1379:A1 9.3 
11 *358:18 *358:79 2.55357 
12 *358:79 *1428:B1 13.8 
13 *358:79 *1381:B1 16.2821 
*END

*D_NET *359 0.00357039
*CONN
*I *1385:A1 I *D sky130_fd_sc_hd__o221ai_4
*I *1384:A1 I *D sky130_fd_sc_hd__o22a_2
*I *1380:A2 I *D sky130_fd_sc_hd__o21bai_4
*I *1376:X O *D sky130_fd_sc_hd__and3_4
*CAP
1 *1385:A1 0.000306259
2 *1384:A1 2.55143e-05
3 *1380:A2 0
4 *1376:X 0.000335919
5 *359:19 0.000640485
6 *359:10 0.000644631
7 *1384:A1 *1384:B1 9.90431e-05
8 *1385:A1 *1388:A1 0
9 *1385:A1 *363:19 0
10 *359:10 *360:12 2.15363e-05
11 *359:10 *380:25 5.52238e-05
12 *359:10 *381:10 9.16074e-05
13 *359:19 *1385:A2 0
14 *359:19 *363:8 0
15 *359:19 *364:10 0
16 *1326:B1 *1385:A1 8.59039e-05
17 *1381:A2 *359:19 5.7599e-05
18 *1381:B1 *359:19 0.000150625
19 *1384:B2 *1384:A1 5.52302e-05
20 *1384:B2 *1385:A1 0.000225314
21 *1385:B1 *1385:A1 0.000142797
22 *1396:A1 *359:10 0
23 *301:10 *359:19 5.80217e-05
24 *302:14 *1385:A1 9.23967e-05
25 *303:8 *1385:A1 6.05161e-06
26 *358:18 *359:10 0.000250208
27 *358:18 *359:19 2.31791e-05
28 *358:79 *359:19 0.000202842
*RES
1 *1376:X *359:10 20.05 
2 *359:10 *1380:A2 13.8 
3 *359:10 *359:19 7.41071 
4 *359:19 *1384:A1 14.7464 
5 *359:19 *1385:A1 21.3714 
*END

*D_NET *360 0.00458441
*CONN
*I *1428:C1 I *D sky130_fd_sc_hd__o2111ai_2
*I *1383:C I *D sky130_fd_sc_hd__nand3_2
*I *1379:A2 I *D sky130_fd_sc_hd__a21oi_2
*I *1426:A2 I *D sky130_fd_sc_hd__a32o_2
*I *1382:C I *D sky130_fd_sc_hd__and3_2
*I *1425:A2 I *D sky130_fd_sc_hd__a32oi_2
*I *1377:Y O *D sky130_fd_sc_hd__nand3_4
*CAP
1 *1428:C1 0
2 *1383:C 2.23854e-05
3 *1379:A2 0
4 *1426:A2 0
5 *1382:C 0.000136123
6 *1425:A2 0
7 *1377:Y 0.000486579
8 *360:32 0.000280107
9 *360:26 0.000258772
10 *360:24 0.000252381
11 *360:16 0.000296215
12 *360:12 0.000622816
13 *1382:C *1382:B 9.30022e-05
14 *1382:C *1439:A3 0
15 *1382:C *361:14 5.7616e-05
16 *1382:C *414:31 5.33005e-05
17 *1383:C *1383:B 0
18 *360:12 *1421:B 0.000200406
19 *360:12 *363:8 4.94362e-05
20 *360:12 *380:10 0.00012401
21 *360:12 *406:8 0
22 *360:16 *1428:D1 9.71197e-05
23 *360:16 *361:8 0.000189335
24 *360:16 *414:8 0.000186379
25 *360:24 *1428:D1 0
26 *360:24 *1429:B1 4.03318e-05
27 *360:24 *361:8 2.89114e-05
28 *360:24 *406:8 0
29 *360:24 *414:8 2.89114e-05
30 *360:24 *414:31 2.19778e-05
31 *360:26 *1426:A3 0.000137983
32 *360:26 *406:12 0.000230626
33 *360:32 *1427:B1 0
34 *360:32 *1439:A3 1.19402e-05
35 *360:32 *361:14 8.33655e-05
36 *360:32 *406:12 2.89114e-05
37 *360:32 *406:24 0
38 *1377:A *360:12 0
39 *1382:A *1382:C 0.000104974
40 *1396:A1 *360:12 0
41 *1426:A1 *360:26 1.02821e-05
42 *1426:A1 *360:32 2.27416e-05
43 *358:18 *360:12 0.000145584
44 *358:26 *360:26 0.00010096
45 *358:30 *360:26 5.73015e-05
46 *358:79 *360:12 0.00010209
47 *359:10 *360:12 2.15363e-05
*RES
1 *1377:Y *360:12 28.7821 
2 *360:12 *360:16 4.66071 
3 *360:16 *360:24 11.7857 
4 *360:24 *360:26 4.23214 
5 *360:26 *360:32 7.28571 
6 *360:32 *1425:A2 13.8 
7 *360:32 *1382:C 16.8179 
8 *360:26 *1426:A2 9.3 
9 *360:24 *1379:A2 9.3 
10 *360:16 *1383:C 9.72857 
11 *360:12 *1428:C1 9.3 
*END

*D_NET *361 0.0050937
*CONN
*I *1382:B I *D sky130_fd_sc_hd__and3_2
*I *1380:B1_N I *D sky130_fd_sc_hd__o21bai_4
*I *1614:A I *D sky130_fd_sc_hd__buf_2
*I *1378:X O *D sky130_fd_sc_hd__a21o_4
*CAP
1 *1382:B 0.000168328
2 *1380:B1_N 0.0002874
3 *1614:A 0
4 *1378:X 0.000812151
5 *361:14 0.000626362
6 *361:8 0.00131944
7 *1380:B1_N *1429:B1 6.42338e-05
8 *1380:B1_N *406:8 0
9 *1382:B *1387:B1 0
10 *1382:B *1439:A3 0
11 *1382:B *366:25 0
12 *361:8 *1383:B 4.13496e-05
13 *361:8 *1428:D1 9.71197e-05
14 *361:8 *414:8 3.47797e-05
15 *361:14 *1427:A2 0
16 *361:14 *1429:B1 0.000274294
17 *361:14 *557:10 2.28335e-05
18 *1382:A *1382:B 1.41029e-05
19 *1382:C *1382:B 9.30022e-05
20 *1382:C *361:14 5.7616e-05
21 *1383:A *361:8 5.52302e-05
22 *1428:A1 *361:8 5.52238e-05
23 *291:18 *361:8 0.000228558
24 *358:26 *1380:B1_N 0.000306183
25 *358:43 *361:14 0.000136754
26 *358:45 *361:8 9.71197e-05
27 *360:16 *361:8 0.000189335
28 *360:24 *361:8 2.89114e-05
29 *360:32 *361:14 8.33655e-05
*RES
1 *1378:X *361:8 27.8893 
2 *361:8 *361:14 12.7857 
3 *361:14 *1614:A 9.3 
4 *361:14 *1380:B1_N 24.2107 
5 *361:8 *1382:B 16.6571 
*END

*D_NET *362 0.000781423
*CONN
*I *1387:B1 I *D sky130_fd_sc_hd__o22ai_2
*I *1379:Y O *D sky130_fd_sc_hd__a21oi_2
*CAP
1 *1387:B1 0.000172725
2 *1379:Y 0.000172725
3 *1387:B1 *1429:B1 4.56498e-05
4 *1387:B1 *366:25 0.000245364
5 *1387:B1 *557:32 0.000123288
6 *1382:B *1387:B1 0
7 *358:43 *1387:B1 2.16719e-05
*RES
1 *1379:Y *1387:B1 31.975 
*END

*D_NET *363 0.00435509
*CONN
*I *1388:A2 I *D sky130_fd_sc_hd__a21oi_4
*I *1385:C1 I *D sky130_fd_sc_hd__o221ai_4
*I *1386:B1 I *D sky130_fd_sc_hd__a2bb2oi_2
*I *1380:Y O *D sky130_fd_sc_hd__o21bai_4
*CAP
1 *1388:A2 0.000247898
2 *1385:C1 0
3 *1386:B1 0.000268645
4 *1380:Y 0.000327146
5 *363:19 0.000405342
6 *363:8 0.000753235
7 *1386:B1 *370:10 4.01768e-05
8 *1388:A2 *1388:A1 0.000975652
9 *363:8 *1428:D1 7.2754e-05
10 *363:8 *406:8 4.46186e-06
11 *363:19 *1388:A1 0.00034421
12 *1333:A2 *1388:A2 0.000224583
13 *1334:B2 *1388:A2 0.000125057
14 *1341:B1 *1388:A2 0.000105028
15 *1341:B1 *363:19 5.80706e-06
16 *1381:B1 *363:8 0
17 *1385:A1 *363:19 0
18 *1386:A1_N *1386:B1 9.90367e-05
19 *1387:A2 *363:8 6.04162e-05
20 *1387:A2 *363:19 9.11365e-06
21 *214:24 *1388:A2 0.000111442
22 *306:26 *363:19 0
23 *321:8 *363:19 0.000125649
24 *359:19 *363:8 0
25 *360:12 *363:8 4.94362e-05
*RES
1 *1380:Y *363:8 20.3 
2 *363:8 *1386:B1 18.4429 
3 *363:8 *363:19 5.28571 
4 *363:19 *1385:C1 13.8 
5 *363:19 *1388:A2 24.1929 
*END

*D_NET *364 0.0018993
*CONN
*I *1385:A2 I *D sky130_fd_sc_hd__o221ai_4
*I *1384:A2 I *D sky130_fd_sc_hd__o22a_2
*I *1381:Y O *D sky130_fd_sc_hd__o21ai_2
*CAP
1 *1385:A2 0.000224943
2 *1384:A2 0.000198355
3 *1381:Y 0.000138615
4 *364:10 0.000561913
5 *1384:A2 *1384:B1 0.000144773
6 *1385:A2 *715:27 0
7 *1329:B1 *1385:A2 7.17603e-05
8 *1333:A2 *1385:A2 8.08022e-05
9 *1381:A2 *364:10 7.43578e-06
10 *1601:A *1385:A2 0.000177234
11 *300:16 *364:10 0.00014285
12 *303:10 *1385:A2 0.000150618
13 *359:19 *1385:A2 0
14 *359:19 *364:10 0
*RES
1 *1381:Y *364:10 16.4964 
2 *364:10 *1384:A2 16.3893 
3 *364:10 *1385:A2 19.6929 
*END

*D_NET *365 0.000436339
*CONN
*I *1387:B2 I *D sky130_fd_sc_hd__o22ai_2
*I *1382:X O *D sky130_fd_sc_hd__and3_2
*CAP
1 *1387:B2 8.09492e-05
2 *1382:X 8.09492e-05
3 *1387:B2 *371:8 0.000196066
4 *1387:B2 *414:31 6.86693e-05
5 *1387:A2 *1387:B2 9.7049e-06
*RES
1 *1382:X *1387:B2 21.225 
*END

*D_NET *366 0.00402497
*CONN
*I *1436:A1 I *D sky130_fd_sc_hd__a21oi_2
*I *1386:B2 I *D sky130_fd_sc_hd__a2bb2oi_2
*I *1427:B1 I *D sky130_fd_sc_hd__a21oi_2
*I *1383:Y O *D sky130_fd_sc_hd__nand3_2
*CAP
1 *1436:A1 0.000502297
2 *1386:B2 0
3 *1427:B1 0.000591158
4 *1383:Y 0
5 *366:25 0.000803406
6 *366:4 0.000892267
7 *1427:B1 *1383:B 1.98839e-05
8 *1427:B1 *1439:A3 5.52302e-05
9 *1427:B1 *1455:A 0.000116824
10 *1427:B1 *406:24 0.000107267
11 *1427:B1 *407:12 7.43578e-06
12 *1427:B1 *407:14 0.000101441
13 *1427:B1 *557:32 9.60875e-05
14 *1436:A1 *1433:C1 7.27183e-05
15 *1436:A1 *1439:A3 0
16 *366:25 *1383:B 2.59355e-05
17 *366:25 *1429:B1 9.25014e-06
18 *366:25 *1439:A3 0
19 *366:25 *414:31 0.000211927
20 *1325:A *1436:A1 7.77652e-05
21 *1382:B *366:25 0
22 *1387:A1 *366:25 0
23 *1387:B1 *366:25 0.000245364
24 *1425:A1 *1427:B1 4.8843e-05
25 *300:16 *1436:A1 0
26 *300:16 *366:25 0
27 *358:45 *1427:B1 3.98662e-05
28 *360:32 *1427:B1 0
*RES
1 *1383:Y *366:4 9.3 
2 *366:4 *1427:B1 27.9964 
3 *366:4 *366:25 10.9286 
4 *366:25 *1386:B2 13.8 
5 *366:25 *1436:A1 22.05 
*END

*D_NET *367 0.0035207
*CONN
*I *1388:A1 I *D sky130_fd_sc_hd__a21oi_4
*I *1384:X O *D sky130_fd_sc_hd__o22a_2
*CAP
1 *1388:A1 0.000938724
2 *1384:X 0.000938724
3 *1326:B1 *1388:A1 0.00025597
4 *1333:A1 *1388:A1 9.25014e-06
5 *1333:A2 *1388:A1 1.98839e-05
6 *1334:B2 *1388:A1 3.14193e-05
7 *1341:B1 *1388:A1 6.8646e-06
8 *1385:A1 *1388:A1 0
9 *1388:A2 *1388:A1 0.000975652
10 *363:19 *1388:A1 0.00034421
*RES
1 *1384:X *1388:A1 45.3321 
*END

*D_NET *368 0.00456616
*CONN
*I *1436:A2 I *D sky130_fd_sc_hd__a21oi_2
*I *1616:A I *D sky130_fd_sc_hd__buf_2
*I *1437:D1 I *D sky130_fd_sc_hd__o2111a_2
*I *1385:Y O *D sky130_fd_sc_hd__o221ai_4
*CAP
1 *1436:A2 0
2 *1616:A 6.1769e-05
3 *1437:D1 0.000335357
4 *1385:Y 0.000948621
5 *368:12 0.000498034
6 *368:10 0.00104953
7 *1437:D1 *1424:A 0.000155893
8 *1437:D1 *1431:A2 0.000261854
9 *1437:D1 *1437:C1 0.000354049
10 *1437:D1 *1439:A3 0.000129185
11 *1437:D1 *412:12 0.000223294
12 *1437:D1 *414:31 0.000120716
13 *368:10 *1388:B1 0.000117189
14 *368:10 *1434:B2 0
15 *368:10 *1439:A3 2.79421e-05
16 *368:10 *370:10 3.34295e-05
17 *368:12 *1439:A3 2.59093e-05
18 *368:12 *370:10 0.000127446
19 *1326:A1 *368:10 7.49499e-05
20 *1341:A3 *368:10 7.52646e-06
21 *302:14 *368:10 1.34703e-05
*RES
1 *1385:Y *368:10 25.7286 
2 *368:10 *368:12 2.25 
3 *368:12 *1437:D1 23.675 
4 *368:12 *1616:A 14.7464 
5 *368:10 *1436:A2 13.8 
*END

*D_NET *369 0.0041625
*CONN
*I *1499:A1 I *D sky130_fd_sc_hd__a22oi_2
*I *1007:C_N I *D sky130_fd_sc_hd__or3b_4
*I *1001:A I *D sky130_fd_sc_hd__nor2_2
*I *999:X O *D sky130_fd_sc_hd__and3_2
*CAP
1 *1499:A1 0.000250763
2 *1007:C_N 0
3 *1001:A 2.36895e-05
4 *999:X 0.00040669
5 *369:21 0.000631568
6 *369:10 0.000811185
7 *1001:A *675:44 5.52238e-05
8 *1499:A1 *1006:B 2.84398e-05
9 *1499:A1 *1029:A 0
10 *1499:A1 *1500:A 0.000446747
11 *1499:A1 *641:50 0.000640151
12 *369:10 *1029:A 0
13 *369:10 *1160:A1 0.00048746
14 *369:10 *701:41 6.19181e-05
15 *369:21 *1006:B 0.000174825
16 *369:21 *1014:B1 5.57727e-05
17 *369:21 *1029:A 0
18 *369:21 *675:18 0
19 *369:21 *701:41 8.80655e-05
*RES
1 *999:X *369:10 20.0857 
2 *369:10 *1001:A 14.3357 
3 *369:10 *369:21 7.41071 
4 *369:21 *1007:C_N 13.8 
5 *369:21 *1499:A1 21.2464 
*END

*D_NET *370 0.00283682
*CONN
*I *1388:B1 I *D sky130_fd_sc_hd__a21oi_4
*I *1433:C1 I *D sky130_fd_sc_hd__a311oi_2
*I *1386:Y O *D sky130_fd_sc_hd__a2bb2oi_2
*CAP
1 *1388:B1 0.000232806
2 *1433:C1 0.00018448
3 *1386:Y 0.000551929
4 *370:10 0.000969214
5 *1388:B1 *1434:B2 0
6 *1388:B1 *1439:A2 3.85226e-05
7 *1388:B1 *1439:A3 0.000198698
8 *1433:C1 *1439:B1 3.23672e-05
9 *370:10 *1439:A3 0.000148911
10 *1386:B1 *370:10 4.01768e-05
11 *1436:A1 *1433:C1 7.27183e-05
12 *1439:A4 *1388:B1 8.89385e-05
13 *368:10 *1388:B1 0.000117189
14 *368:10 *370:10 3.34295e-05
15 *368:12 *370:10 0.000127446
*RES
1 *1386:Y *370:10 21.6214 
2 *370:10 *1433:C1 17.2107 
3 *370:10 *1388:B1 19.8357 
*END

*D_NET *371 0.00295611
*CONN
*I *1434:B1 I *D sky130_fd_sc_hd__a22oi_2
*I *1437:B1 I *D sky130_fd_sc_hd__o2111a_2
*I *1387:Y O *D sky130_fd_sc_hd__o22ai_2
*CAP
1 *1434:B1 0.000148871
2 *1437:B1 6.93935e-05
3 *1387:Y 0.000525224
4 *371:8 0.000743488
5 *1434:B1 *1434:A1 5.25372e-05
6 *1434:B1 *1434:A2 0.000146474
7 *1434:B1 *1434:B2 7.66552e-05
8 *1434:B1 *559:10 0.000139202
9 *1437:B1 *1431:A2 7.66459e-05
10 *1437:B1 *1437:A2 5.65955e-05
11 *1437:B1 *414:31 1.67495e-05
12 *371:8 *414:31 0.000702445
13 *1387:A2 *371:8 5.7661e-06
14 *1387:B2 *371:8 0.000196066
*RES
1 *1387:Y *371:8 19.7107 
2 *371:8 *1437:B1 11.0857 
3 *371:8 *1434:B1 22.0321 
*END

*D_NET *372 0.00239697
*CONN
*I *1393:B1 I *D sky130_fd_sc_hd__a21oi_2
*I *1394:C1 I *D sky130_fd_sc_hd__o2111ai_2
*I *1439:A2 I *D sky130_fd_sc_hd__a41oi_4
*I *1388:Y O *D sky130_fd_sc_hd__a21oi_4
*CAP
1 *1393:B1 0.000306305
2 *1394:C1 4.88261e-05
3 *1439:A2 0.00026113
4 *1388:Y 0
5 *372:29 0.000733695
6 *372:6 0.000639694
7 *1394:C1 *1394:B1 3.41517e-06
8 *1394:C1 *1395:B 0
9 *1394:C1 *374:20 3.99614e-06
10 *1439:A2 *1434:B2 0
11 *1439:A2 *1439:A3 5.65955e-05
12 *1439:A2 *604:33 0
13 *372:29 *1394:B1 4.73286e-05
14 *1388:B1 *1439:A2 3.85226e-05
15 *1394:A2 *1394:C1 1.83053e-05
16 *1394:A2 *372:29 0.000128162
17 *243:30 *1393:B1 6.5185e-05
18 *243:36 *1393:B1 4.58096e-05
*RES
1 *1388:Y *372:6 13.8 
2 *372:6 *1439:A2 18.8 
3 *372:6 *372:29 11.0893 
4 *372:29 *1394:C1 10.2643 
5 *372:29 *1393:B1 23.4429 
*END

*D_NET *373 0.000961522
*CONN
*I *1438:D I *D sky130_fd_sc_hd__nand4_4
*I *1389:X O *D sky130_fd_sc_hd__o2111a_2
*CAP
1 *1438:D 0.000375409
2 *1389:X 0.000375409
3 *1438:D *1438:B 0
4 *1438:D *1438:C 1.02504e-05
5 *1438:D *374:12 0
6 *1438:D *376:14 0.000100831
7 *1438:D *424:10 9.96238e-05
*RES
1 *1389:X *1438:D 34.1536 
*END

*D_NET *374 0.00505078
*CONN
*I *1393:A2 I *D sky130_fd_sc_hd__a21oi_2
*I *1394:D1 I *D sky130_fd_sc_hd__o2111ai_2
*I *1432:D1 I *D sky130_fd_sc_hd__o2111ai_2
*I *1433:A1 I *D sky130_fd_sc_hd__a311oi_2
*I *1390:Y O *D sky130_fd_sc_hd__nand4_4
*CAP
1 *1393:A2 0
2 *1394:D1 0
3 *1432:D1 0
4 *1433:A1 0.000274664
5 *1390:Y 0.000684825
6 *374:26 0.000402585
7 *374:20 0.000513647
8 *374:12 0.00107055
9 *1433:A1 *1391:B 0.000136951
10 *1433:A1 *1432:B1 0
11 *1433:A1 *1432:C1 0.00036496
12 *1433:A1 *1435:B 5.49544e-05
13 *1433:A1 *1439:B1 3.08664e-05
14 *1433:A1 *559:10 1.02504e-05
15 *374:12 *1340:A 2.32625e-05
16 *374:12 *1438:C 5.52238e-05
17 *374:12 *424:10 0.000518467
18 *374:20 *1394:B1 0
19 *374:20 *1395:A_N 2.56601e-05
20 *374:20 *1395:B 2.97021e-05
21 *374:20 *1580:A 9.60875e-05
22 *374:20 *424:10 0.000150618
23 *374:26 *1433:A3 0
24 *374:26 *1438:B 0.000224599
25 *1391:A *1433:A1 5.27816e-05
26 *1394:C1 *374:20 3.99614e-06
27 *1432:A2 *1433:A1 1.98839e-05
28 *1438:D *374:12 0
29 *1642:A *374:12 5.71472e-05
30 *1662:A *374:12 0.000249097
31 *243:30 *374:12 0
*RES
1 *1390:Y *374:12 29.2286 
2 *374:12 *374:20 10.5893 
3 *374:20 *374:26 11.8571 
4 *374:26 *1433:A1 25.3 
5 *374:26 *1432:D1 9.3 
6 *374:20 *1394:D1 9.3 
7 *374:12 *1393:A2 13.8 
*END

*D_NET *375 0.000686619
*CONN
*I *1439:A1 I *D sky130_fd_sc_hd__a41oi_4
*I *1391:Y O *D sky130_fd_sc_hd__nand2_2
*CAP
1 *1439:A1 0.00029258
2 *1391:Y 0.00029258
3 *1439:A1 *1433:A3 0
4 *1439:A1 *1438:B 5.26184e-05
5 *1439:A1 *425:12 4.884e-05
*RES
1 *1391:Y *1439:A1 32.5464 
*END

*D_NET *376 0.00330724
*CONN
*I *1393:A1 I *D sky130_fd_sc_hd__a21oi_2
*I *1433:A3 I *D sky130_fd_sc_hd__a311oi_2
*I *1392:X O *D sky130_fd_sc_hd__o31a_4
*CAP
1 *1393:A1 0
2 *1433:A3 0.000569002
3 *1392:X 0.000391597
4 *376:14 0.000960598
5 *1433:A3 *1435:A 5.52238e-05
6 *1433:A3 *1435:B 6.87476e-05
7 *1433:A3 *1438:B 0
8 *1433:A3 *1439:B1 1.24368e-05
9 *1433:A3 *1581:A 1.92905e-05
10 *1433:A3 *424:10 0.000800202
11 *376:14 *1395:A_N 6.05161e-06
12 *376:14 *1438:B 0
13 *376:14 *424:10 0
14 *376:14 *604:8 0.000225609
15 *1438:D *376:14 0.000100831
16 *1439:A1 *1433:A3 0
17 *1656:A *376:14 9.76491e-05
18 *374:26 *1433:A3 0
*RES
1 *1392:X *376:14 26.5143 
2 *376:14 *1433:A3 31.4607 
3 *376:14 *1393:A1 9.3 
*END

*D_NET *377 0.00062966
*CONN
*I *1395:A_N I *D sky130_fd_sc_hd__nand2b_4
*I *1393:Y O *D sky130_fd_sc_hd__a21oi_2
*CAP
1 *1395:A_N 0.000298974
2 *1393:Y 0.000298974
3 *1395:A_N *1580:A 0
4 *1395:A_N *424:10 0
5 *374:20 *1395:A_N 2.56601e-05
6 *376:14 *1395:A_N 6.05161e-06
*RES
1 *1393:Y *1395:A_N 31.4214 
*END

*D_NET *378 0.000193509
*CONN
*I *1395:B I *D sky130_fd_sc_hd__nand2b_4
*I *1394:Y O *D sky130_fd_sc_hd__o2111ai_2
*CAP
1 *1395:B 8.19034e-05
2 *1394:Y 8.19034e-05
3 *1394:C1 *1395:B 0
4 *374:20 *1395:B 2.97021e-05
*RES
1 *1394:Y *1395:B 19.975 
*END

*D_NET *379 0.00137882
*CONN
*I *1001:B I *D sky130_fd_sc_hd__nor2_2
*I *1000:Y O *D sky130_fd_sc_hd__a22oi_2
*CAP
1 *1001:B 0.000255949
2 *1000:Y 0.000255949
3 *1001:B *1000:A2 0.00013767
4 *1001:B *1008:A2 1.02936e-05
5 *1001:B *1008:A3 0.000105139
6 *1001:B *1008:B1 5.33334e-05
7 *1001:B *1586:A 0.0003353
8 *1001:B *675:18 5.33005e-05
9 *1001:B *675:44 6.22009e-05
10 *1001:B *734:87 7.36008e-05
11 *1001:B *734:96 3.60837e-05
*RES
1 *1000:Y *1001:B 26.8321 
*END

*D_NET *380 0.00849978
*CONN
*I *1427:A2 I *D sky130_fd_sc_hd__a21oi_2
*I *1457:A1 I *D sky130_fd_sc_hd__o21a_2
*I *1458:A1 I *D sky130_fd_sc_hd__o21ai_2
*I *1421:B I *D sky130_fd_sc_hd__nand3_2
*I *1396:Y O *D sky130_fd_sc_hd__a21boi_4
*CAP
1 *1427:A2 0.000717272
2 *1457:A1 0.00072096
3 *1458:A1 0.000447757
4 *1421:B 0.000151849
5 *1396:Y 0.000121977
6 *380:36 0.00143823
7 *380:25 0.000867926
8 *380:10 0.000693995
9 *1421:B *1421:A 0
10 *1421:B *1421:C 4.46186e-06
11 *1421:B *406:8 0
12 *1427:A2 *1427:A1 5.20187e-05
13 *1427:A2 *1429:A1 7.34455e-06
14 *1427:A2 *1455:A 0.000306317
15 *1427:A2 *406:24 3.06878e-06
16 *1427:A2 *407:12 0.000314547
17 *1427:A2 *407:14 0.000174651
18 *1457:A1 *1422:C 0
19 *1457:A1 *1429:A1 2.94103e-05
20 *1457:A1 *1452:B1 9.15842e-06
21 *1457:A1 *1457:A2 7.83179e-05
22 *1457:A1 *399:10 7.62237e-05
23 *1457:A1 *399:25 0
24 *1457:A1 *402:10 0
25 *1458:A1 *1454:A 0.000690405
26 *1458:A1 *1454:D 2.14658e-05
27 *1458:A1 *1462:B 0
28 *1458:A1 *381:10 7.60511e-05
29 *1458:A1 *381:12 6.7e-06
30 *1458:A1 *440:25 1.21258e-05
31 *380:10 *406:8 0
32 *380:25 *381:10 0.00100181
33 *1377:A *1421:B 0
34 *1396:B1_N *380:10 9.60939e-05
35 *359:10 *380:25 5.52238e-05
36 *360:12 *1421:B 0.000200406
37 *360:12 *380:10 0.00012401
38 *361:14 *1427:A2 0
*RES
1 *1396:Y *380:10 16.3893 
2 *380:10 *1421:B 17.1929 
3 *380:10 *380:25 14.0714 
4 *380:25 *1458:A1 17.9607 
5 *380:25 *380:36 4.5 
6 *380:36 *1457:A1 25.925 
7 *380:36 *1427:A2 25.6571 
*END

*D_NET *381 0.00528805
*CONN
*I *1422:A I *D sky130_fd_sc_hd__nand3_2
*I *1429:A1 I *D sky130_fd_sc_hd__a31o_2
*I *1454:D I *D sky130_fd_sc_hd__and4_2
*I *1397:Y O *D sky130_fd_sc_hd__o21ai_2
*CAP
1 *1422:A 0
2 *1429:A1 9.02763e-05
3 *1454:D 6.47601e-05
4 *1397:Y 0.000708066
5 *381:12 0.000158241
6 *381:10 0.00071127
7 *1429:A1 *1429:A2 0.000140021
8 *1429:A1 *407:12 0.00020455
9 *1454:D *1422:B 4.72917e-05
10 *1454:D *1454:A 0.000181996
11 *1454:D *1454:C 9.58126e-05
12 *381:10 *1422:B 4.80309e-05
13 *381:12 *1422:B 7.9669e-07
14 *1376:A *381:10 0.000186662
15 *1376:C *381:10 0.000116039
16 *1397:B1 *381:10 5.71472e-05
17 *1427:A2 *1429:A1 7.34455e-06
18 *1457:A1 *1429:A1 2.94103e-05
19 *1458:A1 *1454:D 2.14658e-05
20 *1458:A1 *381:10 7.60511e-05
21 *1458:A1 *381:12 6.7e-06
22 *352:18 *381:10 0.000396254
23 *352:20 *381:10 0.000230482
24 *353:33 *381:10 0.000615963
25 *359:10 *381:10 9.16074e-05
26 *380:25 *381:10 0.00100181
*RES
1 *1397:Y *381:10 31.733 
2 *381:10 *381:12 0.138393 
3 *381:12 *1454:D 11.4786 
4 *381:12 *1429:A1 21.7643 
5 *381:10 *1422:A 9.3 
*END

*D_NET *382 0.00112812
*CONN
*I *1413:C I *D sky130_fd_sc_hd__nand3_4
*I *1398:Y O *D sky130_fd_sc_hd__a21boi_2
*CAP
1 *1413:C 0.000378174
2 *1398:Y 0.000378174
3 *1413:C *1414:B 0.000164076
4 *1413:C *684:10 0
5 *1413:C *718:10 0
6 *1413:C *718:25 0
7 *334:43 *1413:C 2.85321e-05
8 *335:68 *1413:C 5.50052e-05
9 *348:111 *1413:C 0.000124157
*RES
1 *1398:Y *1413:C 35.2429 
*END

*D_NET *383 0.00258873
*CONN
*I *1414:B I *D sky130_fd_sc_hd__nand3_4
*I *1399:Y O *D sky130_fd_sc_hd__nand2_2
*CAP
1 *1414:B 0.000623945
2 *1399:Y 0.000623945
3 *1414:B *684:10 0
4 *1414:B *718:25 6.80587e-05
5 *1363:A2 *1414:B 8.94186e-05
6 *1369:A1 *1414:B 4.53031e-05
7 *1369:B1_N *1414:B 0.000138787
8 *1399:B *1414:B 2.89016e-05
9 *1413:C *1414:B 0.000164076
10 *334:39 *1414:B 0
11 *350:27 *1414:B 6.45442e-05
12 *352:10 *1414:B 4.70078e-05
13 *355:22 *1414:B 0.000694747
*RES
1 *1399:Y *1414:B 43.5286 
*END

*D_NET *384 0.00425234
*CONN
*I *1402:A1_N I *D sky130_fd_sc_hd__o2bb2ai_2
*I *1446:A1 I *D sky130_fd_sc_hd__a211o_2
*I *1403:D I *D sky130_fd_sc_hd__nand4_4
*I *1445:B1 I *D sky130_fd_sc_hd__o211ai_2
*I *1400:Y O *D sky130_fd_sc_hd__nand4_4
*CAP
1 *1402:A1_N 0.000143565
2 *1446:A1 0.000249961
3 *1403:D 2.46036e-05
4 *1445:B1 0.000137856
5 *1400:Y 0
6 *384:28 0.000428248
7 *384:17 0.000158364
8 *384:4 0.000236895
9 *1402:A1_N *1441:A 9.91086e-05
10 *1402:A1_N *1442:B2 9.47028e-05
11 *1402:A1_N *1443:D 1.37292e-05
12 *1402:A1_N *386:8 0.000139913
13 *1402:A1_N *428:12 2.78509e-05
14 *1402:A1_N *618:88 6.50156e-05
15 *1403:D *1403:C 9.60939e-05
16 *1403:D *1441:C 9.60939e-05
17 *1445:B1 *1400:B 0.000102197
18 *1445:B1 *1445:A1 0.000154027
19 *1445:B1 *712:42 0.000318101
20 *1445:B1 *712:70 0.000274294
21 *1446:A1 *1403:A 0.000183713
22 *1446:A1 *1403:C 5.52238e-05
23 *1446:A1 *1441:C 5.38388e-05
24 *1446:A1 *1446:C1 1.6339e-05
25 *1446:A1 *387:8 0.000311523
26 *1446:A1 *387:27 1.00733e-05
27 *1446:A1 *561:16 6.32973e-05
28 *384:17 *1441:A 0.000190178
29 *384:17 *618:88 7.92446e-05
30 *384:28 *1441:A 5.31158e-05
31 *384:28 *618:88 2.50479e-05
32 *335:24 *1446:A1 0.00035013
*RES
1 *1400:Y *384:4 9.3 
2 *384:4 *1445:B1 15.1929 
3 *384:4 *384:17 7.05357 
4 *384:17 *1403:D 14.7464 
5 *384:17 *384:28 0.732143 
6 *384:28 *1446:A1 21.6393 
7 *384:28 *1402:A1_N 17.5143 
*END

*D_NET *385 0.00177045
*CONN
*I *1402:A2_N I *D sky130_fd_sc_hd__o2bb2ai_2
*I *1403:A I *D sky130_fd_sc_hd__nand4_4
*I *1401:X O *D sky130_fd_sc_hd__a22o_2
*CAP
1 *1402:A2_N 0
2 *1403:A 0.000143968
3 *1401:X 0.00012102
4 *385:10 0.000264988
5 *1403:A *1400:B 0.000191914
6 *1403:A *1403:B 3.08382e-06
7 *1403:A *1441:C 2.89114e-05
8 *1403:A *561:16 7.77652e-05
9 *1403:A *712:30 3.06466e-05
10 *1403:A *712:34 0.000166503
11 *385:10 *1400:B 0.000142969
12 *385:10 *1401:A2 1.46968e-05
13 *385:10 *429:8 9.60875e-05
14 *385:10 *687:6 2.24422e-05
15 *385:10 *687:25 6.98302e-05
16 *385:10 *712:28 5.66157e-05
17 *385:10 *712:30 0.000155293
18 *1446:A1 *1403:A 0.000183713
*RES
1 *1401:X *385:10 17.6036 
2 *385:10 *1403:A 18.55 
3 *385:10 *1402:A2_N 13.8 
*END

*D_NET *386 0.00772798
*CONN
*I *1407:A I *D sky130_fd_sc_hd__and3_2
*I *1405:A1 I *D sky130_fd_sc_hd__a21oi_2
*I *1408:A I *D sky130_fd_sc_hd__nand3_2
*I *1406:A1 I *D sky130_fd_sc_hd__a21o_2
*I *1447:A1 I *D sky130_fd_sc_hd__a32o_2
*I *1402:Y O *D sky130_fd_sc_hd__o2bb2ai_2
*CAP
1 *1407:A 0.000151592
2 *1405:A1 0.000755776
3 *1408:A 0
4 *1406:A1 0
5 *1447:A1 0.000254482
6 *1402:Y 0.000271162
7 *386:42 0.00114152
8 *386:34 0.000637738
9 *386:21 0.000113414
10 *386:8 0.000538659
11 *1405:A1 *1405:A2 0.000771076
12 *1405:A1 *1413:B 1.85443e-05
13 *1405:A1 *1440:A 5.33072e-05
14 *1405:A1 *387:39 3.57315e-05
15 *1405:A1 *390:10 7.48927e-06
16 *1405:A1 *392:6 2.27416e-05
17 *1405:A1 *618:58 5.15925e-05
18 *1407:A *1361:A2 5.50052e-05
19 *1407:A *1407:C 0.000392339
20 *1407:A *1464:B1 5.50052e-05
21 *1407:A *1501:A 0.000195564
22 *1407:A *686:12 0.000100007
23 *1447:A1 *1445:C1 5.31122e-05
24 *1447:A1 *387:10 7.41847e-05
25 *1447:A1 *387:27 0.000213172
26 *1447:A1 *387:39 5.52238e-05
27 *1447:A1 *387:75 9.30093e-05
28 *1447:A1 *686:12 0.000219599
29 *386:8 *1442:A1 0.000226835
30 *386:8 *1442:A2 1.51021e-05
31 *386:8 *1442:B2 2.05612e-05
32 *386:8 *428:12 0.000564387
33 *386:8 *690:55 7.56296e-05
34 *386:21 *387:75 5.71263e-05
35 *386:21 *686:12 4.85835e-05
36 *386:34 *1407:B 1.1594e-05
37 *386:34 *387:75 9.54798e-06
38 *386:34 *388:16 2.34389e-05
39 *386:34 *686:12 1.1594e-05
40 *386:42 *388:16 1.60489e-05
41 *386:42 *390:24 0.000161433
42 *386:42 *566:29 0
43 *386:42 *684:10 0
44 *386:42 *718:10 5.58875e-06
45 *1402:A1_N *386:8 0.000139913
46 *1410:A *386:42 9.54798e-06
*RES
1 *1402:Y *386:8 21.3179 
2 *386:8 *1447:A1 19.2464 
3 *386:8 *386:21 0.732143 
4 *386:21 *1406:A1 13.8 
5 *386:21 *386:34 3.94999 
6 *386:34 *386:42 9.02652 
7 *386:42 *1408:A 9.3 
8 *386:42 *1405:A1 29.4607 
9 *386:34 *1407:A 22.8796 
*END

*D_NET *387 0.00751142
*CONN
*I *1407:B I *D sky130_fd_sc_hd__and3_2
*I *1406:A2 I *D sky130_fd_sc_hd__a21o_2
*I *1446:A2 I *D sky130_fd_sc_hd__a211o_2
*I *1447:A2 I *D sky130_fd_sc_hd__a32o_2
*I *1405:A2 I *D sky130_fd_sc_hd__a21oi_2
*I *1408:B I *D sky130_fd_sc_hd__nand3_2
*I *1445:C1 I *D sky130_fd_sc_hd__o211ai_2
*I *1403:Y O *D sky130_fd_sc_hd__nand4_4
*CAP
1 *1407:B 0.000273745
2 *1406:A2 0
3 *1446:A2 0
4 *1447:A2 0
5 *1405:A2 0.000381608
6 *1408:B 0
7 *1445:C1 0.000144808
8 *1403:Y 0.000253625
9 *387:75 0.000323273
10 *387:39 0.000688503
11 *387:27 0.000417277
12 *387:23 0.000110382
13 *387:10 0.000160645
14 *387:8 0.000318991
15 *1405:A2 *1405:B1 0.000205818
16 *1405:A2 *388:31 9.22103e-06
17 *1405:A2 *389:6 0.000135028
18 *1407:B *678:109 0.000216755
19 *1407:B *686:12 1.30327e-05
20 *1407:B *690:55 0.000267447
21 *1407:B *719:14 0.000313615
22 *1445:C1 *431:14 9.80173e-05
23 *1445:C1 *686:12 5.26944e-05
24 *1445:C1 *719:14 0.000166594
25 *387:10 *719:14 8.2018e-05
26 *387:27 *433:6 9.92409e-05
27 *387:39 *1408:C 5.96031e-05
28 *387:39 *1410:C 4.18895e-05
29 *387:39 *1447:B1 3.89337e-05
30 *387:39 *1447:B2 1.02504e-05
31 *387:39 *388:31 0.000409908
32 *387:39 *392:6 0.000226507
33 *387:39 *433:6 8.43286e-05
34 *387:39 *679:29 0
35 *387:39 *718:10 6.28667e-05
36 *387:75 *719:14 0.000149421
37 *1405:A1 *1405:A2 0.000771076
38 *1405:A1 *387:39 3.57315e-05
39 *1446:A1 *387:8 0.000311523
40 *1446:A1 *387:27 1.00733e-05
41 *1447:A1 *1445:C1 5.31122e-05
42 *1447:A1 *387:10 7.41847e-05
43 *1447:A1 *387:27 0.000213172
44 *1447:A1 *387:39 5.52238e-05
45 *1447:A1 *387:75 9.30093e-05
46 *386:21 *387:75 5.71263e-05
47 *386:34 *1407:B 1.1594e-05
48 *386:34 *387:75 9.54798e-06
*RES
1 *1403:Y *387:8 17.2107 
2 *387:8 *387:10 1.03571 
3 *387:10 *1445:C1 16.9964 
4 *387:10 *387:23 4.5 
5 *387:23 *387:27 3.01786 
6 *387:27 *387:39 17.875 
7 *387:39 *1408:B 9.3 
8 *387:39 *1405:A2 20.0143 
9 *387:27 *1447:A2 9.3 
10 *387:23 *1446:A2 9.3 
11 *387:8 *387:75 1.94643 
12 *387:75 *1406:A2 13.8 
13 *387:75 *1407:B 20.05 
*END

*D_NET *388 0.00821975
*CONN
*I *1406:B1 I *D sky130_fd_sc_hd__a21o_2
*I *1407:C I *D sky130_fd_sc_hd__and3_2
*I *1408:C I *D sky130_fd_sc_hd__nand3_2
*I *1405:B1 I *D sky130_fd_sc_hd__a21oi_2
*I *1447:A3 I *D sky130_fd_sc_hd__a32o_2
*I *1404:Y O *D sky130_fd_sc_hd__o21ai_2
*CAP
1 *1406:B1 0.00013481
2 *1407:C 0.000198461
3 *1408:C 2.78332e-05
4 *1405:B1 0.0003639
5 *1447:A3 0
6 *1404:Y 0.00154409
7 *388:31 0.000870606
8 *388:25 0.000718636
9 *388:16 0.0017202
10 *1405:B1 *389:6 5.63207e-05
11 *1406:B1 *686:12 0.000224618
12 *1407:C *1361:A2 1.46689e-05
13 *1407:C *1412:A 2.00751e-05
14 *1407:C *1412:D 0
15 *1407:C *679:29 0.000186155
16 *1407:C *686:12 6.07037e-07
17 *388:16 *1442:B1 7.19727e-05
18 *388:16 *1526:A 0.000228556
19 *388:16 *566:29 0.000328538
20 *388:16 *618:75 0.000143634
21 *388:16 *679:29 2.22043e-05
22 *388:16 *686:12 2.95746e-06
23 *388:16 *710:10 9.59532e-06
24 *388:25 *679:29 0.000140368
25 *388:31 *1410:C 2.28598e-05
26 *388:31 *390:6 3.15101e-05
27 *388:31 *390:10 1.32552e-05
28 *1405:A2 *1405:B1 0.000205818
29 *1405:A2 *388:31 9.22103e-06
30 *1407:A *1407:C 0.000392339
31 *348:111 *1407:C 6.94441e-06
32 *386:34 *388:16 2.34389e-05
33 *386:42 *388:16 1.60489e-05
34 *387:39 *1408:C 5.96031e-05
35 *387:39 *388:31 0.000409908
*RES
1 *1404:Y *388:16 24.6077 
2 *388:16 *1447:A3 13.8 
3 *388:16 *388:25 1.94643 
4 *388:25 *388:31 11.2143 
5 *388:31 *1405:B1 15.7286 
6 *388:31 *1408:C 10.0321 
7 *388:25 *1407:C 19.9964 
8 *388:16 *1406:B1 17.6036 
*END

*D_NET *389 0.00175743
*CONN
*I *1409:A1 I *D sky130_fd_sc_hd__o21bai_2
*I *1411:A1 I *D sky130_fd_sc_hd__o21ai_2
*I *1405:Y O *D sky130_fd_sc_hd__a21oi_2
*CAP
1 *1409:A1 0
2 *1411:A1 0.000205159
3 *1405:Y 5.38378e-05
4 *389:6 0.000258997
5 *1411:A1 *1409:A2 0.000422169
6 *1411:A1 *1411:A2 0.000113331
7 *1411:A1 *1464:A1 0.000240896
8 *1411:A1 *1560:A 2.52654e-05
9 *1411:A1 *685:10 0.000191253
10 *1366:B *1411:A1 5.51716e-05
11 *1405:A2 *389:6 0.000135028
12 *1405:B1 *389:6 5.63207e-05
*RES
1 *1405:Y *389:6 10.6571 
2 *389:6 *1411:A1 25.4071 
3 *389:6 *1409:A1 9.3 
*END

*D_NET *390 0.00254463
*CONN
*I *1412:A I *D sky130_fd_sc_hd__nand4_2
*I *1410:B I *D sky130_fd_sc_hd__nand3_2
*I *1449:A I *D sky130_fd_sc_hd__nand4_2
*I *1448:B2 I *D sky130_fd_sc_hd__a22o_2
*I *1406:X O *D sky130_fd_sc_hd__a21o_2
*CAP
1 *1412:A 6.66148e-05
2 *1410:B 0
3 *1449:A 0
4 *1448:B2 1.42796e-05
5 *1406:X 8.57624e-05
6 *390:24 0.000511341
7 *390:10 0.000615612
8 *390:6 0.000270927
9 *1412:A *1412:B 3.90973e-05
10 *1412:A *1412:D 1.76135e-05
11 *1412:A *679:29 5.17155e-05
12 *1448:B2 *1448:B1 5.52302e-05
13 *1448:B2 *433:12 5.33005e-05
14 *390:10 *1410:C 5.64271e-05
15 *390:10 *1413:B 1.00733e-05
16 *390:10 *392:6 2.59355e-05
17 *390:24 *1412:B 3.10885e-05
18 *390:24 *566:29 0
19 *390:24 *684:10 0.000181172
20 *390:24 *689:22 0.000183115
21 *390:24 *718:10 4.15592e-05
22 *1405:A1 *390:10 7.48927e-06
23 *1407:C *1412:A 2.00751e-05
24 *386:42 *390:24 0.000161433
25 *388:31 *390:6 3.15101e-05
26 *388:31 *390:10 1.32552e-05
*RES
1 *1406:X *390:6 10.6571 
2 *390:6 *390:10 2.19643 
3 *390:10 *390:24 19.6419 
4 *390:24 *1448:B2 9.83571 
5 *390:24 *1449:A 9.3 
6 *390:10 *1410:B 9.3 
7 *390:6 *1412:A 20.2464 
*END

*D_NET *391 0.00382789
*CONN
*I *1411:A2 I *D sky130_fd_sc_hd__o21ai_2
*I *1409:A2 I *D sky130_fd_sc_hd__o21bai_2
*I *1407:X O *D sky130_fd_sc_hd__and3_2
*CAP
1 *1411:A2 9.82971e-05
2 *1409:A2 0.000229895
3 *1407:X 0.000712622
4 *391:8 0.00104081
5 *1409:A2 *1413:A 4.78646e-05
6 *1409:A2 *1450:A 2.06112e-05
7 *1411:A2 *683:10 5.50052e-05
8 *391:8 *1464:B1 0.00103228
9 *1411:A1 *1409:A2 0.000422169
10 *1411:A1 *1411:A2 0.000113331
11 *336:70 *1411:A2 5.50052e-05
12 *336:76 *1409:A2 0
*RES
1 *1407:X *391:8 23.7821 
2 *391:8 *1409:A2 19.3893 
3 *391:8 *1411:A2 15.9786 
*END

*D_NET *392 0.00107563
*CONN
*I *1410:C I *D sky130_fd_sc_hd__nand3_2
*I *1412:B I *D sky130_fd_sc_hd__nand4_2
*I *1408:Y O *D sky130_fd_sc_hd__nand3_2
*CAP
1 *1410:C 4.39459e-05
2 *1412:B 0.000120873
3 *1408:Y 7.30783e-05
4 *392:6 0.000237897
5 *1412:B *1412:D 3.34366e-05
6 *1412:B *679:29 0
7 *1412:B *718:10 7.95787e-05
8 *1412:B *718:25 4.46186e-06
9 *392:6 *1413:B 1.58163e-05
10 *1405:A1 *392:6 2.27416e-05
11 *1412:A *1412:B 3.90973e-05
12 *387:39 *1410:C 4.18895e-05
13 *387:39 *392:6 0.000226507
14 *388:31 *1410:C 2.28598e-05
15 *390:10 *1410:C 5.64271e-05
16 *390:10 *392:6 2.59355e-05
17 *390:24 *1412:B 3.10885e-05
*RES
1 *1408:Y *392:6 11.4786 
2 *392:6 *1412:B 20.8536 
3 *392:6 *1410:C 10.675 
*END

*D_NET *393 0.000278302
*CONN
*I *1413:A I *D sky130_fd_sc_hd__nand3_4
*I *1409:Y O *D sky130_fd_sc_hd__o21bai_2
*CAP
1 *1413:A 7.4902e-05
2 *1409:Y 7.4902e-05
3 *1409:A2 *1413:A 4.78646e-05
4 *336:76 *1413:A 8.06331e-05
*RES
1 *1409:Y *1413:A 29.5464 
*END

*D_NET *394 0.00112589
*CONN
*I *1413:B I *D sky130_fd_sc_hd__nand3_4
*I *1410:Y O *D sky130_fd_sc_hd__nand3_2
*CAP
1 *1413:B 0.00040231
2 *1410:Y 0.00040231
3 *1413:B *1412:D 9.90367e-05
4 *1413:B *685:16 0.00010116
5 *1413:B *718:10 7.6644e-05
6 *1405:A1 *1413:B 1.85443e-05
7 *390:10 *1413:B 1.00733e-05
8 *392:6 *1413:B 1.58163e-05
*RES
1 *1410:Y *1413:B 33.7429 
*END

*D_NET *395 0.00112149
*CONN
*I *1414:A I *D sky130_fd_sc_hd__nand3_4
*I *1411:Y O *D sky130_fd_sc_hd__o21ai_2
*CAP
1 *1414:A 0.000177498
2 *1411:Y 0.000177498
3 *1414:A *1464:B1 0.000351482
4 *1414:A *398:10 0.000223677
5 *1414:A *678:82 4.7201e-05
6 *336:76 *1414:A 0.000144139
*RES
1 *1411:Y *1414:A 32.9571 
*END

*D_NET *396 0.000342193
*CONN
*I *1414:C I *D sky130_fd_sc_hd__nand3_4
*I *1412:Y O *D sky130_fd_sc_hd__nand4_2
*CAP
1 *1414:C 7.84113e-05
2 *1412:Y 7.84113e-05
3 *1414:C *1412:D 3.75868e-05
4 *1414:C *718:25 0.000147784
*RES
1 *1412:Y *1414:C 29.5464 
*END

*D_NET *397 0.00504233
*CONN
*I *1417:C I *D sky130_fd_sc_hd__nand3_2
*I *1418:B1 I *D sky130_fd_sc_hd__o211ai_2
*I *1415:A1_N I *D sky130_fd_sc_hd__o2bb2ai_2
*I *1451:B1_N I *D sky130_fd_sc_hd__a21bo_2
*I *1416:A I *D sky130_fd_sc_hd__nand2_2
*I *1419:A1 I *D sky130_fd_sc_hd__a21o_2
*I *1413:Y O *D sky130_fd_sc_hd__nand3_4
*CAP
1 *1417:C 5.5429e-05
2 *1418:B1 5.37976e-05
3 *1415:A1_N 0.000163462
4 *1451:B1_N 0
5 *1416:A 0.000166083
6 *1419:A1 0
7 *1413:Y 0.000959183
8 *397:25 0.000309538
9 *397:23 0.000308864
10 *397:21 0.000290544
11 *397:10 0.00113855
12 *1415:A1_N *1421:A 6.66498e-06
13 *1415:A1_N *1421:C 0
14 *1415:A1_N *398:47 0.000175281
15 *1416:A *438:10 5.18037e-05
16 *1417:C *398:56 0.000141935
17 *1418:B1 *398:32 1.98839e-05
18 *397:10 *1669:A 0
19 *397:10 *398:10 0.00015244
20 *397:10 *454:10 0
21 *397:10 *618:26 3.48705e-05
22 *397:10 *618:37 0.000395866
23 *397:10 *685:16 4.58194e-05
24 *397:21 *398:10 3.2923e-05
25 *397:21 *398:32 0.000184301
26 *397:23 *398:41 0.000128706
27 *397:25 *398:41 5.50052e-05
28 *1486:B *397:10 0.000171377
*RES
1 *1413:Y *397:10 30.925 
2 *397:10 *1419:A1 13.8 
3 *397:10 *397:21 7.96429 
4 *397:21 *397:23 1.35714 
5 *397:23 *397:25 2.33036 
6 *397:25 *1416:A 12.7196 
7 *397:25 *1451:B1_N 9.3 
8 *397:23 *1415:A1_N 20.8536 
9 *397:21 *1418:B1 10.2464 
10 *1415:A1_N *1417:C 19.9571 
*END

*D_NET *398 0.00721226
*CONN
*I *1451:A2 I *D sky130_fd_sc_hd__a21bo_2
*I *1417:A I *D sky130_fd_sc_hd__nand3_2
*I *1452:A1 I *D sky130_fd_sc_hd__a21oi_2
*I *1415:A2_N I *D sky130_fd_sc_hd__o2bb2ai_2
*I *1418:C1 I *D sky130_fd_sc_hd__o211ai_2
*I *1419:A2 I *D sky130_fd_sc_hd__a21o_2
*I *1476:A1 I *D sky130_fd_sc_hd__a211oi_2
*I *1414:Y O *D sky130_fd_sc_hd__nand3_4
*CAP
1 *1451:A2 0
2 *1417:A 1.23085e-05
3 *1452:A1 6.43671e-05
4 *1415:A2_N 0
5 *1418:C1 0
6 *1419:A2 0
7 *1476:A1 0.000370404
8 *1414:Y 0.000570059
9 *398:56 0.000249457
10 *398:47 0.000249317
11 *398:41 0.000166896
12 *398:32 0.000226771
13 *398:12 0.000370404
14 *398:10 0.00070647
15 *1452:A1 *399:10 0.000144773
16 *1476:A1 *1476:A2 7.88091e-05
17 *398:10 *1464:A1 1.58163e-05
18 *398:10 *1464:B1 0.000112708
19 *398:10 *1466:B1 0.000208837
20 *398:10 *1468:A 0.000602785
21 *398:10 *426:25 0.000105078
22 *398:10 *454:10 0.000185408
23 *398:10 *678:82 0.00034595
24 *398:47 *1421:A 9.61853e-05
25 *398:56 *399:10 0.000536146
26 *1358:A *398:10 7.15503e-05
27 *1358:B *398:10 5.66971e-05
28 *1414:A *398:10 0.000223677
29 *1415:A1_N *398:47 0.000175281
30 *1417:C *398:56 0.000141935
31 *1418:B1 *398:32 1.98839e-05
32 *1451:A1 *1476:A1 0.000143633
33 *1451:A1 *398:47 1.00887e-05
34 *339:10 *1476:A1 0.000113417
35 *340:12 *1476:A1 0.000126102
36 *340:12 *398:10 0.000126272
37 *340:12 *398:32 3.14003e-05
38 *397:10 *398:10 0.00015244
39 *397:21 *398:10 3.2923e-05
40 *397:21 *398:32 0.000184301
41 *397:23 *398:41 0.000128706
42 *397:25 *398:41 5.50052e-05
*RES
1 *1414:Y *398:10 31.7821 
2 *398:10 *398:12 4.5 
3 *398:12 *1476:A1 16.8357 
4 *398:12 *1419:A2 9.3 
5 *398:10 *398:32 7.58929 
6 *398:32 *1418:C1 9.3 
7 *398:32 *398:41 2.19643 
8 *398:41 *398:47 11.5536 
9 *398:47 *1415:A2_N 9.3 
10 *398:47 *398:56 5.48214 
11 *398:56 *1452:A1 11.0857 
12 *398:56 *1417:A 9.72857 
13 *398:41 *1451:A2 9.3 
*END

*D_NET *399 0.00438061
*CONN
*I *1429:A2 I *D sky130_fd_sc_hd__a31o_2
*I *1422:B I *D sky130_fd_sc_hd__nand3_2
*I *1454:C I *D sky130_fd_sc_hd__and4_2
*I *1420:A I *D sky130_fd_sc_hd__nand2_2
*I *1415:Y O *D sky130_fd_sc_hd__o2bb2ai_2
*CAP
1 *1429:A2 0.000201429
2 *1422:B 0.000154579
3 *1454:C 7.4195e-05
4 *1420:A 8.96425e-05
5 *1415:Y 0.000665242
6 *399:27 0.000228774
7 *399:25 0.000328896
8 *399:10 0.000882352
9 *1420:A *402:20 5.49489e-05
10 *1429:A2 *1429:A3 0.000258709
11 *399:10 *1452:B1 2.85321e-05
12 *399:10 *402:10 0.000188586
13 *399:25 *1429:A3 1.00332e-05
14 *399:25 *402:20 0.000125599
15 *1429:A1 *1429:A2 0.000140021
16 *1452:A1 *399:10 0.000144773
17 *1454:D *1422:B 4.72917e-05
18 *1454:D *1454:C 9.58126e-05
19 *1457:A1 *399:10 7.62237e-05
20 *1457:A1 *399:25 0
21 *381:10 *1422:B 4.80309e-05
22 *381:12 *1422:B 7.9669e-07
23 *398:56 *399:10 0.000536146
*RES
1 *1415:Y *399:10 27.0679 
2 *399:10 *1420:A 15.6036 
3 *399:10 *399:25 2.25 
4 *399:25 *399:27 4.5 
5 *399:27 *1454:C 10.675 
6 *399:27 *1422:B 11.8 
7 *399:25 *1429:A2 18.4071 
*END

*D_NET *400 0.00120057
*CONN
*I *1005:B_N I *D sky130_fd_sc_hd__and4bb_2
*I *1004:B1 I *D sky130_fd_sc_hd__o2bb2a_2
*I *1002:Y O *D sky130_fd_sc_hd__a22oi_2
*CAP
1 *1005:B_N 0
2 *1004:B1 0.000101759
3 *1002:Y 0.000112408
4 *400:10 0.000214167
5 *1004:B1 *1579:A 0.000173804
6 *1004:B1 *421:20 5.17614e-05
7 *1004:B1 *704:44 0.000175519
8 *400:10 *1002:A1 1.92789e-05
9 *400:10 *1003:C 1.17966e-05
10 *400:10 *1579:A 0.000164554
11 *400:10 *704:44 0.000175519
*RES
1 *1002:Y *400:10 16.9964 
2 *400:10 *1004:B1 16.9964 
3 *400:10 *1005:B_N 13.8 
*END

*D_NET *401 0.000883398
*CONN
*I *1452:A2 I *D sky130_fd_sc_hd__a21oi_2
*I *1476:A2 I *D sky130_fd_sc_hd__a211oi_2
*I *1416:Y O *D sky130_fd_sc_hd__nand2_2
*CAP
1 *1452:A2 0.000112728
2 *1476:A2 0.000247739
3 *1416:Y 3.25847e-05
4 *401:8 0.000393051
5 *401:8 *438:10 1.84865e-05
6 *1476:A1 *1476:A2 7.88091e-05
*RES
1 *1416:Y *401:8 14.3357 
2 *401:8 *1476:A2 18.55 
3 *401:8 *1452:A2 15.7464 
*END

*D_NET *402 0.00241881
*CONN
*I *1422:C I *D sky130_fd_sc_hd__nand3_2
*I *1420:B I *D sky130_fd_sc_hd__nand2_2
*I *1429:A3 I *D sky130_fd_sc_hd__a31o_2
*I *1454:B I *D sky130_fd_sc_hd__and4_2
*I *1417:Y O *D sky130_fd_sc_hd__nand3_2
*CAP
1 *1422:C 0.000126326
2 *1420:B 0
3 *1429:A3 0.000184484
4 *1454:B 0
5 *1417:Y 0.000231692
6 *402:20 0.000290814
7 *402:14 0.000347965
8 *402:10 0.000599653
9 *1420:A *402:20 5.49489e-05
10 *1429:A2 *1429:A3 0.000258709
11 *1457:A1 *1422:C 0
12 *1457:A1 *402:10 0
13 *399:10 *402:10 0.000188586
14 *399:25 *1429:A3 1.00332e-05
15 *399:25 *402:20 0.000125599
*RES
1 *1417:Y *402:10 17.5143 
2 *402:10 *402:14 8.32143 
3 *402:14 *402:20 6.67857 
4 *402:20 *1454:B 13.8 
5 *402:20 *1429:A3 17.8 
6 *402:14 *1420:B 9.3 
7 *402:10 *1422:C 16.05 
*END

*D_NET *403 0.000516233
*CONN
*I *1421:C I *D sky130_fd_sc_hd__nand3_2
*I *1418:Y O *D sky130_fd_sc_hd__o211ai_2
*CAP
1 *1421:C 0.000255886
2 *1418:Y 0.000255886
3 *1421:C *1421:A 0
4 *1377:A *1421:C 0
5 *1415:A1_N *1421:C 0
6 *1421:B *1421:C 4.46186e-06
*RES
1 *1418:Y *1421:C 32.2786 
*END

*D_NET *404 0.00113379
*CONN
*I *1421:A I *D sky130_fd_sc_hd__nand3_2
*I *1419:X O *D sky130_fd_sc_hd__a21o_2
*CAP
1 *1421:A 0.000403477
2 *1419:X 0.000403477
3 *1415:A1_N *1421:A 6.66498e-06
4 *1421:B *1421:A 0
5 *1421:C *1421:A 0
6 *1451:A1 *1421:A 0.000126416
7 *339:10 *1421:A 9.75679e-05
8 *398:47 *1421:A 9.61853e-05
*RES
1 *1419:X *1421:A 35.35 
*END

*D_NET *405 0.00260993
*CONN
*I *1427:A1 I *D sky130_fd_sc_hd__a21oi_2
*I *1458:A2 I *D sky130_fd_sc_hd__o21ai_2
*I *1457:A2 I *D sky130_fd_sc_hd__o21a_2
*I *1420:Y O *D sky130_fd_sc_hd__nand2_2
*CAP
1 *1427:A1 0.000270095
2 *1458:A2 4.2414e-05
3 *1457:A2 0.000210221
4 *1420:Y 0.000128291
5 *405:21 0.000409237
6 *405:8 0.00043524
7 *1427:A1 *1434:A2 0.000148182
8 *1427:A1 *1455:A 0.000175142
9 *1427:A1 *1455:B 0
10 *1427:A1 *1459:B 0
11 *1427:A1 *408:20 0.000125674
12 *1457:A2 *408:20 0.000107503
13 *1458:A2 *1454:A 0.000228508
14 *1458:A2 *441:6 0.00012306
15 *405:21 *1459:B 0
16 *405:21 *408:20 7.60306e-05
17 *1427:A2 *1427:A1 5.20187e-05
18 *1457:A1 *1457:A2 7.83179e-05
*RES
1 *1420:Y *405:8 15.5679 
2 *405:8 *1457:A2 18.1214 
3 *405:8 *405:21 1.94643 
4 *405:21 *1458:A2 15.9786 
5 *405:21 *1427:A1 20.1393 
*END

*D_NET *406 0.00467611
*CONN
*I *1428:D1 I *D sky130_fd_sc_hd__o2111ai_2
*I *1426:B1 I *D sky130_fd_sc_hd__a32o_2
*I *1425:B1 I *D sky130_fd_sc_hd__a32oi_2
*I *1424:A I *D sky130_fd_sc_hd__nand2_2
*I *1421:Y O *D sky130_fd_sc_hd__nand3_2
*CAP
1 *1428:D1 0.000117119
2 *1426:B1 4.55607e-05
3 *1425:B1 0
4 *1424:A 0.000149535
5 *1421:Y 0.00047479
6 *406:24 0.000388723
7 *406:12 0.000855887
8 *406:8 0.00116305
9 *1424:A *1425:B2 1.00332e-05
10 *1424:A *1430:B1 5.33005e-05
11 *1424:A *1439:A3 2.2351e-05
12 *1424:A *412:12 0.000121842
13 *1424:A *412:27 0
14 *1424:A *414:31 0.000141729
15 *1428:D1 *414:31 0
16 *406:8 *1429:B1 0
17 *406:24 *1430:B1 1.98839e-05
18 *406:24 *1439:A3 6.85983e-05
19 *406:24 *407:12 9.99644e-06
20 *406:24 *412:12 0.000125724
21 *1380:B1_N *406:8 0
22 *1382:A *406:24 0
23 *1421:B *406:8 0
24 *1427:A2 *406:24 3.06878e-06
25 *1427:B1 *406:24 0.000107267
26 *1437:D1 *1424:A 0.000155893
27 *358:26 *406:12 0.000110771
28 *360:12 *406:8 0
29 *360:16 *1428:D1 9.71197e-05
30 *360:24 *1428:D1 0
31 *360:24 *406:8 0
32 *360:26 *406:12 0.000230626
33 *360:32 *406:12 2.89114e-05
34 *360:32 *406:24 0
35 *361:8 *1428:D1 9.71197e-05
36 *363:8 *1428:D1 7.2754e-05
37 *363:8 *406:8 4.46186e-06
38 *380:10 *406:8 0
*RES
1 *1421:Y *406:8 21.5143 
2 *406:8 *406:12 12.0179 
3 *406:12 *406:24 13.375 
4 *406:24 *1424:A 22.4429 
5 *406:24 *1425:B1 9.3 
6 *406:12 *1426:B1 10.233 
7 *406:8 *1428:D1 16.6929 
*END

*D_NET *407 0.00411862
*CONN
*I *1424:B I *D sky130_fd_sc_hd__nand2_2
*I *1430:A1 I *D sky130_fd_sc_hd__a21oi_2
*I *1423:A I *D sky130_fd_sc_hd__inv_2
*I *1426:B2 I *D sky130_fd_sc_hd__a32o_2
*I *1425:B2 I *D sky130_fd_sc_hd__a32oi_2
*I *1455:A I *D sky130_fd_sc_hd__nor2_2
*I *1422:Y O *D sky130_fd_sc_hd__nand3_2
*CAP
1 *1424:B 9.70868e-05
2 *1430:A1 0
3 *1423:A 9.50866e-05
4 *1426:B2 0
5 *1425:B2 0.000206791
6 *1455:A 0.00027788
7 *1422:Y 0.00012319
8 *407:58 0.000167015
9 *407:54 0.000217125
10 *407:14 0.000466072
11 *407:12 0.000152701
12 *1423:A *1430:A2 4.60153e-05
13 *1423:A *408:20 2.95944e-05
14 *1423:A *408:36 3.08664e-05
15 *1424:B *1434:A2 0.000197984
16 *1424:B *412:27 5.48781e-05
17 *1425:B2 *1434:A2 0
18 *1425:B2 *412:12 6.91414e-05
19 *1455:A *1459:A 6.02859e-05
20 *1455:A *1459:B 7.41531e-05
21 *1455:A *1462:C 0.000143375
22 *407:54 *1430:B1 3.08664e-05
23 *407:54 *1439:A3 9.99853e-05
24 *407:58 *1430:A2 1.78212e-05
25 *407:58 *1430:B1 0
26 *407:58 *408:20 3.97677e-05
27 *1424:A *1425:B2 1.00332e-05
28 *1427:A1 *1455:A 0.000175142
29 *1427:A2 *1455:A 0.000306317
30 *1427:A2 *407:12 0.000314547
31 *1427:A2 *407:14 0.000174651
32 *1427:B1 *1455:A 0.000116824
33 *1427:B1 *407:12 7.43578e-06
34 *1427:B1 *407:14 0.000101441
35 *1429:A1 *407:12 0.00020455
36 *406:24 *407:12 9.99644e-06
*RES
1 *1422:Y *407:12 22.6036 
2 *407:12 *407:14 1.76786 
3 *407:14 *1455:A 25.55 
4 *407:14 *1425:B2 21.4607 
5 *407:12 *1426:B2 9.3 
6 *1425:B2 *407:54 10.6571 
7 *407:54 *407:58 1.375 
8 *407:58 *1423:A 11.4786 
9 *407:58 *1430:A1 9.3 
10 *407:54 *1424:B 20.8536 
*END

*D_NET *408 0.00509158
*CONN
*I *1431:A1 I *D sky130_fd_sc_hd__o21ai_2
*I *1437:A2 I *D sky130_fd_sc_hd__o2111a_2
*I *1484:A3 I *D sky130_fd_sc_hd__a31o_2
*I *1423:Y O *D sky130_fd_sc_hd__inv_2
*CAP
1 *1431:A1 0.000292595
2 *1437:A2 0.000128747
3 *1484:A3 0
4 *1423:Y 0.00150222
5 *408:36 0.000683943
6 *408:20 0.00123962
7 *1431:A1 *1431:B1 9.11048e-06
8 *1431:A1 *1435:A 6.87574e-05
9 *1431:A1 *1438:B 3.34687e-05
10 *1431:A1 *559:10 5.52238e-05
11 *1437:A2 *1431:A2 5.5435e-05
12 *408:20 *1430:A2 9.78745e-05
13 *408:20 *1434:A2 0.000288564
14 *408:20 *1484:B1 4.27101e-06
15 *408:20 *440:6 0.000102168
16 *408:20 *440:12 5.77413e-05
17 *408:36 *1431:A2 0
18 *408:36 *1438:B 5.80706e-06
19 *408:36 *424:10 0
20 *1423:A *408:20 2.95944e-05
21 *1423:A *408:36 3.08664e-05
22 *1427:A1 *408:20 0.000125674
23 *1437:B1 *1437:A2 5.65955e-05
24 *1457:A2 *408:20 0.000107503
25 *405:21 *408:20 7.60306e-05
26 *407:58 *408:20 3.97677e-05
*RES
1 *1423:Y *408:20 49.1214 
2 *408:20 *1484:A3 9.3 
3 *1423:Y *408:36 17.3 
4 *408:36 *1437:A2 15.5679 
5 *408:36 *1431:A1 18.2821 
*END

*D_NET *409 0.000722236
*CONN
*I *1436:B1 I *D sky130_fd_sc_hd__a21oi_2
*I *1424:Y O *D sky130_fd_sc_hd__nand2_2
*CAP
1 *1436:B1 0.0002085
2 *1424:Y 0.0002085
3 *1436:B1 *1434:A2 0.000149904
4 *1436:B1 *1434:B2 7.83366e-05
5 *1436:B1 *412:27 7.6997e-05
*RES
1 *1424:Y *1436:B1 32.2071 
*END

*D_NET *410 0.000427597
*CONN
*I *1430:B1 I *D sky130_fd_sc_hd__a21oi_2
*I *1425:Y O *D sky130_fd_sc_hd__a32oi_2
*CAP
1 *1430:B1 0.000150159
2 *1425:Y 0.000150159
3 *1430:B1 *1439:A3 2.32275e-05
4 *1424:A *1430:B1 5.33005e-05
5 *406:24 *1430:B1 1.98839e-05
6 *407:54 *1430:B1 3.08664e-05
7 *407:58 *1430:B1 0
*RES
1 *1425:Y *1430:B1 21.2071 
*END

*D_NET *411 0.00254785
*CONN
*I *1005:A_N I *D sky130_fd_sc_hd__and4bb_2
*I *1696:A I *D sky130_fd_sc_hd__buf_2
*I *1004:B2 I *D sky130_fd_sc_hd__o2bb2a_2
*I *1003:X O *D sky130_fd_sc_hd__and4_4
*CAP
1 *1005:A_N 2.80869e-05
2 *1696:A 0
3 *1004:B2 0.000363897
4 *1003:X 0.000356893
5 *411:27 2.80869e-05
6 *411:10 0.00072079
7 *1004:B2 *1020:C 7.6644e-05
8 *1004:B2 *421:20 0.000304394
9 *1004:B2 *494:14 0.000126439
10 *1004:B2 *496:12 0
11 *1004:B2 *734:132 0.000239179
12 *1005:A_N *432:14 5.33005e-05
13 *1005:A_N *494:14 6.05161e-06
14 *411:10 *1003:B 8.2958e-06
15 *411:10 *1003:C 8.00806e-05
16 *411:10 *1003:D 6.05161e-06
17 *411:10 *1588:A 2.47093e-05
18 *411:10 *496:12 0
19 *411:10 *734:132 0.000124947
*RES
1 *1003:X *411:10 20.8536 
2 *411:10 *1004:B2 20.6214 
3 *411:10 *411:27 4.5 
4 *411:27 *1696:A 9.3 
5 *411:27 *1005:A_N 9.83571 
*END

*D_NET *412 0.0038787
*CONN
*I *1434:A1 I *D sky130_fd_sc_hd__a22oi_2
*I *1431:B1 I *D sky130_fd_sc_hd__o21ai_2
*I *1437:C1 I *D sky130_fd_sc_hd__o2111a_2
*I *1426:X O *D sky130_fd_sc_hd__a32o_2
*CAP
1 *1434:A1 4.33043e-05
2 *1431:B1 0.000261608
3 *1437:C1 0.000242754
4 *1426:X 0.000293893
5 *412:27 0.00056788
6 *412:12 0.000799614
7 *1431:B1 *1433:B1 5.33005e-05
8 *1431:B1 *1435:A 2.84109e-05
9 *1431:B1 *1438:B 4.98055e-06
10 *1431:B1 *559:10 0.000233006
11 *1434:A1 *1434:A2 1.21398e-05
12 *412:12 *1439:A3 4.43698e-05
13 *412:27 *1434:A2 2.99773e-05
14 *412:27 *559:10 0.000175892
15 *1424:A *412:12 0.000121842
16 *1424:A *412:27 0
17 *1424:B *412:27 5.48781e-05
18 *1425:B2 *412:12 6.91414e-05
19 *1431:A1 *1431:B1 9.11048e-06
20 *1434:B1 *1434:A1 5.25372e-05
21 *1436:B1 *412:27 7.6997e-05
22 *1437:D1 *1437:C1 0.000354049
23 *1437:D1 *412:12 0.000223294
24 *406:24 *412:12 0.000125724
*RES
1 *1426:X *412:12 23.9429 
2 *412:12 *1437:C1 12.7107 
3 *412:12 *412:27 13.3214 
4 *412:27 *1431:B1 22.6036 
5 *412:27 *1434:A1 19.3357 
*END

*D_NET *413 0.000520999
*CONN
*I *1430:A2 I *D sky130_fd_sc_hd__a21oi_2
*I *1427:Y O *D sky130_fd_sc_hd__a21oi_2
*CAP
1 *1430:A2 0.000116785
2 *1427:Y 0.000116785
3 *1430:A2 *1434:A2 0.000125717
4 *1423:A *1430:A2 4.60153e-05
5 *407:58 *1430:A2 1.78212e-05
6 *408:20 *1430:A2 9.78745e-05
*RES
1 *1427:Y *1430:A2 30.6179 
*END

*D_NET *414 0.00589619
*CONN
*I *1437:A1 I *D sky130_fd_sc_hd__o2111a_2
*I *1431:A2 I *D sky130_fd_sc_hd__o21ai_2
*I *1429:B1 I *D sky130_fd_sc_hd__a31o_2
*I *1428:Y O *D sky130_fd_sc_hd__o2111ai_2
*CAP
1 *1437:A1 0
2 *1431:A2 0.000347205
3 *1429:B1 0.000391495
4 *1428:Y 0.00037762
5 *414:31 0.000856769
6 *414:8 0.00127868
7 *1429:B1 *557:10 0.000141292
8 *1429:B1 *557:32 1.46717e-05
9 *1431:A2 *1435:A 3.34366e-05
10 *1431:A2 *1438:B 3.9745e-05
11 *1431:A2 *424:10 0
12 *1380:B1_N *1429:B1 6.42338e-05
13 *1382:C *414:31 5.33005e-05
14 *1387:B1 *1429:B1 4.56498e-05
15 *1387:B2 *414:31 6.86693e-05
16 *1424:A *414:31 0.000141729
17 *1428:D1 *414:31 0
18 *1437:A2 *1431:A2 5.5435e-05
19 *1437:B1 *1431:A2 7.66459e-05
20 *1437:B1 *414:31 1.67495e-05
21 *1437:D1 *1431:A2 0.000261854
22 *1437:D1 *414:31 0.000120716
23 *360:16 *414:8 0.000186379
24 *360:24 *1429:B1 4.03318e-05
25 *360:24 *414:8 2.89114e-05
26 *360:24 *414:31 2.19778e-05
27 *361:8 *414:8 3.47797e-05
28 *361:14 *1429:B1 0.000274294
29 *366:25 *1429:B1 9.25014e-06
30 *366:25 *414:31 0.000211927
31 *371:8 *414:31 0.000702445
32 *406:8 *1429:B1 0
33 *408:36 *1431:A2 0
*RES
1 *1428:Y *414:8 18.8536 
2 *414:8 *1429:B1 21.8 
3 *414:8 *414:31 17.8036 
4 *414:31 *1431:A2 26.05 
5 *414:31 *1437:A1 9.3 
*END

*D_NET *415 0.00210513
*CONN
*I *1434:A2 I *D sky130_fd_sc_hd__a22oi_2
*I *1429:X O *D sky130_fd_sc_hd__a31o_2
*CAP
1 *1434:A2 0.000503094
2 *1429:X 0.000503094
3 *1424:B *1434:A2 0.000197984
4 *1425:B2 *1434:A2 0
5 *1427:A1 *1434:A2 0.000148182
6 *1430:A2 *1434:A2 0.000125717
7 *1434:A1 *1434:A2 1.21398e-05
8 *1434:B1 *1434:A2 0.000146474
9 *1436:B1 *1434:A2 0.000149904
10 *408:20 *1434:A2 0.000288564
11 *412:27 *1434:A2 2.99773e-05
*RES
1 *1429:X *1434:A2 39.3143 
*END

*D_NET *416 0.00248072
*CONN
*I *1439:A3 I *D sky130_fd_sc_hd__a41oi_4
*I *1430:Y O *D sky130_fd_sc_hd__a21oi_2
*CAP
1 *1439:A3 0.000752244
2 *1430:Y 0.000752244
3 *1382:A *1439:A3 4.79842e-05
4 *1382:B *1439:A3 0
5 *1382:C *1439:A3 0
6 *1388:B1 *1439:A3 0.000198698
7 *1424:A *1439:A3 2.2351e-05
8 *1425:A1 *1439:A3 6.05161e-06
9 *1427:B1 *1439:A3 5.52302e-05
10 *1430:B1 *1439:A3 2.32275e-05
11 *1436:A1 *1439:A3 0
12 *1437:D1 *1439:A3 0.000129185
13 *1439:A2 *1439:A3 5.65955e-05
14 *1439:A4 *1439:A3 9.25014e-06
15 *304:10 *1439:A3 0
16 *360:32 *1439:A3 1.19402e-05
17 *366:25 *1439:A3 0
18 *368:10 *1439:A3 2.79421e-05
19 *368:12 *1439:A3 2.59093e-05
20 *370:10 *1439:A3 0.000148911
21 *406:24 *1439:A3 6.85983e-05
22 *407:54 *1439:A3 9.99853e-05
23 *412:12 *1439:A3 4.43698e-05
*RES
1 *1430:Y *1439:A3 43.6357 
*END

*D_NET *417 0.00088176
*CONN
*I *1433:B1 I *D sky130_fd_sc_hd__a311oi_2
*I *1431:Y O *D sky130_fd_sc_hd__o21ai_2
*CAP
1 *1433:B1 0.000301348
2 *1431:Y 0.000301348
3 *1433:B1 *1434:B2 0.000206801
4 *1433:B1 *1435:A 1.21258e-05
5 *1433:B1 *559:10 6.8377e-06
6 *1431:B1 *1433:B1 5.33005e-05
*RES
1 *1431:Y *1433:B1 32.2607 
*END

*D_NET *418 0.00155508
*CONN
*I *1434:B2 I *D sky130_fd_sc_hd__a22oi_2
*I *1432:Y O *D sky130_fd_sc_hd__o2111ai_2
*CAP
1 *1434:B2 0.000532037
2 *1432:Y 0.000532037
3 *1434:B2 *1432:C1 0
4 *1434:B2 *1438:B 0
5 *1434:B2 *559:10 2.94004e-05
6 *1434:B2 *604:33 9.98148e-05
7 *1388:B1 *1434:B2 0
8 *1433:B1 *1434:B2 0.000206801
9 *1434:B1 *1434:B2 7.66552e-05
10 *1436:B1 *1434:B2 7.83366e-05
11 *1439:A2 *1434:B2 0
12 *243:36 *1434:B2 0
13 *368:10 *1434:B2 0
*RES
1 *1432:Y *1434:B2 38.1536 
*END

*D_NET *419 0.000891238
*CONN
*I *1435:B I *D sky130_fd_sc_hd__nor2_2
*I *1433:Y O *D sky130_fd_sc_hd__a311oi_2
*CAP
1 *1435:B 0.00030244
2 *1433:Y 0.00030244
3 *1435:B *1435:A 5.52238e-05
4 *1435:B *1439:B1 0.000107432
5 *1433:A1 *1435:B 5.49544e-05
6 *1433:A3 *1435:B 6.87476e-05
*RES
1 *1433:Y *1435:B 24.4929 
*END

*D_NET *420 0.000802931
*CONN
*I *1435:A I *D sky130_fd_sc_hd__nor2_2
*I *1434:Y O *D sky130_fd_sc_hd__a22oi_2
*CAP
1 *1435:A 0.000181554
2 *1434:Y 0.000181554
3 *1435:A *1438:B 7.57965e-05
4 *1435:A *1439:B1 5.58941e-05
5 *1435:A *424:10 0
6 *1435:A *559:10 5.49544e-05
7 *1431:A1 *1435:A 6.87574e-05
8 *1431:A2 *1435:A 3.34366e-05
9 *1431:B1 *1435:A 2.84109e-05
10 *1433:A3 *1435:A 5.52238e-05
11 *1433:B1 *1435:A 1.21258e-05
12 *1435:B *1435:A 5.52238e-05
*RES
1 *1434:Y *1435:A 32.4571 
*END

*D_NET *421 0.00382664
*CONN
*I *1007:A I *D sky130_fd_sc_hd__or3b_4
*I *1006:A I *D sky130_fd_sc_hd__nor2_2
*I *1004:X O *D sky130_fd_sc_hd__o2bb2a_2
*CAP
1 *1007:A 0
2 *1006:A 0.000203327
3 *1004:X 0.000732767
4 *421:20 0.000936094
5 *1006:A *1006:B 6.89923e-05
6 *1006:A *1007:B 1.02504e-05
7 *1006:A *1009:A 4.62632e-05
8 *1006:A *1019:C 0
9 *1006:A *1020:A_N 1.02504e-05
10 *1006:A *1524:A 0.000107884
11 *1006:A *443:8 1.69961e-05
12 *1006:A *453:12 6.85604e-05
13 *1006:A *490:8 9.21958e-05
14 *1006:A *658:23 0.000185643
15 *1006:A *675:18 0.000121573
16 *421:20 *1004:A1_N 6.48387e-06
17 *421:20 *1007:B 0.000361816
18 *421:20 *1017:B1 1.33343e-05
19 *421:20 *1017:C1 6.57914e-05
20 *421:20 *1020:A_N 0.000184583
21 *421:20 *490:8 8.89385e-05
22 *421:20 *654:10 0.000148736
23 *1004:B1 *421:20 5.17614e-05
24 *1004:B2 *421:20 0.000304394
*RES
1 *1004:X *421:20 29.4786 
2 *421:20 *1006:A 20.2464 
3 *421:20 *1007:A 13.8 
*END

*D_NET *422 0.0016009
*CONN
*I *1439:B1 I *D sky130_fd_sc_hd__a41oi_4
*I *1436:Y O *D sky130_fd_sc_hd__a21oi_2
*CAP
1 *1439:B1 0.000570723
2 *1436:Y 0.000570723
3 *1439:B1 *1438:B 0.000220455
4 *1433:A1 *1439:B1 3.08664e-05
5 *1433:A3 *1439:B1 1.24368e-05
6 *1433:C1 *1439:B1 3.23672e-05
7 *1435:A *1439:B1 5.58941e-05
8 *1435:B *1439:B1 0.000107432
*RES
1 *1436:Y *1439:B1 35.9214 
*END

*D_NET *423 0.00375193
*CONN
*I *1438:B I *D sky130_fd_sc_hd__nand4_4
*I *1437:X O *D sky130_fd_sc_hd__o2111a_2
*CAP
1 *1438:B 0.000776765
2 *1437:X 0.000776765
3 *1438:B *1432:C1 0.000376467
4 *1438:B *1438:C 0
5 *1438:B *559:10 0.000222163
6 *1431:A1 *1438:B 3.34687e-05
7 *1431:A2 *1438:B 3.9745e-05
8 *1431:B1 *1438:B 4.98055e-06
9 *1433:A3 *1438:B 0
10 *1434:B2 *1438:B 0
11 *1435:A *1438:B 7.57965e-05
12 *1438:D *1438:B 0
13 *1439:A1 *1438:B 5.26184e-05
14 *1439:B1 *1438:B 0.000220455
15 *243:30 *1438:B 0.000715278
16 *243:36 *1438:B 0.000227021
17 *374:26 *1438:B 0.000224599
18 *376:14 *1438:B 0
19 *408:36 *1438:B 5.80706e-06
*RES
1 *1437:X *1438:B 48.975 
*END

*D_NET *424 0.00758811
*CONN
*I *1675:A I *D sky130_fd_sc_hd__buf_6
*I *1460:B2 I *D sky130_fd_sc_hd__a22oi_2
*I *1462:A I *D sky130_fd_sc_hd__and3_4
*I *1483:A2 I *D sky130_fd_sc_hd__a21o_2
*I *1482:A2 I *D sky130_fd_sc_hd__a21oi_4
*I *1438:Y O *D sky130_fd_sc_hd__nand4_4
*CAP
1 *1675:A 3.72704e-05
2 *1460:B2 0.000216578
3 *1462:A 6.46278e-05
4 *1483:A2 0.000322132
5 *1482:A2 0.000149794
6 *1438:Y 0.00112018
7 *424:16 0.000754828
8 *424:14 0.000398347
9 *424:12 0.000350686
10 *424:10 0.00124074
11 *1462:A *1460:A2 0.00010096
12 *1462:A *1462:B 9.60939e-05
13 *1462:A *441:6 2.65105e-05
14 *1482:A2 *425:22 0.000100165
15 *1482:A2 *466:12 7.74135e-05
16 *1482:A2 *469:12 3.51971e-05
17 *1483:A2 *1478:B 4.4545e-05
18 *1483:A2 *1481:A2 9.7497e-05
19 *1483:A2 *440:12 3.51971e-05
20 *424:10 *425:12 0
21 *424:12 *1461:A2_N 4.29272e-05
22 *424:12 *1462:C 3.34366e-05
23 *424:12 *425:12 0
24 *424:14 *1460:A1 0.000169405
25 *424:14 *1461:A2_N 7.79781e-06
26 *424:14 *1462:C 0.000201127
27 *424:16 *1460:A1 0.00017309
28 *424:16 *1461:A2_N 7.80714e-06
29 *424:16 *1462:C 5.58941e-05
30 *424:16 *1478:B 0
31 *424:16 *1481:A1 0
32 *424:16 *425:16 0
33 *424:16 *425:22 0
34 *424:16 *442:10 0
35 *424:16 *466:12 2.28343e-05
36 *424:16 *469:12 3.61228e-05
37 *1395:A_N *424:10 0
38 *1431:A2 *424:10 0
39 *1433:A3 *424:10 0.000800202
40 *1435:A *424:10 0
41 *1438:D *424:10 9.96238e-05
42 *374:12 *424:10 0.000518467
43 *374:20 *424:10 0.000150618
44 *376:14 *424:10 0
45 *408:36 *424:10 0
*RES
1 *1438:Y *424:10 40.5679 
2 *424:10 *424:12 1.94643 
3 *424:12 *424:14 2.55357 
4 *424:14 *424:16 6.19643 
5 *424:16 *1482:A2 16.925 
6 *424:16 *1483:A2 27.4429 
7 *424:14 *1462:A 15.5679 
8 *424:12 *1460:B2 16.8179 
9 *424:10 *1675:A 14.3357 
*END

*D_NET *425 0.00566793
*CONN
*I *1460:B1 I *D sky130_fd_sc_hd__a22oi_2
*I *1462:B I *D sky130_fd_sc_hd__and3_4
*I *1461:A1_N I *D sky130_fd_sc_hd__o2bb2ai_4
*I *1483:A1 I *D sky130_fd_sc_hd__a21o_2
*I *1482:A1 I *D sky130_fd_sc_hd__a21oi_4
*I *1439:Y O *D sky130_fd_sc_hd__a41oi_4
*CAP
1 *1460:B1 0
2 *1462:B 0.000148061
3 *1461:A1_N 0
4 *1483:A1 8.00377e-05
5 *1482:A1 2.73863e-05
6 *1439:Y 0.00119446
7 *425:22 0.00039701
8 *425:16 0.000365778
9 *425:14 0.000320141
10 *425:12 0.00129035
11 *1462:B *1463:A 6.05161e-06
12 *1462:B *441:6 8.68595e-05
13 *1483:A1 *1483:B1 9.54004e-05
14 *1483:A1 *466:12 0.000354086
15 *1483:A1 *469:12 5.50052e-05
16 *425:12 *1461:A2_N 0.00015234
17 *425:12 *1581:A 0
18 *425:14 *1461:A2_N 0.000202842
19 *425:14 *1583:A 0
20 *425:16 *1461:A2_N 0.000171375
21 *425:16 *1479:B1_N 0.000162125
22 *425:16 *1583:A 0
23 *425:22 *1479:B1_N 0.000226745
24 *425:22 *466:12 8.67779e-05
25 *1439:A1 *425:12 4.884e-05
26 *1458:A1 *1462:B 0
27 *1462:A *1462:B 9.60939e-05
28 *1482:A2 *425:22 0.000100165
29 *424:10 *425:12 0
30 *424:12 *425:12 0
31 *424:16 *425:16 0
32 *424:16 *425:22 0
*RES
1 *1439:Y *425:12 33.0679 
2 *425:12 *425:14 2.55357 
3 *425:14 *425:16 2.55357 
4 *425:16 *425:22 10.9464 
5 *425:22 *1482:A1 9.72857 
6 *425:22 *1483:A1 12.7107 
7 *425:16 *1461:A1_N 13.8 
8 *425:14 *1462:B 16.8179 
9 *425:12 *1460:B1 13.8 
*END

*D_NET *426 0.00417467
*CONN
*I *1466:A3 I *D sky130_fd_sc_hd__a31o_2
*I *1486:A I *D sky130_fd_sc_hd__or3b_2
*I *1497:A1 I *D sky130_fd_sc_hd__o311ai_2
*I *1464:A3 I *D sky130_fd_sc_hd__a31o_2
*I *1440:X O *D sky130_fd_sc_hd__and2_2
*CAP
1 *1466:A3 0
2 *1486:A 5.3927e-05
3 *1497:A1 7.21414e-05
4 *1464:A3 0
5 *1440:X 0.000301486
6 *426:29 0.000214228
7 *426:25 0.00058709
8 *426:12 0.000800416
9 *1486:A *618:37 0.0001399
10 *1497:A1 *1465:B1 3.10819e-05
11 *1497:A1 *1468:A 0.000192763
12 *1497:A1 *678:10 0.000161681
13 *426:12 *1440:A 0.000521158
14 *426:12 *1560:A 5.03866e-05
15 *426:12 *618:54 1.04707e-05
16 *426:12 *618:58 3.20782e-05
17 *426:12 *681:83 2.24718e-05
18 *426:25 *1466:B1 0.000395849
19 *426:29 *1468:A 0.000138298
20 *426:29 *678:10 0.000124714
21 *426:29 *678:38 9.16818e-05
22 *1358:A *426:29 4.27842e-06
23 *1366:B *426:12 4.23387e-05
24 *1399:A *426:12 3.14984e-05
25 *1486:B *1486:A 2.59355e-05
26 *335:85 *426:12 2.37147e-05
27 *398:10 *426:25 0.000105078
*RES
1 *1440:X *426:12 25.4429 
2 *426:12 *1464:A3 9.3 
3 *426:12 *426:25 7.26786 
4 *426:25 *426:29 7.35714 
5 *426:29 *1497:A1 16.3536 
6 *426:29 *1486:A 15.1571 
7 *426:25 *1466:A3 9.3 
*END

*D_NET *427 0.00234523
*CONN
*I *1444:A1_N I *D sky130_fd_sc_hd__o2bb2a_2
*I *1443:D I *D sky130_fd_sc_hd__and4_2
*I *1441:Y O *D sky130_fd_sc_hd__nand4_2
*CAP
1 *1444:A1_N 2.41994e-05
2 *1443:D 0.000215204
3 *1441:Y 0.000134812
4 *427:10 0.000374215
5 *1443:D *1402:B1 0.000397472
6 *1443:D *1403:C 9.63113e-05
7 *1443:D *1441:A 7.10813e-05
8 *1443:D *1441:C 0.00014285
9 *1443:D *1444:A2_N 9.71197e-05
10 *1443:D *430:6 1.5424e-05
11 *1443:D *618:88 0
12 *1444:A1_N *1402:B1 0.000110381
13 *1444:A1_N *1444:A2_N 9.7944e-05
14 *427:10 *1441:C 0.000103531
15 *427:10 *1441:D 0.000311589
16 *427:10 *1444:A2_N 1.19191e-05
17 *1402:A1_N *1443:D 1.37292e-05
18 *1402:B2 *1443:D 0.000127446
*RES
1 *1441:Y *427:10 22.3714 
2 *427:10 *1443:D 25.2643 
3 *427:10 *1444:A1_N 10.3804 
*END

*D_NET *428 0.00333101
*CONN
*I *1443:A I *D sky130_fd_sc_hd__and4_2
*I *1444:A2_N I *D sky130_fd_sc_hd__o2bb2a_2
*I *1442:X O *D sky130_fd_sc_hd__a22o_2
*CAP
1 *1443:A 8.5478e-05
2 *1444:A2_N 0.000225427
3 *1442:X 0.000568428
4 *428:12 0.000879333
5 *1443:A *1403:C 8.56716e-05
6 *1443:A *568:10 9.14786e-05
7 *1443:A *690:23 0
8 *1444:A2_N *1402:B1 2.03635e-05
9 *1444:A2_N *1403:C 5.86416e-05
10 *1444:A2_N *1441:C 8.6229e-06
11 *1444:A2_N *1441:D 4.59695e-05
12 *1444:A2_N *430:6 0.0001399
13 *1444:A2_N *690:23 0
14 *428:12 *1441:A 0.000221641
15 *428:12 *1442:B2 0.000100832
16 *1402:A1_N *428:12 2.78509e-05
17 *1402:B2 *1443:A 0
18 *1443:D *1444:A2_N 9.71197e-05
19 *1444:A1_N *1444:A2_N 9.7944e-05
20 *386:8 *428:12 0.000564387
21 *427:10 *1444:A2_N 1.19191e-05
*RES
1 *1442:X *428:12 23.1036 
2 *428:12 *1444:A2_N 18.9607 
3 *428:12 *1443:A 16.3536 
*END

*D_NET *429 0.00655062
*CONN
*I *1464:B1 I *D sky130_fd_sc_hd__a31o_2
*I *1446:B1 I *D sky130_fd_sc_hd__a211o_2
*I *1445:A1 I *D sky130_fd_sc_hd__o211ai_2
*I *1443:X O *D sky130_fd_sc_hd__and4_2
*CAP
1 *1464:B1 0.000688404
2 *1446:B1 0
3 *1445:A1 0.000272348
4 *1443:X 0.000534649
5 *429:10 0.000451277
6 *429:8 0.00140198
7 *1445:A1 *1445:A2 0
8 *1445:A1 *431:14 7.43578e-06
9 *1445:A1 *561:16 1.578e-05
10 *1445:A1 *712:34 0
11 *1445:A1 *712:42 2.95641e-05
12 *1445:A1 *719:14 7.15099e-05
13 *1464:B1 *1361:A1 9.67754e-05
14 *1464:B1 *1361:A2 0.000111367
15 *1464:B1 *1501:A 2.05612e-05
16 *1464:B1 *561:10 8.45327e-05
17 *1464:B1 *678:82 1.51881e-05
18 *1464:B1 *678:109 1.12713e-05
19 *1464:B1 *719:14 8.30438e-05
20 *429:8 *1401:B1 1.40306e-05
21 *429:8 *1401:B2 1.55885e-05
22 *429:8 *679:29 5.76036e-06
23 *429:8 *687:6 9.73506e-05
24 *429:8 *690:34 2.89016e-05
25 *429:10 *561:10 0.000122083
26 *429:10 *561:16 0.000114361
27 *429:10 *719:14 0.000237285
28 *1365:A2 *1464:B1 9.15842e-06
29 *1407:A *1464:B1 5.50052e-05
30 *1414:A *1464:B1 0.000351482
31 *1445:B1 *1445:A1 0.000154027
32 *348:111 *1464:B1 0.000208826
33 *385:10 *429:8 9.60875e-05
34 *391:8 *1464:B1 0.00103228
35 *398:10 *1464:B1 0.000112708
*RES
1 *1443:X *429:8 20.4964 
2 *429:8 *429:10 5.89286 
3 *429:10 *1445:A1 19.1571 
4 *429:10 *1446:B1 13.8 
5 *429:8 *1464:B1 31.6571 
*END

*D_NET *430 0.00275417
*CONN
*I *1445:A2 I *D sky130_fd_sc_hd__o211ai_2
*I *1446:C1 I *D sky130_fd_sc_hd__a211o_2
*I *1444:X O *D sky130_fd_sc_hd__o2bb2a_2
*CAP
1 *1445:A2 0.000119637
2 *1446:C1 0.000161107
3 *1444:X 0.000591408
4 *430:6 0.000872152
5 *1445:A2 *712:34 0
6 *1446:C1 *561:16 0.000142427
7 *430:6 *1441:C 0.000511034
8 *430:6 *561:16 0.000184745
9 *1443:D *430:6 1.5424e-05
10 *1444:A2_N *430:6 0.0001399
11 *1445:A1 *1445:A2 0
12 *1446:A1 *1446:C1 1.6339e-05
*RES
1 *1444:X *430:6 17.6393 
2 *430:6 *1446:C1 11.8 
3 *430:6 *1445:A2 19.9429 
*END

*D_NET *431 0.00303343
*CONN
*I *1449:B I *D sky130_fd_sc_hd__nand4_2
*I *1448:A1 I *D sky130_fd_sc_hd__a22o_2
*I *1445:Y O *D sky130_fd_sc_hd__o211ai_2
*CAP
1 *1449:B 3.3624e-05
2 *1448:A1 0.000273241
3 *1445:Y 0.000325716
4 *431:14 0.000632581
5 *1448:A1 *1448:B1 0.000309266
6 *1448:A1 *433:12 1.74352e-05
7 *1449:B *436:12 2.39876e-05
8 *1449:B *718:10 0
9 *431:14 *1571:A 0.000312114
10 *431:14 *436:12 4.13465e-05
11 *431:14 *712:42 0.000596747
12 *431:14 *718:6 0.000274294
13 *431:14 *718:10 0
14 *431:14 *718:60 8.76257e-05
15 *1445:A1 *431:14 7.43578e-06
16 *1445:C1 *431:14 9.80173e-05
*RES
1 *1445:Y *431:14 25.1571 
2 *431:14 *1448:A1 17.6393 
3 *431:14 *1449:B 14.5321 
*END

*D_NET *432 0.00273896
*CONN
*I *1637:A I *D sky130_fd_sc_hd__buf_6
*I *1007:B I *D sky130_fd_sc_hd__or3b_4
*I *1005:X O *D sky130_fd_sc_hd__and4bb_2
*CAP
1 *1637:A 0.000107318
2 *1007:B 0.000255511
3 *1005:X 0.000160534
4 *432:14 0.000523363
5 *1007:B *1016:C1 8.16036e-05
6 *1007:B *1019:C 0
7 *1007:B *490:8 1.78353e-05
8 *1007:B *490:19 6.8646e-06
9 *1007:B *493:12 0.00015234
10 *1007:B *496:12 0.000124732
11 *1007:B *654:10 0
12 *1637:A *1016:C1 0.000113877
13 *1637:A *496:12 0.000117378
14 *1637:A *659:10 2.89114e-05
15 *432:14 *494:14 0.000244044
16 *432:14 *652:8 0.000196066
17 *432:14 *731:23 0.000183209
18 *1005:A_N *432:14 5.33005e-05
19 *1006:A *1007:B 1.02504e-05
20 *421:20 *1007:B 0.000361816
*RES
1 *1005:X *432:14 18.7107 
2 *432:14 *1007:B 21.2107 
3 *432:14 *1637:A 17.1929 
*END

*D_NET *433 0.00737263
*CONN
*I *1449:C I *D sky130_fd_sc_hd__nand4_2
*I *1448:A2 I *D sky130_fd_sc_hd__a22o_2
*I *1471:A I *D sky130_fd_sc_hd__nor2_2
*I *1469:A I *D sky130_fd_sc_hd__nand3_2
*I *1470:A1 I *D sky130_fd_sc_hd__a21o_2
*I *1446:X O *D sky130_fd_sc_hd__a211o_2
*CAP
1 *1449:C 1.99857e-05
2 *1448:A2 0
3 *1471:A 0.000123745
4 *1469:A 0.000240596
5 *1470:A1 0.000106838
6 *1446:X 0.000286321
7 *433:24 0.000504439
8 *433:22 0.00134626
9 *433:12 0.00124916
10 *433:6 0.000489955
11 *1449:C *1449:D 1.04232e-05
12 *1469:A *1469:B 6.04162e-05
13 *1469:A *1474:A 1.92789e-05
14 *1469:A *436:18 2.61337e-05
15 *1469:A *436:29 6.5185e-05
16 *1469:A *456:14 0
17 *1470:A1 *1498:B1 1.39726e-05
18 *1470:A1 *476:12 5.17614e-05
19 *1471:A *1488:A 7.49332e-05
20 *1471:A *1488:B 0
21 *1471:A *1669:A 0
22 *1471:A *456:14 3.17148e-05
23 *1471:A *456:36 0.000247418
24 *433:6 *1447:B1 2.13202e-05
25 *433:6 *1448:B1 2.44318e-05
26 *433:6 *434:6 5.33334e-05
27 *433:12 *1448:B1 0.000204681
28 *433:22 *1465:A1 1.02821e-05
29 *433:22 *1467:B 8.78006e-05
30 *433:22 *1468:A 2.89114e-05
31 *433:22 *1498:B1 3.30352e-05
32 *433:22 *1513:A 0.000122101
33 *433:22 *456:8 0.000310286
34 *433:22 *681:16 0.00039045
35 *433:22 *681:27 5.52238e-05
36 *433:22 *685:10 0.000420194
37 *433:24 *1498:B1 6.4443e-05
38 *433:24 *456:8 5.33005e-05
39 *1410:A *433:6 5.62995e-05
40 *1410:A *433:12 0.000213688
41 *1448:A1 *433:12 1.74352e-05
42 *1448:B2 *433:12 5.33005e-05
43 *387:27 *433:6 9.92409e-05
44 *387:39 *433:6 8.43286e-05
*RES
1 *1446:X *433:6 15.175 
2 *433:6 *433:12 5.62946 
3 *433:12 *433:22 19.4777 
4 *433:22 *433:24 2.17857 
5 *433:24 *1470:A1 10.6571 
6 *433:24 *1469:A 23.2107 
7 *433:22 *1471:A 21.7643 
8 *433:12 *1448:A2 9.3 
9 *433:6 *1449:C 9.72857 
*END

*D_NET *434 0.0011
*CONN
*I *1449:D I *D sky130_fd_sc_hd__nand4_2
*I *1448:B1 I *D sky130_fd_sc_hd__a22o_2
*I *1447:X O *D sky130_fd_sc_hd__a32o_2
*CAP
1 *1449:D 1.99857e-05
2 *1448:B1 0.000156013
3 *1447:X 4.53191e-05
4 *434:6 0.000221318
5 *1448:A1 *1448:B1 0.000309266
6 *1448:B2 *1448:B1 5.52302e-05
7 *1449:C *1449:D 1.04232e-05
8 *433:6 *1448:B1 2.44318e-05
9 *433:6 *434:6 5.33334e-05
10 *433:12 *1448:B1 0.000204681
*RES
1 *1447:X *434:6 10.2464 
2 *434:6 *1448:B1 13.9429 
3 *434:6 *1449:D 9.72857 
*END

*D_NET *435 0.0034058
*CONN
*I *1450:A I *D sky130_fd_sc_hd__nand2_2
*I *1448:X O *D sky130_fd_sc_hd__a22o_2
*CAP
1 *1450:A 0.00166803
2 *1448:X 0.00166803
3 *1450:A *1450:B 0
4 *1450:A *1465:A2 0
5 *1450:A *1526:A 0
6 *1450:A *1669:A 0
7 *1450:A *618:54 0
8 *1450:A *618:75 0
9 *1450:A *685:10 4.91264e-05
10 *1409:A2 *1450:A 2.06112e-05
11 *1410:A *1450:A 0
*RES
1 *1448:X *1450:A 41.7623 
*END

*D_NET *436 0.00753046
*CONN
*I *1469:B I *D sky130_fd_sc_hd__nand3_2
*I *1450:B I *D sky130_fd_sc_hd__nand2_2
*I *1472:A I *D sky130_fd_sc_hd__nor2_2
*I *1470:A2 I *D sky130_fd_sc_hd__a21o_2
*I *1490:A1 I *D sky130_fd_sc_hd__o21a_2
*I *1449:Y O *D sky130_fd_sc_hd__nand4_2
*CAP
1 *1469:B 0.000105805
2 *1450:B 0.000275279
3 *1472:A 0.000180036
4 *1470:A2 0
5 *1490:A1 6.11123e-05
6 *1449:Y 0.00106695
7 *436:38 0.000621907
8 *436:29 0.000233752
9 *436:18 0.00027002
10 *436:12 0.0013145
11 *1450:B *437:10 7.77751e-05
12 *1450:B *462:10 0
13 *1469:B *1469:C 0
14 *1472:A *1472:B 0.00021493
15 *1490:A1 *456:14 0.000140933
16 *436:12 *1440:A 3.18676e-05
17 *436:12 *1465:B1 0.00057113
18 *436:12 *1488:B 6.12902e-05
19 *436:12 *1532:A 5.33005e-05
20 *436:12 *456:14 5.52302e-05
21 *436:12 *684:10 0.00020659
22 *436:12 *695:8 0.000867056
23 *436:12 *712:42 3.45337e-05
24 *436:18 *1474:A 1.87955e-05
25 *436:18 *456:14 0.000225616
26 *436:29 *1474:A 5.0725e-05
27 *436:29 *456:14 0
28 *436:38 *1474:A 8.36054e-05
29 *436:38 *456:14 0
30 *436:38 *456:36 0
31 *436:38 *462:10 0
32 *1449:B *436:12 2.39876e-05
33 *1450:A *1450:B 0
34 *1469:A *1469:B 6.04162e-05
35 *1469:A *436:18 2.61337e-05
36 *1469:A *436:29 6.5185e-05
37 *1551:A *436:12 0.000259958
38 *1556:A *436:12 0.000230694
39 *431:14 *436:12 4.13465e-05
*RES
1 *1449:Y *436:12 42.6393 
2 *436:12 *436:18 7.41071 
3 *436:18 *1490:A1 15.1571 
4 *436:18 *436:29 1.94643 
5 *436:29 *1470:A2 13.8 
6 *436:29 *436:38 3.46429 
7 *436:38 *1472:A 17.2286 
8 *436:38 *1450:B 18.4607 
9 *436:12 *1469:B 20.55 
*END

*D_NET *437 0.0023618
*CONN
*I *1452:B1 I *D sky130_fd_sc_hd__a21oi_2
*I *1453:A I *D sky130_fd_sc_hd__xor2_2
*I *1476:B1 I *D sky130_fd_sc_hd__a211oi_2
*I *1475:A1 I *D sky130_fd_sc_hd__o21ai_2
*I *1450:Y O *D sky130_fd_sc_hd__nand2_2
*CAP
1 *1452:B1 0.000209242
2 *1453:A 4.23233e-05
3 *1476:B1 0.000240844
4 *1475:A1 0.00018835
5 *1450:Y 0.000238616
6 *437:35 0.000339726
7 *437:10 0.00057965
8 *1452:B1 *1477:A 6.66813e-05
9 *1452:B1 *1477:B 0.000172884
10 *1452:B1 *438:10 4.96177e-05
11 *1453:A *1484:B1 3.73361e-05
12 *437:10 *462:10 0
13 *437:35 *1476:C1 5.50052e-05
14 *437:35 *1484:B1 2.60585e-05
15 *1450:B *437:10 7.77751e-05
16 *1457:A1 *1452:B1 9.15842e-06
17 *399:10 *1452:B1 2.85321e-05
*RES
1 *1450:Y *437:10 18.2286 
2 *437:10 *1475:A1 16.8 
3 *437:10 *1476:B1 16.3536 
4 *1476:B1 *437:35 11.0679 
5 *437:35 *1453:A 10.2464 
6 *437:35 *1452:B1 23.5143 
*END

*D_NET *438 0.001541
*CONN
*I *1453:B I *D sky130_fd_sc_hd__xor2_2
*I *1475:A2 I *D sky130_fd_sc_hd__o21ai_2
*I *1451:X O *D sky130_fd_sc_hd__a21bo_2
*CAP
1 *1453:B 0
2 *1475:A2 0.000161673
3 *1451:X 0.000543977
4 *438:10 0.00070565
5 *1475:A2 *1484:A1 7.25873e-06
6 *1475:A2 *462:10 2.53112e-06
7 *1416:A *438:10 5.18037e-05
8 *1452:B1 *438:10 4.96177e-05
9 *401:8 *438:10 1.84865e-05
*RES
1 *1451:X *438:10 22.7464 
2 *438:10 *1475:A2 16.5857 
3 *438:10 *1453:B 4.5 
*END

*D_NET *439 0.000204003
*CONN
*I *1477:A I *D sky130_fd_sc_hd__xnor2_2
*I *1452:Y O *D sky130_fd_sc_hd__a21oi_2
*CAP
1 *1477:A 6.8661e-05
2 *1452:Y 6.8661e-05
3 *1452:B1 *1477:A 6.66813e-05
*RES
1 *1452:Y *1477:A 29.2429 
*END

*D_NET *440 0.00414601
*CONN
*I *1484:A2 I *D sky130_fd_sc_hd__a31o_2
*I *1454:A I *D sky130_fd_sc_hd__and4_2
*I *1455:B I *D sky130_fd_sc_hd__nor2_2
*I *1458:B1 I *D sky130_fd_sc_hd__o21ai_2
*I *1457:B1 I *D sky130_fd_sc_hd__o21a_2
*I *1453:X O *D sky130_fd_sc_hd__xor2_2
*CAP
1 *1484:A2 4.8819e-05
2 *1454:A 0.000180438
3 *1455:B 9.5783e-05
4 *1458:B1 1.40097e-05
5 *1457:B1 0
6 *1453:X 5.80695e-05
7 *440:25 0.000148013
8 *440:23 0.00041999
9 *440:12 0.000549534
10 *440:6 0.000455091
11 *1454:A *441:6 5.32248e-05
12 *1455:B *1459:A 3.17163e-05
13 *1455:B *1459:B 0.000175519
14 *1455:B *1460:A2 0
15 *1455:B *442:10 7.26841e-05
16 *1458:B1 *1460:A2 1.40306e-05
17 *1458:B1 *441:6 5.71472e-05
18 *1484:A2 *1484:B1 1.17091e-05
19 *440:6 *1484:B1 2.11336e-05
20 *440:12 *1481:A1 0
21 *440:12 *469:12 0
22 *440:12 *470:10 4.68894e-05
23 *440:23 *1459:B 0.000145753
24 *440:23 *1481:A1 0
25 *440:23 *445:22 0.000153047
26 *440:25 *1460:A2 2.51343e-06
27 *440:25 *441:6 8.27532e-05
28 *1427:A1 *1455:B 0
29 *1454:D *1454:A 0.000181996
30 *1458:A1 *1454:A 0.000690405
31 *1458:A1 *440:25 1.21258e-05
32 *1458:A2 *1454:A 0.000228508
33 *1483:A2 *440:12 3.51971e-05
34 *408:20 *440:6 0.000102168
35 *408:20 *440:12 5.77413e-05
*RES
1 *1453:X *440:6 11.0679 
2 *440:6 *440:12 10.8393 
3 *440:12 *1457:B1 13.8 
4 *440:12 *440:23 8.875 
5 *440:23 *440:25 0.946429 
6 *440:25 *1458:B1 9.83571 
7 *440:25 *1455:B 21.4607 
8 *440:23 *1454:A 16.3179 
9 *440:6 *1484:A2 10.3357 
*END

*D_NET *441 0.0040393
*CONN
*I *1479:A2 I *D sky130_fd_sc_hd__o21bai_4
*I *1478:A_N I *D sky130_fd_sc_hd__nand3b_4
*I *1454:X O *D sky130_fd_sc_hd__and4_2
*CAP
1 *1479:A2 3.82418e-05
2 *1478:A_N 0.00027935
3 *1454:X 0.000977764
4 *441:6 0.00129536
5 *1478:A_N *1480:A 0.000355726
6 *1478:A_N *1583:A 0.000338188
7 *441:6 *1460:A2 1.18881e-05
8 *441:6 *1463:A 0.000313235
9 *1454:A *441:6 5.32248e-05
10 *1458:A2 *441:6 0.00012306
11 *1458:B1 *441:6 5.71472e-05
12 *1462:A *441:6 2.65105e-05
13 *1462:B *441:6 8.68595e-05
14 *440:25 *441:6 8.27532e-05
*RES
1 *1454:X *441:6 22.1571 
2 *441:6 *1478:A_N 24.9786 
3 *441:6 *1479:A2 10.0321 
*END

*D_NET *442 0.0023408
*CONN
*I *1459:A I *D sky130_fd_sc_hd__nor2_2
*I *1456:A I *D sky130_fd_sc_hd__inv_2
*I *1461:B2 I *D sky130_fd_sc_hd__o2bb2ai_4
*I *1481:A1 I *D sky130_fd_sc_hd__o21ai_2
*I *1455:Y O *D sky130_fd_sc_hd__nor2_2
*CAP
1 *1459:A 0.000139328
2 *1456:A 0.00018115
3 *1461:B2 0
4 *1481:A1 0.000103542
5 *1455:Y 0
6 *442:21 0.00018115
7 *442:10 0.000416586
8 *442:4 0.000452372
9 *1456:A *1460:A1 0.000354906
10 *1459:A *1459:B 7.46053e-05
11 *1459:A *1462:C 2.15245e-05
12 *1481:A1 *1478:B 0.000177948
13 *1481:A1 *445:22 0
14 *442:10 *1459:B 0
15 *442:10 *1460:A2 3.5707e-05
16 *442:10 *1462:C 3.72932e-05
17 *442:10 *445:22 0
18 *1455:A *1459:A 6.02859e-05
19 *1455:B *1459:A 3.17163e-05
20 *1455:B *442:10 7.26841e-05
21 *424:16 *1481:A1 0
22 *424:16 *442:10 0
23 *440:12 *1481:A1 0
24 *440:23 *1481:A1 0
*RES
1 *1455:Y *442:4 9.3 
2 *442:4 *442:10 10.2321 
3 *442:10 *1481:A1 16.3536 
4 *442:10 *442:21 4.5 
5 *442:21 *1461:B2 9.3 
6 *442:21 *1456:A 13.5679 
7 *442:4 *1459:A 21.05 
*END

*D_NET *443 0.00362059
*CONN
*I *1499:A2 I *D sky130_fd_sc_hd__a22oi_2
*I *1008:B1 I *D sky130_fd_sc_hd__a31o_2
*I *1006:Y O *D sky130_fd_sc_hd__nor2_2
*CAP
1 *1499:A2 8.54285e-05
2 *1008:B1 0.000143175
3 *1006:Y 0.000534795
4 *443:8 0.000763398
5 *1008:B1 *999:A 6.18969e-06
6 *1008:B1 *1000:B1 5.52302e-05
7 *1008:B1 *1000:B2 0.000143167
8 *1008:B1 *1008:A2 5.52238e-05
9 *1008:B1 *1587:A 1.17921e-05
10 *1008:B1 *641:46 9.06586e-05
11 *1008:B1 *677:8 0.000239389
12 *1008:B1 *677:21 4.56437e-05
13 *1499:A2 *641:46 0.000335674
14 *1499:A2 *677:21 0.000344925
15 *443:8 *1006:B 9.71197e-05
16 *443:8 *1524:A 0.000598448
17 *1001:B *1008:B1 5.33334e-05
18 *1006:A *443:8 1.69961e-05
*RES
1 *1006:Y *443:8 20.9071 
2 *443:8 *1008:B1 18.5143 
3 *443:8 *1499:A2 18.175 
*END

*D_NET *444 0.0021038
*CONN
*I *1460:A1 I *D sky130_fd_sc_hd__a22oi_2
*I *1456:Y O *D sky130_fd_sc_hd__inv_2
*CAP
1 *1460:A1 0.000611364
2 *1456:Y 0.000611364
3 *1460:A1 *1461:A2_N 0.000183674
4 *1456:A *1460:A1 0.000354906
5 *424:14 *1460:A1 0.000169405
6 *424:16 *1460:A1 0.00017309
*RES
1 *1456:Y *1460:A1 38.2607 
*END

*D_NET *445 0.00201854
*CONN
*I *1459:B I *D sky130_fd_sc_hd__nor2_2
*I *1461:B1 I *D sky130_fd_sc_hd__o2bb2ai_4
*I *1481:A2 I *D sky130_fd_sc_hd__o21ai_2
*I *1457:X O *D sky130_fd_sc_hd__o21a_2
*CAP
1 *1459:B 0.00041542
2 *1461:B1 0
3 *1481:A2 8.46555e-05
4 *1457:X 0.000206059
5 *445:22 0.000536824
6 *1481:A2 *1478:B 5.50052e-05
7 *1427:A1 *1459:B 0
8 *1455:A *1459:B 7.41531e-05
9 *1455:B *1459:B 0.000175519
10 *1459:A *1459:B 7.46053e-05
11 *1481:A1 *445:22 0
12 *1483:A2 *1481:A2 9.7497e-05
13 *405:21 *1459:B 0
14 *440:23 *1459:B 0.000145753
15 *440:23 *445:22 0.000153047
16 *442:10 *1459:B 0
17 *442:10 *445:22 0
*RES
1 *1457:X *1481:A2 20.7786 
2 *1457:X *445:22 16.2821 
3 *445:22 *1461:B1 13.8 
4 *445:22 *1459:B 21.2107 
*END

*D_NET *446 0.000851129
*CONN
*I *1460:A2 I *D sky130_fd_sc_hd__a22oi_2
*I *1458:Y O *D sky130_fd_sc_hd__o21ai_2
*CAP
1 *1460:A2 0.000265634
2 *1458:Y 0.000265634
3 *1460:A2 *1462:C 0.000154762
4 *1455:B *1460:A2 0
5 *1458:B1 *1460:A2 1.40306e-05
6 *1462:A *1460:A2 0.00010096
7 *440:25 *1460:A2 2.51343e-06
8 *441:6 *1460:A2 1.18881e-05
9 *442:10 *1460:A2 3.5707e-05
*RES
1 *1458:Y *1460:A2 32.1357 
*END

*D_NET *447 0.0016962
*CONN
*I *1462:C I *D sky130_fd_sc_hd__and3_4
*I *1459:Y O *D sky130_fd_sc_hd__nor2_2
*CAP
1 *1462:C 0.000524391
2 *1459:Y 0.000524391
3 *1455:A *1462:C 0.000143375
4 *1459:A *1462:C 2.15245e-05
5 *1460:A2 *1462:C 0.000154762
6 *424:12 *1462:C 3.34366e-05
7 *424:14 *1462:C 0.000201127
8 *424:16 *1462:C 5.58941e-05
9 *442:10 *1462:C 3.72932e-05
*RES
1 *1459:Y *1462:C 36.1179 
*END

*D_NET *448 0.00142804
*CONN
*I *1479:A1 I *D sky130_fd_sc_hd__o21bai_4
*I *1463:B I *D sky130_fd_sc_hd__nor2_2
*I *1460:Y O *D sky130_fd_sc_hd__a22oi_2
*CAP
1 *1479:A1 0
2 *1463:B 8.66226e-05
3 *1460:Y 0.000383844
4 *448:10 0.000470466
5 *1463:B *1480:A 0.000173083
6 *448:10 *1480:A 3.51442e-05
7 *448:10 *1583:A 6.08925e-05
8 p[12] *1463:B 5.52238e-05
9 p[13] *1463:B 8.46728e-05
10 p[13] *448:10 7.80929e-05
*RES
1 *1460:Y *448:10 19.5679 
2 *448:10 *1463:B 16.5857 
3 *448:10 *1479:A1 13.8 
*END

*D_NET *449 0.00119836
*CONN
*I *1478:B I *D sky130_fd_sc_hd__nand3b_4
*I *1461:Y O *D sky130_fd_sc_hd__o2bb2ai_4
*CAP
1 *1478:B 0.000395655
2 *1461:Y 0.000395655
3 *1478:B *466:16 9.61187e-05
4 *1478:B *469:12 3.34366e-05
5 *1481:A1 *1478:B 0.000177948
6 *1481:A2 *1478:B 5.50052e-05
7 *1483:A2 *1478:B 4.4545e-05
8 *424:16 *1478:B 0
*RES
1 *1461:Y *1478:B 35.7429 
*END

*D_NET *450 0.00117581
*CONN
*I *1463:A I *D sky130_fd_sc_hd__nor2_2
*I *1462:X O *D sky130_fd_sc_hd__and3_4
*CAP
1 *1463:A 0.000342703
2 *1462:X 0.000342703
3 *1463:A *1479:B1_N 0
4 *1463:A *1582:A 4.27437e-05
5 *1463:A *1583:A 7.50697e-05
6 p[12] *1463:A 5.33005e-05
7 *1462:B *1463:A 6.05161e-06
8 *441:6 *1463:A 0.000313235
*RES
1 *1462:X *1463:A 34.3143 
*END

*D_NET *451 0.00389811
*CONN
*I *1467:B I *D sky130_fd_sc_hd__and2b_2
*I *1468:A I *D sky130_fd_sc_hd__xor2_2
*I *1464:X O *D sky130_fd_sc_hd__a31o_2
*CAP
1 *1467:B 0.000339368
2 *1468:A 0.000812741
3 *1464:X 0.000473373
4 *1467:B *1488:A 0.000127439
5 *1467:B *1498:B1 0.000227532
6 *1467:B *1669:A 6.42338e-05
7 *1468:A *1465:B1 0.000117245
8 *1468:A *1487:A 0.000151333
9 *1468:A *1487:B 0
10 *1468:A *454:10 0
11 *1468:A *678:8 0.000351482
12 *1468:A *678:82 0.000182806
13 *1497:A1 *1468:A 0.000192763
14 *398:10 *1468:A 0.000602785
15 *426:29 *1468:A 0.000138298
16 *433:22 *1467:B 8.78006e-05
17 *433:22 *1468:A 2.89114e-05
*RES
1 *1464:X *1468:A 41.1179 
2 *1468:A *1467:B 34.725 
*END

*D_NET *452 0.00258705
*CONN
*I *1466:B1 I *D sky130_fd_sc_hd__a31o_2
*I *1465:Y O *D sky130_fd_sc_hd__a22oi_2
*CAP
1 *1466:B1 0.000384888
2 *1465:Y 0.000384888
3 *1466:B1 *1440:A 0.000752761
4 *1466:B1 *1512:A 0.000151141
5 *1466:B1 *681:27 0.000308688
6 *398:10 *1466:B1 0.000208837
7 *426:25 *1466:B1 0.000395849
*RES
1 *1465:Y *1466:B1 41.2607 
*END

*D_NET *453 0.00167224
*CONN
*I *1020:A_N I *D sky130_fd_sc_hd__nand3b_4
*I *1019:A_N I *D sky130_fd_sc_hd__and3b_2
*I *1009:A I *D sky130_fd_sc_hd__and2_4
*I *1007:X O *D sky130_fd_sc_hd__or3b_4
*CAP
1 *1020:A_N 7.28223e-05
2 *1019:A_N 1.1624e-05
3 *1009:A 0.000104036
4 *1007:X 0
5 *453:12 0.000319922
6 *453:4 0.000277084
7 *1009:A *1009:B 3.34295e-05
8 *1009:A *653:26 6.46652e-05
9 *1019:A_N *653:26 5.52238e-05
10 *1019:A_N *675:18 5.52238e-05
11 *1020:A_N *490:8 0.000194833
12 *453:12 *1019:C 6.07626e-05
13 *453:12 *1500:A 9.7659e-05
14 *453:12 *653:26 1.52978e-05
15 *1006:A *1009:A 4.62632e-05
16 *1006:A *1020:A_N 1.02504e-05
17 *1006:A *453:12 6.85604e-05
18 *421:20 *1020:A_N 0.000184583
*RES
1 *1007:X *453:4 9.3 
2 *453:4 *453:12 9.25 
3 *453:12 *1009:A 16.05 
4 *453:12 *1019:A_N 14.3357 
5 *453:4 *1020:A_N 20.8536 
*END

*D_NET *454 0.0020453
*CONN
*I *1467:A_N I *D sky130_fd_sc_hd__and2b_2
*I *1468:B I *D sky130_fd_sc_hd__xor2_2
*I *1466:X O *D sky130_fd_sc_hd__a31o_2
*CAP
1 *1467:A_N 7.78076e-05
2 *1468:B 0.000116866
3 *1466:X 0.000352569
4 *454:10 0.000547243
5 *1467:A_N *1497:A3 0.000271345
6 *1467:A_N *1497:B1 5.52238e-05
7 *1467:A_N *1497:C1 5.71472e-05
8 *1468:B *1487:B 0.000195547
9 *1468:B *1498:B1 0
10 *1468:B *1669:A 0
11 *454:10 *1487:B 0.000145161
12 *454:10 *1497:C1 4.09856e-05
13 *454:10 *1498:B1 0
14 *454:10 *1669:A 0
15 *1468:A *454:10 0
16 *397:10 *454:10 0
17 *398:10 *454:10 0.000185408
*RES
1 *1466:X *454:10 20.2464 
2 *454:10 *1468:B 7.05357 
3 *454:10 *1467:A_N 16.3893 
*END

*D_NET *455 0.00216558
*CONN
*I *1487:A I *D sky130_fd_sc_hd__xnor2_2
*I *1497:A2 I *D sky130_fd_sc_hd__o311ai_2
*I *1467:X O *D sky130_fd_sc_hd__and2b_2
*CAP
1 *1487:A 0.000169608
2 *1497:A2 4.33573e-05
3 *1467:X 0.000430856
4 *455:6 0.000643821
5 *1487:A *1465:B1 5.982e-05
6 *1487:A *1487:B 0.000113362
7 *1487:A *1497:B1 1.40306e-05
8 *1497:A2 *1497:A3 3.25425e-05
9 *455:6 *1497:A3 0.000476013
10 *455:6 *1497:B1 2.47833e-05
11 *455:6 *459:10 6.05161e-06
12 *1468:A *1487:A 0.000151333
*RES
1 *1467:X *455:6 15.175 
2 *455:6 *1497:A2 10.3357 
3 *455:6 *1487:A 22.9071 
*END

*D_NET *456 0.00494375
*CONN
*I *1469:C I *D sky130_fd_sc_hd__nand3_2
*I *1471:B I *D sky130_fd_sc_hd__nor2_2
*I *1472:B I *D sky130_fd_sc_hd__nor2_2
*I *1490:A2 I *D sky130_fd_sc_hd__o21a_2
*I *1470:B1 I *D sky130_fd_sc_hd__a21o_2
*I *1468:X O *D sky130_fd_sc_hd__xor2_2
*CAP
1 *1469:C 0.000381339
2 *1471:B 0
3 *1472:B 0.000362327
4 *1490:A2 0
5 *1470:B1 0.000136583
6 *1468:X 0
7 *456:36 0.000485536
8 *456:14 0.000458372
9 *456:8 0.00053794
10 *456:4 0.00047428
11 *1469:C *1487:B 0
12 *1469:C *1526:A 9.60337e-06
13 *1469:C *1669:A 0.000154833
14 *1469:C *706:6 7.77652e-05
15 *1470:B1 *1474:A 0.000198698
16 *1470:B1 *1498:B1 5.33005e-05
17 *1470:B1 *1585:A 0
18 *1470:B1 *476:12 5.33005e-05
19 *1472:B *462:10 9.71197e-05
20 *456:8 *1498:B1 0.000183324
21 *456:14 *1488:B 0
22 *456:14 *1669:A 0
23 *1469:A *456:14 0
24 *1469:B *1469:C 0
25 *1471:A *456:14 3.17148e-05
26 *1471:A *456:36 0.000247418
27 *1472:A *1472:B 0.00021493
28 *1490:A1 *456:14 0.000140933
29 *1551:A *1469:C 0
30 *433:22 *456:8 0.000310286
31 *433:24 *456:8 5.33005e-05
32 *436:12 *456:14 5.52302e-05
33 *436:18 *456:14 0.000225616
34 *436:29 *456:14 0
35 *436:38 *456:14 0
36 *436:38 *456:36 0
*RES
1 *1468:X *456:4 9.3 
2 *456:4 *456:8 7.91071 
3 *456:8 *456:14 10.9821 
4 *456:14 *1470:B1 21.3893 
5 *456:14 *1490:A2 9.3 
6 *456:8 *456:36 7.66071 
7 *456:36 *1472:B 16.5679 
8 *456:36 *1471:B 9.3 
9 *456:4 *1469:C 25.5679 
*END

*D_NET *457 0.00140566
*CONN
*I *1474:A I *D sky130_fd_sc_hd__nand2_2
*I *1469:Y O *D sky130_fd_sc_hd__nand3_2
*CAP
1 *1474:A 0.00047859
2 *1469:Y 0.00047859
3 *1474:A *1474:B 7.73758e-05
4 *1474:A *1585:A 0
5 *1469:A *1474:A 1.92789e-05
6 *1470:B1 *1474:A 0.000198698
7 *436:18 *1474:A 1.87955e-05
8 *436:29 *1474:A 5.0725e-05
9 *436:38 *1474:A 8.36054e-05
*RES
1 *1469:Y *1474:A 36.5821 
*END

*D_NET *458 0.000270008
*CONN
*I *1474:B I *D sky130_fd_sc_hd__nand2_2
*I *1470:X O *D sky130_fd_sc_hd__a21o_2
*CAP
1 *1474:B 8.20913e-05
2 *1470:X 8.20913e-05
3 *1474:B *462:10 2.84494e-05
4 *1474:A *1474:B 7.73758e-05
*RES
1 *1470:X *1474:B 29.5464 
*END

*D_NET *459 0.00189243
*CONN
*I *1497:A3 I *D sky130_fd_sc_hd__o311ai_2
*I *1488:A I *D sky130_fd_sc_hd__xnor2_2
*I *1471:Y O *D sky130_fd_sc_hd__nor2_2
*CAP
1 *1497:A3 0.000194665
2 *1488:A 7.42079e-05
3 *1471:Y 0.000158887
4 *459:10 0.00042776
5 *1488:A *1488:B 5.80706e-06
6 *1488:A *1669:A 2.05762e-05
7 *1497:A3 *1497:B1 2.21991e-05
8 *1467:A_N *1497:A3 0.000271345
9 *1467:B *1488:A 0.000127439
10 *1471:A *1488:A 7.49332e-05
11 *1497:A2 *1497:A3 3.25425e-05
12 *455:6 *1497:A3 0.000476013
13 *455:6 *459:10 6.05161e-06
*RES
1 *1471:Y *459:10 11.8179 
2 *459:10 *1488:A 20.8536 
3 *459:10 *1497:A3 15.6393 
*END

*D_NET *460 0.000816245
*CONN
*I *1473:A I *D sky130_fd_sc_hd__inv_2
*I *1492:A I *D sky130_fd_sc_hd__nor2_2
*I *1491:B I *D sky130_fd_sc_hd__and2_2
*I *1472:Y O *D sky130_fd_sc_hd__nor2_2
*CAP
1 *1473:A 0
2 *1492:A 3.2468e-05
3 *1491:B 0.000100124
4 *1472:Y 0
5 *460:19 0.00019603
6 *460:4 0.000263685
7 *1491:B *476:24 9.83388e-05
8 *460:19 *461:8 0.000125599
9 *460:19 *462:10 0
*RES
1 *1472:Y *460:4 9.3 
2 *460:4 *1491:B 11.0679 
3 *460:4 *460:19 12.1964 
4 *460:19 *1492:A 9.83571 
5 *460:19 *1473:A 9.3 
*END

*D_NET *461 0.00137009
*CONN
*I *1498:A1 I *D sky130_fd_sc_hd__o211ai_2
*I *1489:A I *D sky130_fd_sc_hd__nor2_2
*I *1473:Y O *D sky130_fd_sc_hd__inv_2
*CAP
1 *1498:A1 2.46036e-05
2 *1489:A 0.000114964
3 *1473:Y 0.000176891
4 *461:8 0.000316459
5 *1489:A *1585:A 0.000169707
6 *1489:A *476:18 1.00332e-05
7 *1498:A1 *1498:B1 9.60939e-05
8 *1498:A1 *476:12 9.60939e-05
9 *461:8 *1585:A 5.33614e-05
10 *461:8 *476:18 0.000186281
11 *460:19 *461:8 0.000125599
*RES
1 *1473:Y *461:8 18.175 
2 *461:8 *1489:A 16.05 
3 *461:8 *1498:A1 14.7464 
*END

*D_NET *462 0.00171894
*CONN
*I *1477:B I *D sky130_fd_sc_hd__xnor2_2
*I *1476:C1 I *D sky130_fd_sc_hd__a211oi_2
*I *1475:B1 I *D sky130_fd_sc_hd__o21ai_2
*I *1474:Y O *D sky130_fd_sc_hd__nand2_2
*CAP
1 *1477:B 0.000106109
2 *1476:C1 1.42311e-05
3 *1475:B1 0
4 *1474:Y 0.000381029
5 *462:21 0.000286178
6 *462:10 0.000546867
7 *1476:C1 *1484:B1 2.85321e-05
8 *1450:B *462:10 0
9 *1452:B1 *1477:B 0.000172884
10 *1472:B *462:10 9.71197e-05
11 *1474:B *462:10 2.84494e-05
12 *1475:A2 *462:10 2.53112e-06
13 *436:38 *462:10 0
14 *437:10 *462:10 0
15 *437:35 *1476:C1 5.50052e-05
16 *460:19 *462:10 0
*RES
1 *1474:Y *462:10 20.3357 
2 *462:10 *1475:B1 13.8 
3 *462:10 *462:21 2.78571 
4 *462:21 *1476:C1 14.3357 
5 *462:21 *1477:B 16.3536 
*END

*D_NET *463 0.000836016
*CONN
*I *1484:A1 I *D sky130_fd_sc_hd__a31o_2
*I *1475:Y O *D sky130_fd_sc_hd__o21ai_2
*CAP
1 *1484:A1 0.000414379
2 *1475:Y 0.000414379
3 *1475:A2 *1484:A1 7.25873e-06
*RES
1 *1475:Y *1484:A1 34.0821 
*END

*D_NET *464 0.000555476
*CONN
*I *1009:B I *D sky130_fd_sc_hd__and2_4
*I *1008:X O *D sky130_fd_sc_hd__a31o_2
*CAP
1 *1009:B 0.000143849
2 *1008:X 0.000143849
3 *1009:B *1524:A 9.60875e-05
4 *1009:B *653:26 7.90284e-05
5 *1009:B *658:23 5.9232e-05
6 *1009:B *675:18 0
7 *1009:A *1009:B 3.34295e-05
*RES
1 *1008:X *1009:B 30.7964 
*END

*D_NET *465 0.00120789
*CONN
*I *1484:B1 I *D sky130_fd_sc_hd__a31o_2
*I *1476:Y O *D sky130_fd_sc_hd__a211oi_2
*CAP
1 *1484:B1 0.000539427
2 *1476:Y 0.000539427
3 *1453:A *1484:B1 3.73361e-05
4 *1476:C1 *1484:B1 2.85321e-05
5 *1484:A2 *1484:B1 1.17091e-05
6 *408:20 *1484:B1 4.27101e-06
7 *437:35 *1484:B1 2.60585e-05
8 *440:6 *1484:B1 2.11336e-05
*RES
1 *1476:Y *1484:B1 25.3143 
*END

*D_NET *466 0.00331243
*CONN
*I *1481:B1 I *D sky130_fd_sc_hd__o21ai_2
*I *1478:C I *D sky130_fd_sc_hd__nand3b_4
*I *1479:B1_N I *D sky130_fd_sc_hd__o21bai_4
*I *1477:Y O *D sky130_fd_sc_hd__xnor2_2
*CAP
1 *1481:B1 0
2 *1478:C 0
3 *1479:B1_N 0.000213464
4 *1477:Y 0.000791948
5 *466:16 0.000332527
6 *466:12 0.000911011
7 *1479:B1_N *1583:A 0
8 *466:12 *1483:B1 2.97489e-05
9 *466:12 *1494:C1 7.63579e-06
10 *1463:A *1479:B1_N 0
11 *1478:B *466:16 9.61187e-05
12 *1482:A2 *466:12 7.74135e-05
13 *1483:A1 *466:12 0.000354086
14 *424:16 *466:12 2.28343e-05
15 *425:16 *1479:B1_N 0.000162125
16 *425:22 *1479:B1_N 0.000226745
17 *425:22 *466:12 8.67779e-05
*RES
1 *1477:Y *466:12 28.8 
2 *466:12 *466:16 2.19643 
3 *466:16 *1479:B1_N 23.2821 
4 *466:16 *1478:C 9.3 
5 *466:12 *1481:B1 9.3 
*END

*D_NET *467 0.000343003
*CONN
*I *1480:B I *D sky130_fd_sc_hd__nand2_2
*I *1478:Y O *D sky130_fd_sc_hd__nand3b_4
*CAP
1 *1480:B 8.30312e-05
2 *1478:Y 8.30312e-05
3 *1480:B *1583:A 0.000176941
*RES
1 *1478:Y *1480:B 29.85 
*END

*D_NET *468 0.00132837
*CONN
*I *1480:A I *D sky130_fd_sc_hd__nand2_2
*I *1479:Y O *D sky130_fd_sc_hd__o21bai_4
*CAP
1 *1480:A 0.000318641
2 *1479:Y 0.000318641
3 *1480:A *1583:A 0.000127137
4 *1463:B *1480:A 0.000173083
5 *1478:A_N *1480:A 0.000355726
6 *448:10 *1480:A 3.51442e-05
*RES
1 *1479:Y *1480:A 35.9571 
*END

*D_NET *469 0.000982974
*CONN
*I *1482:B1 I *D sky130_fd_sc_hd__a21oi_4
*I *1483:B1 I *D sky130_fd_sc_hd__a21o_2
*I *1481:Y O *D sky130_fd_sc_hd__o21ai_2
*CAP
1 *1482:B1 0
2 *1483:B1 9.97741e-05
3 *1481:Y 0.000166226
4 *469:12 0.000266
5 *1483:B1 *1494:C1 6.75952e-05
6 *1483:B1 *470:10 9.84673e-05
7 *1478:B *469:12 3.34366e-05
8 *1482:A2 *469:12 3.51971e-05
9 *1483:A1 *1483:B1 9.54004e-05
10 *1483:A1 *469:12 5.50052e-05
11 *424:16 *469:12 3.61228e-05
12 *440:12 *469:12 0
13 *466:12 *1483:B1 2.97489e-05
*RES
1 *1481:Y *469:12 21.6929 
2 *469:12 *1483:B1 12.7464 
3 *469:12 *1482:B1 9.3 
*END

*D_NET *470 0.00314931
*CONN
*I *1493:B2 I *D sky130_fd_sc_hd__o22ai_2
*I *1636:A I *D sky130_fd_sc_hd__buf_6
*I *1482:Y O *D sky130_fd_sc_hd__a21oi_4
*CAP
1 *1493:B2 0.000105114
2 *1636:A 0.000267489
3 *1482:Y 0.000356537
4 *470:10 0.00072914
5 *1493:B2 *1493:A2 2.47631e-06
6 *1493:B2 *1493:B1 5.71472e-05
7 *1636:A *1495:B1 6.80593e-05
8 *1636:A *1495:B2 0
9 *1636:A *1496:B 1.99099e-05
10 *1636:A *1584:A 0.000144764
11 *1636:A *472:10 7.79781e-06
12 *470:10 *1494:B1 6.97972e-05
13 *470:10 *1494:C1 0.000757385
14 *470:10 *1496:B 6.16744e-05
15 *470:10 *472:8 0.00012518
16 *470:10 *472:10 8.86354e-05
17 p[14] *1636:A 0.00014285
18 *1483:B1 *470:10 9.84673e-05
19 *440:12 *470:10 4.68894e-05
*RES
1 *1482:Y *470:10 26.4071 
2 *470:10 *1636:A 20.8536 
3 *470:10 *1493:B2 15.5857 
*END

*D_NET *471 0.00190328
*CONN
*I *1494:C1 I *D sky130_fd_sc_hd__o211ai_2
*I *1483:X O *D sky130_fd_sc_hd__a21o_2
*CAP
1 *1494:C1 0.000535333
2 *1483:X 0.000535333
3 *1483:B1 *1494:C1 6.75952e-05
4 *466:12 *1494:C1 7.63579e-06
5 *470:10 *1494:C1 0.000757385
*RES
1 *1483:X *1494:C1 39.1179 
*END

*D_NET *472 0.00174931
*CONN
*I *1485:A I *D sky130_fd_sc_hd__inv_2
*I *1495:B1 I *D sky130_fd_sc_hd__o22ai_2
*I *1493:B1 I *D sky130_fd_sc_hd__o22ai_2
*I *1484:X O *D sky130_fd_sc_hd__a31o_2
*CAP
1 *1485:A 2.65071e-05
2 *1495:B1 9.9779e-05
3 *1493:B1 5.89827e-05
4 *1484:X 0.000206179
5 *472:10 0.000367174
6 *472:8 0.000441098
7 *1485:A *1494:B1 2.84109e-05
8 *472:10 *1494:A2 4.62179e-05
9 *472:10 *1494:B1 0.000128146
10 *1493:B2 *1493:B1 5.71472e-05
11 *1636:A *1495:B1 6.80593e-05
12 *1636:A *472:10 7.79781e-06
13 *470:10 *472:8 0.00012518
14 *470:10 *472:10 8.86354e-05
*RES
1 *1484:X *472:8 18.4786 
2 *472:8 *472:10 4.98214 
3 *472:10 *1493:B1 14.8714 
4 *472:10 *1495:B1 16.05 
5 *472:8 *1485:A 14.3357 
*END

*D_NET *473 0.000545762
*CONN
*I *1494:B1 I *D sky130_fd_sc_hd__o211ai_2
*I *1485:Y O *D sky130_fd_sc_hd__inv_2
*CAP
1 *1494:B1 0.000159704
2 *1485:Y 0.000159704
3 *1485:A *1494:B1 2.84109e-05
4 *470:10 *1494:B1 6.97972e-05
5 *472:10 *1494:B1 0.000128146
*RES
1 *1485:Y *1494:B1 30.6 
*END

*D_NET *474 0.00110522
*CONN
*I *1487:B I *D sky130_fd_sc_hd__xnor2_2
*I *1486:X O *D sky130_fd_sc_hd__or3b_2
*CAP
1 *1487:B 0.000325575
2 *1486:X 0.000325575
3 *1487:B *1669:A 0
4 *1468:A *1487:B 0
5 *1468:B *1487:B 0.000195547
6 *1469:C *1487:B 0
7 *1487:A *1487:B 0.000113362
8 *454:10 *1487:B 0.000145161
*RES
1 *1486:X *1487:B 34.1 
*END

*D_NET *475 0.000764882
*CONN
*I *1488:B I *D sky130_fd_sc_hd__xnor2_2
*I *1487:Y O *D sky130_fd_sc_hd__xnor2_2
*CAP
1 *1488:B 0.000271311
2 *1487:Y 0.000271311
3 *1488:B *1669:A 0.000123295
4 *1471:A *1488:B 0
5 *1488:A *1488:B 5.80706e-06
6 *1551:A *1488:B 3.18676e-05
7 *436:12 *1488:B 6.12902e-05
8 *456:14 *1488:B 0
*RES
1 *1487:Y *1488:B 31.8321 
*END

*D_NET *476 0.00362028
*CONN
*I *1498:A2 I *D sky130_fd_sc_hd__o211ai_2
*I *1491:A I *D sky130_fd_sc_hd__and2_2
*I *1492:B I *D sky130_fd_sc_hd__nor2_2
*I *1490:B1 I *D sky130_fd_sc_hd__o21a_2
*I *1489:B I *D sky130_fd_sc_hd__nor2_2
*I *1488:Y O *D sky130_fd_sc_hd__xnor2_2
*CAP
1 *1498:A2 0
2 *1491:A 0
3 *1492:B 0.000110724
4 *1490:B1 0.000209653
5 *1489:B 1.99401e-05
6 *1488:Y 0.000322385
7 *476:32 0.000463481
8 *476:24 0.000442314
9 *476:18 0.000177119
10 *476:12 0.000401802
11 *1489:B *1495:A2 0
12 *1490:B1 *1495:A2 0.000140253
13 *1492:B *1493:A2 0.000165269
14 *476:12 *1498:B1 0.000322563
15 *476:32 *1493:A2 0.000225314
16 *476:32 *1495:A1 9.99853e-05
17 *476:32 *1495:A2 2.36643e-05
18 *1470:A1 *476:12 5.17614e-05
19 *1470:B1 *476:12 5.33005e-05
20 *1489:A *476:18 1.00332e-05
21 *1491:B *476:24 9.83388e-05
22 *1498:A1 *476:12 9.60939e-05
23 *461:8 *476:18 0.000186281
*RES
1 *1488:Y *476:12 16.1571 
2 *476:12 *476:18 11.5536 
3 *476:18 *476:24 6.39286 
4 *476:24 *476:32 10.3571 
5 *476:32 *1489:B 9.72857 
6 *476:32 *1490:B1 13.1393 
7 *476:24 *1492:B 16.3536 
8 *476:18 *1491:A 9.3 
9 *476:12 *1498:A2 9.3 
*END

*D_NET *477 0.000226158
*CONN
*I *1495:A1 I *D sky130_fd_sc_hd__o22ai_2
*I *1489:Y O *D sky130_fd_sc_hd__nor2_2
*CAP
1 *1495:A1 1.30936e-05
2 *1489:Y 1.30936e-05
3 *1495:A1 *1495:A2 9.99853e-05
4 *476:32 *1495:A1 9.99853e-05
*RES
1 *1489:Y *1495:A1 19.5464 
*END

*D_NET *478 0.00073782
*CONN
*I *1495:A2 I *D sky130_fd_sc_hd__o22ai_2
*I *1490:X O *D sky130_fd_sc_hd__o21a_2
*CAP
1 *1495:A2 0.000236959
2 *1490:X 0.000236959
3 *1489:B *1495:A2 0
4 *1490:B1 *1495:A2 0.000140253
5 *1495:A1 *1495:A2 9.99853e-05
6 *476:32 *1495:A2 2.36643e-05
*RES
1 *1490:X *1495:A2 23.6714 
*END

*D_NET *479 0.000811662
*CONN
*I *1493:A1 I *D sky130_fd_sc_hd__o22ai_2
*I *1494:A1 I *D sky130_fd_sc_hd__o211ai_2
*I *1491:X O *D sky130_fd_sc_hd__and2_2
*CAP
1 *1493:A1 0.000126137
2 *1494:A1 4.02048e-05
3 *1491:X 7.05895e-05
4 *479:6 0.000236931
5 *1493:A1 *1493:A2 0.000280464
6 *1493:A1 *1494:A2 2.38651e-06
7 *1493:A1 *1498:C1 5.49489e-05
*RES
1 *1491:X *479:6 10.2464 
2 *479:6 *1494:A1 9.83571 
3 *479:6 *1493:A1 21.6929 
*END

*D_NET *480 0.00171754
*CONN
*I *1493:A2 I *D sky130_fd_sc_hd__o22ai_2
*I *1494:A2 I *D sky130_fd_sc_hd__o211ai_2
*I *1492:Y O *D sky130_fd_sc_hd__nor2_2
*CAP
1 *1493:A2 0.000228076
2 *1494:A2 0.000235231
3 *1492:Y 0
4 *480:4 0.000463307
5 *1493:A2 *1498:C1 6.87943e-05
6 *1492:B *1493:A2 0.000165269
7 *1493:A1 *1493:A2 0.000280464
8 *1493:A1 *1494:A2 2.38651e-06
9 *1493:B2 *1493:A2 2.47631e-06
10 *472:10 *1494:A2 4.62179e-05
11 *476:32 *1493:A2 0.000225314
*RES
1 *1492:Y *480:4 9.3 
2 *480:4 *1494:A2 22.55 
3 *480:4 *1493:A2 25.4786 
*END

*D_NET *481 0.000340128
*CONN
*I *1498:C1 I *D sky130_fd_sc_hd__o211ai_2
*I *1493:Y O *D sky130_fd_sc_hd__o22ai_2
*CAP
1 *1498:C1 0.000108192
2 *1493:Y 0.000108192
3 *1493:A1 *1498:C1 5.49489e-05
4 *1493:A2 *1498:C1 6.87943e-05
*RES
1 *1493:Y *1498:C1 20.7786 
*END

*D_NET *482 0.000462252
*CONN
*I *1496:B I *D sky130_fd_sc_hd__nand2_2
*I *1494:Y O *D sky130_fd_sc_hd__o211ai_2
*CAP
1 *1496:B 0.000160315
2 *1494:Y 0.000160315
3 *1496:B *1584:A 6.0038e-05
4 *1636:A *1496:B 1.99099e-05
5 *470:10 *1496:B 6.16744e-05
*RES
1 *1494:Y *1496:B 30.4929 
*END

*D_NET *483 0.00104632
*CONN
*I *1496:A I *D sky130_fd_sc_hd__nand2_2
*I *1495:Y O *D sky130_fd_sc_hd__o22ai_2
*CAP
1 *1496:A 0.000393443
2 *1495:Y 0.000393443
3 *1496:A *1495:B2 5.65955e-05
4 *1496:A *1584:A 0.000202842
*RES
1 *1495:Y *1496:A 34.7964 
*END

*D_NET *484 0.00220538
*CONN
*I *1015:A I *D sky130_fd_sc_hd__nand4_2
*I *1040:A I *D sky130_fd_sc_hd__nand2_2
*I *1014:A2 I *D sky130_fd_sc_hd__a22o_4
*I *1010:Y O *D sky130_fd_sc_hd__nand4_2
*CAP
1 *1015:A 2.62119e-05
2 *1040:A 0.00023589
3 *1014:A2 0
4 *1010:Y 0.000203801
5 *484:17 0.000431073
6 *484:8 0.000372773
7 *1040:A *1029:A 0
8 *1040:A *1029:B 0
9 *1040:A *491:10 6.5185e-05
10 *1040:A *491:21 5.61433e-05
11 *1040:A *516:10 2.89114e-05
12 *484:8 *1010:A 0.000194698
13 *484:8 *1012:B 3.34366e-05
14 *484:8 *1029:B 0
15 *484:8 *487:10 6.09572e-05
16 *484:8 *645:37 7.25622e-05
17 *484:17 *1012:B 0.000219734
18 *484:17 *1015:B 0.000192204
19 *484:17 *1029:A 0
20 *484:17 *487:10 1.17968e-05
21 *294:39 *484:8 0
*RES
1 *1010:Y *484:8 18.7821 
2 *484:8 *1014:A2 13.8 
3 *484:8 *484:17 4.98214 
4 *484:17 *1040:A 18.55 
5 *484:17 *1015:A 14.3357 
*END

*D_NET *485 0.00262684
*CONN
*I *1498:B1 I *D sky130_fd_sc_hd__o211ai_2
*I *1497:Y O *D sky130_fd_sc_hd__o311ai_2
*CAP
1 *1498:B1 0.000735065
2 *1497:Y 0.000735065
3 *1498:B1 *1497:C1 2.90311e-05
4 *1498:B1 *1585:A 5.33005e-05
5 *1498:B1 *1669:A 8.01164e-05
6 *1467:B *1498:B1 0.000227532
7 *1468:B *1498:B1 0
8 *1470:A1 *1498:B1 1.39726e-05
9 *1470:B1 *1498:B1 5.33005e-05
10 *1498:A1 *1498:B1 9.60939e-05
11 *433:22 *1498:B1 3.30352e-05
12 *433:24 *1498:B1 6.4443e-05
13 *454:10 *1498:B1 0
14 *456:8 *1498:B1 0.000183324
15 *476:12 *1498:B1 0.000322563
*RES
1 *1497:Y *1498:B1 44.0464 
*END

*D_NET *486 0.00142329
*CONN
*I *1500:A I *D sky130_fd_sc_hd__nor2_4
*I *1499:Y O *D sky130_fd_sc_hd__a22oi_2
*CAP
1 *1500:A 0.000314605
2 *1499:Y 0.000314605
3 *1500:A *1006:B 0
4 *1500:A *1014:B1 3.69047e-06
5 *1500:A *1029:A 0.000177227
6 *1500:A *641:50 6.87574e-05
7 *1499:A1 *1500:A 0.000446747
8 *453:12 *1500:A 9.7659e-05
*RES
1 *1499:Y *1500:A 35.7429 
*END

*D_NET *487 0.00165048
*CONN
*I *1015:B I *D sky130_fd_sc_hd__nand4_2
*I *1014:A1 I *D sky130_fd_sc_hd__a22o_4
*I *1011:X O *D sky130_fd_sc_hd__a22o_4
*CAP
1 *1015:B 0.000135478
2 *1014:A1 7.46439e-05
3 *1011:X 0.000183455
4 *487:10 0.000393577
5 *1014:A1 *1014:B2 0.000184773
6 *1014:A1 *653:26 2.89114e-05
7 *1014:A1 *653:28 7.02611e-05
8 *1015:B *1029:B 0.000188703
9 *487:10 *1011:B2 3.14048e-05
10 *487:10 *1029:B 7.73662e-05
11 *487:10 *658:23 3.69047e-06
12 *487:10 *701:41 1.32552e-05
13 *484:8 *487:10 6.09572e-05
14 *484:17 *1015:B 0.000192204
15 *484:17 *487:10 1.17968e-05
*RES
1 *1011:X *487:10 17.1036 
2 *487:10 *1014:A1 15.9964 
3 *487:10 *1015:B 18.4786 
*END

*D_NET *488 0.00622026
*CONN
*I *1014:B1 I *D sky130_fd_sc_hd__a22o_4
*I *1034:A1 I *D sky130_fd_sc_hd__o21ai_2
*I *1035:A1 I *D sky130_fd_sc_hd__a21o_2
*I *1030:A I *D sky130_fd_sc_hd__and2_2
*I *1032:A I *D sky130_fd_sc_hd__nor2_2
*I *1031:A I *D sky130_fd_sc_hd__nand2_2
*I *1015:C I *D sky130_fd_sc_hd__nand4_2
*I *1012:Y O *D sky130_fd_sc_hd__nand4_4
*CAP
1 *1014:B1 0.00010698
2 *1034:A1 0
3 *1035:A1 0.000102738
4 *1030:A 0.000169395
5 *1032:A 3.79435e-05
6 *1031:A 2.06112e-05
7 *1015:C 0
8 *1012:Y 0.000152937
9 *488:55 0.000356178
10 *488:53 0.000220299
11 *488:34 0.000344213
12 *488:21 0.000639785
13 *488:8 0.000495116
14 *1014:B1 *1029:A 0.000150618
15 *1014:B1 *641:50 3.06878e-06
16 *1030:A *1030:B 0.000314139
17 *1030:A *505:47 8.27532e-05
18 *1031:A *1077:A2 3.99614e-06
19 *1031:A *1077:A3 0
20 *1032:A *1032:B 5.33005e-05
21 *1032:A *1034:B1 6.05161e-06
22 *1032:A *508:10 9.41642e-05
23 *1035:A1 *1038:A2 5.33005e-05
24 *1035:A1 *492:8 0
25 *1035:A1 *503:20 2.59355e-05
26 *1035:A1 *510:10 0.000150625
27 *1035:A1 *516:10 0.00022117
28 *488:8 *1029:B 0.00020455
29 *488:8 *734:46 0.000202128
30 *488:21 *1027:A1 0
31 *488:21 *1028:B 9.76689e-05
32 *488:21 *1029:B 0.000613191
33 *488:21 *1077:A2 0.000119493
34 *488:21 *1077:B1 2.44318e-05
35 *488:21 *516:10 9.74588e-05
36 *488:21 *700:78 0
37 *488:21 *731:64 0
38 *488:21 *734:46 2.31791e-05
39 *488:34 *1028:A 0
40 *488:34 *1028:B 0.000174414
41 *488:34 *1077:B1 2.14658e-05
42 *488:34 *505:21 0.000341554
43 *488:34 *659:14 1.39726e-05
44 *488:53 *1034:B1 3.5707e-05
45 *488:53 *505:21 2.80412e-05
46 *488:53 *505:38 7.252e-05
47 *488:53 *505:47 5.52238e-05
48 *488:53 *516:10 0
49 *488:55 *505:47 0.000230482
50 *1500:A *1014:B1 3.69047e-06
51 *305:92 *488:21 0
52 *369:21 *1014:B1 5.57727e-05
*RES
1 *1012:Y *488:8 16.3536 
2 *488:8 *1015:C 13.8 
3 *488:8 *488:21 16.4107 
4 *488:21 *1031:A 9.72857 
5 *488:21 *488:34 9.64286 
6 *488:34 *1032:A 14.7464 
7 *488:34 *488:53 7.94643 
8 *488:53 *488:55 2.17857 
9 *488:55 *1030:A 13.1214 
10 *488:55 *1035:A1 21.6929 
11 *488:53 *1034:A1 9.3 
12 *1012:Y *1014:B1 30.0821 
*END

*D_NET *489 0.00232019
*CONN
*I *1014:B2 I *D sky130_fd_sc_hd__a22o_4
*I *1015:D I *D sky130_fd_sc_hd__nand4_2
*I *1013:X O *D sky130_fd_sc_hd__a22o_2
*CAP
1 *1014:B2 0.000172548
2 *1015:D 0.000119699
3 *1013:X 5.29682e-05
4 *489:6 0.000345214
5 *1014:B2 *653:26 4.35336e-05
6 *1014:B2 *653:28 6.94273e-05
7 *1015:D *1013:A2 8.68665e-05
8 *1015:D *731:64 9.57064e-05
9 *1015:D *734:46 0.000340073
10 *489:6 *1013:A2 7.32173e-05
11 *489:6 *653:28 3.48705e-05
12 *1014:A1 *1014:B2 0.000184773
13 *294:45 *1014:B2 0.000476709
14 *294:45 *489:6 0.000224583
*RES
1 *1013:X *489:6 11.4786 
2 *489:6 *1015:D 22.675 
3 *489:6 *1014:B2 14.7821 
*END

*D_NET *490 0.00367368
*CONN
*I *1016:B1 I *D sky130_fd_sc_hd__o211a_2
*I *1018:A2 I *D sky130_fd_sc_hd__a211o_4
*I *1017:B1 I *D sky130_fd_sc_hd__o211ai_2
*I *1014:X O *D sky130_fd_sc_hd__a22o_4
*CAP
1 *1016:B1 0.000114429
2 *1018:A2 0.000231757
3 *1017:B1 3.63532e-05
4 *1014:X 0.00017698
5 *490:19 0.000396242
6 *490:8 0.00026339
7 *1016:B1 *1016:A2 0.00020212
8 *1016:B1 *1016:C1 0.000414755
9 *1016:B1 *583:8 0.000197984
10 *1016:B1 *583:10 2.24646e-05
11 *1017:B1 *1017:C1 4.38128e-05
12 *1017:B1 *491:21 5.52302e-05
13 *1018:A2 *1018:A1 4.22908e-05
14 *1018:A2 *1018:C1 0.0001399
15 *1018:A2 *652:8 1.98839e-05
16 *1018:A2 *731:23 4.40008e-05
17 *490:8 *1006:B 0.000581009
18 *490:8 *583:10 1.02504e-05
19 *490:19 *1016:C1 0.000126446
20 *490:19 *583:10 0.000140375
21 *1006:A *490:8 9.21958e-05
22 *1007:B *490:8 1.78353e-05
23 *1007:B *490:19 6.8646e-06
24 *1020:A_N *490:8 0.000194833
25 *421:20 *1017:B1 1.33343e-05
26 *421:20 *490:8 8.89385e-05
*RES
1 *1014:X *490:8 21.2107 
2 *490:8 *1017:B1 14.7464 
3 *490:8 *490:19 1.94643 
4 *490:19 *1018:A2 18.05 
5 *490:19 *1016:B1 19.0857 
*END

*D_NET *491 0.00380527
*CONN
*I *1018:A1 I *D sky130_fd_sc_hd__a211o_4
*I *1017:C1 I *D sky130_fd_sc_hd__o211ai_2
*I *1016:C1 I *D sky130_fd_sc_hd__o211a_2
*I *1040:B I *D sky130_fd_sc_hd__nand2_2
*I *1015:Y O *D sky130_fd_sc_hd__nand4_2
*CAP
1 *1018:A1 0.00022245
2 *1017:C1 0.00012002
3 *1016:C1 0.00024241
4 *1040:B 0
5 *1015:Y 0.000117148
6 *491:21 0.000794362
7 *491:12 0.000431931
8 *491:10 0.000339598
9 *1016:C1 *496:12 0
10 *1018:A1 *1029:A 0
11 *1018:A1 *1029:B 7.33494e-06
12 *1018:A1 *516:10 0.000177948
13 *1018:A1 *731:23 0.000151071
14 *491:10 *1029:A 0
15 *491:10 *1029:B 8.06427e-05
16 *491:21 *1017:A1 5.52238e-05
17 *1007:B *1016:C1 8.16036e-05
18 *1016:B1 *1016:C1 0.000414755
19 *1017:B1 *1017:C1 4.38128e-05
20 *1017:B1 *491:21 5.52302e-05
21 *1018:A2 *1018:A1 4.22908e-05
22 *1040:A *491:10 6.5185e-05
23 *1040:A *491:21 5.61433e-05
24 *1637:A *1016:C1 0.000113877
25 *421:20 *1017:C1 6.57914e-05
26 *490:19 *1016:C1 0.000126446
*RES
1 *1015:Y *491:10 16.2821 
2 *491:10 *491:12 4.5 
3 *491:12 *1040:B 9.3 
4 *491:12 *491:21 6.71429 
5 *491:21 *1016:C1 25.6393 
6 *491:21 *1017:C1 11.4964 
7 *491:10 *1018:A1 19.3714 
*END

*D_NET *492 0.00280374
*CONN
*I *1045:B1 I *D sky130_fd_sc_hd__a21oi_4
*I *1043:B I *D sky130_fd_sc_hd__nand3_2
*I *1016:X O *D sky130_fd_sc_hd__o211a_2
*CAP
1 *1045:B1 9.97494e-05
2 *1043:B 3.46592e-05
3 *1016:X 0.000609766
4 *492:8 0.000744174
5 *1043:B *1044:A 4.8347e-06
6 *1045:B1 *1044:A 1.41029e-05
7 *1045:B1 *1084:A2 0.000217478
8 *1045:B1 *1084:B1 0.000112106
9 *1045:B1 *496:25 1.02504e-05
10 *492:8 *1036:A2 5.16583e-05
11 *492:8 *1044:A 0.00036377
12 *492:8 *1046:A1 5.26184e-05
13 *492:8 *1046:A2 1.18064e-05
14 *492:8 *496:12 0
15 *492:8 *496:25 0.000127446
16 *492:8 *503:20 0
17 *492:8 *505:21 0.000197977
18 *492:8 *505:38 0.00015134
19 *492:8 *510:10 0
20 *1035:A1 *492:8 0
*RES
1 *1016:X *492:8 27.8893 
2 *492:8 *1043:B 14.3357 
3 *492:8 *1045:B1 17.1929 
*END

*D_NET *493 0.00176269
*CONN
*I *1499:B1 I *D sky130_fd_sc_hd__a22oi_2
*I *1019:B I *D sky130_fd_sc_hd__and3b_2
*I *1020:B I *D sky130_fd_sc_hd__nand3b_4
*I *1017:Y O *D sky130_fd_sc_hd__o211ai_2
*CAP
1 *1499:B1 0
2 *1019:B 9.18553e-05
3 *1020:B 0
4 *1017:Y 8.30484e-05
5 *493:23 0.000183376
6 *493:12 0.00017457
7 *1019:B *1019:C 0.000156369
8 *1019:B *1500:B 0.000153047
9 *1019:B *654:10 1.02504e-05
10 *1019:B *675:18 3.30099e-06
11 *493:12 *1500:B 8.07313e-05
12 *493:12 *1588:A 0.000142856
13 *493:12 *496:12 8.00806e-05
14 *493:12 *654:10 0
15 *493:23 *1020:C 9.25014e-06
16 *493:23 *1500:B 0.000164638
17 *493:23 *1588:A 9.60875e-05
18 *493:23 *654:10 0.000160403
19 *493:23 *734:132 2.04866e-05
20 *1007:B *493:12 0.00015234
*RES
1 *1017:Y *493:12 21.6036 
2 *493:12 *1020:B 9.3 
3 *493:12 *493:23 7.69643 
4 *493:23 *1019:B 16.2821 
5 *493:23 *1499:B1 13.8 
*END

*D_NET *494 0.00147388
*CONN
*I *1698:A I *D sky130_fd_sc_hd__buf_6
*I *1020:C I *D sky130_fd_sc_hd__nand3b_4
*I *1018:X O *D sky130_fd_sc_hd__a211o_4
*CAP
1 *1698:A 2.52229e-05
2 *1020:C 9.32973e-05
3 *1018:X 0.000252936
4 *494:14 0.000371456
5 *1020:C *496:12 0
6 *1020:C *654:10 9.65075e-05
7 *1020:C *734:132 9.53302e-05
8 *1698:A *654:10 5.52238e-05
9 *494:14 *496:12 0
10 *494:14 *652:8 2.14757e-05
11 *1004:B2 *1020:C 7.6644e-05
12 *1004:B2 *494:14 0.000126439
13 *1005:A_N *494:14 6.05161e-06
14 *432:14 *494:14 0.000244044
15 *493:23 *1020:C 9.25014e-06
*RES
1 *1018:X *494:14 18.9964 
2 *494:14 *1020:C 16.6571 
3 *494:14 *1698:A 14.3357 
*END

*D_NET *495 0.00190195
*CONN
*I *1500:B I *D sky130_fd_sc_hd__nor2_4
*I *1019:X O *D sky130_fd_sc_hd__and3b_2
*CAP
1 *1500:B 0.00058056
2 *1019:X 0.00058056
3 *1500:B *1588:A 7.46132e-05
4 *1500:B *734:132 0.0002678
5 *1019:B *1500:B 0.000153047
6 *493:12 *1500:B 8.07313e-05
7 *493:23 *1500:B 0.000164638
*RES
1 *1019:X *1500:B 37.2607 
*END

*D_NET *496 0.0050144
*CONN
*I *1084:A2 I *D sky130_fd_sc_hd__o21ai_4
*I *1047:A1 I *D sky130_fd_sc_hd__o21ba_2
*I *1046:B1 I *D sky130_fd_sc_hd__o21a_2
*I *1020:Y O *D sky130_fd_sc_hd__nand3b_4
*CAP
1 *1084:A2 0.000214942
2 *1047:A1 5.94667e-05
3 *1046:B1 0
4 *1020:Y 0.00122501
5 *496:25 0.000509679
6 *496:12 0.00146028
7 *1047:A1 *1047:A2 5.33005e-05
8 *1047:A1 *1589:A 6.05161e-06
9 *1084:A2 *1046:A2 3.34366e-05
10 *1084:A2 *1084:A1 0.000117903
11 *1084:A2 *1084:B1 0.000106873
12 *1084:A2 *521:8 0.000241665
13 *496:12 *1046:A1 0
14 *496:12 *1588:A 0
15 *496:12 *654:10 4.57445e-05
16 *496:25 *1036:A2 1.74352e-05
17 *496:25 *1046:A2 0.000245251
18 *1004:B2 *496:12 0
19 *1007:B *496:12 0.000124732
20 *1016:C1 *496:12 0
21 *1020:C *496:12 0
22 *1045:B1 *1084:A2 0.000217478
23 *1045:B1 *496:25 1.02504e-05
24 *1637:A *496:12 0.000117378
25 *411:10 *496:12 0
26 *492:8 *496:12 0
27 *492:8 *496:25 0.000127446
28 *493:12 *496:12 8.00806e-05
29 *494:14 *496:12 0
*RES
1 *1020:Y *496:12 41.4429 
2 *496:12 *1046:B1 9.3 
3 *496:12 *496:25 9.05357 
4 *496:25 *1047:A1 14.7464 
5 *496:25 *1084:A2 20.55 
*END

*D_NET *497 0.00167623
*CONN
*I *1064:A I *D sky130_fd_sc_hd__nand2_4
*I *1065:A1 I *D sky130_fd_sc_hd__o211ai_4
*I *1021:Y O *D sky130_fd_sc_hd__nand2_2
*CAP
1 *1064:A 0.000329738
2 *1065:A1 0.000115286
3 *1021:Y 0
4 *497:6 0.000445024
5 *1064:A *1021:A 3.51442e-05
6 *1064:A *1026:A 0.00019187
7 *1064:A *1064:B 0
8 *1064:A *1066:A 0
9 *1064:A *499:36 0
10 *1064:A *503:8 0
11 *1064:A *665:41 5.07157e-05
12 *1065:A1 *1021:A 0.000156877
13 *1065:A1 *1023:B2 4.97732e-05
14 *1065:A1 *1026:A 3.34366e-05
15 *1065:A1 *665:41 1.78447e-05
16 *1069:B *1064:A 0.000153047
17 *56:10 *1064:A 9.74684e-05
*RES
1 *1021:Y *497:6 13.8 
2 *497:6 *1065:A1 16.9964 
3 *497:6 *1064:A 21.7464 
*END

*D_NET *498 0.000413974
*CONN
*I *1065:A2 I *D sky130_fd_sc_hd__o211ai_4
*I *1022:Y O *D sky130_fd_sc_hd__a22oi_2
*CAP
1 *1065:A2 9.61732e-05
2 *1022:Y 9.61732e-05
3 *1065:A2 *1023:B2 3.34366e-05
4 *1065:A2 *665:41 0
5 *1065:A2 *705:26 3.51442e-05
6 *1065:A2 *705:35 0.000153047
*RES
1 *1022:Y *1065:A2 30.1536 
*END

*D_NET *499 0.0046619
*CONN
*I *1066:A I *D sky130_fd_sc_hd__nand4_4
*I *1086:A3 I *D sky130_fd_sc_hd__a41o_2
*I *1025:B1 I *D sky130_fd_sc_hd__a22oi_2
*I *1027:A2 I *D sky130_fd_sc_hd__a21oi_4
*I *1023:X O *D sky130_fd_sc_hd__a22o_4
*CAP
1 *1066:A 0.000164
2 *1086:A3 0.000135799
3 *1025:B1 0
4 *1027:A2 0.000300528
5 *1023:X 0.00031789
6 *499:36 0.000384916
7 *499:16 0.00038202
8 *499:10 0.0004845
9 *1027:A2 *1027:B1 2.00751e-05
10 *1027:A2 *503:8 0.000186932
11 *1027:A2 *665:41 0
12 *1066:A *503:8 9.76928e-05
13 *1086:A3 *1026:B 2.44318e-05
14 *1086:A3 *1026:C 9.90367e-05
15 *1086:A3 *1070:C 0.000104298
16 *1086:A3 *1086:A1 9.41642e-05
17 *1086:A3 *622:66 0.000114655
18 *499:10 *1025:B2 0.0002083
19 *499:10 *1027:B1 9.25014e-06
20 *499:10 *500:21 0.00014183
21 *499:10 *503:8 4.66203e-05
22 *499:10 *665:41 0.000105689
23 *499:16 *1021:B 0.000197427
24 *499:16 *1025:B2 5.52302e-05
25 *499:36 *503:8 8.359e-05
26 *499:36 *665:41 0.000113038
27 *1033:A1 *1066:A 9.90367e-05
28 *1064:A *1066:A 0
29 *1064:A *499:36 0
30 *56:10 *1086:A3 0.000271345
31 *305:92 *1027:A2 0.000419606
*RES
1 *1023:X *499:10 18.55 
2 *499:10 *499:16 6.69643 
3 *499:16 *1027:A2 26.175 
4 *499:16 *1025:B1 9.3 
5 *499:10 *499:36 2.25 
6 *499:36 *1086:A3 18.8536 
7 *499:36 *1066:A 17.3 
*END

*D_NET *500 0.00368224
*CONN
*I *1064:B I *D sky130_fd_sc_hd__nand2_4
*I *1025:B2 I *D sky130_fd_sc_hd__a22oi_2
*I *1026:A I *D sky130_fd_sc_hd__and3_4
*I *1065:B1 I *D sky130_fd_sc_hd__o211ai_4
*I *1024:Y O *D sky130_fd_sc_hd__nand4_4
*CAP
1 *1064:B 0.000305504
2 *1025:B2 0.000155526
3 *1026:A 6.14864e-05
4 *1065:B1 0
5 *1024:Y 0.000107817
6 *500:21 0.000308143
7 *500:17 0.00045284
8 *500:8 0.000164021
9 *1025:B2 *1021:B 1.86816e-05
10 *1026:A *1023:B2 2.94103e-05
11 *1064:B *1023:B2 1.97381e-05
12 *1064:B *1066:B 0.000148903
13 *1064:B *622:53 0.00019187
14 *1064:B *622:62 0.00010326
15 *500:8 *1023:B2 3.43988e-06
16 *500:8 *622:53 0.000309954
17 *500:8 *722:69 0.000300075
18 *500:17 *1023:B2 6.35998e-05
19 *500:17 *622:53 0.000168909
20 *500:21 *1023:B2 7.48091e-05
21 *1064:A *1026:A 0.00019187
22 *1064:A *1064:B 0
23 *1065:A1 *1026:A 3.34366e-05
24 *1086:B1 *1064:B 7.79781e-06
25 *48:8 *1064:B 5.57914e-05
26 *56:10 *1064:B 0
27 *499:10 *1025:B2 0.0002083
28 *499:10 *500:21 0.00014183
29 *499:16 *1025:B2 5.52302e-05
*RES
1 *1024:Y *500:8 17.8714 
2 *500:8 *1065:B1 13.8 
3 *500:8 *500:17 2.25 
4 *500:17 *500:21 6.67857 
5 *500:21 *1026:A 21.1571 
6 *500:21 *1025:B2 12.7464 
7 *500:17 *1064:B 21.5143 
*END

*D_NET *501 0.000663391
*CONN
*I *1027:B1 I *D sky130_fd_sc_hd__a21oi_4
*I *1025:Y O *D sky130_fd_sc_hd__a22oi_2
*CAP
1 *1027:B1 9.80317e-05
2 *1025:Y 9.80317e-05
3 *1027:B1 *503:8 0.000271951
4 *1027:B1 *665:41 0.000166051
5 *1027:A2 *1027:B1 2.00751e-05
6 *499:10 *1027:B1 9.25014e-06
*RES
1 *1025:Y *1027:B1 31.6714 
*END

*D_NET *502 0.00152898
*CONN
*I *1027:A1 I *D sky130_fd_sc_hd__a21oi_4
*I *1026:X O *D sky130_fd_sc_hd__and3_4
*CAP
1 *1027:A1 0.000274291
2 *1026:X 0.000274291
3 *1027:A1 *1026:C 0.000288082
4 *1027:A1 *1070:C 0.000180764
5 *1027:A1 *700:78 0.000212831
6 *1027:A1 *731:42 0.000153047
7 *56:10 *1027:A1 1.21258e-05
8 *305:92 *1027:A1 0.000133544
9 *488:21 *1027:A1 0
*RES
1 *1026:X *1027:A1 36.1714 
*END

*D_NET *503 0.00460065
*CONN
*I *1037:B1 I *D sky130_fd_sc_hd__a21o_2
*I *1038:B1 I *D sky130_fd_sc_hd__o211a_4
*I *1036:B1 I *D sky130_fd_sc_hd__a21oi_2
*I *1039:C1 I *D sky130_fd_sc_hd__o211ai_2
*I *1027:Y O *D sky130_fd_sc_hd__a21oi_4
*CAP
1 *1037:B1 0.00019241
2 *1038:B1 0
3 *1036:B1 0.000139918
4 *1039:C1 0
5 *1027:Y 0.000560562
6 *503:20 0.000590672
7 *503:12 0.000581845
8 *503:8 0.000884063
9 *1036:B1 *1036:A1 0.000173482
10 *1036:B1 *1036:A2 0
11 *1036:B1 *516:10 4.97121e-06
12 *1036:B1 *517:36 0.00010096
13 *1037:B1 *1037:A2 0
14 *1037:B1 *509:8 0
15 *1037:B1 *509:23 0
16 *1037:B1 *514:10 0.000154762
17 *503:8 *509:8 0
18 *503:20 *1036:A2 0
19 *503:20 *1037:A2 1.57523e-05
20 *503:20 *1038:A2 6.94012e-05
21 *503:20 *1038:C1 7.77652e-05
22 *503:20 *1039:A2 0.000148189
23 *503:20 *510:10 5.83304e-05
24 *503:20 *516:10 9.11365e-06
25 *1027:A2 *503:8 0.000186932
26 *1027:B1 *503:8 0.000271951
27 *1035:A1 *503:20 2.59355e-05
28 *1064:A *503:8 0
29 *1066:A *503:8 9.76928e-05
30 *1069:B *1037:B1 0
31 *1069:B *503:8 0
32 *56:10 *1037:B1 0
33 *305:92 *503:8 0.000125736
34 *492:8 *503:20 0
35 *499:10 *503:8 4.66203e-05
36 *499:36 *503:8 8.359e-05
*RES
1 *1027:Y *503:8 27.5857 
2 *503:8 *503:12 6.67857 
3 *503:12 *503:20 12.8393 
4 *503:20 *1039:C1 13.8 
5 *503:20 *1036:B1 17.7107 
6 *503:12 *1038:B1 9.3 
7 *503:8 *1037:B1 17.7107 
*END

*D_NET *504 0.000515618
*CONN
*I *1034:B1 I *D sky130_fd_sc_hd__o21ai_2
*I *1028:X O *D sky130_fd_sc_hd__and2_2
*CAP
1 *1034:B1 0.000201068
2 *1028:X 0.000201068
3 *1034:B1 *508:10 7.17223e-05
4 *1034:B1 *516:10 0
5 *1032:A *1034:B1 6.05161e-06
6 *488:53 *1034:B1 3.5707e-05
*RES
1 *1028:X *1034:B1 30.7071 
*END

*D_NET *505 0.00399817
*CONN
*I *1035:A2 I *D sky130_fd_sc_hd__a21o_2
*I *1030:B I *D sky130_fd_sc_hd__and2_2
*I *1034:A2 I *D sky130_fd_sc_hd__o21ai_2
*I *1032:B I *D sky130_fd_sc_hd__nor2_2
*I *1031:B I *D sky130_fd_sc_hd__nand2_2
*I *1029:Y O *D sky130_fd_sc_hd__nand2_2
*CAP
1 *1035:A2 5.91362e-05
2 *1030:B 0.000126188
3 *1034:A2 0
4 *1032:B 9.72584e-05
5 *1031:B 0
6 *1029:Y 8.79989e-05
7 *505:47 0.000349472
8 *505:38 0.000255191
9 *505:21 0.0003598
10 *505:10 0.000259498
11 *1030:B *506:8 0.000195386
12 *1032:B *508:10 4.72917e-05
13 *1035:A2 *1033:B1 5.66157e-05
14 *1035:A2 *1039:A1 3.51442e-05
15 *1035:A2 *506:19 0.000125731
16 *1035:A2 *516:10 0.00020042
17 *505:10 *1016:A1 0
18 *505:10 *1028:A 5.83304e-05
19 *505:10 *516:10 0
20 *505:10 *659:10 7.6644e-05
21 *505:21 *1028:A 0
22 *505:47 *510:10 8.07313e-05
23 *1030:A *1030:B 0.000314139
24 *1030:A *505:47 8.27532e-05
25 *1032:A *1032:B 5.33005e-05
26 *488:34 *505:21 0.000341554
27 *488:53 *505:21 2.80412e-05
28 *488:53 *505:38 7.252e-05
29 *488:53 *505:47 5.52238e-05
30 *488:55 *505:47 0.000230482
31 *492:8 *505:21 0.000197977
32 *492:8 *505:38 0.00015134
*RES
1 *1029:Y *505:10 20.2464 
2 *505:10 *1031:B 9.3 
3 *505:10 *505:21 9.42857 
4 *505:21 *1032:B 15.5857 
5 *505:21 *505:38 6.98214 
6 *505:38 *1034:A2 9.3 
7 *505:38 *505:47 4.25 
8 *505:47 *1030:B 13.55 
9 *505:47 *1035:A2 20.8536 
*END

*D_NET *506 0.00221989
*CONN
*I *1039:A1 I *D sky130_fd_sc_hd__o211ai_2
*I *1038:A1 I *D sky130_fd_sc_hd__o211a_4
*I *1033:B1 I *D sky130_fd_sc_hd__o22ai_4
*I *1030:X O *D sky130_fd_sc_hd__and2_2
*CAP
1 *1039:A1 0.000233868
2 *1038:A1 0
3 *1033:B1 9.44134e-05
4 *1030:X 0.000314572
5 *506:19 0.00028485
6 *506:8 0.000459967
7 *1033:B1 *509:8 8.95956e-05
8 *1033:B1 *516:10 0.000102071
9 *1039:A1 *1037:A1 2.89016e-05
10 *1039:A1 *1039:A2 1.24368e-05
11 *1039:A1 *509:8 7.79781e-06
12 *1039:A1 *509:23 4.03318e-05
13 *1039:A1 *509:34 4.33174e-05
14 *1039:A1 *516:10 5.51406e-05
15 *506:19 *509:8 3.97543e-05
16 *1030:B *506:8 0.000195386
17 *1035:A2 *1033:B1 5.66157e-05
18 *1035:A2 *1039:A1 3.51442e-05
19 *1035:A2 *506:19 0.000125731
*RES
1 *1030:X *506:8 18.0321 
2 *506:8 *1033:B1 16.9607 
3 *506:8 *506:19 1.64286 
4 *506:19 *1038:A1 13.8 
5 *506:19 *1039:A1 17.9429 
*END

*D_NET *507 0.000443266
*CONN
*I *1077:A2 I *D sky130_fd_sc_hd__a31o_2
*I *1031:Y O *D sky130_fd_sc_hd__nand2_2
*CAP
1 *1077:A2 6.46841e-05
2 *1031:Y 6.46841e-05
3 *1077:A2 *1028:B 1.00764e-05
4 *1077:A2 *1070:C 5.04616e-05
5 *1077:A2 *1077:A3 3.99614e-06
6 *1077:A2 *1077:B1 5.52302e-05
7 *1077:A2 *659:14 7.06444e-05
8 *1031:A *1077:A2 3.99614e-06
9 *488:21 *1077:A2 0.000119493
*RES
1 *1031:Y *1077:A2 20.8768 
*END

*D_NET *508 0.00165038
*CONN
*I *1077:B1 I *D sky130_fd_sc_hd__a31o_2
*I *1033:B2 I *D sky130_fd_sc_hd__o22ai_4
*I *1032:Y O *D sky130_fd_sc_hd__nor2_2
*CAP
1 *1077:B1 0.000129245
2 *1033:B2 6.17285e-05
3 *1032:Y 0.000247083
4 *508:10 0.000438057
5 *1077:B1 *1028:A 0.000222885
6 *1077:B1 *1028:B 7.79781e-06
7 *1077:B1 *516:10 8.64227e-05
8 *1077:B1 *659:14 0.000142856
9 *1032:A *508:10 9.41642e-05
10 *1032:B *508:10 4.72917e-05
11 *1034:B1 *508:10 7.17223e-05
12 *1077:A2 *1077:B1 5.52302e-05
13 *488:21 *1077:B1 2.44318e-05
14 *488:34 *1077:B1 2.14658e-05
*RES
1 *1032:Y *508:10 14.0857 
2 *508:10 *1033:B2 10.2464 
3 *508:10 *1077:B1 22.8179 
*END

*D_NET *509 0.00334719
*CONN
*I *1036:A1 I *D sky130_fd_sc_hd__a21oi_2
*I *1039:B1 I *D sky130_fd_sc_hd__o211ai_2
*I *1037:A1 I *D sky130_fd_sc_hd__a21o_2
*I *1038:C1 I *D sky130_fd_sc_hd__o211a_4
*I *1033:Y O *D sky130_fd_sc_hd__o22ai_4
*CAP
1 *1036:A1 0.000286452
2 *1039:B1 1.24159e-05
3 *1037:A1 0.000120063
4 *1038:C1 3.0362e-05
5 *1033:Y 0.000270312
6 *509:34 0.000401201
7 *509:23 0.000430932
8 *509:8 0.00050921
9 *1036:A1 *1036:A2 4.58194e-05
10 *1036:A1 *1039:A2 2.28598e-05
11 *1036:A1 *1041:C 5.52302e-05
12 *1036:A1 *1042:A1 0.000230475
13 *1036:A1 *1046:A2 0
14 *1036:A1 *516:10 0.000201127
15 *1036:A1 *516:25 3.34366e-05
16 *1036:A1 *517:36 1.39726e-05
17 *1037:A1 *1039:A2 3.99614e-06
18 *1038:C1 *1037:A2 7.77652e-05
19 *1039:B1 *1039:A2 5.7661e-06
20 *509:8 *516:10 0
21 *509:23 *1037:A2 3.5707e-05
22 *509:23 *514:10 0
23 *509:23 *515:12 5.80706e-06
24 *509:23 *516:10 0
25 *509:34 *1039:A2 5.33334e-05
26 *1033:B1 *509:8 8.95956e-05
27 *1036:B1 *1036:A1 0.000173482
28 *1037:B1 *509:8 0
29 *1037:B1 *509:23 0
30 *1039:A1 *1037:A1 2.89016e-05
31 *1039:A1 *509:8 7.79781e-06
32 *1039:A1 *509:23 4.03318e-05
33 *1039:A1 *509:34 4.33174e-05
34 *305:92 *509:8 0
35 *503:8 *509:8 0
36 *503:20 *1038:C1 7.77652e-05
37 *506:19 *509:8 3.97543e-05
*RES
1 *1033:Y *509:8 19.3893 
2 *509:8 *1038:C1 15.1571 
3 *509:8 *509:23 7.78571 
4 *509:23 *1037:A1 11.4964 
5 *509:23 *509:34 2.17857 
6 *509:34 *1039:B1 9.72857 
7 *509:34 *1036:A1 25.9429 
*END

*D_NET *510 0.00192825
*CONN
*I *1039:A2 I *D sky130_fd_sc_hd__o211ai_2
*I *1038:A2 I *D sky130_fd_sc_hd__o211a_4
*I *1035:B1 I *D sky130_fd_sc_hd__a21o_2
*I *1034:Y O *D sky130_fd_sc_hd__o21ai_2
*CAP
1 *1039:A2 0.000191927
2 *1038:A2 0.000109036
3 *1035:B1 0
4 *1034:Y 0.000162449
5 *510:12 0.000109036
6 *510:10 0.000354375
7 *1038:A2 *1037:A2 0.000274169
8 *1039:A2 *516:10 6.82922e-05
9 *1035:A1 *1038:A2 5.33005e-05
10 *1035:A1 *510:10 0.000150625
11 *1036:A1 *1039:A2 2.28598e-05
12 *1037:A1 *1039:A2 3.99614e-06
13 *1039:A1 *1039:A2 1.24368e-05
14 *1039:B1 *1039:A2 5.7661e-06
15 *492:8 *510:10 0
16 *503:20 *1038:A2 6.94012e-05
17 *503:20 *1039:A2 0.000148189
18 *503:20 *510:10 5.83304e-05
19 *505:47 *510:10 8.07313e-05
20 *509:34 *1039:A2 5.33334e-05
*RES
1 *1034:Y *510:10 17.1036 
2 *510:10 *510:12 4.5 
3 *510:12 *1035:B1 9.3 
4 *510:12 *1038:A2 12.7464 
5 *510:10 *1039:A2 17.9429 
*END

*D_NET *511 0.00245933
*CONN
*I *1036:A2 I *D sky130_fd_sc_hd__a21oi_2
*I *1037:A2 I *D sky130_fd_sc_hd__a21o_2
*I *1035:X O *D sky130_fd_sc_hd__a21o_2
*CAP
1 *1036:A2 0.000390028
2 *1037:A2 0.000465139
3 *1035:X 0
4 *511:4 0.000855167
5 *1036:A2 *1044:A 0.000189822
6 *1036:A2 *1046:A2 7.43578e-06
7 *1036:A2 *517:36 3.34366e-05
8 *1036:A1 *1036:A2 4.58194e-05
9 *1036:B1 *1036:A2 0
10 *1037:B1 *1037:A2 0
11 *1038:A2 *1037:A2 0.000274169
12 *1038:C1 *1037:A2 7.77652e-05
13 *492:8 *1036:A2 5.16583e-05
14 *496:25 *1036:A2 1.74352e-05
15 *503:20 *1036:A2 0
16 *503:20 *1037:A2 1.57523e-05
17 *509:23 *1037:A2 3.5707e-05
*RES
1 *1035:X *511:4 9.3 
2 *511:4 *1037:A2 25.1214 
3 *511:4 *1036:A2 26.4607 
*END

*D_NET *512 0.000737932
*CONN
*I *1042:A1 I *D sky130_fd_sc_hd__o21bai_2
*I *1036:Y O *D sky130_fd_sc_hd__a21oi_2
*CAP
1 *1042:A1 0.000224131
2 *1036:Y 0.000224131
3 *1042:A1 *1045:A1 0
4 *1042:A1 *1045:A2 5.80706e-06
5 *1042:A1 *516:25 5.33882e-05
6 *1042:A1 *517:36 0
7 *1036:A1 *1042:A1 0.000230475
*RES
1 *1036:Y *1042:A1 31.4214 
*END

*D_NET *513 0.00138213
*CONN
*I *1041:A I *D sky130_fd_sc_hd__nand3_4
*I *1082:B1 I *D sky130_fd_sc_hd__o2111ai_4
*I *1037:X O *D sky130_fd_sc_hd__a21o_2
*CAP
1 *1041:A 0.000262866
2 *1082:B1 0.000171669
3 *1037:X 5.35369e-05
4 *513:10 0.000488072
5 *1041:A *1081:B1 0.000126639
6 *1041:A *1082:C1 5.19842e-06
7 *1041:A *1082:D1 1.74352e-05
8 *1082:B1 *1081:B1 0.000141445
9 *1082:B1 *1643:A 0
10 *1082:B1 *514:10 4.25523e-05
11 *513:10 *514:10 3.92757e-05
12 *513:10 *515:12 0
13 *61:10 *1082:B1 3.34366e-05
*RES
1 *1037:X *513:10 19.3357 
2 *513:10 *1082:B1 21.1036 
3 *513:10 *1041:A 13.3357 
*END

*D_NET *514 0.00624249
*CONN
*I *1042:A2 I *D sky130_fd_sc_hd__o21bai_2
*I *1644:A I *D sky130_fd_sc_hd__buf_2
*I *1075:B1 I *D sky130_fd_sc_hd__a21oi_4
*I *1079:A3 I *D sky130_fd_sc_hd__a31o_4
*I *1076:B I *D sky130_fd_sc_hd__and3_4
*I *1038:X O *D sky130_fd_sc_hd__o211a_4
*CAP
1 *1042:A2 0.000305487
2 *1644:A 0.000104223
3 *1075:B1 4.40688e-05
4 *1079:A3 1.99379e-05
5 *1076:B 0.000369593
6 *1038:X 0.000383714
7 *514:44 0.000271173
8 *514:31 0.000205311
9 *514:16 0.00115242
10 *514:10 0.00140954
11 *1042:A2 *1042:B1_N 2.89016e-05
12 *1042:A2 *516:25 7.77751e-05
13 *1042:A2 *518:8 0
14 *1075:B1 *1127:A1 5.33334e-05
15 *1644:A *1127:A1 7.77751e-05
16 *514:10 *1082:D1 0
17 *514:10 *1643:A 0
18 *514:16 *1083:A1 2.59355e-05
19 *1037:B1 *514:10 0.000154762
20 *1078:A1 *1079:A3 9.90367e-05
21 *1078:A2 *514:16 0.000114655
22 *1078:A2 *514:44 0
23 *1079:B1 *1079:A3 5.33334e-05
24 *1081:C1 *1076:B 0.000123288
25 *1081:C1 *514:31 0.000121573
26 *1081:C1 *514:44 9.25014e-06
27 *1082:B1 *514:10 4.25523e-05
28 *1083:A2 *514:10 2.66026e-05
29 *1129:A1_N *1076:B 3.22063e-05
30 *1129:A1_N *514:16 2.2285e-05
31 *1129:B2 *514:44 0
32 *1639:A *1042:A2 5.33433e-05
33 *1639:A *514:16 8.03013e-05
34 *50:16 *1076:B 0.000137983
35 *51:21 *1076:B 2.59355e-05
36 *54:8 *514:31 1.19402e-05
37 *54:8 *514:44 5.0725e-05
38 *54:12 *1076:B 4.48206e-05
39 *54:12 *514:31 2.83916e-05
40 *55:6 *1076:B 0.000184797
41 *56:10 *514:10 0
42 *56:25 *514:10 0
43 *61:10 *514:10 4.16021e-05
44 *107:12 *1076:B 7.47367e-05
45 *107:12 *514:16 0.000139907
46 *509:23 *514:10 0
47 *513:10 *514:10 3.92757e-05
*RES
1 *1038:X *514:10 25.4071 
2 *514:10 *514:16 13.9821 
3 *514:16 *1076:B 21.7464 
4 *514:16 *514:31 1.64286 
5 *514:31 *1079:A3 14.7464 
6 *514:31 *514:44 7.05357 
7 *514:44 *1075:B1 10.2464 
8 *514:44 *1644:A 11.4786 
9 *514:10 *1042:A2 15.1929 
*END

*D_NET *515 0.00145702
*CONN
*I *1082:C1 I *D sky130_fd_sc_hd__o2111ai_4
*I *1041:B I *D sky130_fd_sc_hd__nand3_4
*I *1039:Y O *D sky130_fd_sc_hd__o211ai_2
*CAP
1 *1082:C1 0.000484586
2 *1041:B 0
3 *1039:Y 0.000120382
4 *515:12 0.000604968
5 *1082:C1 *1081:B1 8.3725e-05
6 *1082:C1 *1082:D1 8.07313e-05
7 *515:12 *1082:D1 5.80706e-06
8 *515:12 *516:10 6.58195e-05
9 *1041:A *1082:C1 5.19842e-06
10 *509:23 *515:12 5.80706e-06
11 *513:10 *515:12 0
*RES
1 *1039:Y *515:12 21.0857 
2 *515:12 *1041:B 9.3 
3 *515:12 *1082:C1 16.2286 
*END

*D_NET *516 0.00465774
*CONN
*I *1082:D1 I *D sky130_fd_sc_hd__o2111ai_4
*I *1042:B1_N I *D sky130_fd_sc_hd__o21bai_2
*I *1041:C I *D sky130_fd_sc_hd__nand3_4
*I *1040:Y O *D sky130_fd_sc_hd__nand2_2
*CAP
1 *1082:D1 0.000197715
2 *1042:B1_N 5.33258e-05
3 *1041:C 5.64065e-05
4 *1040:Y 0.000765277
5 *516:25 0.000422418
6 *516:10 0.00099306
7 *1082:D1 *1081:B1 0.00010096
8 *516:10 *1029:A 0
9 *516:10 *1029:B 0.000368104
10 *516:10 *659:10 0
11 *516:25 *517:36 0
12 *516:25 *518:8 2.89016e-05
13 *1018:A1 *516:10 0.000177948
14 *1033:B1 *516:10 0.000102071
15 *1034:B1 *516:10 0
16 *1035:A1 *516:10 0.00022117
17 *1035:A2 *516:10 0.00020042
18 *1036:A1 *1041:C 5.52302e-05
19 *1036:A1 *516:10 0.000201127
20 *1036:A1 *516:25 3.34366e-05
21 *1036:B1 *516:10 4.97121e-06
22 *1039:A1 *516:10 5.51406e-05
23 *1039:A2 *516:10 6.82922e-05
24 *1040:A *516:10 2.89114e-05
25 *1041:A *1082:D1 1.74352e-05
26 *1042:A1 *516:25 5.33882e-05
27 *1042:A2 *1042:B1_N 2.89016e-05
28 *1042:A2 *516:25 7.77751e-05
29 *1077:B1 *516:10 8.64227e-05
30 *1082:C1 *1082:D1 8.07313e-05
31 *1639:A *1042:B1_N 0
32 *488:21 *516:10 9.74588e-05
33 *488:53 *516:10 0
34 *503:20 *516:10 9.11365e-06
35 *505:10 *516:10 0
36 *509:8 *516:10 0
37 *509:23 *516:10 0
38 *514:10 *1082:D1 0
39 *515:12 *1082:D1 5.80706e-06
40 *515:12 *516:10 6.58195e-05
*RES
1 *1040:Y *516:10 33.9964 
2 *516:10 *1041:C 14.7464 
3 *516:10 *516:25 8.625 
4 *516:25 *1042:B1_N 10.2643 
5 *516:25 *1082:D1 22.55 
*END

*D_NET *517 0.00405976
*CONN
*I *1045:A1 I *D sky130_fd_sc_hd__a21oi_4
*I *1043:C I *D sky130_fd_sc_hd__nand3_2
*I *1081:B1 I *D sky130_fd_sc_hd__o211ai_4
*I *1041:Y O *D sky130_fd_sc_hd__nand3_4
*CAP
1 *1045:A1 8.093e-05
2 *1043:C 0.000130635
3 *1081:B1 0.000838632
4 *1041:Y 0.00102252
5 *517:36 0.000395458
6 *1043:C *518:8 0
7 *1045:A1 *1044:A 5.83304e-05
8 *1045:A1 *1045:A2 7.26935e-05
9 *1045:A1 *1084:B1 0.000194299
10 *1081:B1 *1694:A 7.48091e-05
11 *517:36 *1044:A 0.000104747
12 *1036:A1 *517:36 1.39726e-05
13 *1036:A2 *517:36 3.34366e-05
14 *1036:B1 *517:36 0.00010096
15 *1041:A *1081:B1 0.000126639
16 *1042:A1 *1045:A1 0
17 *1042:A1 *517:36 0
18 *1082:A1 *1081:B1 0.000116659
19 *1082:B1 *1081:B1 0.000141445
20 *1082:C1 *1081:B1 8.3725e-05
21 *1082:D1 *1081:B1 0.00010096
22 *1129:B1 *1081:B1 0.00010096
23 *1695:A *1081:B1 0.000125088
24 *61:10 *1081:B1 0.000142856
25 *516:25 *517:36 0
*RES
1 *1041:Y *1081:B1 35.3857 
2 *1041:Y *517:36 17.7107 
3 *517:36 *1043:C 15.5857 
4 *517:36 *1045:A1 16.9607 
*END

*D_NET *518 0.000716116
*CONN
*I *1043:A I *D sky130_fd_sc_hd__nand3_2
*I *1045:A2 I *D sky130_fd_sc_hd__a21oi_4
*I *1042:Y O *D sky130_fd_sc_hd__o21bai_2
*CAP
1 *1043:A 3.08973e-05
2 *1045:A2 0.000122227
3 *1042:Y 0.000151233
4 *518:8 0.000304357
5 *1042:A1 *1045:A2 5.80706e-06
6 *1042:A2 *518:8 0
7 *1043:C *518:8 0
8 *1045:A1 *1045:A2 7.26935e-05
9 *516:25 *518:8 2.89016e-05
*RES
1 *1042:Y *518:8 11.9071 
2 *518:8 *1045:A2 20.8536 
3 *518:8 *1043:A 9.83571 
*END

*D_NET *519 0.00205608
*CONN
*I *1084:B1 I *D sky130_fd_sc_hd__o21ai_4
*I *1044:A I *D sky130_fd_sc_hd__inv_2
*I *1043:Y O *D sky130_fd_sc_hd__nand3_2
*CAP
1 *1084:B1 0.000290584
2 *1044:A 0.000163011
3 *1043:Y 0
4 *519:6 0.000453596
5 *1036:A2 *1044:A 0.000189822
6 *1043:B *1044:A 4.8347e-06
7 *1045:A1 *1044:A 5.83304e-05
8 *1045:A1 *1084:B1 0.000194299
9 *1045:B1 *1044:A 1.41029e-05
10 *1045:B1 *1084:B1 0.000112106
11 *1084:A2 *1084:B1 0.000106873
12 *492:8 *1044:A 0.00036377
13 *517:36 *1044:A 0.000104747
*RES
1 *1043:Y *519:6 13.8 
2 *519:6 *1044:A 19.7464 
3 *519:6 *1084:B1 20.7821 
*END

*D_NET *520 0.000481775
*CONN
*I *1046:A1 I *D sky130_fd_sc_hd__o21a_2
*I *1044:Y O *D sky130_fd_sc_hd__inv_2
*CAP
1 *1046:A1 0.000214578
2 *1044:Y 0.000214578
3 *492:8 *1046:A1 5.26184e-05
4 *496:12 *1046:A1 0
*RES
1 *1044:Y *1046:A1 30.9036 
*END

*D_NET *521 0.00183703
*CONN
*I *1084:A1 I *D sky130_fd_sc_hd__o21ai_4
*I *1047:A2 I *D sky130_fd_sc_hd__o21ba_2
*I *1046:A2 I *D sky130_fd_sc_hd__o21a_2
*I *1045:Y O *D sky130_fd_sc_hd__a21oi_4
*CAP
1 *1084:A1 3.33736e-05
2 *1047:A2 9.22236e-05
3 *1046:A2 0.000134707
4 *1045:Y 0
5 *521:8 0.000281582
6 *521:6 8.80257e-05
7 *1046:A2 *1047:B1_N 0
8 *1046:A2 *1589:A 8.07879e-05
9 *1047:A2 *1589:A 3.30352e-05
10 *1084:A1 *1589:A 0.000129868
11 *521:8 *1589:A 0.00025263
12 *1036:A1 *1046:A2 0
13 *1036:A2 *1046:A2 7.43578e-06
14 *1047:A1 *1047:A2 5.33005e-05
15 *1084:A2 *1046:A2 3.34366e-05
16 *1084:A2 *1084:A1 0.000117903
17 *1084:A2 *521:8 0.000241665
18 *492:8 *1046:A2 1.18064e-05
19 *496:25 *1046:A2 0.000245251
*RES
1 *1045:Y *521:6 13.8 
2 *521:6 *521:8 3.16071 
3 *521:8 *1046:A2 17.425 
4 *521:8 *1047:A2 15.5857 
5 *521:6 *1084:A1 15.4429 
*END

*D_NET *522 0.000287065
*CONN
*I *1047:B1_N I *D sky130_fd_sc_hd__o21ba_2
*I *1046:X O *D sky130_fd_sc_hd__o21a_2
*CAP
1 *1047:B1_N 0.000140507
2 *1046:X 0.000140507
3 *1047:B1_N *1589:A 6.05161e-06
4 *1046:A2 *1047:B1_N 0
*RES
1 *1046:X *1047:B1_N 29.7786 
*END

*D_NET *523 0.00857658
*CONN
*I *1060:B1 I *D sky130_fd_sc_hd__o211a_4
*I *1059:B1 I *D sky130_fd_sc_hd__a21oi_2
*I *1107:C1 I *D sky130_fd_sc_hd__o2111ai_4
*I *1105:A1 I *D sky130_fd_sc_hd__a32o_2
*I *1106:C1 I *D sky130_fd_sc_hd__o2111a_2
*I *1092:A1 I *D sky130_fd_sc_hd__a21oi_4
*I *1048:X O *D sky130_fd_sc_hd__and2_4
*CAP
1 *1060:B1 3.02144e-05
2 *1059:B1 0.000214054
3 *1107:C1 0.000153642
4 *1105:A1 0.000240168
5 *1106:C1 0.000143367
6 *1092:A1 6.46856e-05
7 *1048:X 0.000463573
8 *523:62 0.000615509
9 *523:34 0.000997169
10 *523:30 0.000976767
11 *523:28 0.000544422
12 *1059:B1 *1104:A1 0.000148196
13 *1059:B1 *1104:A2 3.90513e-05
14 *1059:B1 *1125:A1 0.000221156
15 *1092:A1 *531:23 0.000147474
16 *1092:A1 *728:44 3.34366e-05
17 *1105:A1 *1105:B1 0
18 *1105:A1 *1107:A2 0.000219741
19 *1105:A1 *1125:A1 2.80974e-05
20 *1105:A1 *530:10 5.59013e-05
21 *1106:C1 *1106:A1 1.39841e-05
22 *1106:C1 *1106:B1 9.60875e-05
23 *1106:C1 *1106:D1 6.05161e-06
24 *1106:C1 *671:23 5.74499e-06
25 *1107:C1 *1104:A1 4.70048e-05
26 *523:28 *1061:C1 4.87953e-05
27 *523:28 *622:38 0.000177821
28 *523:34 *1104:A2 2.27416e-05
29 *523:34 *1106:B1 0.000178847
30 *523:34 *1107:D1 1.32552e-05
31 *523:34 *671:23 4.62969e-05
32 *1060:A2 *523:28 0.000121573
33 *1060:C1 *523:28 7.79781e-06
34 *1071:A2 *1059:B1 0
35 *1072:A_N *523:62 2.89016e-05
36 *1072:B *523:28 2.28428e-05
37 *1072:B *523:30 0.000113372
38 *1072:B *523:62 8.36642e-05
39 *1104:B1 *523:30 0.00015304
40 *1104:B1 *523:62 0.000216771
41 *1105:A2 *1105:A1 1.33343e-05
42 *35:10 *1059:B1 0
43 *36:10 *523:28 0.000385717
44 *37:10 *1105:A1 0.000429939
45 *38:12 *1059:B1 0.000104997
46 *39:12 *523:28 1.02504e-05
47 *39:12 *523:30 0.000164561
48 *53:6 *1059:B1 2.89016e-05
49 *79:20 *1092:A1 3.75052e-05
50 *79:20 *523:28 0.000660158
51 *294:45 *523:28 0
*RES
1 *1048:X *1092:A1 29.5464 
2 *1048:X *523:28 25.5321 
3 *523:28 *523:30 4.07143 
4 *523:30 *523:34 12.0179 
5 *523:34 *1106:C1 11.0679 
6 *523:34 *1105:A1 24.6884 
7 *523:30 *523:62 9.94643 
8 *523:62 *1107:C1 11.8 
9 *523:62 *1059:B1 24.1214 
10 *523:28 *1060:B1 14.3357 
*END

*D_NET *524 0.0038206
*CONN
*I *1057:B1 I *D sky130_fd_sc_hd__a41o_4
*I *1054:A I *D sky130_fd_sc_hd__and3_2
*I *1112:A1 I *D sky130_fd_sc_hd__o211ai_4
*I *1049:Y O *D sky130_fd_sc_hd__nand2_4
*CAP
1 *1057:B1 0.000601796
2 *1054:A 0.000227328
3 *1112:A1 1.99379e-05
4 *1049:Y 0.000103327
5 *524:10 0.00039004
6 *524:6 0.000847898
7 *1054:A *1054:B 0.000148196
8 *1054:A *1054:C 0
9 *1054:A *1070:D 0
10 *1054:A *597:53 0
11 *1057:B1 *1049:B 8.25843e-06
12 *1057:B1 *1051:A1 0.000320024
13 *1057:B1 *1051:B2 7.17836e-05
14 *1057:B1 *1058:A 1.58163e-05
15 *1057:B1 *1058:B 1.92789e-05
16 *1057:B1 *1058:D 7.48301e-06
17 *1057:B1 *527:10 7.6644e-05
18 *1057:B1 *643:23 3.22772e-05
19 *1057:B1 *671:10 2.87566e-05
20 *1057:B1 *705:80 0
21 *1112:A1 *1112:B1 5.33334e-05
22 *1112:A1 *730:91 9.90367e-05
23 *524:6 *1049:B 1.32552e-05
24 *524:6 *1058:A 1.92789e-05
25 *524:6 *526:25 5.19842e-06
26 *524:10 *1054:B 0.000114759
27 *524:10 *526:10 8.15095e-05
28 *524:10 *526:21 4.49293e-05
29 *524:10 *597:53 0
30 *1109:A2 *1057:B1 4.59075e-05
31 *1112:C1 *1054:A 0
32 *36:10 *1057:B1 0.000232399
33 *37:10 *1057:B1 0.000137983
34 *261:34 *1054:A 5.41609e-05
*RES
1 *1049:Y *524:6 10.6571 
2 *524:6 *524:10 7.66071 
3 *524:10 *1112:A1 14.7464 
4 *524:10 *1054:A 18.3179 
5 *524:6 *1057:B1 29.6036 
*END

*D_NET *525 0.00103463
*CONN
*I *1693:A I *D sky130_fd_sc_hd__buf_4
*I *1050:Y O *D sky130_fd_sc_hd__a22oi_2
*CAP
1 *1693:A 0.000209023
2 *1050:Y 0.000209023
3 *1693:A *1052:C 5.33005e-05
4 *1693:A *1057:A3 9.71197e-05
5 *1693:A *1057:A4 1.24368e-05
6 *1693:A *1061:B1 0.000145399
7 *1693:A *531:36 9.60939e-05
8 *1693:A *646:10 9.76147e-05
9 *1693:A *655:53 3.57661e-05
10 *1693:A *705:58 4.64967e-05
11 *1071:B1 *1693:A 3.23542e-05
*RES
1 *1050:Y *1693:A 32.6714 
*END

*D_NET *526 0.00468829
*CONN
*I *1054:B I *D sky130_fd_sc_hd__and3_2
*I *1110:D I *D sky130_fd_sc_hd__and4_2
*I *1111:D I *D sky130_fd_sc_hd__nand4_2
*I *1058:A I *D sky130_fd_sc_hd__nand4_2
*I *1051:X O *D sky130_fd_sc_hd__a22o_2
*CAP
1 *1054:B 0.000244774
2 *1110:D 0
3 *1111:D 9.50066e-05
4 *1058:A 3.61108e-05
5 *1051:X 0.000192382
6 *526:25 0.000789808
7 *526:21 0.000963737
8 *526:10 0.000252653
9 *1054:B *1054:C 2.74584e-05
10 *1054:B *528:33 3.84385e-05
11 *1054:B *730:91 5.59013e-05
12 *1058:A *1049:B 9.60875e-05
13 *1111:D *733:136 0.000125731
14 *526:10 *1053:D 7.99044e-05
15 *526:10 *597:53 0
16 *526:10 *643:12 0.000435512
17 *526:10 *727:31 5.33005e-05
18 *526:21 *528:33 6.8646e-06
19 *526:21 *643:12 3.17148e-05
20 *526:25 *1049:B 0.0001399
21 *526:25 *1110:B 1.98839e-05
22 *1054:A *1054:B 0.000148196
23 *1057:B1 *1058:A 1.58163e-05
24 *1109:A2 *526:10 1.07719e-05
25 *1110:A *526:25 9.99644e-06
26 *1182:B1 *1111:D 5.52238e-05
27 *1182:B1 *526:25 0.000216121
28 *87:12 *526:25 5.05484e-05
29 *158:14 *526:10 4.46186e-06
30 *261:10 *1111:D 4.25809e-05
31 *261:34 *1054:B 0.000183726
32 *524:6 *1058:A 1.92789e-05
33 *524:6 *526:25 5.19842e-06
34 *524:10 *1054:B 0.000114759
35 *524:10 *526:10 8.15095e-05
36 *524:10 *526:21 4.49293e-05
*RES
1 *1051:X *526:10 19.925 
2 *526:10 *1058:A 14.7464 
3 *526:10 *526:21 0.732143 
4 *526:21 *526:25 13.25 
5 *526:25 *1111:D 20.4786 
6 *526:25 *1110:D 9.3 
7 *526:21 *1054:B 19.0321 
*END

*D_NET *527 0.00114152
*CONN
*I *1055:A2 I *D sky130_fd_sc_hd__o211a_2
*I *1056:B2 I *D sky130_fd_sc_hd__o22ai_4
*I *1052:X O *D sky130_fd_sc_hd__and4_2
*CAP
1 *1055:A2 8.5945e-05
2 *1056:B2 0.000149114
3 *1052:X 0.000109646
4 *527:10 0.000344705
5 *1055:A2 *671:10 8.56716e-05
6 *527:10 *1109:A1 5.52238e-05
7 *527:10 *671:10 7.73662e-05
8 *1057:B1 *527:10 7.6644e-05
9 *37:10 *1055:A2 6.26559e-05
10 *37:10 *1056:B2 7.48091e-05
11 *37:10 *527:10 1.97381e-05
*RES
1 *1052:X *527:10 16.2821 
2 *527:10 *1056:B2 16.3893 
3 *527:10 *1055:A2 16.05 
*END

*D_NET *528 0.00298875
*CONN
*I *1054:C I *D sky130_fd_sc_hd__and3_2
*I *1112:B1 I *D sky130_fd_sc_hd__o211ai_4
*I *1058:B I *D sky130_fd_sc_hd__nand4_2
*I *1109:B1 I *D sky130_fd_sc_hd__o21ai_2
*I *1053:Y O *D sky130_fd_sc_hd__nand4_2
*CAP
1 *1054:C 0.00015167
2 *1112:B1 0.000100955
3 *1058:B 1.55834e-05
4 *1109:B1 0.000348425
5 *1053:Y 0.00043092
6 *528:33 0.000387153
7 *528:22 0.000232606
8 *1054:C *671:10 6.40986e-05
9 *1058:B *643:23 5.52238e-05
10 *1109:B1 *1109:A1 0.00010096
11 *1112:B1 *1070:D 0.000356022
12 *1112:B1 *1112:A2 1.98839e-05
13 *1112:B1 *730:91 0.000140426
14 *528:22 *1058:C 9.25014e-06
15 *528:22 *643:12 0.000105582
16 *528:22 *671:10 6.66939e-05
17 *528:33 *1058:C 0.00019384
18 *528:33 *643:12 1.17968e-05
19 *528:33 *671:10 6.8646e-06
20 *528:33 *730:91 2.61337e-05
21 *1054:A *1054:C 0
22 *1054:B *1054:C 2.74584e-05
23 *1054:B *528:33 3.84385e-05
24 *1057:B1 *1058:B 1.92789e-05
25 *1112:A1 *1112:B1 5.33334e-05
26 *261:34 *1054:C 1.92905e-05
27 *526:21 *528:33 6.8646e-06
*RES
1 *1053:Y *1109:B1 23.0464 
2 *1053:Y *528:22 16.3536 
3 *528:22 *1058:B 14.3357 
4 *528:22 *528:33 2.85714 
5 *528:33 *1112:B1 17.6393 
6 *528:33 *1054:C 16.8893 
*END

*D_NET *529 0.0015306
*CONN
*I *1107:A1 I *D sky130_fd_sc_hd__o2111ai_4
*I *1106:A1 I *D sky130_fd_sc_hd__o2111a_2
*I *1054:X O *D sky130_fd_sc_hd__and3_2
*CAP
1 *1107:A1 0.000132722
2 *1106:A1 7.95525e-05
3 *1054:X 0.000107937
4 *529:10 0.000320211
5 *1106:A1 *1106:B1 7.26654e-05
6 *1106:A1 *1682:A 0
7 *1106:A1 *671:23 0.000178847
8 *1107:A1 *1105:B1 0.000185304
9 *1107:A1 *1107:A2 9.77024e-05
10 *529:10 *1105:B1 3.34366e-05
11 *529:10 *1107:A2 1.17968e-05
12 *529:10 *530:10 6.42242e-05
13 *529:10 *671:10 0.00012401
14 *1106:C1 *1106:A1 1.39841e-05
15 *85:6 *1107:A1 9.41642e-05
16 *261:34 *529:10 1.40415e-05
*RES
1 *1054:X *529:10 16.2821 
2 *529:10 *1106:A1 15.9964 
3 *529:10 *1107:A1 17.3 
*END

*D_NET *530 0.00140931
*CONN
*I *1107:A2 I *D sky130_fd_sc_hd__o2111ai_4
*I *1106:A2 I *D sky130_fd_sc_hd__o2111a_2
*I *1055:X O *D sky130_fd_sc_hd__o211a_2
*CAP
1 *1107:A2 8.78136e-05
2 *1106:A2 0
3 *1055:X 0.000192629
4 *530:10 0.000280442
5 *530:10 *1055:A1 6.59809e-06
6 *530:10 *1070:D 0.000137983
7 *530:10 *646:56 3.1366e-05
8 *530:10 *671:10 7.67315e-05
9 *1105:A1 *1107:A2 0.000219741
10 *1105:A1 *530:10 5.59013e-05
11 *1107:A1 *1107:A2 9.77024e-05
12 *37:10 *530:10 0.000146385
13 *529:10 *1107:A2 1.17968e-05
14 *529:10 *530:10 6.42242e-05
*RES
1 *1055:X *530:10 19.5321 
2 *530:10 *1106:A2 13.8 
3 *530:10 *1107:A2 16.6571 
*END

*D_NET *531 0.00789992
*CONN
*I *1022:A2 I *D sky130_fd_sc_hd__a22oi_2
*I *1023:A2 I *D sky130_fd_sc_hd__a22o_4
*I *1057:A3 I *D sky130_fd_sc_hd__a41o_4
*I *1149:A I *D sky130_fd_sc_hd__nand4_4
*I *1703:X O *D sky130_fd_sc_hd__buf_4
*CAP
1 *1022:A2 9.7628e-05
2 *1023:A2 0.000252628
3 *1057:A3 0.00013604
4 *1149:A 0
5 *1703:X 0.000129702
6 *531:36 0.000498035
7 *531:23 0.00118534
8 *531:12 0.00103122
9 *1022:A2 *1022:A1 3.99614e-06
10 *1022:A2 *1022:B1 0
11 *1022:A2 *534:77 4.87953e-05
12 *1022:A2 *534:90 2.44318e-05
13 *1022:A2 *727:27 0.000113073
14 *1023:A2 *1023:B1 0.000584036
15 *1023:A2 *534:77 3.17163e-05
16 *1057:A3 *1051:A1 0
17 *1057:A3 *1057:A4 0.000173616
18 *1057:A3 *727:27 0.000216613
19 *531:12 *1149:B 8.6229e-06
20 *531:12 *1615:A 0.00020248
21 *531:12 *1703:A 2.89114e-05
22 *531:12 *694:60 0.000139907
23 *531:12 *722:21 8.17008e-05
24 *531:23 *1061:B1 0.000162832
25 *531:23 *1095:B2 0
26 *531:23 *1149:B 0.000297132
27 *531:23 *1615:A 9.54798e-06
28 *531:23 *641:60 0.000242206
29 *531:23 *728:27 7.80714e-06
30 *531:23 *728:38 0.000143389
31 *531:23 *728:44 0.000105037
32 *531:36 *646:10 4.88637e-05
33 *531:36 *655:53 1.39726e-05
34 *531:36 *727:27 0.000229122
35 *1067:A2 *1023:A2 0
36 *1067:B1 *1023:A2 8.91726e-05
37 *1092:A1 *531:23 0.000147474
38 *1101:B2 *531:23 0.000120218
39 *1153:D1 *531:12 0
40 *1155:A *531:23 0
41 *1175:A1_N *531:23 0
42 *1693:A *1057:A3 9.71197e-05
43 *1693:A *531:36 9.60939e-05
44 *36:10 *1057:A3 0.000117956
45 *73:10 *531:23 0
46 *79:20 *531:23 9.15186e-06
47 *81:23 *531:23 0
48 *127:40 *531:23 6.84012e-05
49 *127:44 *531:23 1.11775e-05
50 *128:14 *531:23 0
51 *147:14 *531:23 0.000107968
52 *154:16 *531:23 0.000735584
53 *326:39 *1023:A2 5.11958e-05
*RES
1 *1703:X *531:12 17.8357 
2 *531:12 *1149:A 13.8 
3 *531:12 *531:23 28.6071 
4 *531:23 *1057:A3 14.0857 
5 *531:23 *531:36 4.23214 
6 *531:36 *1023:A2 25.4607 
7 *531:36 *1022:A2 11.9071 
*END

*D_NET *532 0.00748012
*CONN
*I *1161:A I *D sky130_fd_sc_hd__and4_2
*I *1160:B2 I *D sky130_fd_sc_hd__a22o_2
*I *1162:A I *D sky130_fd_sc_hd__nand4_4
*I *1503:A I *D sky130_fd_sc_hd__buf_6
*I *1544:X O *D sky130_fd_sc_hd__dlymetal6s2s_1
*CAP
1 *1161:A 0
2 *1160:B2 0.000227736
3 *1162:A 0.000591079
4 *1503:A 9.92011e-05
5 *1544:X 0.000167789
6 *532:46 0.000521214
7 *532:23 0.00136703
8 *532:8 0.000749459
9 *1160:B2 *1160:A1 0.000368329
10 *1160:B2 *1160:B1 0.00063636
11 *1160:B2 *1161:C 0.000139907
12 *1160:B2 *1163:A2 5.52238e-05
13 *1162:A *1158:B 1.3701e-05
14 *1162:A *1162:B 1.97695e-05
15 *1162:A *1162:D 9.41642e-05
16 *1162:A *1163:A2 5.96516e-05
17 *1162:A *1165:A2 3.20584e-05
18 *1162:A *1165:A3 5.33334e-05
19 *1162:A *535:25 4.829e-05
20 *1162:A *699:27 1.24368e-05
21 *1162:A *700:22 5.96516e-05
22 *1162:A *703:111 0.000760204
23 *1503:A *1088:A 5.80706e-06
24 *1503:A *535:8 0
25 *1503:A *636:27 0
26 *1503:A *714:24 0
27 *532:23 *1088:A 8.2958e-06
28 *532:23 *1688:A 0
29 *532:23 *533:14 0
30 *532:23 *535:8 0
31 *532:23 *535:19 0
32 *532:23 *699:27 0.0002887
33 *532:46 *1160:A1 0.000138723
34 *532:46 *1161:C 4.18895e-05
35 *532:46 *533:14 7.55747e-05
36 *532:46 *653:8 6.05161e-06
37 *532:46 *653:26 7.97875e-05
38 *532:46 *653:70 1.97381e-05
39 *532:46 *699:27 0
40 *532:46 *701:41 2.58997e-05
41 *532:46 *702:29 0.000122226
42 *1172:A1_N *532:23 0.00036496
43 *1172:B1 *1162:A 8.85532e-05
44 *1545:A *1503:A 5.38886e-05
45 *1545:A *532:23 6.80212e-05
46 *138:10 *1160:B2 1.5424e-05
*RES
1 *1544:X *532:8 16.3893 
2 *532:8 *1503:A 16.05 
3 *532:8 *532:23 15.1071 
4 *532:23 *1162:A 23.0321 
5 *532:23 *532:46 15.6786 
6 *532:46 *1160:B2 17.2464 
7 *532:46 *1161:A 9.3 
*END

*D_NET *533 0.0195638
*CONN
*I *1029:A I *D sky130_fd_sc_hd__nand2_2
*I *1141:C I *D sky130_fd_sc_hd__nand4_4
*I *1140:B I *D sky130_fd_sc_hd__and4_2
*I *1542:A I *D sky130_fd_sc_hd__dlygate4sd1_1
*I *1543:A I *D sky130_fd_sc_hd__buf_6
*I *1545:X O *D sky130_fd_sc_hd__clkbuf_2
*CAP
1 *1029:A 0.00106481
2 *1141:C 0.000234336
3 *1140:B 0.000504872
4 *1542:A 0
5 *1543:A 0
6 *1545:X 0.000544908
7 *533:50 0.00134448
8 *533:37 0.00443287
9 *533:27 0.00519758
10 *533:14 0.000850072
11 *1029:A *1006:B 0
12 *1029:A *1012:B 0
13 *1029:A *1016:A1 0
14 *1029:A *1017:A1 0
15 *1029:A *659:10 0.000102197
16 *1029:A *701:41 0
17 *1140:B *1138:A1 0.000304848
18 *1140:B *1257:A2 0
19 *1140:B *680:121 5.33005e-05
20 *1141:C *1145:A2 0.000168939
21 *1141:C *675:74 1.721e-05
22 *1141:C *680:121 9.22948e-05
23 *1141:C *684:43 0.00020042
24 *1141:C *684:52 1.02504e-05
25 *1141:C *684:115 9.32406e-05
26 *533:14 *699:12 0.000408189
27 *533:14 *699:27 0
28 *533:14 *701:10 0.000135028
29 *533:14 *701:41 1.90111e-05
30 *533:14 *702:29 0.000202673
31 *533:14 *714:24 0.000154762
32 *533:14 *714:37 0.000429398
33 *533:27 *1163:A2 9.46766e-05
34 *533:27 *1502:A 0.000222666
35 *533:27 *613:12 2.05612e-05
36 *533:27 *701:10 0
37 *533:27 *701:41 0.000306317
38 *533:27 *708:65 9.41642e-05
39 *533:27 *708:76 0.000137983
40 *533:27 *714:62 1.5424e-05
41 *533:37 *1010:D 6.40615e-05
42 *533:37 *1539:A 0
43 *533:37 *645:37 6.41086e-06
44 *533:37 *733:10 1.21859e-05
45 *533:37 *734:14 6.23226e-05
46 *533:50 *1257:A2 0
47 *533:50 *680:121 3.17148e-05
48 *533:50 *684:115 2.16719e-05
49 *533:50 *733:8 9.71197e-05
50 *1014:B1 *1029:A 0.000150618
51 *1018:A1 *1029:A 0
52 *1040:A *1029:A 0
53 *1142:B2 *1141:C 0.00012401
54 *1142:B2 *533:50 5.41794e-05
55 *1144:A1 *1141:C 0
56 *1173:C *533:27 5.52238e-05
57 *1252:B1 *533:50 0
58 *1499:A1 *1029:A 0
59 *1500:A *1029:A 0.000177227
60 *1545:A *533:14 2.78709e-05
61 *115:10 *1140:B 0.000269751
62 *156:27 *533:50 0
63 *224:12 *533:50 5.35516e-05
64 *225:10 *533:50 0
65 *228:20 *533:37 2.06112e-05
66 *294:39 *1029:A 0.00059755
67 *294:39 *533:27 0.000204699
68 *369:10 *1029:A 0
69 *369:21 *1029:A 0
70 *484:17 *1029:A 0
71 *491:10 *1029:A 0
72 *516:10 *1029:A 0
73 *532:23 *533:14 0
74 *532:46 *533:14 7.55747e-05
*RES
1 *1545:X *533:14 32.2643 
2 *533:14 *1543:A 9.3 
3 *533:14 *533:27 13.0982 
4 *533:27 *533:37 19.2829 
5 *533:37 *1542:A 9.3 
6 *533:37 *533:50 14.0357 
7 *533:50 *1140:B 30.1214 
8 *533:50 *1141:C 20.3 
9 *533:27 *1029:A 34.9696 
*END

*D_NET *534 0.0127057
*CONN
*I *1165:A1 I *D sky130_fd_sc_hd__a41oi_2
*I *1158:A I *D sky130_fd_sc_hd__nand2_2
*I *1168:C1 I *D sky130_fd_sc_hd__o2111a_2
*I *1169:C1 I *D sky130_fd_sc_hd__o2111ai_2
*I *1024:C I *D sky130_fd_sc_hd__nand4_4
*I *1022:A1 I *D sky130_fd_sc_hd__a22oi_2
*I *1023:A1 I *D sky130_fd_sc_hd__a22o_4
*I *1013:B2 I *D sky130_fd_sc_hd__a22o_2
*I *1090:A I *D sky130_fd_sc_hd__and4_2
*I *1091:B2 I *D sky130_fd_sc_hd__a22oi_2
*I *1502:X O *D sky130_fd_sc_hd__buf_4
*CAP
1 *1165:A1 0.000163764
2 *1158:A 0
3 *1168:C1 0
4 *1169:C1 4.76048e-05
5 *1024:C 0.000214575
6 *1022:A1 1.82115e-05
7 *1023:A1 0.000177706
8 *1013:B2 6.16326e-05
9 *1090:A 0.000420892
10 *1091:B2 0
11 *1502:X 0.000393768
12 *534:132 0.000423796
13 *534:90 0.000337679
14 *534:77 0.000570057
15 *534:47 0.000696356
16 *534:39 0.000560074
17 *534:30 0.000198167
18 *534:22 0.000228471
19 *534:16 0.000185776
20 *534:14 0.000798093
21 *1013:B2 *1524:A 0.000258915
22 *1022:A1 *1022:B1 1.04232e-05
23 *1023:A1 *734:57 0
24 *1024:C *1022:B1 9.41642e-05
25 *1024:C *705:26 0.000222878
26 *1024:C *705:35 2.31791e-05
27 *1024:C *722:69 0.000245342
28 *1024:C *727:25 8.25843e-06
29 *1024:C *727:27 5.74499e-06
30 *1024:C *734:46 5.33005e-05
31 *1090:A *1090:B 5.71472e-05
32 *1090:A *1090:C 5.33005e-05
33 *1090:A *665:41 0
34 *1090:A *701:41 3.30352e-05
35 *1090:A *705:22 0.000125724
36 *1090:A *714:76 9.41642e-05
37 *1090:A *714:78 6.87146e-05
38 *1165:A1 *1158:B 0.000287517
39 *1165:A1 *1165:A2 0
40 *1165:A1 *1539:A 0.000184239
41 *1169:C1 *655:31 0.000137983
42 *1169:C1 *675:44 8.43535e-06
43 *1169:C1 *717:69 1.3701e-05
44 *534:14 *1168:B1 0.000222933
45 *534:14 *714:76 5.71472e-05
46 *534:22 *1574:A 0.000102545
47 *534:30 *655:31 8.70594e-05
48 *534:30 *675:44 0.00018372
49 *534:30 *716:125 0.000116427
50 *534:39 *716:125 0.000103041
51 *534:47 *1524:A 0.000109867
52 *534:47 *1699:A 0.000140933
53 *534:47 *705:14 5.33334e-05
54 *534:77 *1023:B1 7.16652e-05
55 *534:77 *716:125 0.000165761
56 *534:90 *727:27 3.1521e-05
57 *534:132 *1168:A1 2.39654e-05
58 *534:132 *722:50 0.000424217
59 *1022:A2 *1022:A1 3.99614e-06
60 *1022:A2 *534:77 4.87953e-05
61 *1022:A2 *534:90 2.44318e-05
62 *1023:A2 *534:77 3.17163e-05
63 *1065:C1 *1023:A1 7.38536e-05
64 *1101:A1 *1090:A 0.000317082
65 *1168:D1 *534:16 2.89016e-05
66 *1168:D1 *534:22 9.91086e-05
67 *1169:A2 *534:14 0.000169366
68 *1169:A2 *534:16 5.33005e-05
69 *1170:A1 *534:14 0.000264394
70 *1170:A2 *534:14 5.33005e-05
71 *1170:B1 *534:14 2.14658e-05
72 *1171:B1 *534:132 0
73 *1233:B1 *534:132 7.17836e-05
74 *65:14 *1169:C1 5.61433e-05
75 *65:14 *534:30 1.04232e-05
76 *135:12 *534:16 5.33005e-05
77 *142:12 *1165:A1 0.000180681
78 *147:14 *534:16 7.48301e-06
79 *294:45 *1013:B2 9.77061e-05
80 *294:45 *534:47 0.000288639
81 *326:39 *1023:A1 0.000359259
82 *326:39 *534:30 0.000220455
83 *326:39 *534:39 0.000200413
84 *326:39 *534:77 0.000592786
*RES
1 *1502:X *534:14 18.1214 
2 *534:14 *534:16 1.76786 
3 *534:16 *534:22 10.3393 
4 *534:22 *534:30 9.55357 
5 *534:30 *1091:B2 13.8 
6 *534:30 *534:39 2.55357 
7 *534:39 *534:47 10.5179 
8 *534:47 *1090:A 25.9607 
9 *534:47 *1013:B2 11.8893 
10 *534:39 *534:77 13.1607 
11 *534:77 *1023:A1 22.9786 
12 *534:77 *534:90 1.76786 
13 *534:90 *1022:A1 9.72857 
14 *534:90 *1024:C 23.7643 
15 *534:22 *1169:C1 11.0857 
16 *534:16 *1168:C1 9.3 
17 *534:14 *534:132 14.5893 
18 *534:132 *1158:A 9.3 
19 *534:132 *1165:A1 15.4964 
*END

*D_NET *535 0.00662264
*CONN
*I *1688:A I *D sky130_fd_sc_hd__buf_4
*I *1502:A I *D sky130_fd_sc_hd__buf_4
*I *1159:B1 I *D sky130_fd_sc_hd__a22oi_2
*I *1687:A I *D sky130_fd_sc_hd__buf_2
*I *1503:X O *D sky130_fd_sc_hd__buf_6
*CAP
1 *1688:A 0.000100667
2 *1502:A 0.000385643
3 *1159:B1 4.75409e-05
4 *1687:A 1.55834e-05
5 *1503:X 0.000214517
6 *535:25 0.000890481
7 *535:19 0.000761063
8 *535:8 0.0004332
9 *1159:B1 *673:138 0.000175512
10 *1502:A *1161:B 0
11 *1502:A *613:12 5.74499e-06
12 *1502:A *673:138 5.59013e-05
13 *1502:A *700:41 0.000176022
14 *1502:A *701:41 9.25014e-06
15 *1502:A *703:107 0
16 *1502:A *714:62 0.000647134
17 *1502:A *734:10 3.48139e-05
18 *1687:A *1088:A 1.92789e-05
19 *1688:A *636:27 8.04796e-05
20 *1688:A *699:27 6.04046e-05
21 *535:8 *636:27 0.000133447
22 *535:19 *636:27 6.31267e-05
23 *535:25 *1163:A2 5.33005e-05
24 *535:25 *699:27 4.43256e-05
25 *535:25 *700:22 0.000651562
26 *1162:A *535:25 4.829e-05
27 *1163:A1 *1502:A 0.000214984
28 *1171:A1 *1502:A 0.000202776
29 *1172:A2_N *1687:A 5.52238e-05
30 *1172:A2_N *535:19 8.16036e-05
31 *1172:B1 *535:25 0.000177815
32 *1173:A_N *1502:A 0.000174308
33 *1173:C *1502:A 2.14757e-05
34 *1503:A *535:8 0
35 *150:6 *1502:A 0.000139907
36 *283:10 *1159:B1 0.000177227
37 *283:10 *1502:A 4.73656e-05
38 *532:23 *1688:A 0
39 *532:23 *535:8 0
40 *532:23 *535:19 0
41 *533:27 *1502:A 0.000222666
*RES
1 *1503:X *535:8 18.4786 
2 *535:8 *1687:A 14.3357 
3 *535:8 *535:19 4.375 
4 *535:19 *535:25 18.1607 
5 *535:25 *1159:B1 16.05 
6 *535:25 *1502:A 36.4429 
7 *535:19 *1688:A 16.6571 
*END

*D_NET *536 0.000720395
*CONN
*I *1666:A I *D sky130_fd_sc_hd__buf_2
*I *1264:B1 I *D sky130_fd_sc_hd__a21oi_2
*I *1595:X O *D sky130_fd_sc_hd__buf_6
*CAP
1 *1666:A 9.72461e-05
2 *1264:B1 0.000139327
3 *1595:X 0
4 *536:6 0.000236573
5 *1264:B1 *1266:A1 0
6 *1666:A *1266:A1 0
7 *1265:B *1264:B1 3.18676e-05
8 *161:29 *1264:B1 0.000103275
9 *161:29 *1666:A 0.000112106
*RES
1 *1595:X *536:6 13.8 
2 *536:6 *1264:B1 16.8893 
3 *536:6 *1666:A 16.3536 
*END

*D_NET *537 0.0030824
*CONN
*I *1267:A1 I *D sky130_fd_sc_hd__o211ai_4
*I *1596:X O *D sky130_fd_sc_hd__buf_2
*CAP
1 *1267:A1 0.000834357
2 *1596:X 0.000834357
3 *1267:A1 *1259:B1 0.000128161
4 *1267:A1 *1266:A1 0
5 *1265:B *1267:A1 0
6 *1265:C *1267:A1 0
7 *1266:A2 *1267:A1 0.00010096
8 *1596:A *1267:A1 4.43256e-05
9 *1647:A *1267:A1 8.17615e-05
10 *161:29 *1267:A1 0.000151333
11 *162:20 *1267:A1 0.000356022
12 *231:32 *1267:A1 6.58289e-05
13 *246:18 *1267:A1 0.000485299
*RES
1 *1596:X *1267:A1 44.9571 
*END

*D_NET *538 0.00175512
*CONN
*I *1180:A2 I *D sky130_fd_sc_hd__o211a_2
*I *1181:A1 I *D sky130_fd_sc_hd__o211ai_4
*I *1597:X O *D sky130_fd_sc_hd__buf_6
*CAP
1 *1180:A2 0
2 *1181:A1 0.00024194
3 *1597:X 0.000179254
4 *538:12 0.000421194
5 *1181:A1 *1180:B1 5.14328e-05
6 *538:12 *1242:A1_N 1.58163e-05
7 *538:12 *696:31 0.000196787
8 *538:12 *727:45 0.000104477
9 *1180:A1 *1181:A1 3.15392e-05
10 *1180:C1 *1181:A1 0.00018372
11 *1181:B1 *1181:A1 0.00010096
12 *152:14 *1181:A1 0.000228002
*RES
1 *1597:X *538:12 21.8 
2 *538:12 *1181:A1 15.7464 
3 *538:12 *1180:A2 9.3 
*END

*D_NET *539 0.00161351
*CONN
*I *1287:A1 I *D sky130_fd_sc_hd__o21bai_2
*I *1598:X O *D sky130_fd_sc_hd__buf_6
*CAP
1 *1287:A1 0.000296203
2 *1598:X 0.000296203
3 *1287:A1 *555:18 8.8175e-05
4 *1287:A1 *562:21 0.00012249
5 *1287:A1 *562:43 0.00021796
6 *1287:A1 *698:18 0.000102876
7 *1287:A1 *698:20 2.16573e-05
8 *1286:A1 *1287:A1 0.000177591
9 *316:10 *1287:A1 0.000290358
*RES
1 *1598:X *1287:A1 36.7786 
*END

*D_NET *540 0.000706519
*CONN
*I *1324:A1 I *D sky130_fd_sc_hd__a22oi_2
*I *1599:X O *D sky130_fd_sc_hd__buf_2
*CAP
1 *1324:A1 0.000211364
2 *1599:X 0.000211364
3 *1324:A1 *680:39 5.94884e-05
4 *1241:D *1324:A1 9.25014e-06
5 *1277:A3 *1324:A1 1.00375e-05
6 *1324:A2 *1324:A1 4.1331e-06
7 *1327:C *1324:A1 8.5896e-05
8 *1624:A *1324:A1 0
9 *126:23 *1324:A1 5.52238e-05
10 *207:10 *1324:A1 5.97623e-05
11 *219:10 *1324:A1 0
*RES
1 *1599:X *1324:A1 32.2071 
*END

*D_NET *541 0.000618468
*CONN
*I *1353:A1 I *D sky130_fd_sc_hd__o22ai_4
*I *1600:X O *D sky130_fd_sc_hd__buf_2
*CAP
1 *1353:A1 0.000130048
2 *1600:X 0.000130048
3 *1348:A *1353:A1 8.59435e-05
4 *1348:B *1353:A1 0.000228876
5 *1353:B2 *1353:A1 1.00887e-05
6 *334:20 *1353:A1 3.34634e-05
*RES
1 *1600:X *1353:A1 31.4214 
*END

*D_NET *542 0.000552951
*CONN
*I *1384:B1 I *D sky130_fd_sc_hd__o22a_2
*I *1601:X O *D sky130_fd_sc_hd__buf_2
*CAP
1 *1384:B1 0.000143143
2 *1601:X 0.000143143
3 *1384:A1 *1384:B1 9.90431e-05
4 *1384:A2 *1384:B1 0.000144773
5 *1384:B2 *1384:B1 2.28499e-05
*RES
1 *1601:X *1384:B1 21.9214 
*END

*D_NET *543 0.000347963
*CONN
*I *1385:B2 I *D sky130_fd_sc_hd__o221ai_4
*I *1602:X O *D sky130_fd_sc_hd__buf_4
*CAP
1 *1385:B2 8.30701e-05
2 *1602:X 8.30701e-05
3 *1333:A2 *1385:B2 2.6949e-05
4 *1384:B2 *1385:B2 1.76039e-05
5 *1385:B1 *1385:B2 9.24491e-05
6 *303:10 *1385:B2 4.48206e-05
*RES
1 *1602:X *1385:B2 30.1536 
*END

*D_NET *544 0.021392
*CONN
*I *1540:A I *D sky130_fd_sc_hd__clkbuf_2
*I *1539:A I *D sky130_fd_sc_hd__clkbuf_2
*I *1541:A I *D sky130_fd_sc_hd__buf_6
*I *1546:X O *D sky130_fd_sc_hd__dlymetal6s2s_1
*CAP
1 *1540:A 0.00258219
2 *1539:A 0.0021776
3 *1541:A 0.00245273
4 *1546:X 1.7254e-05
5 *544:37 0.00690397
6 *544:10 0.00461417
7 *1539:A *1165:A3 0.00021957
8 *1539:A *588:52 0.000119221
9 *1539:A *610:14 0
10 *1540:A *1004:A2_N 3.92757e-05
11 *1540:A *1005:C 2.14852e-05
12 *1540:A *1587:A 0.000123078
13 *1540:A *641:89 4.54968e-05
14 *1540:A *677:21 0.000102184
15 *1540:A *704:44 0
16 *1541:A *1301:A1 3.73361e-05
17 *1541:A *555:22 0.000438424
18 *544:37 *1531:A 0.000162489
19 *544:37 *610:14 0
20 *544:37 *636:27 0.000108872
21 p[0] *1540:A 0
22 *1165:A1 *1539:A 0.000184239
23 *1302:B1 *1541:A 2.49278e-05
24 *1307:B *1541:A 0.0002254
25 *1315:C *1541:A 1.39158e-05
26 *1372:A1 *1541:A 0.000141935
27 *1544:A *544:37 0.000112577
28 *1545:A *544:37 0.000131514
29 *149:14 *1539:A 2.04825e-05
30 *275:32 *1541:A 6.10411e-05
31 *277:42 *1541:A 9.84673e-05
32 *278:10 *1541:A 0.000212145
33 *533:37 *1539:A 0
*RES
1 *1546:X *544:10 17.4868 
2 *544:10 *1541:A 32.0402 
3 *544:10 *544:37 13.082 
4 *544:37 *1539:A 25.1349 
5 *544:37 *1540:A 31.1953 
*END

*D_NET *545 0.000710821
*CONN
*I *1196:A2 I *D sky130_fd_sc_hd__o21ai_4
*I *1603:X O *D sky130_fd_sc_hd__buf_6
*CAP
1 *1196:A2 0.000129488
2 *1603:X 0.000129488
3 *1196:A2 *1166:D 2.14757e-05
4 *1196:A2 *700:26 0.000139913
5 *1164:A1 *1196:A2 0
6 *1166:A *1196:A2 9.80173e-05
7 *1196:A1 *1196:A2 8.91534e-05
8 *1196:B1 *1196:A2 0.000103285
*RES
1 *1603:X *1196:A2 31.5107 
*END

*D_NET *546 0.000628672
*CONN
*I *1207:B1 I *D sky130_fd_sc_hd__o21ai_2
*I *1604:X O *D sky130_fd_sc_hd__buf_2
*CAP
1 *1207:B1 0.000179469
2 *1604:X 0.000179469
3 *1207:B1 *716:125 1.30905e-05
4 *1209:C1 *1207:B1 3.37068e-05
5 *1227:B1 *1207:B1 8.00806e-05
6 *172:8 *1207:B1 0
7 *184:14 *1207:B1 0.000142856
*RES
1 *1604:X *1207:B1 30.9036 
*END

*D_NET *547 0.00230446
*CONN
*I *1261:A I *D sky130_fd_sc_hd__nand2_2
*I *1605:X O *D sky130_fd_sc_hd__buf_2
*CAP
1 *1261:A 0.000679772
2 *1605:X 0.000679772
3 *1261:A *1275:A2_N 0.000129347
4 *1261:A *1334:A1 0.000172375
5 *1261:A *669:6 4.72917e-05
6 *1330:A *1261:A 4.46186e-06
7 *1334:A2 *1261:A 0.000175512
8 *1334:B1 *1261:A 6.8646e-06
9 *1335:A *1261:A 0.000142856
10 *1335:B *1261:A 0.000126799
11 *1575:A *1261:A 8.07313e-05
12 *230:10 *1261:A 1.27784e-05
13 *231:8 *1261:A 0
14 *310:10 *1261:A 4.58976e-05
*RES
1 *1605:X *1261:A 40.1 
*END

*D_NET *548 0.00440826
*CONN
*I *1242:B2 I *D sky130_fd_sc_hd__o2bb2a_4
*I *1240:C1 I *D sky130_fd_sc_hd__a211o_2
*I *1606:X O *D sky130_fd_sc_hd__buf_2
*CAP
1 *1242:B2 4.63191e-05
2 *1240:C1 0.000400938
3 *1606:X 0.000537173
4 *548:10 0.00098443
5 *1240:C1 *1148:A 0.000345257
6 *1240:C1 *1148:C 0.000434806
7 *1240:C1 *1517:A 0
8 *1240:C1 *680:84 0
9 *1240:C1 *696:12 5.52302e-05
10 *1240:C1 *696:31 0.000245356
11 *1242:B2 *1516:A 2.14757e-05
12 *548:10 *1516:A 2.77289e-05
13 *548:10 *696:31 0.000114759
14 *1174:B1 *548:10 0.000186662
15 *1240:B1 *1240:C1 6.37665e-05
16 *1242:B1 *1242:B2 0.000127487
17 *1597:A *548:10 0.000353079
18 *125:17 *1240:C1 0.000133035
19 *149:49 *548:10 4.13496e-05
20 *155:12 *1242:B2 0.000188586
21 *155:12 *548:10 0.000100823
22 *348:56 *1240:C1 0
23 *348:56 *548:10 0
*RES
1 *1606:X *548:10 22.1393 
2 *548:10 *1240:C1 24.0857 
3 *548:10 *1242:B2 15.9786 
*END

*D_NET *549 0.00294524
*CONN
*I *1262:B I *D sky130_fd_sc_hd__and3_2
*I *1334:A1 I *D sky130_fd_sc_hd__a22oi_2
*I *1607:X O *D sky130_fd_sc_hd__buf_2
*CAP
1 *1262:B 0.000282071
2 *1334:A1 0.000112944
3 *1607:X 0.00025404
4 *549:6 0.000649054
5 *1262:B *1247:A 7.60735e-05
6 *1262:B *1254:B 0.000195045
7 *1262:B *1275:A2_N 9.80173e-05
8 *549:6 *1247:A 0.000325447
9 *549:6 *1254:B 0.000315165
10 *549:6 *1275:A2_N 7.17235e-05
11 *1261:A *1334:A1 0.000172375
12 *1262:C *1262:B 6.87574e-05
13 *1263:A1 *1262:B 5.52238e-05
14 *1275:B1 *1262:B 0.00012747
15 *1625:A *549:6 0.00014183
16 *231:8 *1334:A1 0
*RES
1 *1607:X *549:6 15.9964 
2 *549:6 *1334:A1 20.55 
3 *549:6 *1262:B 16.175 
*END

*D_NET *550 0.00249094
*CONN
*I *1259:B1 I *D sky130_fd_sc_hd__o211ai_2
*I *1608:X O *D sky130_fd_sc_hd__buf_2
*CAP
1 *1259:B1 0.000833433
2 *1608:X 0.000833433
3 *1259:B1 *1259:C1 6.05161e-06
4 *1259:A2 *1259:B1 4.16984e-05
5 *1265:C *1259:B1 0.00027032
6 *1267:A1 *1259:B1 0.000128161
7 *1267:C1 *1259:B1 0.000133253
8 *231:8 *1259:B1 0
9 *231:19 *1259:B1 0
10 *231:32 *1259:B1 0
11 *236:12 *1259:B1 0.000198698
12 *249:14 *1259:B1 4.58976e-05
*RES
1 *1608:X *1259:B1 42.0464 
*END

*D_NET *551 0.00193842
*CONN
*I *1271:B1 I *D sky130_fd_sc_hd__a22o_2
*I *1272:D I *D sky130_fd_sc_hd__nand4_2
*I *1609:X O *D sky130_fd_sc_hd__buf_6
*CAP
1 *1271:B1 4.74933e-05
2 *1272:D 9.96318e-05
3 *1609:X 0.000305674
4 *551:10 0.0004528
5 *1271:B1 *1271:A1 2.59355e-05
6 *1271:B1 *587:22 1.8461e-05
7 *1272:D *1339:A1 0
8 *1272:D *1339:A2 0
9 *551:10 *1609:A 5.33005e-05
10 *1273:B *1272:D 0.000103831
11 *1273:B *551:10 0.000218734
12 *1679:A *551:10 0.000136912
13 *168:20 *551:10 3.51442e-05
14 *168:26 *1272:D 0.000206038
15 *168:26 *551:10 0.000182132
16 *243:16 *551:10 5.23296e-05
*RES
1 *1609:X *551:10 21.3 
2 *551:10 *1272:D 17.0143 
3 *551:10 *1271:B1 14.7643 
*END

*D_NET *552 0.000757605
*CONN
*I *1190:A1 I *D sky130_fd_sc_hd__o21ai_4
*I *1610:X O *D sky130_fd_sc_hd__buf_6
*CAP
1 *1190:A1 0.000192134
2 *1610:X 0.000192134
3 *1186:B *1190:A1 0.000274294
4 *1610:A *1190:A1 9.90431e-05
*RES
1 *1610:X *1190:A1 32.1357 
*END

*D_NET *553 0.00175041
*CONN
*I *1254:B I *D sky130_fd_sc_hd__nand2_2
*I *1611:X O *D sky130_fd_sc_hd__buf_2
*CAP
1 *1254:B 0.000494185
2 *1611:X 0.000494185
3 *1261:B *1254:B 4.43046e-05
4 *1262:B *1254:B 0.000195045
5 *1338:A2 *1254:B 5.7616e-05
6 *249:14 *1254:B 0.000149911
7 *549:6 *1254:B 0.000315165
*RES
1 *1611:X *1254:B 35.4214 
*END

*D_NET *554 0.000427682
*CONN
*I *1227:B2 I *D sky130_fd_sc_hd__a22oi_2
*I *1612:X O *D sky130_fd_sc_hd__buf_2
*CAP
1 *1227:B2 0.000159198
2 *1612:X 0.000159198
3 *1227:B2 *1207:A1 0
4 *1227:B2 *1652:A 9.90367e-05
5 *1227:B1 *1227:B2 1.02504e-05
6 *172:8 *1227:B2 0
*RES
1 *1612:X *1227:B2 30.1893 
*END

*D_NET *555 0.0204667
*CONN
*I *1221:A2 I *D sky130_fd_sc_hd__a41oi_2
*I *1537:A I *D sky130_fd_sc_hd__clkbuf_2
*I *1538:A I *D sky130_fd_sc_hd__clkbuf_2
*I *1299:B I *D sky130_fd_sc_hd__and4_4
*I *1536:A I *D sky130_fd_sc_hd__dlygate4sd1_1
*I *1298:B2 I *D sky130_fd_sc_hd__a22o_4
*I *1547:X O *D sky130_fd_sc_hd__clkbuf_2
*CAP
1 *1221:A2 0
2 *1537:A 0.00137525
3 *1538:A 0
4 *1299:B 0.000106569
5 *1536:A 0.000348706
6 *1298:B2 0.000119655
7 *1547:X 0.00104374
8 *555:79 0.0018508
9 *555:75 0.00140609
10 *555:43 0.00101185
11 *555:35 0.0015262
12 *555:22 0.00146874
13 *555:18 0.00235373
14 *1298:B2 *995:A 9.47378e-05
15 *1299:B *1299:A 0.000151361
16 *1299:B *1301:A1 1.08359e-05
17 *1299:B *732:61 8.71227e-05
18 *1536:A *1301:A1 9.41642e-05
19 *1536:A *1372:A3 0
20 *1536:A *724:8 4.68201e-05
21 *1537:A *1013:B1 0.000117388
22 *1537:A *1090:C 0.000276877
23 *1537:A *558:31 4.98872e-05
24 *1537:A *665:41 0
25 *1537:A *716:125 5.33786e-05
26 *1537:A *717:48 0.000221163
27 *1537:A *717:63 0.000183733
28 *555:18 *1290:C 9.10894e-05
29 *555:18 *1521:A 1.03853e-05
30 *555:18 *665:6 0.000131003
31 *555:18 *665:35 7.8351e-05
32 *555:18 *673:18 0.000471419
33 *555:18 *691:64 7.58841e-05
34 *555:43 *1298:B1 7.35951e-05
35 *555:43 *1299:A 4.29471e-05
36 *555:43 *681:51 1.48272e-05
37 *555:79 *1147:B 0.00012401
38 *555:79 *1222:C 0
39 *555:79 *558:31 7.36407e-05
40 *555:79 *716:125 0.000346731
41 *1170:A2 *1537:A 6.95112e-05
42 *1171:A1 *1537:A 0.000181796
43 *1171:B1 *1537:A 4.88637e-05
44 *1222:A *555:79 0
45 *1226:B2 *555:75 0.000127957
46 *1226:B2 *555:79 1.08359e-05
47 *1227:A2 *555:79 0.000121573
48 *1233:B1 *1537:A 5.52302e-05
49 *1286:A1 *555:18 0.000354216
50 *1287:A1 *555:18 8.8175e-05
51 *1305:B *1298:B2 2.90501e-05
52 *1305:B *555:35 1.30914e-05
53 *1367:A2 *555:22 2.85321e-05
54 *1367:B1 *555:22 2.85234e-05
55 *1372:B1 *1299:B 6.5185e-05
56 *1372:B1 *555:43 1.78465e-05
57 *1541:A *555:22 0.000438424
58 *1547:A *555:18 2.18087e-05
59 *1553:A *555:18 2.23393e-05
60 *1667:A *555:18 5.51649e-05
61 *130:18 *555:79 0.000494047
62 *142:12 *1537:A 1.88048e-05
63 *148:10 *1537:A 0.000108918
64 *148:18 *1537:A 0.000517573
65 *150:6 *1537:A 8.07397e-06
66 *196:10 *555:75 0
67 *272:41 *555:75 0.000362424
68 *272:41 *555:79 1.4396e-05
69 *277:42 *555:35 4.29498e-05
70 *277:42 *555:75 0.000185383
71 *293:12 *555:75 7.83174e-05
72 *305:92 *1537:A 0.000170382
73 *326:18 *555:75 0
74 *326:18 *555:79 0.000173804
75 *326:35 *555:79 0.000350236
76 *337:19 *555:75 0
77 *348:10 *1298:B2 0.000124019
78 *348:10 *555:35 4.66056e-05
79 *348:25 *555:35 4.29498e-05
80 *348:25 *555:75 0.000295977
81 *350:12 *1298:B2 9.21413e-05
82 *355:22 *1536:A 2.89114e-05
*RES
1 *1547:X *555:18 47.9429 
2 *555:18 *555:22 20.2321 
3 *555:22 *1298:B2 17.2107 
4 *555:22 *555:35 1.1875 
5 *555:35 *555:43 8.52836 
6 *555:43 *1536:A 18.8893 
7 *555:43 *1299:B 16.8179 
8 *555:35 *555:75 20.1696 
9 *555:75 *555:79 13.4107 
10 *555:79 *1538:A 13.8 
11 *555:79 *1537:A 47.7107 
12 *555:75 *1221:A2 13.8 
*END

*D_NET *556 0.00087058
*CONN
*I *1322:B1 I *D sky130_fd_sc_hd__o21a_2
*I *1613:X O *D sky130_fd_sc_hd__buf_2
*CAP
1 *1322:B1 0.000338597
2 *1613:X 0.000338597
3 *1322:B1 *571:10 0
4 *1322:B1 *680:39 0.000115611
5 *296:12 *1322:B1 0
6 *301:10 *1322:B1 7.77751e-05
*RES
1 *1613:X *1322:B1 33.85 
*END

*D_NET *557 0.0017229
*CONN
*I *1383:B I *D sky130_fd_sc_hd__nand3_2
*I *1425:A3 I *D sky130_fd_sc_hd__a32oi_2
*I *1379:B1 I *D sky130_fd_sc_hd__a21oi_2
*I *1426:A3 I *D sky130_fd_sc_hd__a32o_2
*I *1614:X O *D sky130_fd_sc_hd__buf_2
*CAP
1 *1383:B 7.16298e-05
2 *1425:A3 0
3 *1379:B1 0
4 *1426:A3 4.47671e-05
5 *1614:X 0.00012738
6 *557:32 0.000182321
7 *557:12 4.47671e-05
8 *557:10 0.000238071
9 *1382:A *1383:B 0
10 *1383:A *1383:B 4.27935e-05
11 *1383:C *1383:B 0
12 *1387:B1 *557:32 0.000123288
13 *1426:A1 *1426:A3 5.03772e-05
14 *1427:B1 *1383:B 1.98839e-05
15 *1427:B1 *557:32 9.60875e-05
16 *1429:B1 *557:10 0.000141292
17 *1429:B1 *557:32 1.46717e-05
18 *358:30 *1426:A3 2.59355e-05
19 *358:43 *557:10 5.66157e-05
20 *358:43 *557:32 0.000159689
21 *358:45 *1383:B 5.52238e-05
22 *360:26 *1426:A3 0.000137983
23 *361:8 *1383:B 4.13496e-05
24 *361:14 *557:10 2.28335e-05
25 *366:25 *1383:B 2.59355e-05
*RES
1 *1614:X *557:10 16.3893 
2 *557:10 *557:12 4.5 
3 *557:12 *1426:A3 10.6571 
4 *557:12 *1379:B1 9.3 
5 *557:10 *557:32 8.125 
6 *557:32 *1425:A3 9.3 
7 *557:32 *1383:B 11.4964 
*END

*D_NET *558 0.0131778
*CONN
*I *1094:B I *D sky130_fd_sc_hd__nand4_4
*I *1053:C I *D sky130_fd_sc_hd__nand4_2
*I *1051:A2 I *D sky130_fd_sc_hd__a22o_2
*I *1096:A2 I *D sky130_fd_sc_hd__a22o_4
*I *1095:A2 I *D sky130_fd_sc_hd__a22oi_2
*I *1148:A I *D sky130_fd_sc_hd__and4_2
*I *1615:X O *D sky130_fd_sc_hd__buf_2
*CAP
1 *1094:B 3.82418e-05
2 *1053:C 0.000210576
3 *1051:A2 4.80701e-06
4 *1096:A2 0.000151489
5 *1095:A2 0
6 *1148:A 0.00128298
7 *1615:X 0
8 *558:67 0.000589334
9 *558:50 0.00052544
10 *558:48 0.00117698
11 *558:31 0.0017229
12 *558:4 0.00186713
13 *1051:A2 *727:31 6.25394e-06
14 *1053:C *1052:D 5.74562e-05
15 *1053:C *1053:B 9.09605e-05
16 *1053:C *1109:A1 5.62793e-05
17 *1053:C *643:12 6.42145e-05
18 *1094:B *1094:A 0
19 *1094:B *727:73 0
20 *1096:A2 *1096:A1 7.73662e-05
21 *1096:A2 *1099:C 0
22 *1096:A2 *730:48 2.89016e-05
23 *1148:A *1149:B 9.76491e-05
24 *1148:A *1150:B2 3.37161e-05
25 *1148:A *1564:A 9.80173e-05
26 *1148:A *1565:A 0.00010047
27 *1148:A *693:10 5.52238e-05
28 *1148:A *694:12 0.00030012
29 *1148:A *696:12 2.14658e-05
30 *558:31 *1147:B 0.00012401
31 *558:31 *655:53 9.25014e-06
32 *558:31 *716:125 0
33 *558:31 *728:27 0.000127979
34 *558:48 *1096:A1 0.00010116
35 *558:48 *641:60 0.000265447
36 *558:48 *655:53 0.000107109
37 *558:48 *656:8 1.32389e-05
38 *558:48 *716:125 0.000191027
39 *558:67 *1052:D 9.25014e-06
40 *558:67 *1096:A1 4.00025e-05
41 *558:67 *643:12 4.53031e-05
42 *558:67 *671:10 0.000112916
43 *1092:A2 *558:48 6.87574e-05
44 *1092:B1 *558:48 0.000320016
45 *1097:B2 *558:67 0
46 *1098:B2 *1096:A2 0
47 *1101:B2 *558:48 0.0005993
48 *1109:A2 *1051:A2 7.13226e-06
49 *1154:D1 *1148:A 5.33005e-05
50 *1154:D1 *558:31 0.00012747
51 *1175:A1_N *558:31 0.000260516
52 *1175:A2_N *558:31 7.73662e-05
53 *1240:C1 *1148:A 0.000345257
54 *1537:A *558:31 4.98872e-05
55 *1577:A *558:67 0
56 *72:24 *558:48 0.000183713
57 *72:37 *558:48 1.98839e-05
58 *74:77 *558:48 0.00040381
59 *125:17 *1148:A 0.00026353
60 *131:24 *1148:A 0.000316541
61 *158:14 *558:67 0
62 *326:35 *558:31 0.000100831
63 *348:56 *1148:A 0.000102184
64 *555:79 *558:31 7.36407e-05
*RES
1 *1615:X *558:4 9.3 
2 *558:4 *1148:A 39.7464 
3 *558:4 *558:31 17.75 
4 *558:31 *1095:A2 13.8 
5 *558:31 *558:48 26.7679 
6 *558:48 *558:50 4.5 
7 *558:50 *1096:A2 16.7107 
8 *558:50 *558:67 6.125 
9 *558:67 *1051:A2 13.9473 
10 *558:67 *1053:C 18.0679 
11 *558:48 *1094:B 10.0321 
*END

*D_NET *559 0.0025234
*CONN
*I *1432:C1 I *D sky130_fd_sc_hd__o2111ai_2
*I *1433:A2 I *D sky130_fd_sc_hd__a311oi_2
*I *1616:X O *D sky130_fd_sc_hd__buf_2
*CAP
1 *1432:C1 0.000116722
2 *1433:A2 0
3 *1616:X 0.000310798
4 *559:10 0.00042752
5 *1431:A1 *559:10 5.52238e-05
6 *1431:B1 *559:10 0.000233006
7 *1433:A1 *1432:C1 0.00036496
8 *1433:A1 *559:10 1.02504e-05
9 *1433:B1 *559:10 6.8377e-06
10 *1434:B1 *559:10 0.000139202
11 *1434:B2 *1432:C1 0
12 *1434:B2 *559:10 2.94004e-05
13 *1435:A *559:10 5.49544e-05
14 *1438:B *1432:C1 0.000376467
15 *1438:B *559:10 0.000222163
16 *412:27 *559:10 0.000175892
*RES
1 *1616:X *559:10 21.7107 
2 *559:10 *1433:A2 13.8 
3 *559:10 *1432:C1 18.7821 
*END

*D_NET *560 0.00867679
*CONN
*I *1222:B I *D sky130_fd_sc_hd__and4_2
*I *1218:C1 I *D sky130_fd_sc_hd__o211a_2
*I *1317:B I *D sky130_fd_sc_hd__and3_2
*I *1617:X O *D sky130_fd_sc_hd__buf_2
*CAP
1 *1222:B 0.000329055
2 *1218:C1 0.00103589
3 *1317:B 0.000761092
4 *1617:X 0
5 *560:23 0.00189376
6 *560:4 0.00128991
7 *1218:C1 *597:12 0
8 *1222:B *1222:C 0.000142856
9 *1222:B *674:102 5.09751e-05
10 *1317:B *1212:C 0.000282858
11 *1317:B *1212:D 0.000106101
12 *1317:B *1317:A 2.22999e-05
13 *1317:B *690:57 0.00030926
14 *1317:B *719:29 7.03393e-05
15 *1317:B *719:61 0.000383558
16 *560:23 *1211:B 0.00049694
17 *560:23 *674:91 5.33293e-05
18 *560:23 *674:102 9.0105e-05
19 *1218:A1 *1218:C1 2.57194e-05
20 *1219:B1_N *1218:C1 7.07155e-06
21 *1222:D *1222:B 0.000108827
22 *1224:B1 *1218:C1 2.89016e-05
23 *1225:A *1218:C1 9.71197e-05
24 *1225:B *1222:B 0.000123295
25 *1225:B *560:23 5.58941e-05
26 *184:60 *1218:C1 0.000140933
27 *187:8 *1218:C1 1.74876e-05
28 *188:27 *1218:C1 1.44428e-05
29 *189:6 *1317:B 0.00018831
30 *189:6 *560:23 0.000194422
31 *209:12 *1222:B 0.000356035
*RES
1 *1617:X *560:4 9.3 
2 *560:4 *1317:B 23.55 
3 *560:4 *560:23 15.3214 
4 *560:23 *1218:C1 25.7464 
5 *560:23 *1222:B 22.2464 
*END

*D_NET *561 0.00521778
*CONN
*I *1442:A2 I *D sky130_fd_sc_hd__a22o_2
*I *1441:C I *D sky130_fd_sc_hd__nand4_2
*I *1403:B I *D sky130_fd_sc_hd__nand4_4
*I *1618:X O *D sky130_fd_sc_hd__buf_2
*CAP
1 *1442:A2 1.25444e-05
2 *1441:C 0.000383725
3 *1403:B 2.24275e-05
4 *1618:X 0.000721138
5 *561:16 0.000647191
6 *561:10 0.00097472
7 *1441:C *1403:C 3.49788e-05
8 *1441:C *1441:A 0
9 *1441:C *1441:B 7.02884e-05
10 *1441:C *1441:D 2.6949e-05
11 *1442:A2 *690:55 1.51021e-05
12 *561:10 *1356:A 5.59324e-05
13 *561:10 *1442:B1 8.50795e-06
14 *561:16 *712:34 0
15 *1365:A1 *561:10 6.26774e-06
16 *1365:A2 *561:10 0.000256246
17 *1365:C1 *561:10 2.24804e-05
18 *1403:A *1403:B 3.08382e-06
19 *1403:A *1441:C 2.89114e-05
20 *1403:A *561:16 7.77652e-05
21 *1403:D *1441:C 9.60939e-05
22 *1443:D *1441:C 0.00014285
23 *1444:A2_N *1441:C 8.6229e-06
24 *1445:A1 *561:16 1.578e-05
25 *1446:A1 *1441:C 5.38388e-05
26 *1446:A1 *561:16 6.32973e-05
27 *1446:C1 *561:16 0.000142427
28 *1464:B1 *561:10 8.45327e-05
29 *334:26 *561:10 0.000163576
30 *335:24 *561:10 2.76499e-05
31 *335:24 *561:16 0
32 *386:8 *1442:A2 1.51021e-05
33 *427:10 *1441:C 0.000103531
34 *429:10 *561:10 0.000122083
35 *429:10 *561:16 0.000114361
36 *430:6 *1441:C 0.000511034
37 *430:6 *561:16 0.000184745
*RES
1 *1618:X *561:10 25.7643 
2 *561:10 *561:16 10.6607 
3 *561:16 *1403:B 9.72857 
4 *561:16 *1441:C 28.6929 
5 *561:10 *1442:A2 14.1036 
*END

*D_NET *562 0.0113969
*CONN
*I *1200:A1 I *D sky130_fd_sc_hd__a22o_2
*I *1199:A2 I *D sky130_fd_sc_hd__a22oi_2
*I *1201:B I *D sky130_fd_sc_hd__and4_4
*I *1206:A2 I *D sky130_fd_sc_hd__a41o_2
*I *1202:B I *D sky130_fd_sc_hd__nand4_2
*I *1282:B2 I *D sky130_fd_sc_hd__a22o_2
*I *1285:A I *D sky130_fd_sc_hd__nand4_2
*I *1284:A I *D sky130_fd_sc_hd__and4_2
*I *1281:B2 I *D sky130_fd_sc_hd__a22oi_2
*I *1619:X O *D sky130_fd_sc_hd__buf_2
*CAP
1 *1200:A1 6.78853e-05
2 *1199:A2 7.96101e-05
3 *1201:B 0
4 *1206:A2 0.000506171
5 *1202:B 0
6 *1282:B2 0.000183178
7 *1285:A 2.62838e-05
8 *1284:A 0.000119259
9 *1281:B2 0.00014028
10 *1619:X 0.000393866
11 *562:103 0.000326906
12 *562:71 0.000810414
13 *562:58 0.000481839
14 *562:43 0.000655284
15 *562:23 0.000145543
16 *562:21 0.000189066
17 *562:6 0.000608112
18 *1199:A2 *673:125 0.000170459
19 *1199:A2 *698:63 0.00019554
20 *1199:A2 *711:26 1.02504e-05
21 *1200:A1 *1200:A2 1.57155e-05
22 *1200:A1 *1671:A 2.14658e-05
23 *1200:A1 *620:8 0.000169359
24 *1200:A1 *707:6 6.44636e-05
25 *1206:A2 *1206:A1 0.000175681
26 *1206:A2 *1206:A3 2.94234e-05
27 *1206:A2 *703:12 0.000121573
28 *1206:A2 *703:14 3.17148e-05
29 *1206:A2 *708:42 0.000144038
30 *1281:B2 *1281:A2 1.32293e-05
31 *1281:B2 *712:14 1.52217e-05
32 *1281:B2 *712:28 0.000236106
33 *1282:B2 *1282:B1 2.85234e-05
34 *1282:B2 *698:63 5.33005e-05
35 *1284:A *1284:B 0.00035408
36 *1284:A *1284:C 2.38501e-05
37 *1284:A *1284:D 9.75679e-05
38 *1284:A *1285:B 5.49995e-05
39 *1284:A *713:6 9.80189e-05
40 *1285:A *713:6 5.33005e-05
41 *562:6 *1281:A2 2.12647e-05
42 *562:6 *712:14 7.28875e-05
43 *562:21 *698:20 7.74068e-05
44 *562:21 *698:31 5.36422e-05
45 *562:21 *698:44 9.15842e-06
46 *562:43 *665:35 7.74068e-05
47 *562:43 *698:44 0.000322133
48 *562:58 *665:35 0.000887867
49 *562:58 *698:63 9.41642e-05
50 *562:71 *1198:A 3.37161e-05
51 *562:71 *1201:A 5.33005e-05
52 *562:103 *1198:A 0.000135028
53 *562:103 *588:29 0.000215583
54 *562:103 *620:8 9.60875e-05
55 *562:103 *673:125 0.000218741
56 *562:103 *707:6 4.58194e-05
57 *562:103 *708:23 1.98839e-05
58 *562:103 *708:42 5.90666e-05
59 *1203:A1 *1206:A2 3.69047e-06
60 *1203:B1 *562:58 8.08022e-05
61 *1203:B1 *562:71 0.000166983
62 *1203:C1 *1206:A2 9.71197e-05
63 *1205:A2 *562:58 0.000955372
64 *1205:A2 *562:71 0.000175519
65 *1287:A1 *562:21 0.00012249
66 *1287:A1 *562:43 0.00021796
67 *1504:A *1282:B2 2.54852e-05
68 *178:8 *562:58 2.90164e-05
69 *256:8 *1281:B2 3.11088e-05
70 *316:10 *562:43 1.05603e-05
71 *316:10 *562:58 7.60491e-05
*RES
1 *1619:X *562:6 13.9429 
2 *562:6 *1281:B2 12.7464 
3 *562:6 *562:21 6.14286 
4 *562:21 *562:23 4.5 
5 *562:23 *1284:A 13.55 
6 *562:23 *1285:A 9.83571 
7 *562:21 *562:43 8.875 
8 *562:43 *1282:B2 11.8 
9 *562:43 *562:58 18.625 
10 *562:58 *1202:B 13.8 
11 *562:58 *562:71 8.10714 
12 *562:71 *1206:A2 26.0321 
13 *562:71 *1201:B 9.3 
14 *562:71 *562:103 14.5893 
15 *562:103 *1199:A2 20.8536 
16 *562:103 *1200:A1 11.4964 
*END

*D_NET *563 0.000660438
*CONN
*I *1465:A1 I *D sky130_fd_sc_hd__a22oi_2
*I *1620:X O *D sky130_fd_sc_hd__buf_2
*CAP
1 *1465:A1 0.000144613
2 *1620:X 0.000144613
3 *1465:A1 *1512:A 0.000125241
4 *1465:A1 *1513:A 0.000182389
5 *1465:A1 *681:16 5.33005e-05
6 *433:22 *1465:A1 1.02821e-05
*RES
1 *1620:X *1465:A1 30.6 
*END

*D_NET *564 0.0023087
*CONN
*I *1296:B I *D sky130_fd_sc_hd__nand2_2
*I *1359:A2 I *D sky130_fd_sc_hd__a22o_2
*I *1357:C I *D sky130_fd_sc_hd__and4_2
*I *1621:X O *D sky130_fd_sc_hd__buf_2
*CAP
1 *1296:B 4.00359e-05
2 *1359:A2 6.45803e-05
3 *1357:C 0.000136355
4 *1621:X 9.26863e-05
5 *564:10 0.000340163
6 *564:8 0.00027195
7 *1296:B *1296:A 7.33494e-06
8 *1296:B *1621:A 0
9 *1357:C *1355:A 0.000136733
10 *1357:C *1359:A1 5.89258e-05
11 *1357:C *681:27 0.000220219
12 *1357:C *718:25 4.51148e-05
13 *1359:A2 *1359:A1 3.19083e-05
14 *1359:A2 *725:26 1.72933e-05
15 *564:10 *1296:A 5.33978e-05
16 *564:10 *1621:A 0
17 *564:10 *681:27 2.06791e-05
18 *564:10 *681:83 0.000152342
19 *564:10 *725:26 2.48187e-05
20 *1362:A2 *1357:C 1.30914e-05
21 *1362:B1 *1357:C 5.74242e-05
22 *1362:B1 *564:10 0.000164455
23 *336:45 *1357:C 5.61819e-05
24 *336:70 *1357:C 0.00010182
25 *355:22 *564:8 0.000142856
26 *355:35 *1296:B 5.83304e-05
*RES
1 *1621:X *564:8 15.1571 
2 *564:8 *564:10 4.07143 
3 *564:10 *1357:C 18.8357 
4 *564:10 *1359:A2 14.925 
5 *564:8 *1296:B 14.8357 
*END

*D_NET *565 0.00362019
*CONN
*I *1360:B I *D sky130_fd_sc_hd__and3_2
*I *1361:A2 I *D sky130_fd_sc_hd__a21oi_2
*I *1622:X O *D sky130_fd_sc_hd__buf_2
*CAP
1 *1360:B 0.00069566
2 *1361:A2 0.000208367
3 *1622:X 2.66884e-05
4 *565:8 0.000930715
5 *1361:A2 *1501:A 5.33005e-05
6 *1361:A2 *678:109 8.60897e-05
7 *1361:A2 *683:31 7.80059e-05
8 *565:8 *683:31 7.74135e-05
9 *1369:A2 *1360:B 5.33005e-05
10 *1407:A *1361:A2 5.50052e-05
11 *1407:C *1361:A2 1.46689e-05
12 *1464:B1 *1361:A2 0.000111367
13 *334:20 *1360:B 0.000692241
14 *334:26 *1360:B 0.00023177
15 *348:111 *1361:A2 0.000236751
16 *348:111 *565:8 6.88475e-05
*RES
1 *1622:X *565:8 14.8357 
2 *565:8 *1361:A2 19.1393 
3 *565:8 *1360:B 23.3714 
*END

*D_NET *566 0.0141829
*CONN
*I *1535:A I *D sky130_fd_sc_hd__buf_6
*I *1533:A I *D sky130_fd_sc_hd__clkdlybuf4s25_1
*I *1532:A I *D sky130_fd_sc_hd__dlymetal6s2s_1
*I *1548:X O *D sky130_fd_sc_hd__clkbuf_2
*CAP
1 *1535:A 0.00247014
2 *1533:A 8.98094e-05
3 *1532:A 1.69531e-05
4 *1548:X 0.000863883
5 *566:29 0.00436843
6 *566:10 0.00268931
7 *1533:A *1356:A 4.47273e-05
8 *1533:A *681:51 1.4966e-05
9 *1535:A *674:102 0
10 *1535:A *674:108 3.40128e-05
11 *1535:A *721:8 0
12 *566:10 *1510:A 5.71472e-05
13 *566:10 *1561:A 7.65719e-05
14 *566:10 *684:10 0.00011765
15 *566:10 *689:12 0.00043419
16 *566:10 *689:22 0.000188195
17 *566:29 *618:75 0.00143235
18 *566:29 *684:10 8.19176e-05
19 *566:29 *689:22 7.51432e-05
20 *1225:A *1535:A 5.7903e-06
21 *1230:B *1535:A 5.2177e-05
22 *1320:A2 *1535:A 0.000252431
23 *1365:A1 *1533:A 4.21996e-05
24 *1548:A *566:10 0.000224133
25 *1554:A *566:10 0
26 *1556:A *1532:A 5.33005e-05
27 *1557:A *566:10 5.52238e-05
28 *200:12 *1535:A 3.75052e-05
29 *335:39 *1533:A 2.28776e-05
30 *386:42 *566:29 0
31 *388:16 *566:29 0.000328538
32 *390:24 *566:29 0
33 *436:12 *1532:A 5.33005e-05
*RES
1 *1548:X *566:10 27.3536 
2 *566:10 *1532:A 14.3357 
3 *566:10 *566:29 12.3237 
4 *566:29 *1533:A 21.3555 
5 *566:29 *1535:A 30.0388 
*END

*D_NET *567 0.00173279
*CONN
*I *1441:A I *D sky130_fd_sc_hd__nand4_2
*I *1623:X O *D sky130_fd_sc_hd__buf_2
*CAP
1 *1441:A 0.000518306
2 *1623:X 0.000518306
3 *1441:A *1441:B 6.10591e-05
4 *1402:A1_N *1441:A 9.91086e-05
5 *1441:C *1441:A 0
6 *1443:D *1441:A 7.10813e-05
7 *384:17 *1441:A 0.000190178
8 *384:28 *1441:A 5.31158e-05
9 *428:12 *1441:A 0.000221641
*RES
1 *1623:X *1441:A 36.5821 
*END

*D_NET *568 0.00455652
*CONN
*I *1351:B I *D sky130_fd_sc_hd__nand3_2
*I *1344:B I *D sky130_fd_sc_hd__nand2_2
*I *1442:B2 I *D sky130_fd_sc_hd__a22o_2
*I *1623:A I *D sky130_fd_sc_hd__buf_2
*I *1501:X O *D sky130_fd_sc_hd__clkbuf_1
*CAP
1 *1351:B 0.00056394
2 *1344:B 1.79444e-05
3 *1442:B2 0.000351956
4 *1623:A 0
5 *1501:X 0.000236097
6 *568:34 0.000746676
7 *568:14 0.00040666
8 *568:10 0.000455593
9 *1344:B *716:30 0
10 *1344:B *716:44 1.04232e-05
11 *1351:B *1351:C 1.3701e-05
12 *1351:B *608:20 2.32517e-05
13 *1351:B *716:30 0.000239116
14 *1351:B *716:44 8.1579e-05
15 *1442:B2 *1442:A1 9.71197e-05
16 *1442:B2 *690:55 0.000309779
17 *568:10 *690:23 3.47561e-05
18 *568:10 *716:44 0.000103253
19 *568:34 *1441:D 5.03772e-05
20 *568:34 *1674:A 9.60875e-05
21 *568:34 *716:44 0.000140481
22 *1350:A1_N *1351:B 6.42095e-05
23 *1351:A *1351:B 0.000121823
24 *1402:A1_N *1442:B2 9.47028e-05
25 *1402:B2 *568:10 0
26 *1404:A1 *1351:B 2.14658e-05
27 *1404:A1 *568:34 7.43578e-06
28 *1443:A *568:10 9.14786e-05
29 *1444:B2 *568:10 0
30 *332:8 *1351:B 5.52238e-05
31 *386:8 *1442:B2 2.05612e-05
32 *428:12 *1442:B2 0.000100832
*RES
1 *1501:X *568:10 22.675 
2 *568:10 *568:14 0.964286 
3 *568:14 *1623:A 9.3 
4 *568:14 *1442:B2 16.9786 
5 *568:10 *568:34 3.82143 
6 *568:34 *1344:B 9.72857 
7 *568:34 *1351:B 18.9607 
*END

*D_NET *569 0.00210964
*CONN
*I *1232:A1 I *D sky130_fd_sc_hd__a21oi_2
*I *1276:A1 I *D sky130_fd_sc_hd__a32oi_4
*I *1245:A1 I *D sky130_fd_sc_hd__a31o_2
*I *1624:X O *D sky130_fd_sc_hd__buf_2
*CAP
1 *1232:A1 9.48509e-05
2 *1276:A1 0.000156458
3 *1245:A1 8.0231e-05
4 *1624:X 7.77919e-05
5 *569:10 0.000291372
6 *569:6 0.000227326
7 *1232:A1 *1232:B1 0
8 *1232:A2 *1232:A1 5.52238e-05
9 *1232:A2 *569:6 1.98839e-05
10 *1232:A2 *569:10 7.6644e-05
11 *1245:A2 *1245:A1 7.49641e-05
12 *1245:A2 *569:10 4.56437e-05
13 *1245:A3 *1276:A1 0.000434813
14 *1245:B1 *1245:A1 3.34295e-05
15 *1245:B1 *569:10 0.000121573
16 *1276:B1 *1232:A1 7.26655e-05
17 *1276:B1 *1276:A1 5.33005e-05
18 *201:41 *1276:A1 1.97695e-05
19 *251:16 *1276:A1 9.47463e-05
20 *299:6 *1232:A1 6.74408e-05
21 *299:6 *569:6 1.15172e-05
22 *302:14 *1245:A1 0
*RES
1 *1624:X *569:6 10.2464 
2 *569:6 *569:10 6.14286 
3 *569:10 *1245:A1 15.3714 
4 *569:10 *1276:A1 18.4607 
5 *569:6 *1232:A1 11.9429 
*END

*D_NET *570 0.00191906
*CONN
*I *1247:A I *D sky130_fd_sc_hd__inv_2
*I *1625:X O *D sky130_fd_sc_hd__buf_2
*CAP
1 *1247:A 0.000303179
2 *1625:X 0.000303179
3 *1247:A *1275:A2_N 0.000227532
4 *1262:B *1247:A 7.60735e-05
5 *1262:C *1247:A 0.000176669
6 *1275:A1_N *1247:A 0.000350211
7 *1275:B1 *1247:A 5.33433e-05
8 *1625:A *1247:A 1.97695e-05
9 *233:16 *1247:A 8.36572e-05
10 *549:6 *1247:A 0.000325447
*RES
1 *1625:X *1247:A 28.85 
*END

*D_NET *571 0.00220428
*CONN
*I *1318:B1 I *D sky130_fd_sc_hd__a31o_2
*I *1322:A1 I *D sky130_fd_sc_hd__o21a_2
*I *1319:B2 I *D sky130_fd_sc_hd__o2bb2ai_4
*I *1323:A1 I *D sky130_fd_sc_hd__o211ai_4
*I *1626:X O *D sky130_fd_sc_hd__buf_2
*CAP
1 *1318:B1 0
2 *1322:A1 0.00023191
3 *1319:B2 0.000157791
4 *1323:A1 0
5 *1626:X 0
6 *571:32 0.000358107
7 *571:10 0.000409299
8 *571:4 0.000377705
9 *1319:B2 *680:39 0
10 *1322:A1 *1318:A1 0.000114121
11 *571:10 *680:39 0
12 *571:32 *1318:A1 2.84398e-05
13 *1319:A1_N *1319:B2 0
14 *1319:B1 *1319:B2 0
15 *1322:B1 *571:10 0
16 *1378:A1 *571:10 0.000226507
17 *1378:A1 *571:32 0.000129515
18 *296:6 *1322:A1 0.000102197
19 *296:12 *1319:B2 4.1331e-06
20 *296:12 *1322:A1 0
21 *296:12 *571:10 4.25809e-05
22 *298:10 *1319:B2 2.19778e-05
*RES
1 *1626:X *571:4 9.3 
2 *571:4 *571:10 8.32143 
3 *571:10 *1323:A1 13.8 
4 *571:10 *1319:B2 16.6571 
5 *571:4 *571:32 6.58929 
6 *571:32 *1322:A1 18.425 
7 *571:32 *1318:B1 13.8 
*END

*D_NET *572 0.000260264
*CONN
*I *1328:A I *D sky130_fd_sc_hd__nand2_2
*I *1627:X O *D sky130_fd_sc_hd__buf_2
*CAP
1 *1328:A 4.12058e-05
2 *1627:X 4.12058e-05
3 *1328:A *1328:B 4.79842e-05
4 *1334:B2 *1328:A 0.000129868
*RES
1 *1627:X *1328:A 29.2429 
*END

*D_NET *573 0.000958178
*CONN
*I *1303:B1 I *D sky130_fd_sc_hd__o22a_4
*I *1628:X O *D sky130_fd_sc_hd__buf_2
*CAP
1 *1303:B1 0.00015964
2 *1628:X 0.00015964
3 *272:41 *1303:B1 1.21258e-05
4 *277:68 *1303:B1 0.000377637
5 *337:19 *1303:B1 0.000153047
6 *348:44 *1303:B1 9.60875e-05
*RES
1 *1628:X *1303:B1 32.1357 
*END

*D_NET *574 0.00237141
*CONN
*I *1373:A3 I *D sky130_fd_sc_hd__o31a_2
*I *1375:B2 I *D sky130_fd_sc_hd__o2bb2ai_4
*I *1629:X O *D sky130_fd_sc_hd__buf_2
*CAP
1 *1373:A3 0
2 *1375:B2 0.000182011
3 *1629:X 0.000220583
4 *574:10 0.000402593
5 *1375:B2 *732:71 0.000225314
6 *574:10 *1371:A1 5.33005e-05
7 *574:10 *1373:A1 0.00057628
8 *574:10 *674:31 0.000131439
9 *1373:A2 *574:10 3.03071e-05
10 *1373:B1 *574:10 0.000225609
11 *1375:A1_N *1375:B2 0
12 *1397:A1 *1375:B2 0
13 *1661:A *1375:B2 0
14 *272:41 *574:10 0.000151356
15 *277:68 *574:10 0.000140748
16 *358:18 *1375:B2 3.18676e-05
*RES
1 *1629:X *574:10 17.2643 
2 *574:10 *1375:B2 22.1036 
3 *574:10 *1373:A3 9.3 
*END

*D_NET *575 0.000272393
*CONN
*I *1232:B1 I *D sky130_fd_sc_hd__a21oi_2
*I *1630:X O *D sky130_fd_sc_hd__buf_2
*CAP
1 *1232:B1 0.000106476
2 *1630:X 0.000106476
3 *1232:A1 *1232:B1 0
4 *1276:B1 *1232:B1 1.24368e-05
5 *206:8 *1232:B1 0
6 *299:6 *1232:B1 4.70048e-05
*RES
1 *1630:X *1232:B1 20.3857 
*END

*D_NET *576 0.000622172
*CONN
*I *1246:B1 I *D sky130_fd_sc_hd__o211ai_4
*I *1631:X O *D sky130_fd_sc_hd__buf_6
*CAP
1 *1246:B1 0.000155827
2 *1631:X 0.000155827
3 *1246:B1 *1246:C1 0.000106542
4 *1246:B1 *670:31 7.8327e-05
5 *1246:A2 *1246:B1 5.07157e-05
6 *217:10 *1246:B1 7.49332e-05
*RES
1 *1631:X *1246:B1 31.975 
*END

*D_NET *577 0.00529721
*CONN
*I *1531:A I *D sky130_fd_sc_hd__clkbuf_2
*I *1530:A I *D sky130_fd_sc_hd__buf_4
*I *1549:X O *D sky130_fd_sc_hd__clkdlybuf4s25_1
*CAP
1 *1531:A 0.00184483
2 *1530:A 0.000474186
3 *1549:X 9.78013e-05
4 *577:8 0.00241682
5 *1530:A *994:A 5.94528e-05
6 *1531:A *1200:B1 0
7 *1531:A *1200:B2 0
8 *1531:A *1522:A 0.000186393
9 *1531:A *588:12 0
10 *1531:A *636:10 0
11 *1531:A *702:29 0
12 *1531:A *714:24 0
13 *1531:A *714:131 0
14 *1546:A *1531:A 0
15 *1550:A *577:8 0
16 *1552:A *1531:A 0
17 *316:10 *1530:A 5.52302e-05
18 *544:37 *1531:A 0.000162489
*RES
1 *1549:X *577:8 15.4429 
2 *577:8 *1530:A 22.1571 
3 *577:8 *1531:A 46.9607 
*END

*D_NET *578 0.000734917
*CONN
*I *1182:A1 I *D sky130_fd_sc_hd__a21oi_2
*I *1632:X O *D sky130_fd_sc_hd__buf_2
*CAP
1 *1182:A1 0.000261434
2 *1632:X 0.000261434
3 *1183:B2 *1182:A1 0.000154027
4 *1678:A *1182:A1 5.80217e-05
*RES
1 *1632:X *1182:A1 32.1357 
*END

*D_NET *579 0.00106227
*CONN
*I *1277:A1 I *D sky130_fd_sc_hd__a31oi_4
*I *1633:X O *D sky130_fd_sc_hd__buf_4
*CAP
1 *1277:A1 0.000204893
2 *1633:X 0.000204893
3 *1277:A1 *670:16 0.000187643
4 *1277:B1 *1277:A1 5.80706e-06
5 *1576:A *1277:A1 0
6 *126:6 *1277:A1 0.00026151
7 *131:24 *1277:A1 0.000141219
8 *219:10 *1277:A1 5.63007e-05
*RES
1 *1633:X *1277:A1 33.8143 
*END

*D_NET *580 0.00208512
*CONN
*I *1176:A1 I *D sky130_fd_sc_hd__o211ai_2
*I *1178:A2 I *D sky130_fd_sc_hd__o22ai_4
*I *1634:X O *D sky130_fd_sc_hd__buf_2
*CAP
1 *1176:A1 0.000207224
2 *1178:A2 1.1624e-05
3 *1634:X 0.000343651
4 *580:10 0.0005625
5 *1176:A1 *1672:A 8.33655e-05
6 *1176:A1 *622:8 0.000148707
7 *1176:A1 *674:108 0.000119159
8 *1176:A1 *686:55 0
9 *1176:A1 *686:76 0
10 *580:10 *1517:A 0.000290785
11 *580:10 *1672:A 7.83366e-05
12 *580:10 *642:8 5.33005e-05
13 *580:10 *674:108 7.6021e-05
14 *1181:A2 *1176:A1 0
15 *1251:A3 *1176:A1 0
16 *147:14 *1178:A2 5.52238e-05
17 *149:39 *1178:A2 5.52238e-05
18 *152:10 *1176:A1 0
*RES
1 *1634:X *580:10 19.5679 
2 *580:10 *1178:A2 14.3357 
3 *580:10 *1176:A1 18.7821 
*END

*D_NET *581 0.000844289
*CONN
*I *1024:A I *D sky130_fd_sc_hd__nand4_4
*I *1635:X O *D sky130_fd_sc_hd__buf_2
*CAP
1 *1024:A 0.000275356
2 *1635:X 0.000275356
3 *1024:A *1012:D 9.90431e-05
4 *1024:A *641:60 5.95522e-05
5 *1024:A *727:25 6.74911e-05
6 *305:92 *1024:A 6.74911e-05
*RES
1 *1635:X *1024:A 32.2429 
*END

*D_NET *582 0.000534682
*CONN
*I *1495:B2 I *D sky130_fd_sc_hd__o22ai_2
*I *1636:X O *D sky130_fd_sc_hd__buf_6
*CAP
1 *1495:B2 0.000239043
2 *1636:X 0.000239043
3 *1495:B2 *1585:A 0
4 *1496:A *1495:B2 5.65955e-05
5 *1636:A *1495:B2 0
*RES
1 *1636:X *1495:B2 31.7607 
*END

*D_NET *583 0.00371364
*CONN
*I *1016:A2 I *D sky130_fd_sc_hd__o211a_2
*I *1018:C1 I *D sky130_fd_sc_hd__a211o_4
*I *1017:A2 I *D sky130_fd_sc_hd__o211ai_2
*I *1006:B I *D sky130_fd_sc_hd__nor2_2
*I *1637:X O *D sky130_fd_sc_hd__buf_6
*CAP
1 *1016:A2 5.04371e-05
2 *1018:C1 3.12618e-05
3 *1017:A2 0
4 *1006:B 0.000407287
5 *1637:X 0
6 *583:10 0.000463242
7 *583:8 0.00014667
8 *583:6 0.00010989
9 *1006:B *1017:A1 9.25014e-06
10 *1006:B *1524:A 0.00012401
11 *1006:B *658:23 4.43256e-05
12 *1016:A2 *1016:A1 0.000190155
13 *1018:C1 *1018:B1 5.52238e-05
14 *1018:C1 *652:8 4.08637e-05
15 *1018:C1 *731:23 1.74352e-05
16 *583:8 *1016:A1 0.000175519
17 *583:8 *1017:A1 2.24646e-05
18 *583:10 *1017:A1 0.000162125
19 *1006:A *1006:B 6.89923e-05
20 *1016:B1 *1016:A2 0.00020212
21 *1016:B1 *583:8 0.000197984
22 *1016:B1 *583:10 2.24646e-05
23 *1018:A2 *1018:C1 0.0001399
24 *1029:A *1006:B 0
25 *1499:A1 *1006:B 2.84398e-05
26 *1500:A *1006:B 0
27 *369:21 *1006:B 0.000174825
28 *443:8 *1006:B 9.71197e-05
29 *490:8 *1006:B 0.000581009
30 *490:8 *583:10 1.02504e-05
31 *490:19 *583:10 0.000140375
*RES
1 *1637:X *583:6 13.8 
2 *583:6 *583:8 2.55357 
3 *583:8 *583:10 2.25 
4 *583:10 *1006:B 25.1214 
5 *583:10 *1017:A2 13.8 
6 *583:8 *1018:C1 15.1571 
7 *583:6 *1016:A2 16.3536 
*END

*D_NET *584 0.00326589
*CONN
*I *1127:A2 I *D sky130_fd_sc_hd__o2111ai_4
*I *1125:A2 I *D sky130_fd_sc_hd__o21a_2
*I *1638:X O *D sky130_fd_sc_hd__buf_2
*CAP
1 *1127:A2 0.000276014
2 *1125:A2 0.000800753
3 *1638:X 0.00107677
4 *1125:A2 *1073:A 0.000102545
5 *1127:A2 *1125:A1 0.000310314
6 *1059:A1 *1125:A2 0.000191667
7 *1081:A1 *1127:A2 0
8 *1105:A2 *1125:A2 0.000137983
9 *1125:B1 *1125:A2 0
10 *1127:B1 *1127:A2 0
11 *38:12 *1125:A2 0.000182694
12 *53:6 *1125:A2 4.72487e-05
13 *58:8 *1127:A2 0.0001399
*RES
1 *1638:X *1125:A2 38.5107 
2 *1638:X *1127:A2 33.4571 
*END

*D_NET *585 0.000240084
*CONN
*I *1083:B1 I *D sky130_fd_sc_hd__o21ai_4
*I *1639:X O *D sky130_fd_sc_hd__buf_2
*CAP
1 *1083:B1 0.00010247
2 *1639:X 0.00010247
3 *1083:B1 *1590:A 0
4 *1083:A2 *1083:B1 0
5 *1085:B *1083:B1 3.51442e-05
*RES
1 *1639:X *1083:B1 29.5464 
*END

*D_NET *586 0.00318479
*CONN
*I *1121:C I *D sky130_fd_sc_hd__nand3_4
*I *1073:A I *D sky130_fd_sc_hd__inv_2
*I *1640:X O *D sky130_fd_sc_hd__buf_6
*CAP
1 *1121:C 2.23854e-05
2 *1073:A 0.000584903
3 *1640:X 0.000278493
4 *586:6 0.000885781
5 *1073:A *1105:B1 0
6 *1074:A *586:6 0.000230482
7 *1074:B *586:6 0.000271345
8 *1105:B2 *1073:A 0
9 *1116:A1 *1073:A 0.000270243
10 *1122:B *1073:A 0
11 *1125:A2 *1073:A 0.000102545
12 *1125:B1 *1073:A 0
13 *1126:B1 *1073:A 5.07157e-05
14 *1132:B *586:6 0.00014183
15 *83:14 *1073:A 3.25078e-05
16 *84:12 *1073:A 9.64602e-05
17 *107:12 *586:6 0.000114893
18 *109:14 *1073:A 2.89114e-05
19 *109:14 *1121:C 0
20 *109:14 *586:6 7.32955e-05
*RES
1 *1640:X *586:6 16.8179 
2 *586:6 *1073:A 30.55 
3 *586:6 *1121:C 9.72857 
*END

*D_NET *587 0.00185112
*CONN
*I *1271:B2 I *D sky130_fd_sc_hd__a22o_2
*I *1272:A I *D sky130_fd_sc_hd__nand4_2
*I *1339:A1 I *D sky130_fd_sc_hd__a31o_2
*I *1641:X O *D sky130_fd_sc_hd__buf_6
*CAP
1 *1271:B2 0
2 *1272:A 0
3 *1339:A1 0.000123153
4 *1641:X 7.30124e-05
5 *587:22 0.000348583
6 *587:10 0.000298442
7 *1339:A1 *1272:B 5.33005e-05
8 *1339:A1 *1339:A2 0.000125593
9 *1339:A1 *603:23 4.08637e-05
10 *587:22 *1271:A1 7.45527e-05
11 *587:22 *1339:A3 0.000171368
12 *587:22 *1655:A 1.24368e-05
13 *587:22 *603:23 0.000202204
14 *587:22 *629:8 9.57311e-05
15 *1271:B1 *587:22 1.8461e-05
16 *1272:D *1339:A1 0
17 *1273:B *587:10 6.85338e-05
18 *1679:A *587:10 0.00014489
19 *168:26 *1339:A1 0
*RES
1 *1641:X *587:10 20.2464 
2 *587:10 *587:22 14.6964 
3 *587:22 *1339:A1 20.8893 
4 *587:22 *1272:A 9.3 
5 *587:10 *1271:B2 9.3 
*END

*D_NET *588 0.0122271
*CONN
*I *1527:A I *D sky130_fd_sc_hd__buf_4
*I *1162:C I *D sky130_fd_sc_hd__nand4_4
*I *1165:A3 I *D sky130_fd_sc_hd__a41oi_2
*I *1529:A I *D sky130_fd_sc_hd__buf_6
*I *1528:A I *D sky130_fd_sc_hd__dlymetal6s2s_1
*I *1550:X O *D sky130_fd_sc_hd__dlymetal6s2s_1
*CAP
1 *1527:A 0
2 *1162:C 1.6341e-05
3 *1165:A3 0.000381637
4 *1529:A 0.000225468
5 *1528:A 0.000120597
6 *1550:X 0.000486856
7 *588:52 0.00221823
8 *588:29 0.00279638
9 *588:18 0.0011498
10 *588:12 0.000765395
11 *1165:A3 *1158:B 8.17713e-05
12 *1165:A3 *1165:A2 0.000389842
13 *1165:A3 *700:41 0
14 *1528:A *713:6 0.000141036
15 *1529:A *1206:A3 0.000181796
16 *1529:A *714:22 9.60939e-05
17 *588:18 *711:8 0.000190958
18 *588:18 *712:14 0.000195856
19 *588:29 *1199:B1 0.000220448
20 *588:29 *1199:B2 9.10431e-06
21 *588:29 *673:125 0.000666709
22 *588:29 *698:84 4.91188e-05
23 *588:29 *703:14 5.56962e-05
24 *588:29 *708:42 0.000217651
25 *588:29 *711:8 0.000194914
26 *588:29 *711:26 0.000122993
27 *588:29 *712:14 0.00035056
28 *588:52 *645:18 0
29 *588:52 *698:84 4.19624e-06
30 *588:52 *708:42 1.04707e-05
31 *588:52 *717:12 0.000118344
32 *1162:A *1165:A3 5.33334e-05
33 *1163:C1 *1162:C 1.78536e-05
34 *1163:C1 *1165:A3 0
35 *1166:A *1162:C 4.5539e-05
36 *1205:A2 *588:29 0
37 *1286:A1 *588:29 8.75756e-05
38 *1531:A *588:12 0
39 *1539:A *1165:A3 0.00021957
40 *1539:A *588:52 0.000119221
41 *139:14 *1162:C 1.01912e-05
42 *316:10 *588:18 0
43 *562:103 *588:29 0.000215583
*RES
1 *1550:X *588:12 26.425 
2 *588:12 *588:18 11.25 
3 *588:18 *1528:A 15.9786 
4 *588:18 *588:29 22.2857 
5 *588:29 *1529:A 18.0321 
6 *588:29 *588:52 14.107 
7 *588:52 *1165:A3 22.5567 
8 *588:52 *1162:C 17.7904 
9 *588:12 *1527:A 9.3 
*END

*D_NET *589 0.000330404
*CONN
*I *1438:C I *D sky130_fd_sc_hd__nand4_4
*I *1642:X O *D sky130_fd_sc_hd__buf_2
*CAP
1 *1438:C 0.000132465
2 *1642:X 0.000132465
3 *1438:B *1438:C 0
4 *1438:D *1438:C 1.02504e-05
5 *243:30 *1438:C 0
6 *374:12 *1438:C 5.52238e-05
*RES
1 *1642:X *1438:C 29.7786 
*END

*D_NET *590 0.00045629
*CONN
*I *1083:A1 I *D sky130_fd_sc_hd__o21ai_4
*I *1643:X O *D sky130_fd_sc_hd__buf_6
*CAP
1 *1083:A1 0.000112967
2 *1643:X 0.000112967
3 *1083:A2 *1083:A1 0.000175519
4 *1639:A *1083:A1 2.89016e-05
5 *56:38 *1083:A1 0
6 *514:16 *1083:A1 2.59355e-05
*RES
1 *1643:X *1083:A1 30.3857 
*END

*D_NET *591 0.00460711
*CONN
*I *1125:A1 I *D sky130_fd_sc_hd__o21a_2
*I *1127:A1 I *D sky130_fd_sc_hd__o2111ai_4
*I *1644:X O *D sky130_fd_sc_hd__buf_2
*CAP
1 *1125:A1 0.000640556
2 *1127:A1 0.00131438
3 *1644:X 0.000673826
4 *1125:A1 *1105:B1 5.44172e-05
5 *1059:B1 *1125:A1 0.000221156
6 *1074:A *1125:A1 0
7 *1075:A1 *1127:A1 2.89114e-05
8 *1075:A2 *1127:A1 0
9 *1075:B1 *1127:A1 5.33334e-05
10 *1081:A1 *1125:A1 0
11 *1105:A1 *1125:A1 2.80974e-05
12 *1105:A2 *1125:A1 2.14658e-05
13 *1105:A3 *1125:A1 5.33005e-05
14 *1125:B1 *1125:A1 0.000144773
15 *1127:A2 *1125:A1 0.000310314
16 *1644:A *1127:A1 7.77751e-05
17 *38:12 *1125:A1 0.000104227
18 *51:8 *1125:A1 0
19 *51:41 *1125:A1 0
20 *51:41 *1127:A1 0
21 *82:14 *1125:A1 0.000880578
*RES
1 *1644:X *1127:A1 38.7964 
2 *1127:A1 *1125:A1 44.9214 
*END

*D_NET *592 0.00206842
*CONN
*I *1251:A1 I *D sky130_fd_sc_hd__a32oi_4
*I *1180:B1 I *D sky130_fd_sc_hd__o211a_2
*I *1645:X O *D sky130_fd_sc_hd__buf_6
*CAP
1 *1251:A1 0
2 *1180:B1 0.000186212
3 *1645:X 0.000304906
4 *592:8 0.000491118
5 *592:8 *675:44 0.000490416
6 *592:8 *730:10 0.00010096
7 *1180:C1 *1180:B1 9.80173e-05
8 *1181:A1 *1180:B1 5.14328e-05
9 *1251:A2 *1180:B1 7.66639e-05
10 *1251:B1 *592:8 0
11 *158:14 *1180:B1 0.000149562
12 *348:62 *592:8 0.000119135
*RES
1 *1645:X *592:8 16.8357 
2 *592:8 *1180:B1 22.4429 
3 *592:8 *1251:A1 9.3 
*END

*D_NET *593 0.00171061
*CONN
*I *1117:B I *D sky130_fd_sc_hd__nand3_4
*I *1646:X O *D sky130_fd_sc_hd__buf_6
*CAP
1 *1117:B 0.000339886
2 *1646:X 0.000339886
3 *1117:C *1117:B 4.1896e-06
4 *1118:A2 *1117:B 0
5 *1121:A *1117:B 0.000183726
6 *1121:B *1117:B 4.25622e-05
7 *1122:B *1117:B 6.16864e-05
8 *1136:A1 *1117:B 7.40992e-05
9 *82:33 *1117:B 0
10 *93:19 *1117:B 0.000191243
11 *93:32 *1117:B 9.39059e-05
12 *107:12 *1117:B 2.82622e-05
13 *109:14 *1117:B 0.000351162
*RES
1 *1646:X *1117:B 37.9393 
*END

*D_NET *594 0.00173208
*CONN
*I *1260:A2_N I *D sky130_fd_sc_hd__o2bb2ai_4
*I *1647:X O *D sky130_fd_sc_hd__buf_2
*CAP
1 *1260:A2_N 0.000261087
2 *1647:X 0.000261087
3 *1260:A2_N *1266:A1 0.000441363
4 *1265:B *1260:A2_N 0.000275087
5 *1265:C *1260:A2_N 0.000110386
6 *243:16 *1260:A2_N 0.00017309
7 *246:18 *1260:A2_N 9.60939e-05
8 *246:37 *1260:A2_N 0.000113887
*RES
1 *1647:X *1260:A2_N 36.8679 
*END

*D_NET *595 0.000469999
*CONN
*I *1328:B I *D sky130_fd_sc_hd__nand2_2
*I *1648:X O *D sky130_fd_sc_hd__buf_2
*CAP
1 *1328:B 0.000160687
2 *1648:X 0.000160687
3 *1328:A *1328:B 4.79842e-05
4 *304:23 *1328:B 8.07313e-05
5 *307:32 *1328:B 1.99099e-05
*RES
1 *1648:X *1328:B 30.6 
*END

*D_NET *596 0.0032457
*CONN
*I *1320:A1 I *D sky130_fd_sc_hd__o2111ai_4
*I *1321:B2 I *D sky130_fd_sc_hd__o2bb2ai_4
*I *1649:X O *D sky130_fd_sc_hd__buf_2
*CAP
1 *1320:A1 0.000246758
2 *1321:B2 0.00012799
3 *1649:X 0.000143578
4 *596:8 0.000518327
5 *1320:A1 *1572:A 0.000136958
6 *1219:A1 *596:8 5.03772e-05
7 *1219:A2 *596:8 2.42516e-05
8 *1219:B1_N *1320:A1 8.98585e-05
9 *1219:B1_N *1321:B2 5.58941e-05
10 *1224:B2 *1320:A1 2.23987e-05
11 *1224:B2 *596:8 9.60875e-05
12 *1316:A2 *1321:B2 0
13 *1320:A2 *1320:A1 0.000506404
14 *1320:B1 *596:8 0.000181796
15 *1321:B1 *1321:B2 6.32633e-05
16 *189:50 *1321:B2 8.24047e-05
17 *189:65 *596:8 9.41642e-05
18 *191:29 *596:8 7.49387e-06
19 *200:12 *1320:A1 0.000406746
20 *209:12 *1320:A1 4.27437e-05
21 *300:16 *596:8 0.000348207
*RES
1 *1649:X *596:8 18.4429 
2 *596:8 *1321:B2 16.6571 
3 *596:8 *1320:A1 22.2643 
*END

*D_NET *597 0.0191179
*CONN
*I *1070:D I *D sky130_fd_sc_hd__nand4_2
*I *1108:B I *D sky130_fd_sc_hd__nand2_2
*I *1110:B I *D sky130_fd_sc_hd__and4_2
*I *1111:B I *D sky130_fd_sc_hd__nand4_2
*I *1235:A2 I *D sky130_fd_sc_hd__a31o_2
*I *1154:B1 I *D sky130_fd_sc_hd__o2111ai_2
*I *1153:B1 I *D sky130_fd_sc_hd__o2111a_2
*I *1650:X O *D sky130_fd_sc_hd__buf_4
*CAP
1 *1070:D 0.00153992
2 *1108:B 0.000283326
3 *1110:B 0.000174654
4 *1111:B 5.99831e-05
5 *1235:A2 0
6 *1154:B1 0
7 *1153:B1 0.000151541
8 *1650:X 0.000532484
9 *597:68 0.00045798
10 *597:57 0.000234428
11 *597:53 0.00264139
12 *597:40 0.000941004
13 *597:18 0.00221316
14 *597:12 0.00260809
15 *1070:D *1055:B1 7.3237e-05
16 *1070:D *1070:C 2.77126e-05
17 *1070:D *1112:A2 6.68971e-06
18 *1070:D *646:56 3.06878e-06
19 *1070:D *730:91 4.0633e-05
20 *1108:B *1108:A 5.87909e-05
21 *1110:B *733:136 0
22 *1153:B1 *1153:C1 0.00010122
23 *1153:B1 *694:60 5.52302e-05
24 *1153:B1 *729:8 1.01912e-05
25 *597:12 *1235:A3 2.21972e-05
26 *597:12 *684:33 0.000179183
27 *597:12 *688:45 0
28 *597:40 *1235:A3 3.54188e-05
29 *597:53 *1053:D 0
30 *597:53 *1094:D 0.000219741
31 *597:53 *1235:A3 0.00140613
32 *597:53 *727:33 0
33 *597:53 *727:45 0.000215378
34 *597:53 *730:59 5.83304e-05
35 *597:53 *730:68 0.000760603
36 *597:53 *730:91 0.000159924
37 *597:57 *730:91 2.59355e-05
38 *1054:A *1070:D 0
39 *1054:A *597:53 0
40 *1060:A2 *1070:D 6.26078e-05
41 *1060:C1 *1070:D 4.58976e-05
42 *1067:A2 *1070:D 2.89114e-05
43 *1072:C *1070:D 5.71472e-05
44 *1086:A4 *1070:D 0
45 *1109:A2 *597:53 0.000129868
46 *1110:A *1110:B 5.17614e-05
47 *1111:A *1110:B 0.000175519
48 *1111:A *597:53 0
49 *1112:B1 *1070:D 0.000356022
50 *1112:C1 *1070:D 2.72545e-05
51 *1112:C1 *1108:B 0
52 *1112:C1 *1110:B 0
53 *1112:C1 *597:53 1.76039e-05
54 *1114:B *1108:B 5.94923e-05
55 *1114:B *1111:B 9.90367e-05
56 *1114:B *597:57 0.000142856
57 *1115:A *1108:B 5.39371e-05
58 *1115:B *1108:B 7.04538e-05
59 *1137:B *597:53 0
60 *1153:A2 *1153:B1 0
61 *1179:A *597:53 5.38886e-05
62 *1182:B1 *1110:B 0.000174564
63 *1185:A1 *1108:B 0
64 *1185:A1 *1110:B 0
65 *1218:C1 *597:12 0
66 *1230:A *597:12 0.000392432
67 *1230:A *597:40 4.32309e-05
68 *1230:A *597:53 0.000643552
69 *1231:B *597:12 0
70 *1233:B1 *1153:B1 0
71 *1245:A3 *597:12 0.000173797
72 *1665:A *597:12 1.33343e-05
73 *39:12 *1070:D 0.00010096
74 *45:14 *1070:D 5.33334e-05
75 *79:20 *1070:D 4.35798e-05
76 *80:14 *597:53 6.39262e-05
77 *127:29 *597:18 0.000479459
78 *188:27 *597:12 4.8035e-05
79 *190:10 *597:12 0
80 *524:10 *597:53 0
81 *526:10 *597:53 0
82 *526:25 *1110:B 1.98839e-05
83 *530:10 *1070:D 0.000137983
*RES
1 *1650:X *597:12 25.3804 
2 *597:12 *597:18 11.0469 
3 *597:18 *1153:B1 17.0411 
4 *597:18 *1154:B1 13.8 
5 *597:12 *597:40 0.580357 
6 *597:40 *1235:A2 13.8 
7 *597:40 *597:53 31.75 
8 *597:53 *597:57 7.91071 
9 *597:57 *1111:B 10.675 
10 *597:57 *597:68 4.5 
11 *597:68 *1110:B 18.1214 
12 *597:68 *1108:B 19.8179 
13 *597:53 *1070:D 36.4786 
*END

*D_NET *598 0.000282582
*CONN
*I *1209:A1 I *D sky130_fd_sc_hd__o211a_4
*I *1651:X O *D sky130_fd_sc_hd__buf_2
*CAP
1 *1209:A1 6.08494e-05
2 *1651:X 6.08494e-05
3 *1209:A1 *1206:A4 0
4 *1209:A1 *716:125 0.000127446
5 *1209:B1 *1209:A1 3.34366e-05
*RES
1 *1651:X *1209:A1 29.2429 
*END

*D_NET *599 0.0111923
*CONN
*I *1669:A I *D sky130_fd_sc_hd__buf_2
*I *1526:A I *D sky130_fd_sc_hd__buf_6
*I *1551:X O *D sky130_fd_sc_hd__buf_12
*CAP
1 *1669:A 0.000442118
2 *1526:A 0.00267063
3 *1551:X 0
4 *599:6 0.00311275
5 *1526:A *1441:D 0
6 *1526:A *1465:A2 0.000351932
7 *1526:A *1509:A 0.00146339
8 *1526:A *618:75 0.00235267
9 *1526:A *709:14 0.000117581
10 *1669:A *1497:C1 0
11 *1450:A *1526:A 0
12 *1450:A *1669:A 0
13 *1467:B *1669:A 6.42338e-05
14 *1468:B *1669:A 0
15 *1469:C *1526:A 9.60337e-06
16 *1469:C *1669:A 0.000154833
17 *1471:A *1669:A 0
18 *1487:B *1669:A 0
19 *1488:A *1669:A 2.05762e-05
20 *1488:B *1669:A 0.000123295
21 *1498:B1 *1669:A 8.01164e-05
22 *388:16 *1526:A 0.000228556
23 *397:10 *1669:A 0
24 *454:10 *1669:A 0
25 *456:14 *1669:A 0
*RES
1 *1551:X *599:6 13.8 
2 *599:6 *1526:A 30.6243 
3 *599:6 *1669:A 23.2286 
*END

*D_NET *600 0.000683905
*CONN
*I *1207:A1 I *D sky130_fd_sc_hd__o21ai_2
*I *1652:X O *D sky130_fd_sc_hd__buf_2
*CAP
1 *1207:A1 0.000149597
2 *1652:X 0.000149597
3 *1207:A1 *665:41 9.12446e-05
4 *1209:C1 *1207:A1 0
5 *1227:A1 *1207:A1 0.000148189
6 *1227:B2 *1207:A1 0
7 *203:12 *1207:A1 0.000145277
*RES
1 *1652:X *1207:A1 31.6714 
*END

*D_NET *601 0.000937835
*CONN
*I *1279:A2 I *D sky130_fd_sc_hd__o21a_2
*I *1278:A2 I *D sky130_fd_sc_hd__o21ai_2
*I *1653:X O *D sky130_fd_sc_hd__buf_2
*CAP
1 *1279:A2 3.63033e-05
2 *1278:A2 0.000163546
3 *1653:X 3.54071e-05
4 *601:6 0.000235256
5 *1278:A2 *665:35 2.95641e-05
6 *1279:A2 *1206:A4 0.000128146
7 *1278:A1 *1278:A2 6.74293e-05
8 *1278:B1 *1278:A2 5.33005e-05
9 *1278:B1 *601:6 5.33005e-05
10 *1279:A1 *1279:A2 0.000128146
11 *1653:A *1278:A2 0
12 *253:10 *1278:A2 7.43578e-06
*RES
1 *1653:X *601:6 9.83571 
2 *601:6 *1278:A2 12.3357 
3 *601:6 *1279:A2 19.9429 
*END

*D_NET *602 0.000464279
*CONN
*I *1138:B1 I *D sky130_fd_sc_hd__a22oi_2
*I *1654:X O *D sky130_fd_sc_hd__buf_2
*CAP
1 *1138:B1 0.000113367
2 *1654:X 0.000113367
3 *1138:B1 *1257:A2 6.09572e-05
4 *1140:C *1138:B1 5.33005e-05
5 *156:27 *1138:B1 0.000123288
*RES
1 *1654:X *1138:B1 29.7786 
*END

*D_NET *603 0.00225337
*CONN
*I *1339:A2 I *D sky130_fd_sc_hd__a31o_2
*I *1272:B I *D sky130_fd_sc_hd__nand4_2
*I *1271:A1 I *D sky130_fd_sc_hd__a22o_2
*I *1655:X O *D sky130_fd_sc_hd__buf_2
*CAP
1 *1339:A2 5.49183e-05
2 *1272:B 7.62911e-05
3 *1271:A1 0.000140658
4 *1655:X 5.17108e-05
5 *603:23 0.000376616
6 *603:8 0.000437776
7 *1271:A1 *1655:A 2.89016e-05
8 *1271:A1 *1670:A 6.05161e-06
9 *1339:A2 *1339:A3 0.000147718
10 *603:8 *1670:A 2.23592e-05
11 *603:23 *1339:A3 3.90513e-05
12 *1271:B1 *1271:A1 2.59355e-05
13 *1272:C *1272:B 0
14 *1272:D *1339:A2 0
15 *1273:A *1271:A1 0.000348869
16 *1339:A1 *1272:B 5.33005e-05
17 *1339:A1 *1339:A2 0.000125593
18 *1339:A1 *603:23 4.08637e-05
19 *587:22 *1271:A1 7.45527e-05
20 *587:22 *603:23 0.000202204
*RES
1 *1655:X *603:8 10.2643 
2 *603:8 *1271:A1 13.1214 
3 *603:8 *603:23 13.2143 
4 *603:23 *1272:B 10.675 
5 *603:23 *1339:A2 20.2464 
*END

*D_NET *604 0.00497019
*CONN
*I *1392:B1 I *D sky130_fd_sc_hd__o31a_4
*I *1432:B1 I *D sky130_fd_sc_hd__o2111ai_2
*I *1391:B I *D sky130_fd_sc_hd__nand2_2
*I *1394:B1 I *D sky130_fd_sc_hd__o2111ai_2
*I *1656:X O *D sky130_fd_sc_hd__buf_4
*CAP
1 *1392:B1 4.94819e-05
2 *1432:B1 1.6832e-05
3 *1391:B 0.000410166
4 *1394:B1 9.88968e-05
5 *1656:X 0.000510843
6 *604:33 0.000648065
7 *604:12 0.000620247
8 *604:8 0.000860608
9 *1389:B1 *604:12 0.000101545
10 *1390:C *604:12 0.000287842
11 *1391:A *1391:B 5.7431e-05
12 *1392:A3 *1392:B1 1.73305e-05
13 *1394:A2 *1394:B1 0.000198601
14 *1394:C1 *1394:B1 3.41517e-06
15 *1432:A1 *604:33 0.0002253
16 *1432:A2 *1391:B 4.16473e-05
17 *1432:A2 *1432:B1 1.02132e-05
18 *1432:A2 *604:33 3.08664e-05
19 *1433:A1 *1391:B 0.000136951
20 *1433:A1 *1432:B1 0
21 *1434:B2 *604:33 9.98148e-05
22 *1439:A2 *604:33 0
23 *1656:A *1392:B1 2.14757e-05
24 *1656:A *604:8 0.000100263
25 *243:30 *604:12 0
26 *243:36 *604:33 0
27 *317:25 *604:12 0
28 *317:38 *604:12 0.000137678
29 *317:38 *604:33 1.17396e-05
30 *372:29 *1394:B1 4.73286e-05
31 *374:20 *1394:B1 0
32 *376:14 *604:8 0.000225609
*RES
1 *1656:X *604:8 16.0143 
2 *604:8 *604:12 10.8482 
3 *604:12 *1394:B1 16.3982 
4 *604:12 *604:33 9.58036 
5 *604:33 *1391:B 15.2286 
6 *604:33 *1432:B1 9.72857 
7 *604:8 *1392:B1 10.6929 
*END

*D_NET *605 0.00198109
*CONN
*I *1132:A I *D sky130_fd_sc_hd__nand2_4
*I *1657:X O *D sky130_fd_sc_hd__buf_2
*CAP
1 *1132:A 0.000697661
2 *1657:X 0.000697661
3 *1123:A1 *1132:A 0.000120587
4 *1123:A2 *1132:A 0.0001399
5 *1126:B1 *1132:A 0.000102207
6 *1132:B *1132:A 0.000127253
7 *1657:A *1132:A 6.05161e-06
8 *101:6 *1132:A 1.39726e-05
9 *102:23 *1132:A 4.75715e-05
10 *104:10 *1132:A 2.82212e-05
*RES
1 *1657:X *1132:A 38.6714 
*END

*D_NET *606 0.000873788
*CONN
*I *1135:A1 I *D sky130_fd_sc_hd__a31o_2
*I *1658:X O *D sky130_fd_sc_hd__buf_2
*CAP
1 *1135:A1 0.000312414
2 *1658:X 0.000312414
3 *1118:A1 *1135:A1 8.56716e-05
4 *1120:C *1135:A1 8.07951e-05
5 *1270:A2 *1135:A1 3.88139e-05
6 *1658:A *1135:A1 0
7 *91:19 *1135:A1 1.02504e-05
8 *92:23 *1135:A1 3.34295e-05
*RES
1 *1658:X *1135:A1 32.7429 
*END

*D_NET *607 0.00128445
*CONN
*I *1127:D1 I *D sky130_fd_sc_hd__o2111ai_4
*I *1659:X O *D sky130_fd_sc_hd__buf_6
*CAP
1 *1127:D1 0.000364308
2 *1659:X 0.000364308
3 *1127:C1 *1127:D1 0.000153047
4 *1132:B *1127:D1 0
5 *1659:A *1127:D1 0.000402784
6 *102:23 *1127:D1 0
*RES
1 *1659:X *1127:D1 35.0107 
*END

*D_NET *608 0.0136894
*CONN
*I *1282:B1 I *D sky130_fd_sc_hd__a22o_2
*I *1206:A4 I *D sky130_fd_sc_hd__a41o_2
*I *1285:D I *D sky130_fd_sc_hd__nand4_2
*I *1284:D I *D sky130_fd_sc_hd__and4_2
*I *1281:B1 I *D sky130_fd_sc_hd__a22oi_2
*I *1347:B1 I *D sky130_fd_sc_hd__a22oi_2
*I *1283:B I *D sky130_fd_sc_hd__nand2_2
*I *1346:D I *D sky130_fd_sc_hd__nand4_2
*I *1660:X O *D sky130_fd_sc_hd__buf_2
*CAP
1 *1282:B1 6.22064e-05
2 *1206:A4 0.0010153
3 *1285:D 0
4 *1284:D 0.000121684
5 *1281:B1 0
6 *1347:B1 0
7 *1283:B 0.000103512
8 *1346:D 0.000584351
9 *1660:X 0.00130189
10 *608:96 0.00125979
11 *608:78 0.000264052
12 *608:70 0.00045664
13 *608:61 0.000335794
14 *608:36 0.000824245
15 *608:28 0.000561193
16 *608:20 0.00193051
17 *1206:A4 *665:35 0
18 *1206:A4 *672:20 0.000177234
19 *1206:A4 *673:18 2.60122e-05
20 *1206:A4 *673:100 4.98055e-06
21 *1206:A4 *710:31 3.18676e-05
22 *1206:A4 *716:107 0
23 *1206:A4 *716:125 0
24 *1283:B *1283:A 3.22063e-05
25 *1283:B *713:37 1.97865e-05
26 *1284:D *1284:B 4.75424e-05
27 *1284:D *1284:C 0.000212169
28 *1346:D *1283:A 8.57023e-05
29 *1346:D *1346:A 0.00040765
30 *1346:D *1346:B 5.23057e-05
31 *1346:D *1346:C 4.55318e-05
32 *608:20 *1691:A 7.48091e-05
33 *608:20 *691:12 0.000522445
34 *608:20 *716:6 6.81335e-05
35 *608:20 *716:8 0.000177401
36 *608:20 *716:30 3.32631e-05
37 *608:28 *691:26 5.44666e-05
38 *608:28 *698:18 0.000684197
39 *608:28 *713:31 0
40 *608:28 *716:86 0
41 *608:36 *644:12 0.000108324
42 *608:36 *676:16 0.000268536
43 *608:36 *691:26 2.59355e-05
44 *608:36 *698:18 2.6269e-05
45 *608:61 *698:18 0.00011616
46 *608:61 *712:28 5.54817e-06
47 *608:61 *716:86 0
48 *608:61 *716:101 0
49 *608:70 *698:20 1.8441e-05
50 *608:70 *698:31 1.42331e-05
51 *608:70 *698:44 6.93626e-06
52 *608:70 *712:28 2.71964e-05
53 *608:78 *716:101 1.46689e-05
54 *608:96 *673:18 0.000122523
55 *608:96 *698:44 3.6236e-05
56 *1209:A1 *1206:A4 0
57 *1209:B1 *1206:A4 0
58 *1279:A1 *1206:A4 3.57844e-05
59 *1279:A2 *1206:A4 0.000128146
60 *1279:B1 *1206:A4 0
61 *1282:B2 *1282:B1 2.85234e-05
62 *1284:A *1284:D 9.75679e-05
63 *1287:A2 *608:96 5.28286e-05
64 *1291:A1 *1206:A4 0
65 *1292:A *1206:A4 0
66 *1292:C *1206:A4 0.000373067
67 *1292:C *608:96 0.000199045
68 *1349:B1 *608:20 2.70413e-05
69 *1351:A *608:20 2.27416e-05
70 *1351:B *608:20 2.32517e-05
71 *1352:B1 *608:20 1.99881e-05
72 *1354:A1 *608:36 3.51442e-05
73 *1504:A *1282:B1 5.49995e-05
74 *174:10 *1206:A4 0.00012798
75 *257:12 *1206:A4 7.99046e-05
76 *260:10 *1284:D 1.34631e-05
*RES
1 *1660:X *608:20 39.9429 
2 *608:20 *608:28 15.2679 
3 *608:28 *608:36 13 
4 *608:36 *1346:D 17.9607 
5 *608:36 *1283:B 10.9786 
6 *608:28 *1347:B1 9.3 
7 *608:20 *608:61 4.375 
8 *608:61 *1281:B1 13.8 
9 *608:61 *608:70 2.55357 
10 *608:70 *608:78 6.41071 
11 *608:78 *1284:D 12.4429 
12 *608:78 *1285:D 9.3 
13 *608:70 *608:96 4.67857 
14 *608:96 *1206:A4 42.6393 
15 *608:96 *1282:B1 14.8714 
*END

*D_NET *609 0.00170218
*CONN
*I *1318:A1 I *D sky130_fd_sc_hd__a31o_2
*I *1317:A I *D sky130_fd_sc_hd__and3_2
*I *1661:X O *D sky130_fd_sc_hd__buf_2
*CAP
1 *1318:A1 0.000148561
2 *1317:A 0.000141421
3 *1661:X 0.00042487
4 *609:10 0.000714852
5 *1318:A1 *1317:C 7.63945e-05
6 *1318:A1 *684:33 0
7 *1318:A1 *689:22 0
8 *609:10 *1317:C 1.19309e-05
9 *609:10 *689:22 0
10 *1317:B *1317:A 2.22999e-05
11 *1322:A1 *1318:A1 0.000114121
12 *296:6 *1317:A 1.92905e-05
13 *571:32 *1318:A1 2.84398e-05
*RES
1 *1661:X *609:10 18.9607 
2 *609:10 *1317:A 15.9786 
3 *609:10 *1318:A1 17.5679 
*END

*D_NET *610 0.0064221
*CONN
*I *1008:A3 I *D sky130_fd_sc_hd__a31o_2
*I *1579:A I *D sky130_fd_sc_hd__clkdlybuf4s25_1
*I *999:C I *D sky130_fd_sc_hd__and3_2
*I *998:X O *D sky130_fd_sc_hd__and2_2
*CAP
1 *1008:A3 0.000113153
2 *1579:A 0.000658004
3 *999:C 0.000340042
4 *998:X 0
5 *610:14 0.00148152
6 *610:4 0.000596632
7 *999:C *999:A 5.52302e-05
8 *999:C *1160:A1 0.000244793
9 *999:C *641:10 0.00011365
10 *999:C *704:16 5.63161e-05
11 *1008:A3 *675:44 0
12 *1579:A *1003:A 0
13 *1579:A *1003:D 6.09476e-05
14 *1579:A *1507:A 9.90819e-06
15 *1579:A *1586:A 0.000320031
16 *1579:A *1588:A 0
17 *1579:A *641:10 1.1594e-05
18 *1579:A *641:23 4.37992e-05
19 *1579:A *699:27 0.000446428
20 *1579:A *704:16 0.000144578
21 *1579:A *704:44 0.000496365
22 *1579:A *726:8 0.000132769
23 *610:14 *998:B 0.000411721
24 *610:14 *641:23 0.000241122
25 *1001:B *1008:A3 0.000105139
26 *1004:B1 *1579:A 0.000173804
27 *1539:A *610:14 0
28 *400:10 *1579:A 0.000164554
29 *544:37 *610:14 0
*RES
1 *998:X *610:4 9.3 
2 *610:4 *610:14 12.7248 
3 *610:14 *999:C 19.1125 
4 *610:14 *1579:A 34.1661 
5 *610:4 *1008:A3 11.6214 
*END

*D_NET *611 0.00197675
*CONN
*I *1340:A I *D sky130_fd_sc_hd__xor2_2
*I *1662:X O *D sky130_fd_sc_hd__buf_2
*CAP
1 *1340:A 0.000426831
2 *1662:X 0.000426831
3 *1339:B1 *1340:A 0.000101009
4 *1390:D *1340:A 0.000128154
5 *1642:A *1340:A 3.63298e-05
6 *1662:A *1340:A 0.000169373
7 *168:26 *1340:A 0.000344932
8 *243:30 *1340:A 0.000320031
9 *374:12 *1340:A 2.32625e-05
*RES
1 *1662:X *1340:A 37.9214 
*END

*D_NET *612 0.000524584
*CONN
*I *1390:B I *D sky130_fd_sc_hd__nand4_4
*I *1663:X O *D sky130_fd_sc_hd__buf_4
*CAP
1 *1390:B 0.000215295
2 *1663:X 0.000215295
3 *238:19 *1390:B 8.6332e-05
4 *242:21 *1390:B 7.6612e-06
*RES
1 *1663:X *1390:B 31.5107 
*END

*D_NET *613 0.00337113
*CONN
*I *1165:A4 I *D sky130_fd_sc_hd__a41oi_2
*I *1158:B I *D sky130_fd_sc_hd__nand2_2
*I *1664:X O *D sky130_fd_sc_hd__buf_2
*CAP
1 *1165:A4 0
2 *1158:B 0.000359203
3 *1664:X 0.000652998
4 *613:12 0.0010122
5 *1158:B *1165:A2 0.000107472
6 *613:12 *700:41 0.00012026
7 *613:12 *708:65 6.05161e-06
8 *1162:A *1158:B 1.3701e-05
9 *1165:A1 *1158:B 0.000287517
10 *1165:A3 *1158:B 8.17713e-05
11 *1171:A1 *613:12 0.000616137
12 *1173:C *613:12 5.03772e-05
13 *1502:A *613:12 5.74499e-06
14 *305:92 *613:12 3.71391e-05
15 *533:27 *613:12 2.05612e-05
*RES
1 *1664:X *613:12 27.8714 
2 *613:12 *1158:B 16.8536 
3 *613:12 *1165:A4 9.3 
*END

*D_NET *614 0.000743092
*CONN
*I *1276:B2 I *D sky130_fd_sc_hd__a32oi_4
*I *1665:X O *D sky130_fd_sc_hd__buf_2
*CAP
1 *1276:B2 0.000229516
2 *1665:X 0.000229516
3 *1319:A2_N *1276:B2 2.89016e-05
4 *1665:A *1276:B2 6.93891e-05
5 *251:16 *1276:B2 5.83304e-05
6 *302:14 *1276:B2 0.000127439
*RES
1 *1665:X *1276:B2 31.4214 
*END

*D_NET *615 0.0023746
*CONN
*I *1266:A1 I *D sky130_fd_sc_hd__o21ai_4
*I *1666:X O *D sky130_fd_sc_hd__buf_2
*CAP
1 *1266:A1 0.000679938
2 *1666:X 0.000679938
3 *1260:A2_N *1266:A1 0.000441363
4 *1264:B1 *1266:A1 0
5 *1265:B *1266:A1 0.000156186
6 *1267:A1 *1266:A1 0
7 *1666:A *1266:A1 0
8 *161:29 *1266:A1 0
9 *168:20 *1266:A1 0
10 *246:37 *1266:A1 0.000417177
*RES
1 *1666:X *1266:A1 43.1536 
*END

*D_NET *616 0.000667334
*CONN
*I *1288:B1 I *D sky130_fd_sc_hd__o22a_2
*I *1667:X O *D sky130_fd_sc_hd__buf_2
*CAP
1 *1288:B1 0.00010572
2 *1667:X 0.00010572
3 *1288:B1 *993:A 1.62025e-05
4 *1288:B1 *673:18 0.000137639
5 *1286:A1 *1288:B1 8.43386e-05
6 *1288:B2 *1288:B1 2.24718e-05
7 *305:8 *1288:B1 9.84673e-05
8 *305:25 *1288:B1 9.67754e-05
*RES
1 *1667:X *1288:B1 21.9214 
*END

*D_NET *617 0.000540418
*CONN
*I *1374:A1 I *D sky130_fd_sc_hd__a21oi_2
*I *1668:X O *D sky130_fd_sc_hd__buf_2
*CAP
1 *1374:A1 9.52587e-05
2 *1668:X 9.52587e-05
3 *1374:A1 *680:39 0.000148196
4 *1374:A1 *715:27 0.000146474
5 *353:33 *1374:A1 5.52302e-05
*RES
1 *1668:X *1374:A1 30.0821 
*END

*D_NET *618 0.0132719
*CONN
*I *1464:A2 I *D sky130_fd_sc_hd__a31o_2
*I *1401:B1 I *D sky130_fd_sc_hd__a22o_2
*I *1442:B1 I *D sky130_fd_sc_hd__a22o_2
*I *1400:D I *D sky130_fd_sc_hd__nand4_4
*I *1465:A2 I *D sky130_fd_sc_hd__a22oi_2
*I *1466:A1 I *D sky130_fd_sc_hd__a31o_2
*I *1486:C_N I *D sky130_fd_sc_hd__or3b_2
*I *1497:C1 I *D sky130_fd_sc_hd__o311ai_2
*I *1669:X O *D sky130_fd_sc_hd__buf_2
*CAP
1 *1464:A2 0
2 *1401:B1 0.00010385
3 *1442:B1 0.000335057
4 *1400:D 0
5 *1465:A2 0.000200628
6 *1466:A1 0
7 *1486:C_N 0
8 *1497:C1 9.58705e-05
9 *1669:X 0.000178708
10 *618:88 0.000658094
11 *618:75 0.000988344
12 *618:58 0.00127472
13 *618:54 0.000917405
14 *618:37 0.000846841
15 *618:26 0.000317205
16 *1401:B1 *1400:B 5.77138e-05
17 *1401:B1 *679:29 5.52238e-05
18 *1401:B1 *687:25 4.46186e-06
19 *1401:B1 *690:55 4.78056e-05
20 *1465:A2 *1513:A 2.11419e-05
21 *1465:A2 *680:27 9.15186e-06
22 *618:37 *678:10 0.000148078
23 *618:37 *678:38 0.000124019
24 *618:37 *678:47 1.00887e-05
25 *618:37 *715:27 0.000129902
26 *618:54 *1560:A 2.06112e-05
27 *618:54 *678:47 1.17134e-05
28 *618:54 *715:27 9.59532e-06
29 *618:58 *1440:A 0.000370851
30 *618:58 *1511:A 0.000182497
31 *618:58 *1560:A 0.000606527
32 *618:88 *1400:B 0.000175047
33 *1365:A1 *1442:B1 0
34 *1402:A1_N *618:88 6.50156e-05
35 *1402:B2 *1401:B1 0
36 *1405:A1 *618:58 5.15925e-05
37 *1443:D *618:88 0
38 *1450:A *1465:A2 0
39 *1450:A *618:54 0
40 *1450:A *618:75 0
41 *1467:A_N *1497:C1 5.71472e-05
42 *1486:A *618:37 0.0001399
43 *1486:B *618:37 2.42516e-05
44 *1498:B1 *1497:C1 2.90311e-05
45 *1526:A *1465:A2 0.000351932
46 *1526:A *618:75 0.00235267
47 *1669:A *1497:C1 0
48 *335:24 *1442:B1 1.01912e-05
49 *384:17 *618:88 7.92446e-05
50 *384:28 *618:88 2.50479e-05
51 *388:16 *1442:B1 7.19727e-05
52 *388:16 *618:75 0.000143634
53 *397:10 *618:26 3.48705e-05
54 *397:10 *618:37 0.000395866
55 *426:12 *618:54 1.04707e-05
56 *426:12 *618:58 3.20782e-05
57 *429:8 *1401:B1 1.40306e-05
58 *454:10 *1497:C1 4.09856e-05
59 *561:10 *1442:B1 8.50795e-06
60 *566:29 *618:75 0.00143235
*RES
1 *1669:X *1497:C1 29.7786 
2 *1669:X *618:26 10.9786 
3 *618:26 *1486:C_N 9.3 
4 *618:26 *618:37 11.7857 
5 *618:37 *1466:A1 13.8 
6 *618:37 *618:54 8.4295 
7 *618:54 *618:58 13.7046 
8 *618:58 *1465:A2 18.0383 
9 *618:58 *618:75 7.1324 
10 *618:75 *1400:D 13.8 
11 *618:75 *618:88 5.13393 
12 *618:88 *1442:B1 21.5203 
13 *618:88 *1401:B1 16.1304 
14 *618:54 *1464:A2 13.8 
*END

*D_NET *619 0.000231675
*CONN
*I *1269:B1 I *D sky130_fd_sc_hd__o21a_4
*I *1670:X O *D sky130_fd_sc_hd__buf_6
*CAP
1 *1269:B1 0.000115837
2 *1670:X 0.000115837
3 *243:30 *1269:B1 0
*RES
1 *1670:X *1269:B1 29.5464 
*END

*D_NET *620 0.00178604
*CONN
*I *1202:D I *D sky130_fd_sc_hd__nand4_2
*I *1199:B1 I *D sky130_fd_sc_hd__a22oi_2
*I *1671:X O *D sky130_fd_sc_hd__buf_2
*CAP
1 *1202:D 0
2 *1199:B1 9.15127e-05
3 *1671:X 0.000295564
4 *620:8 0.000387077
5 *1199:B1 *1199:B2 1.08359e-05
6 *1199:B1 *1202:C 0.000197984
7 *1199:B1 *707:6 5.33005e-05
8 *620:8 *1671:A 6.26078e-05
9 *620:8 *707:6 1.02936e-05
10 *1200:A1 *620:8 0.000169359
11 *1203:B1 *1199:B1 1.21258e-05
12 *1203:B1 *620:8 0.000178847
13 *562:103 *620:8 9.60875e-05
14 *588:29 *1199:B1 0.000220448
*RES
1 *1671:X *620:8 15.4964 
2 *620:8 *1199:B1 21.6929 
3 *620:8 *1202:D 9.3 
*END

*D_NET *621 0.00100879
*CONN
*I *1580:A I *D sky130_fd_sc_hd__buf_6
*I *1395:Y O *D sky130_fd_sc_hd__nand2b_4
*CAP
1 *1580:A 0.000456352
2 *1395:Y 0.000456352
3 *1395:A_N *1580:A 0
4 *374:20 *1580:A 9.60875e-05
*RES
1 *1395:Y *1580:A 35.0107 
*END

*D_NET *622 0.0140032
*CONN
*I *1066:B I *D sky130_fd_sc_hd__nand4_4
*I *1028:B I *D sky130_fd_sc_hd__and2_2
*I *1077:A3 I *D sky130_fd_sc_hd__a31o_2
*I *1086:A2 I *D sky130_fd_sc_hd__a41o_2
*I *1063:B I *D sky130_fd_sc_hd__nand2_2
*I *1093:B I *D sky130_fd_sc_hd__nand2_2
*I *1097:A2 I *D sky130_fd_sc_hd__a22oi_2
*I *1672:X O *D sky130_fd_sc_hd__buf_2
*CAP
1 *1066:B 7.57083e-05
2 *1028:B 0.00039123
3 *1077:A3 5.23239e-05
4 *1086:A2 0
5 *1063:B 7.91972e-05
6 *1093:B 0.000787538
7 *1097:A2 0
8 *1672:X 0.000381062
9 *622:66 0.00112935
10 *622:62 0.000791236
11 *622:53 0.00055668
12 *622:38 0.00153319
13 *622:17 0.00174455
14 *622:8 0.000411032
15 *1028:B *1028:A 6.74911e-05
16 *1028:B *1070:C 4.18134e-06
17 *1063:B *1024:D 4.43256e-05
18 *1063:B *716:131 1.24368e-05
19 *1066:B *1066:C 0.00014209
20 *1093:B *1094:D 3.93247e-05
21 *1093:B *1096:A1 0.00040279
22 *1093:B *656:8 0.000358971
23 *1093:B *727:73 9.60939e-05
24 *1093:B *730:48 1.90111e-05
25 *622:8 *1097:A1 6.41079e-05
26 *622:8 *674:108 0.000906725
27 *622:8 *686:76 0
28 *622:8 *730:10 7.04538e-05
29 *622:8 *730:23 6.04256e-05
30 *622:17 *674:108 5.58941e-05
31 *622:38 *1048:A 9.92409e-05
32 *622:38 *1061:C1 2.24079e-05
33 *622:38 *674:108 0.000198698
34 *622:38 *716:131 5.378e-05
35 *622:53 *1024:D 1.11474e-05
36 *622:53 *1063:A 5.04589e-05
37 *622:53 *1066:C 1.02504e-05
38 *622:53 *734:46 2.89114e-05
39 *622:53 *734:57 0.00067074
40 *622:62 *1066:C 9.4724e-05
41 *622:66 *1070:C 1.03968e-05
42 *1031:A *1077:A3 0
43 *1033:A1 *1066:B 5.33005e-05
44 *1064:B *1066:B 0.000148903
45 *1064:B *622:53 0.00019187
46 *1064:B *622:62 0.00010326
47 *1077:A2 *1028:B 1.00764e-05
48 *1077:A2 *1077:A3 3.99614e-06
49 *1077:B1 *1028:B 7.79781e-06
50 *1086:A3 *622:66 0.000114655
51 *1102:A1 *622:38 3.82227e-06
52 *1176:A1 *622:8 0.000148707
53 *1251:A3 *622:8 0
54 *1577:A *622:17 0
55 *1577:A *622:38 0
56 *56:10 *622:66 0.000700652
57 *74:77 *1093:B 1.04066e-05
58 *80:14 *622:38 4.87953e-05
59 *488:21 *1028:B 9.76689e-05
60 *488:34 *1028:B 0.000174414
61 *500:8 *622:53 0.000309954
62 *500:17 *622:53 0.000168909
63 *523:28 *622:38 0.000177821
*RES
1 *1672:X *622:8 25.4607 
2 *622:8 *1097:A2 13.8 
3 *622:8 *622:17 0.732143 
4 *622:17 *1093:B 25.175 
5 *622:17 *622:38 17.0357 
6 *622:38 *1063:B 11.2821 
7 *622:38 *622:53 16.9464 
8 *622:53 *1086:A2 13.8 
9 *622:53 *622:62 1.33929 
10 *622:62 *622:66 14.0714 
11 *622:66 *1077:A3 10.3357 
12 *622:66 *1028:B 24.4786 
13 *622:62 *1066:B 16.2821 
*END

*D_NET *623 0.00029593
*CONN
*I *1149:D I *D sky130_fd_sc_hd__nand4_4
*I *1673:X O *D sky130_fd_sc_hd__buf_2
*CAP
1 *1149:D 7.13459e-05
2 *1673:X 7.13459e-05
3 *1149:D *674:108 0.000124534
4 *1149:D *693:10 2.87041e-05
*RES
1 *1673:X *1149:D 29.2429 
*END

*D_NET *624 0.00128479
*CONN
*I *1441:D I *D sky130_fd_sc_hd__nand4_2
*I *1674:X O *D sky130_fd_sc_hd__buf_2
*CAP
1 *1441:D 0.000306583
2 *1674:X 0.000306583
3 *1441:D *690:10 8.98643e-05
4 *1441:D *690:23 0.000146878
5 *1441:D *709:14 0
6 *1441:C *1441:D 2.6949e-05
7 *1444:A2_N *1441:D 4.59695e-05
8 *1526:A *1441:D 0
9 *427:10 *1441:D 0.000311589
10 *568:34 *1441:D 5.03772e-05
*RES
1 *1674:X *1441:D 35.35 
*END

*D_NET *625 0.00137145
*CONN
*I *1461:A2_N I *D sky130_fd_sc_hd__o2bb2ai_4
*I *1675:X O *D sky130_fd_sc_hd__buf_6
*CAP
1 *1461:A2_N 0.000301341
2 *1675:X 0.000301341
3 *1461:A2_N *1582:A 0
4 *1460:A1 *1461:A2_N 0.000183674
5 *424:12 *1461:A2_N 4.29272e-05
6 *424:14 *1461:A2_N 7.79781e-06
7 *424:16 *1461:A2_N 7.80714e-06
8 *425:12 *1461:A2_N 0.00015234
9 *425:14 *1461:A2_N 0.000202842
10 *425:16 *1461:A2_N 0.000171375
*RES
1 *1675:X *1461:A2_N 35.8857 
*END

*D_NET *626 0.002516
*CONN
*I *1187:B I *D sky130_fd_sc_hd__nand3_2
*I *1188:A2 I *D sky130_fd_sc_hd__a31oi_2
*I *1676:X O *D sky130_fd_sc_hd__buf_2
*CAP
1 *1187:B 9.30064e-05
2 *1188:A2 0.000111673
3 *1676:X 0.0003569
4 *626:8 0.000561579
5 *1187:A *1187:B 1.00375e-05
6 *1189:A_N *626:8 2.89114e-05
7 *1189:B *626:8 5.33433e-05
8 *1189:C *1188:A2 0.000174812
9 *1264:A1 *1188:A2 0.000205863
10 *1676:A *626:8 3.48705e-05
11 *110:10 *1188:A2 1.02504e-05
12 *161:23 *1188:A2 2.44318e-05
13 *161:29 *1188:A2 0.00010096
14 *162:20 *626:8 0.000166229
15 *164:8 *1187:B 0.00032246
16 *164:8 *1188:A2 4.80729e-05
17 *246:18 *1187:B 0.000184392
18 *246:18 *1188:A2 2.82057e-05
*RES
1 *1676:X *626:8 20.0857 
2 *626:8 *1188:A2 18.0143 
3 *626:8 *1187:B 18.175 
*END

*D_NET *627 0.00230215
*CONN
*I *1104:A1 I *D sky130_fd_sc_hd__a21oi_4
*I *1107:B1 I *D sky130_fd_sc_hd__o2111ai_4
*I *1106:B1 I *D sky130_fd_sc_hd__o2111a_2
*I *1677:X O *D sky130_fd_sc_hd__buf_6
*CAP
1 *1104:A1 0.000266913
2 *1107:B1 0
3 *1106:B1 0.000107075
4 *1677:X 4.97403e-05
5 *627:23 0.000359282
6 *627:8 0.000249185
7 *1104:A1 *1104:A2 0.000148196
8 *1106:B1 *671:23 4.74645e-05
9 *627:23 *1107:D1 0
10 *1059:B1 *1104:A1 0.000148196
11 *1105:B2 *1104:A1 1.58163e-05
12 *1105:B2 *627:8 0.000125717
13 *1105:B2 *627:23 0.000198705
14 *1106:A1 *1106:B1 7.26654e-05
15 *1106:C1 *1106:B1 9.60875e-05
16 *1107:C1 *1104:A1 4.70048e-05
17 *35:10 *627:8 6.42145e-05
18 *35:10 *627:23 0.000127039
19 *523:34 *1106:B1 0.000178847
*RES
1 *1677:X *627:8 15.4429 
2 *627:8 *1106:B1 16.8179 
3 *627:8 *627:23 7.66071 
4 *627:23 *1107:B1 9.3 
5 *627:23 *1104:A1 23.675 
*END

*D_NET *628 0.000342561
*CONN
*I *1182:A2 I *D sky130_fd_sc_hd__a21oi_2
*I *1678:X O *D sky130_fd_sc_hd__buf_2
*CAP
1 *1182:A2 0.000171281
2 *1678:X 0.000171281
3 *1182:B1 *1182:A2 0
*RES
1 *1678:X *1182:A2 20.6893 
*END

*D_NET *629 0.00245444
*CONN
*I *1670:A I *D sky130_fd_sc_hd__buf_6
*I *1655:A I *D sky130_fd_sc_hd__buf_2
*I *1679:X O *D sky130_fd_sc_hd__buf_2
*CAP
1 *1670:A 0.000617546
2 *1655:A 3.4745e-05
3 *1679:X 0.000141075
4 *629:8 0.000793366
5 *1670:A *1258:A2 4.80729e-05
6 *1670:A *669:39 0.000128154
7 *1670:A *669:50 0.000191163
8 *1265:A *1670:A 8.89385e-05
9 *1266:B1 *1655:A 0
10 *1266:B1 *1670:A 5.33334e-05
11 *1271:A1 *1655:A 2.89016e-05
12 *1271:A1 *1670:A 6.05161e-06
13 *241:35 *1670:A 1.78447e-05
14 *242:8 *1670:A 0.000174723
15 *587:22 *1655:A 1.24368e-05
16 *587:22 *629:8 9.57311e-05
17 *603:8 *1670:A 2.23592e-05
*RES
1 *1679:X *629:8 11.3893 
2 *629:8 *1655:A 10.2643 
3 *629:8 *1670:A 32.1214 
*END

*D_NET *630 0.00089754
*CONN
*I *1194:B1 I *D sky130_fd_sc_hd__a21oi_2
*I *1680:X O *D sky130_fd_sc_hd__buf_2
*CAP
1 *1194:B1 0.000299327
2 *1680:X 0.000299327
3 *1194:B1 *1193:B 0
4 *1194:B1 *1194:A1 0.000124965
5 *1194:B1 *1592:A 0
6 *1194:A2 *1194:B1 0.000151061
7 *1195:B *1194:B1 0
8 *1680:A *1194:B1 0
9 *1681:A *1194:B1 2.28598e-05
*RES
1 *1680:X *1194:B1 34.2607 
*END

*D_NET *631 0.00107057
*CONN
*I *1581:A I *D sky130_fd_sc_hd__buf_6
*I *1435:Y O *D sky130_fd_sc_hd__nor2_2
*CAP
1 *1581:A 0.000525638
2 *1435:Y 0.000525638
3 *1433:A3 *1581:A 1.92905e-05
4 *425:12 *1581:A 0
*RES
1 *1435:Y *1581:A 35.725 
*END

*D_NET *632 0.00142228
*CONN
*I *1193:B I *D sky130_fd_sc_hd__and3_4
*I *1194:A1 I *D sky130_fd_sc_hd__a21oi_2
*I *1681:X O *D sky130_fd_sc_hd__buf_6
*CAP
1 *1193:B 0.000157005
2 *1194:A1 0.000281092
3 *1681:X 0.000438096
4 *1193:C *1193:B 4.06782e-05
5 *1194:A2 *1193:B 5.33334e-05
6 *1194:A2 *1194:A1 6.97409e-05
7 *1194:B1 *1193:B 0
8 *1194:B1 *1194:A1 0.000124965
9 *1680:A *1193:B 1.02504e-05
10 *1681:A *1194:A1 0.000208094
11 *109:14 *1193:B 1.92905e-05
12 *169:21 *1193:B 1.97381e-05
*RES
1 *1681:X *1194:A1 33.1179 
2 *1681:X *1193:B 31.1 
*END

*D_NET *633 0.000819707
*CONN
*I *1104:A2 I *D sky130_fd_sc_hd__a21oi_4
*I *1682:X O *D sky130_fd_sc_hd__buf_6
*CAP
1 *1104:A2 0.000217096
2 *1682:X 0.000217096
3 *1104:A2 *1107:D1 0.000175526
4 *1059:B1 *1104:A2 3.90513e-05
5 *1071:A2 *1104:A2 0
6 *1104:A1 *1104:A2 0.000148196
7 *1105:B2 *1104:A2 0
8 *35:10 *1104:A2 0
9 *523:34 *1104:A2 2.27416e-05
*RES
1 *1682:X *1104:A2 32.8143 
*END

*D_NET *634 0.000716568
*CONN
*I *1131:A2 I *D sky130_fd_sc_hd__o21a_2
*I *1128:A_N I *D sky130_fd_sc_hd__and2b_2
*I *1683:X O *D sky130_fd_sc_hd__buf_6
*CAP
1 *1131:A2 7.83591e-05
2 *1128:A_N 1.37588e-05
3 *1683:X 7.85768e-05
4 *634:6 0.000170695
5 *1130:B *1128:A_N 2.89016e-05
6 *1130:B *1131:A2 3.5707e-05
7 *1130:B *634:6 7.77751e-05
8 *1270:A1 *1131:A2 0
9 *1270:C1 *1131:A2 1.76039e-05
10 *105:14 *1131:A2 6.42242e-05
11 *107:12 *634:6 2.89114e-05
12 *109:14 *1128:A_N 2.27416e-05
13 *109:14 *634:6 9.93135e-05
*RES
1 *1683:X *634:6 11.8893 
2 *634:6 *1128:A_N 9.83571 
3 *634:6 *1131:A2 20.2464 
*END

*D_NET *635 0.000188892
*CONN
*I *1390:A I *D sky130_fd_sc_hd__nand4_4
*I *1684:X O *D sky130_fd_sc_hd__buf_4
*CAP
1 *1390:A 9.44459e-05
2 *1684:X 9.44459e-05
*RES
1 *1684:X *1390:A 19.9571 
*END

*D_NET *636 0.0102239
*CONN
*I *1524:A I *D sky130_fd_sc_hd__buf_6
*I *1523:A I *D sky130_fd_sc_hd__buf_6
*I *1522:A I *D sky130_fd_sc_hd__clkbuf_4
*I *1552:X O *D sky130_fd_sc_hd__dlymetal6s2s_1
*CAP
1 *1524:A 0.00155687
2 *1523:A 0
3 *1522:A 0.000104357
4 *1552:X 0.000166501
5 *636:27 0.00261975
6 *636:10 0.00133373
7 *1522:A *717:12 9.24825e-05
8 *1524:A *1013:A1 0.000139907
9 *1524:A *1013:B1 3.48001e-05
10 *1524:A *1699:A 0.000140933
11 *1524:A *653:26 0.000464619
12 *1524:A *653:28 0.000553834
13 *1524:A *655:10 5.52238e-05
14 *1524:A *658:23 0.000141021
15 *1524:A *675:18 0.000100831
16 *636:27 *641:10 0
17 *636:27 *699:27 0
18 *636:27 *704:8 5.52238e-05
19 *636:27 *704:16 0.000199699
20 p[1] *636:27 0.000105054
21 *1006:A *1524:A 0.000107884
22 *1006:B *1524:A 0.00012401
23 *1009:B *1524:A 9.60875e-05
24 *1013:B2 *1524:A 0.000258915
25 *1172:A2_N *636:27 0.000153054
26 *1503:A *636:27 0
27 *1531:A *1522:A 0.000186393
28 *1531:A *636:10 0
29 *1544:A *636:27 0.00032642
30 *1688:A *636:27 8.04796e-05
31 *294:45 *1524:A 1.21012e-05
32 *443:8 *1524:A 0.000598448
33 *534:47 *1524:A 0.000109867
34 *535:8 *636:27 0.000133447
35 *535:19 *636:27 6.31267e-05
36 *544:37 *636:27 0.000108872
*RES
1 *1552:X *636:10 16.5857 
2 *636:10 *1522:A 16.8 
3 *636:10 *636:27 29.5 
4 *636:27 *1523:A 9.3 
5 *636:27 *1524:A 46.8 
*END

*D_NET *637 0.000469277
*CONN
*I *1582:A I *D sky130_fd_sc_hd__clkbuf_2
*I *1463:Y O *D sky130_fd_sc_hd__nor2_2
*CAP
1 *1582:A 0.000166185
2 *1463:Y 0.000166185
3 p[12] *1582:A 9.41642e-05
4 *1461:A2_N *1582:A 0
5 *1463:A *1582:A 4.27437e-05
*RES
1 *1463:Y *1582:A 20.7964 
*END

*D_NET *638 0.00184377
*CONN
*I *1609:A I *D sky130_fd_sc_hd__buf_6
*I *1339:A3 I *D sky130_fd_sc_hd__a31o_2
*I *1685:X O *D sky130_fd_sc_hd__buf_2
*CAP
1 *1609:A 1.69531e-05
2 *1339:A3 0.000304171
3 *1685:X 0.000200676
4 *638:10 0.000521799
5 *1273:A *1339:A3 0.000121573
6 *1273:A *638:10 0.000174839
7 *1339:A2 *1339:A3 0.000147718
8 *1679:A *1339:A3 3.9019e-05
9 *1679:A *1609:A 5.33005e-05
10 *168:26 *1339:A3 0
11 *242:8 *1339:A3 0
12 *551:10 *1609:A 5.33005e-05
13 *587:22 *1339:A3 0.000171368
14 *603:23 *1339:A3 3.90513e-05
*RES
1 *1685:X *638:10 17.1036 
2 *638:10 *1339:A3 20.9071 
3 *638:10 *1609:A 14.3357 
*END

*D_NET *639 0.000934196
*CONN
*I *1060:A1 I *D sky130_fd_sc_hd__o211a_4
*I *1686:X O *D sky130_fd_sc_hd__buf_2
*CAP
1 *1060:A1 0.000250577
2 *1686:X 0.000250577
3 *1072:B *1060:A1 4.48206e-05
4 *44:21 *1060:A1 0.000125724
5 *261:34 *1060:A1 0.000262498
*RES
1 *1686:X *1060:A1 31.8321 
*END

*D_NET *640 0.000951508
*CONN
*I *1088:A I *D sky130_fd_sc_hd__nand2_2
*I *1687:X O *D sky130_fd_sc_hd__buf_2
*CAP
1 *1088:A 0.000285327
2 *1687:X 0.000285327
3 *1172:A1_N *1088:A 0.000128146
4 *1172:A2_N *1088:A 6.45627e-05
5 *1503:A *1088:A 5.80706e-06
6 *1545:A *1088:A 0.000154762
7 *1687:A *1088:A 1.92789e-05
8 *532:23 *1088:A 8.2958e-06
*RES
1 *1687:X *1088:A 32.5464 
*END

*D_NET *641 0.0149718
*CONN
*I *1005:C I *D sky130_fd_sc_hd__and4bb_2
*I *1004:A1_N I *D sky130_fd_sc_hd__o2bb2a_2
*I *1012:A I *D sky130_fd_sc_hd__nand4_4
*I *1061:B1 I *D sky130_fd_sc_hd__o2111ai_2
*I *1048:A I *D sky130_fd_sc_hd__and2_4
*I *998:B I *D sky130_fd_sc_hd__and2_2
*I *1000:A1 I *D sky130_fd_sc_hd__a22oi_2
*I *1688:X O *D sky130_fd_sc_hd__buf_4
*CAP
1 *1005:C 0.000227653
2 *1004:A1_N 8.47574e-06
3 *1012:A 0
4 *1061:B1 0.000312784
5 *1048:A 4.01764e-05
6 *998:B 0.000247036
7 *1000:A1 0
8 *1688:X 0.00028112
9 *641:89 0.000783068
10 *641:60 0.00169184
11 *641:50 0.00205901
12 *641:46 0.00164832
13 *641:23 0.000764279
14 *641:10 0.00041711
15 *998:B *653:26 0
16 *998:B *675:18 4.34543e-05
17 *998:B *734:81 0.0003487
18 *1005:C *1004:A2_N 7.83587e-05
19 *1005:C *1005:D 2.89016e-05
20 *1005:C *704:44 0.000116944
21 *1005:C *731:6 3.63775e-05
22 *1048:A *1061:C1 0.000142856
23 *1048:A *716:131 2.14658e-05
24 *1061:B1 *1050:A1 2.06178e-05
25 *1061:B1 *1052:C 4.15183e-05
26 *1061:B1 *1061:C1 0
27 *1061:B1 *655:53 4.66107e-05
28 *1061:B1 *728:44 1.87097e-05
29 *641:10 *1507:A 0.000170173
30 *641:10 *699:27 0.000179166
31 *641:10 *704:16 6.8646e-06
32 *641:23 *1507:A 3.42512e-05
33 *641:46 *1587:A 0.00047406
34 *641:46 *677:21 2.58997e-05
35 *641:60 *1012:C 7.02611e-05
36 *641:60 *1012:D 0.000127279
37 *641:60 *1635:A 1.98839e-05
38 *641:60 *655:53 0
39 *641:60 *728:38 8.359e-05
40 *641:89 *704:44 0.0001793
41 p[2] *641:89 0
42 *999:C *641:10 0.00011365
43 *1008:B1 *641:46 9.06586e-05
44 *1014:B1 *641:50 3.06878e-06
45 *1024:A *641:60 5.95522e-05
46 *1071:B1 *1061:B1 2.76674e-05
47 *1072:B *1061:B1 1.19402e-05
48 *1092:A2 *641:60 0.000949815
49 *1499:A1 *641:50 0.000640151
50 *1499:A2 *641:46 0.000335674
51 *1500:A *641:50 6.87574e-05
52 *1540:A *1005:C 2.14852e-05
53 *1540:A *641:89 4.54968e-05
54 *1579:A *641:10 1.1594e-05
55 *1579:A *641:23 4.37992e-05
56 *1693:A *1061:B1 0.000145399
57 *44:12 *1061:B1 0.000177948
58 *421:20 *1004:A1_N 6.48387e-06
59 *531:23 *1061:B1 0.000162832
60 *531:23 *641:60 0.000242206
61 *558:48 *641:60 0.000265447
62 *610:14 *998:B 0.000411721
63 *610:14 *641:23 0.000241122
64 *622:38 *1048:A 9.92409e-05
65 *636:27 *641:10 0
*RES
1 *1688:X *641:10 20.2464 
2 *641:10 *1000:A1 13.8 
3 *641:10 *641:23 4.43372 
4 *641:23 *998:B 18.5941 
5 *641:23 *641:46 14.4043 
6 *641:46 *641:50 9.48214 
7 *641:50 *641:60 30 
8 *641:60 *1048:A 15.5679 
9 *641:60 *1061:B1 21.2107 
10 *641:50 *1012:A 9.3 
11 *641:46 *641:89 12.6964 
12 *641:89 *1004:A1_N 13.9339 
13 *641:89 *1005:C 17.8714 
*END

*D_NET *642 0.00274601
*CONN
*I *1095:B2 I *D sky130_fd_sc_hd__a22oi_2
*I *1149:C I *D sky130_fd_sc_hd__nand4_4
*I *1689:X O *D sky130_fd_sc_hd__buf_2
*CAP
1 *1095:B2 0.000560284
2 *1149:C 0.000198206
3 *1689:X 1.42796e-05
4 *642:8 0.00077277
5 *1095:B2 *675:44 0.000359997
6 *1149:C *1149:B 0
7 *1149:C *694:60 8.20042e-05
8 *1149:C *722:21 0
9 *642:8 *1517:A 5.52302e-05
10 *1176:B1 *1095:B2 5.27703e-06
11 *1176:C1 *1095:B2 0.00010326
12 *1177:A *1095:B2 7.60306e-05
13 *1181:B1 *1095:B2 9.89015e-05
14 *1230:B *1095:B2 0
15 *1230:B *1149:C 1.37429e-05
16 *81:23 *1095:B2 4.46186e-06
17 *128:14 *1095:B2 0
18 *128:14 *1149:C 0
19 *130:55 *1095:B2 2.21812e-05
20 *132:8 *1095:B2 0.000107343
21 *149:39 *1095:B2 0.000218741
22 *531:23 *1095:B2 0
23 *580:10 *642:8 5.33005e-05
*RES
1 *1689:X *642:8 14.3357 
2 *642:8 *1149:C 17.1929 
3 *642:8 *1095:B2 26.4429 
*END

*D_NET *643 0.00272202
*CONN
*I *1058:D I *D sky130_fd_sc_hd__nand4_2
*I *1055:C1 I *D sky130_fd_sc_hd__o211a_2
*I *1049:B I *D sky130_fd_sc_hd__nand2_4
*I *1690:X O *D sky130_fd_sc_hd__buf_2
*CAP
1 *1058:D 5.63857e-05
2 *1055:C1 4.60367e-05
3 *1049:B 8.51911e-05
4 *1690:X 0.000341183
5 *643:23 0.000204982
6 *643:12 0.000528933
7 *1055:C1 *1058:C 0.000150625
8 *1055:C1 *671:10 0.000150625
9 *643:12 *1690:A 3.4879e-05
10 *643:12 *671:10 0
11 *1053:C *643:12 6.42145e-05
12 *1057:B1 *1049:B 8.25843e-06
13 *1057:B1 *1058:D 7.48301e-06
14 *1057:B1 *643:23 3.22772e-05
15 *1058:A *1049:B 9.60875e-05
16 *1058:B *643:23 5.52238e-05
17 *37:10 *1058:D 3.69047e-06
18 *158:14 *643:12 7.2882e-05
19 *524:6 *1049:B 1.32552e-05
20 *526:10 *643:12 0.000435512
21 *526:21 *643:12 3.17148e-05
22 *526:25 *1049:B 0.0001399
23 *528:22 *643:12 0.000105582
24 *528:33 *643:12 1.17968e-05
25 *558:67 *643:12 4.53031e-05
*RES
1 *1690:X *643:12 26.3536 
2 *643:12 *1049:B 11.4964 
3 *643:12 *643:23 1.76786 
4 *643:23 *1055:C1 20.2464 
5 *643:23 *1058:D 10.2643 
*END

*D_NET *644 0.00225616
*CONN
*I *1347:B2 I *D sky130_fd_sc_hd__a22oi_2
*I *1283:A I *D sky130_fd_sc_hd__nand2_2
*I *1346:A I *D sky130_fd_sc_hd__nand4_2
*I *1691:X O *D sky130_fd_sc_hd__buf_2
*CAP
1 *1347:B2 0
2 *1283:A 4.15722e-05
3 *1346:A 7.85658e-05
4 *1691:X 0.000106382
5 *644:12 0.000247503
6 *644:8 0.000233747
7 *1283:A *1345:B 0
8 *1283:A *713:37 1.39726e-05
9 *1346:A *1346:B 8.87236e-05
10 *1346:A *1346:C 1.74352e-05
11 *1346:A *713:37 1.21289e-05
12 *644:8 *1566:A 0.000185304
13 *644:8 *1691:A 0.000128161
14 *644:12 *1566:A 1.02504e-05
15 *644:12 *691:26 0
16 *1283:B *1283:A 3.22063e-05
17 *1346:D *1283:A 8.57023e-05
18 *1346:D *1346:A 0.00040765
19 *1354:A1 *644:8 0.00017309
20 *1354:A1 *644:12 3.51442e-05
21 *1354:B1 *644:8 7.38748e-05
22 *258:10 *1283:A 2.89114e-05
23 *258:10 *1346:A 0.000102197
24 *325:10 *644:12 4.53124e-05
25 *608:36 *644:12 0.000108324
*RES
1 *1691:X *644:8 17.8714 
2 *644:8 *644:12 7.66071 
3 *644:12 *1346:A 13.55 
4 *644:12 *1283:A 10.675 
5 *644:8 *1347:B2 13.8 
*END

*D_NET *645 0.0136788
*CONN
*I *1011:B1 I *D sky130_fd_sc_hd__a22o_4
*I *1029:B I *D sky130_fd_sc_hd__nand2_2
*I *1010:D I *D sky130_fd_sc_hd__nand4_2
*I *1692:X O *D sky130_fd_sc_hd__buf_2
*CAP
1 *1011:B1 0
2 *1029:B 0.000497999
3 *1010:D 0.000142787
4 *1692:X 0.004837
5 *645:37 0.000644475
6 *645:18 0.00512626
7 *1010:D *1010:B 9.54798e-06
8 *1010:D *734:14 7.53697e-05
9 *1029:B *734:29 4.46186e-06
10 *1029:B *734:46 0.000179873
11 *645:18 *1692:A 1.21859e-05
12 *645:18 *691:16 2.06112e-05
13 *645:18 *710:31 0.00011659
14 *645:18 *716:107 0.000100494
15 *645:37 *1010:B 2.95841e-05
16 *645:37 *734:14 2.1479e-05
17 *645:37 *734:29 4.18564e-05
18 *1015:B *1029:B 0.000188703
19 *1018:A1 *1029:B 7.33494e-06
20 *1040:A *1029:B 0
21 *1173:A_N *1010:D 2.22043e-05
22 *260:34 *645:18 0.000113064
23 *484:8 *1029:B 0
24 *484:8 *645:37 7.25622e-05
25 *487:10 *1029:B 7.73662e-05
26 *488:8 *1029:B 0.00020455
27 *488:21 *1029:B 0.000613191
28 *491:10 *1029:B 8.06427e-05
29 *516:10 *1029:B 0.000368104
30 *533:37 *1010:D 6.40615e-05
31 *533:37 *645:37 6.41086e-06
32 *588:52 *645:18 0
*RES
1 *1692:X *645:18 33.4577 
2 *645:18 *1010:D 17.786 
3 *645:18 *645:37 6.50196 
4 *645:37 *1029:B 29.9786 
5 *645:37 *1011:B1 13.8 
*END

*D_NET *646 0.0059249
*CONN
*I *1055:A1 I *D sky130_fd_sc_hd__o211a_2
*I *1112:A2 I *D sky130_fd_sc_hd__o211ai_4
*I *1686:A I *D sky130_fd_sc_hd__buf_2
*I *1061:A1 I *D sky130_fd_sc_hd__o2111ai_2
*I *1056:B1 I *D sky130_fd_sc_hd__o22ai_4
*I *1693:X O *D sky130_fd_sc_hd__buf_4
*CAP
1 *1055:A1 1.79988e-05
2 *1112:A2 0.000317949
3 *1686:A 0.000135616
4 *1061:A1 8.94942e-05
5 *1056:B1 0.000901258
6 *1693:X 0.000230838
7 *646:56 0.000563846
8 *646:14 0.000802567
9 *646:10 0.000406168
10 *1055:A1 *1055:B1 1.23559e-06
11 *1112:A2 *1055:B1 3.98517e-05
12 *1112:A2 *730:91 0.000162546
13 *646:10 *1023:B1 0
14 *646:10 *655:53 0.000169698
15 *646:56 *1056:A1 0
16 *1056:A2 *646:56 0
17 *1061:A2 *1056:B1 0.000351156
18 *1061:A2 *1061:A1 3.57366e-05
19 *1061:D1 *1056:B1 4.43256e-05
20 *1067:A2 *1686:A 0.000128154
21 *1067:A2 *646:10 0.000246064
22 *1070:D *1112:A2 6.68971e-06
23 *1070:D *646:56 3.06878e-06
24 *1071:B1 *1686:A 0.000305922
25 *1071:B1 *646:10 0.000314916
26 *1071:B2 *1686:A 5.33005e-05
27 *1072:C *1686:A 0.000148189
28 *1112:B1 *1112:A2 1.98839e-05
29 *1693:A *646:10 9.76147e-05
30 *35:10 *646:56 0.000150618
31 *35:47 *1056:B1 5.33334e-05
32 *44:21 *1686:A 1.41029e-05
33 *45:14 *1686:A 0
34 *261:34 *1686:A 2.59355e-05
35 *530:10 *1055:A1 6.59809e-06
36 *530:10 *646:56 3.1366e-05
37 *531:36 *646:10 4.88637e-05
*RES
1 *1693:X *646:10 20.4429 
2 *646:10 *646:14 5.03571 
3 *646:14 *1056:B1 17.9607 
4 *646:14 *1061:A1 10.9786 
5 *646:10 *1686:A 18.7107 
6 *1056:B1 *646:56 22.0143 
7 *646:56 *1112:A2 13.9786 
8 *646:56 *1055:A1 10.0634 
*END

*D_NET *647 0.00163376
*CONN
*I *1583:A I *D sky130_fd_sc_hd__buf_6
*I *1480:Y O *D sky130_fd_sc_hd__nand2_2
*CAP
1 *1583:A 0.000427766
2 *1480:Y 0.000427766
3 p[13] *1583:A 0
4 *1463:A *1583:A 7.50697e-05
5 *1478:A_N *1583:A 0.000338188
6 *1479:B1_N *1583:A 0
7 *1480:A *1583:A 0.000127137
8 *1480:B *1583:A 0.000176941
9 *425:14 *1583:A 0
10 *425:16 *1583:A 0
11 *448:10 *1583:A 6.08925e-05
*RES
1 *1480:Y *1583:A 38.5821 
*END

*D_NET *648 0.000823031
*CONN
*I *1643:A I *D sky130_fd_sc_hd__buf_6
*I *1694:X O *D sky130_fd_sc_hd__buf_6
*CAP
1 *1643:A 0.000232932
2 *1694:X 0.000232932
3 *1080:C_N *1643:A 2.89016e-05
4 *1082:B1 *1643:A 0
5 *1083:A2 *1643:A 1.59782e-05
6 *56:25 *1643:A 0.000197991
7 *56:38 *1643:A 6.07532e-05
8 *61:10 *1643:A 5.35423e-05
9 *514:10 *1643:A 0
*RES
1 *1694:X *1643:A 33.225 
*END

*D_NET *649 0.000511378
*CONN
*I *1694:A I *D sky130_fd_sc_hd__buf_6
*I *1695:X O *D sky130_fd_sc_hd__buf_2
*CAP
1 *1694:A 0.000190398
2 *1695:X 0.000190398
3 *1081:B1 *1694:A 7.48091e-05
4 *56:25 *1694:A 0
5 *64:12 *1694:A 5.57727e-05
*RES
1 *1695:X *1694:A 30.9036 
*END

*D_NET *650 0.000767894
*CONN
*I *1584:A I *D sky130_fd_sc_hd__buf_6
*I *1496:Y O *D sky130_fd_sc_hd__nand2_2
*CAP
1 *1584:A 0.000180125
2 *1496:Y 0.000180125
3 *1496:A *1584:A 0.000202842
4 *1496:B *1584:A 6.0038e-05
5 *1636:A *1584:A 0.000144764
*RES
1 *1496:Y *1584:A 33.1893 
*END

*D_NET *651 0.000917099
*CONN
*I *1585:A I *D sky130_fd_sc_hd__buf_6
*I *1498:Y O *D sky130_fd_sc_hd__o211ai_2
*CAP
1 *1585:A 0.000320365
2 *1498:Y 0.000320365
3 *1470:B1 *1585:A 0
4 *1474:A *1585:A 0
5 *1489:A *1585:A 0.000169707
6 *1495:B2 *1585:A 0
7 *1498:B1 *1585:A 5.33005e-05
8 *461:8 *1585:A 5.33614e-05
*RES
1 *1498:Y *1585:A 33.725 
*END

*D_NET *652 0.00221659
*CONN
*I *1016:A1 I *D sky130_fd_sc_hd__o211a_2
*I *1017:A1 I *D sky130_fd_sc_hd__o211ai_2
*I *1018:B1 I *D sky130_fd_sc_hd__a211o_4
*I *1696:X O *D sky130_fd_sc_hd__buf_2
*CAP
1 *1016:A1 0.000196347
2 *1017:A1 0.000131086
3 *1018:B1 1.40568e-05
4 *1696:X 0.000161521
5 *652:17 0.000327433
6 *652:8 0.000175578
7 *1018:B1 *731:23 2.89016e-05
8 *652:8 *731:23 0.00023342
9 *1006:B *1017:A1 9.25014e-06
10 *1016:A2 *1016:A1 0.000190155
11 *1018:A2 *652:8 1.98839e-05
12 *1018:C1 *1018:B1 5.52238e-05
13 *1018:C1 *652:8 4.08637e-05
14 *1029:A *1016:A1 0
15 *1029:A *1017:A1 0
16 *432:14 *652:8 0.000196066
17 *491:21 *1017:A1 5.52238e-05
18 *494:14 *652:8 2.14757e-05
19 *505:10 *1016:A1 0
20 *583:8 *1016:A1 0.000175519
21 *583:8 *1017:A1 2.24646e-05
22 *583:10 *1017:A1 0.000162125
*RES
1 *1696:X *652:8 13.9607 
2 *652:8 *1018:B1 9.83571 
3 *652:8 *652:17 4.5 
4 *652:17 *1017:A1 16.8893 
5 *652:17 *1016:A1 18.608 
*END

*D_NET *653 0.0074944
*CONN
*I *1000:B1 I *D sky130_fd_sc_hd__a22oi_2
*I *1008:A2 I *D sky130_fd_sc_hd__a31o_2
*I *999:B I *D sky130_fd_sc_hd__and3_2
*I *1012:B I *D sky130_fd_sc_hd__nand4_4
*I *1090:B I *D sky130_fd_sc_hd__and4_2
*I *1013:A1 I *D sky130_fd_sc_hd__a22o_2
*I *1697:X O *D sky130_fd_sc_hd__buf_2
*CAP
1 *1000:B1 0.000106362
2 *1008:A2 0.000132536
3 *999:B 0
4 *1012:B 0.000164943
5 *1090:B 9.43383e-05
6 *1013:A1 3.58597e-05
7 *1697:X 0.000360136
8 *653:70 0.000335888
9 *653:28 0.000266269
10 *653:26 0.00114222
11 *653:8 0.000938064
12 *653:6 0.000553989
13 *1000:B1 *1000:A2 9.99644e-06
14 *1008:A2 *734:87 4.13288e-05
15 *1008:A2 *734:96 1.12387e-05
16 *1013:A1 *1013:A2 7.40229e-05
17 *1090:B *700:78 4.78056e-05
18 *653:6 *1160:A1 7.48992e-05
19 *653:6 *1507:A 4.88515e-05
20 *653:6 *1697:A 1.32552e-05
21 *653:8 *1160:A1 4.55132e-05
22 *653:26 *999:A 4.36994e-05
23 *653:26 *1019:C 3.34295e-05
24 *653:26 *1161:B 0
25 *653:26 *1161:C 1.76039e-05
26 *653:26 *675:18 0.000110117
27 *653:26 *734:10 0
28 *653:26 *734:87 8.40344e-05
29 *653:26 *734:132 0.000194562
30 *653:28 *1013:A2 0.000139913
31 *653:70 *999:A 4.78056e-05
32 *653:70 *677:8 5.01117e-05
33 *653:70 *699:27 2.19302e-05
34 *998:B *653:26 0
35 *1001:B *1008:A2 1.02936e-05
36 *1008:B1 *1000:B1 5.52302e-05
37 *1008:B1 *1008:A2 5.52238e-05
38 *1009:A *653:26 6.46652e-05
39 *1009:B *653:26 7.90284e-05
40 *1014:A1 *653:26 2.89114e-05
41 *1014:A1 *653:28 7.02611e-05
42 *1014:B2 *653:26 4.35336e-05
43 *1014:B2 *653:28 6.94273e-05
44 *1019:A_N *653:26 5.52238e-05
45 *1029:A *1012:B 0
46 *1090:A *1090:B 5.71472e-05
47 *1524:A *1013:A1 0.000139907
48 *1524:A *653:26 0.000464619
49 *1524:A *653:28 0.000553834
50 *294:39 *1012:B 3.34672e-05
51 *294:45 *1013:A1 1.6185e-05
52 *305:92 *1090:B 4.78056e-05
53 *453:12 *653:26 1.52978e-05
54 *484:8 *1012:B 3.34366e-05
55 *484:17 *1012:B 0.000219734
56 *489:6 *653:28 3.48705e-05
57 *532:46 *653:8 6.05161e-06
58 *532:46 *653:26 7.97875e-05
59 *532:46 *653:70 1.97381e-05
*RES
1 *1697:X *653:6 13.9429 
2 *653:6 *653:8 1.35714 
3 *653:8 *653:26 26.6964 
4 *653:26 *653:28 5.46429 
5 *653:28 *1013:A1 10.6571 
6 *653:28 *1090:B 20.175 
7 *653:26 *1012:B 21.4607 
8 *653:8 *999:B 9.3 
9 *653:6 *653:70 11.5536 
10 *653:70 *1008:A2 11.0679 
11 *653:70 *1000:B1 10.9786 
*END

*D_NET *654 0.00159187
*CONN
*I *1499:B2 I *D sky130_fd_sc_hd__a22oi_2
*I *1019:C I *D sky130_fd_sc_hd__and3b_2
*I *1698:X O *D sky130_fd_sc_hd__buf_6
*CAP
1 *1499:B2 0
2 *1019:C 0.000102098
3 *1698:X 0.000271854
4 *654:10 0.000373951
5 *1019:C *675:18 1.76204e-05
6 *1019:C *734:132 5.89198e-05
7 *1006:A *1019:C 0
8 *1007:B *1019:C 0
9 *1007:B *654:10 0
10 *1019:B *1019:C 0.000156369
11 *1019:B *654:10 1.02504e-05
12 *1020:C *654:10 9.65075e-05
13 *1698:A *654:10 5.52238e-05
14 *421:20 *654:10 0.000148736
15 *453:12 *1019:C 6.07626e-05
16 *493:12 *654:10 0
17 *493:23 *654:10 0.000160403
18 *496:12 *654:10 4.57445e-05
19 *653:26 *1019:C 3.34295e-05
*RES
1 *1698:X *654:10 20.2464 
2 *654:10 *1019:C 17.1259 
3 *654:10 *1499:B2 13.8 
*END

*D_NET *655 0.00969212
*CONN
*I *1095:A1 I *D sky130_fd_sc_hd__a22oi_2
*I *1050:B2 I *D sky130_fd_sc_hd__a22oi_2
*I *1057:A2 I *D sky130_fd_sc_hd__a41o_4
*I *1052:B I *D sky130_fd_sc_hd__and4_2
*I *1051:B2 I *D sky130_fd_sc_hd__a22o_2
*I *1053:B I *D sky130_fd_sc_hd__nand4_2
*I *1168:A1 I *D sky130_fd_sc_hd__o2111a_2
*I *1699:X O *D sky130_fd_sc_hd__buf_2
*CAP
1 *1095:A1 0
2 *1050:B2 0
3 *1057:A2 5.83173e-05
4 *1052:B 0
5 *1051:B2 6.82796e-05
6 *1053:B 8.89126e-05
7 *1168:A1 8.99982e-05
8 *1699:X 0.000200963
9 *655:61 0.000208336
10 *655:59 0.000122786
11 *655:57 0.000240587
12 *655:53 0.00103173
13 *655:31 0.00146565
14 *655:10 0.00083551
15 *1051:B2 *671:10 0.000145753
16 *1053:B *1052:D 9.41642e-05
17 *1053:B *1053:A 9.60875e-05
18 *1053:B *1109:A1 5.23057e-05
19 *1057:A2 *674:108 0.000145753
20 *1168:A1 *1168:B1 5.71472e-05
21 *1168:A1 *722:50 2.05938e-05
22 *655:10 *1091:A2 0.00021559
23 *655:10 *701:41 6.07328e-05
24 *655:10 *722:50 1.18451e-05
25 *655:31 *1091:A2 2.28499e-05
26 *655:31 *675:44 9.94317e-05
27 *655:31 *717:69 1.24368e-05
28 *655:53 *1023:B1 0
29 *655:53 *1050:A1 1.24469e-05
30 *655:53 *1050:B1 0.000137182
31 *655:53 *1052:C 6.0325e-05
32 *655:53 *1061:C1 2.49484e-05
33 *655:53 *675:44 5.33005e-05
34 *655:53 *705:58 0.000137983
35 *655:53 *716:125 0
36 *655:53 *728:27 5.80706e-06
37 *655:53 *728:38 0.000374355
38 *655:53 *728:44 1.02504e-05
39 *655:57 *1050:B1 3.57366e-05
40 *655:57 *1052:C 0.000338713
41 *655:57 *705:58 0.000120617
42 *655:59 *1052:C 0.000342681
43 *655:59 *1053:A 0.00010096
44 *655:59 *705:58 3.97677e-05
45 *655:59 *705:60 9.47613e-05
46 *655:61 *1052:C 5.71472e-05
47 *655:61 *1052:D 0.000171289
48 *655:61 *1053:A 0.000271352
49 *1053:C *1053:B 9.09605e-05
50 *1056:A2 *1057:A2 8.98585e-05
51 *1057:B1 *1051:B2 7.17836e-05
52 *1061:B1 *655:53 4.66107e-05
53 *1092:A2 *655:10 6.81083e-05
54 *1092:B1 *655:53 0.000389132
55 *1169:A2 *1168:A1 0.000101357
56 *1169:A2 *655:10 2.61337e-05
57 *1169:C1 *655:31 0.000137983
58 *1171:B1 *1168:A1 1.89507e-06
59 *1524:A *655:10 5.52238e-05
60 *1693:A *655:53 3.57661e-05
61 *65:14 *655:10 0.000240491
62 *65:14 *655:31 2.77289e-05
63 *146:8 *1168:A1 2.70725e-06
64 *146:8 *655:10 4.038e-06
65 *294:45 *1057:A2 5.58941e-05
66 *531:36 *655:53 1.39726e-05
67 *534:30 *655:31 8.70594e-05
68 *534:132 *1168:A1 2.39654e-05
69 *558:31 *655:53 9.25014e-06
70 *558:48 *655:53 0.000107109
71 *641:60 *655:53 0
72 *646:10 *655:53 0.000169698
*RES
1 *1699:X *655:10 19.3179 
2 *655:10 *1168:A1 15.9786 
3 *655:10 *655:31 12.1786 
4 *655:31 *655:53 38.1607 
5 *655:53 *655:57 3.83929 
6 *655:57 *655:59 3.41071 
7 *655:59 *655:61 2.58929 
8 *655:61 *1053:B 11.9071 
9 *655:61 *1051:B2 20.2464 
10 *655:59 *1052:B 9.3 
11 *655:57 *1057:A2 20.2464 
12 *655:53 *1050:B2 9.3 
13 *655:31 *1095:A1 9.3 
*END

*D_NET *656 0.00432125
*CONN
*I *1094:A I *D sky130_fd_sc_hd__nand4_4
*I *1096:A1 I *D sky130_fd_sc_hd__a22o_4
*I *1700:X O *D sky130_fd_sc_hd__buf_2
*CAP
1 *1094:A 2.06112e-05
2 *1096:A1 0.000182385
3 *1700:X 0.000691917
4 *656:8 0.000894913
5 *1096:A1 *1099:B 0
6 *656:8 *1097:A1 5.52302e-05
7 *1092:A2 *656:8 0.000435306
8 *1093:B *1096:A1 0.00040279
9 *1093:B *656:8 0.000358971
10 *1094:B *1094:A 0
11 *1096:A2 *1096:A1 7.73662e-05
12 *1097:B1 *1094:A 3.99614e-06
13 *1101:B2 *656:8 0.000180755
14 *1250:A1 *1096:A1 5.83233e-05
15 *70:8 *656:8 0.000560366
16 *72:24 *1096:A1 3.18676e-05
17 *72:24 *656:8 6.57815e-05
18 *72:37 *656:8 2.59355e-05
19 *74:77 *1096:A1 2.15245e-05
20 *158:14 *1096:A1 9.8804e-05
21 *558:48 *1096:A1 0.00010116
22 *558:48 *656:8 1.32389e-05
23 *558:67 *1096:A1 4.00025e-05
*RES
1 *1700:X *656:8 25.8714 
2 *656:8 *1096:A1 25.2821 
3 *656:8 *1094:A 9.72857 
*END

*D_NET *657 0.00279629
*CONN
*I *1586:A I *D sky130_fd_sc_hd__clkdlybuf4s25_1
*I *1001:Y O *D sky130_fd_sc_hd__nor2_2
*CAP
1 *1586:A 0.000755989
2 *1001:Y 0.000755989
3 *1586:A *1000:A2 0.000301125
4 *1586:A *1507:A 0.000317602
5 *1586:A *726:8 1.02504e-05
6 *1001:B *1586:A 0.0003353
7 *1579:A *1586:A 0.000320031
*RES
1 *1001:Y *1586:A 40.4393 
*END

*D_NET *658 0.00304355
*CONN
*I *1010:A I *D sky130_fd_sc_hd__nand4_2
*I *1011:B2 I *D sky130_fd_sc_hd__a22o_4
*I *1000:B2 I *D sky130_fd_sc_hd__a22oi_2
*I *1701:X O *D sky130_fd_sc_hd__buf_2
*CAP
1 *1010:A 8.60638e-05
2 *1011:B2 3.28375e-05
3 *1000:B2 0.000110321
4 *1701:X 0
5 *658:23 0.0004995
6 *658:4 0.00049092
7 *1000:B2 *999:A 3.47641e-06
8 *1000:B2 *1000:A2 2.03618e-05
9 *1000:B2 *1587:A 9.25014e-06
10 *1000:B2 *734:132 0
11 *1011:B2 *701:41 9.60875e-05
12 *658:23 *1587:A 0.000401098
13 *658:23 *701:41 0.000426351
14 *1006:A *658:23 0.000185643
15 *1006:B *658:23 4.43256e-05
16 *1008:B1 *1000:B2 0.000143167
17 *1009:B *658:23 5.9232e-05
18 *1524:A *658:23 0.000141021
19 *294:39 *1010:A 6.40962e-05
20 *484:8 *1010:A 0.000194698
21 *487:10 *1011:B2 3.14048e-05
22 *487:10 *658:23 3.69047e-06
*RES
1 *1701:X *658:4 9.3 
2 *658:4 *1000:B2 20.2464 
3 *658:4 *658:23 10.9643 
4 *658:23 *1011:B2 10.2464 
5 *658:23 *1010:A 20.8536 
*END

*D_NET *659 0.00586425
*CONN
*I *1028:A I *D sky130_fd_sc_hd__and2_2
*I *1077:A1 I *D sky130_fd_sc_hd__a31o_2
*I *1070:C I *D sky130_fd_sc_hd__nand4_2
*I *1702:X O *D sky130_fd_sc_hd__buf_2
*CAP
1 *1028:A 9.22062e-05
2 *1077:A1 0
3 *1070:C 0.00117741
4 *1702:X 0.000739084
5 *659:14 0.00135785
6 *659:10 0.00101173
7 *1070:C *1026:B 9.90367e-05
8 *1070:C *1026:C 7.96335e-05
9 *1070:C *1086:A1 4.58194e-05
10 *1027:A1 *1070:C 0.000180764
11 *1028:B *1028:A 6.74911e-05
12 *1028:B *1070:C 4.18134e-06
13 *1029:A *659:10 0.000102197
14 *1070:D *1070:C 2.77126e-05
15 *1077:A2 *1070:C 5.04616e-05
16 *1077:A2 *659:14 7.06444e-05
17 *1077:B1 *1028:A 0.000222885
18 *1077:B1 *659:14 0.000142856
19 *1086:A3 *1070:C 0.000104298
20 *1086:B1 *1070:C 5.62995e-05
21 *1637:A *659:10 2.89114e-05
22 *56:10 *1070:C 3.80385e-05
23 *64:12 *1070:C 5.39629e-06
24 *488:34 *1028:A 0
25 *488:34 *659:14 1.39726e-05
26 *505:10 *1028:A 5.83304e-05
27 *505:10 *659:10 7.6644e-05
28 *505:21 *1028:A 0
29 *516:10 *659:10 0
30 *622:66 *1070:C 1.03968e-05
*RES
1 *1702:X *659:10 22.7643 
2 *659:10 *659:14 7.08929 
3 *659:14 *1070:C 24.5321 
4 *659:14 *1077:A1 9.3 
5 *659:10 *1028:A 16.9607 
*END

*D_NET *660 0.00299599
*CONN
*I *1587:A I *D sky130_fd_sc_hd__buf_6
*I *1009:X O *D sky130_fd_sc_hd__and2_4
*CAP
1 *1587:A 0.000704065
2 *1009:X 0.000704065
3 *1587:A *1588:A 5.52302e-05
4 *1587:A *677:21 4.06782e-05
5 *1587:A *734:132 0.00047267
6 *1000:B2 *1587:A 9.25014e-06
7 *1008:B1 *1587:A 1.17921e-05
8 *1540:A *1587:A 0.000123078
9 *641:46 *1587:A 0.00047406
10 *658:23 *1587:A 0.000401098
*RES
1 *1009:X *1587:A 42.4393 
*END

*D_NET *661 0.00352735
*CONN
*I *1588:A I *D sky130_fd_sc_hd__buf_6
*I *1500:Y O *D sky130_fd_sc_hd__nor2_4
*CAP
1 *1588:A 0.000878804
2 *1500:Y 0.000878804
3 *1588:A *1003:A 0.000134788
4 *1588:A *1003:B 0.000100831
5 *1588:A *677:21 0.000549422
6 *1588:A *734:132 0.00059121
7 *1500:B *1588:A 7.46132e-05
8 *1579:A *1588:A 0
9 *1587:A *1588:A 5.52302e-05
10 *411:10 *1588:A 2.47093e-05
11 *493:12 *1588:A 0.000142856
12 *493:23 *1588:A 9.60875e-05
13 *496:12 *1588:A 0
*RES
1 *1500:Y *1588:A 47.9214 
*END

*D_NET *662 0.00128961
*CONN
*I *1589:A I *D sky130_fd_sc_hd__clkdlybuf4s25_1
*I *1047:X O *D sky130_fd_sc_hd__o21ba_2
*CAP
1 *1589:A 0.000390593
2 *1047:X 0.000390593
3 *1046:A2 *1589:A 8.07879e-05
4 *1047:A1 *1589:A 6.05161e-06
5 *1047:A2 *1589:A 3.30352e-05
6 *1047:B1_N *1589:A 6.05161e-06
7 *1084:A1 *1589:A 0.000129868
8 *521:8 *1589:A 0.00025263
*RES
1 *1047:X *1589:A 35.3679 
*END

*D_NET *663 0.00113083
*CONN
*I *1590:A I *D sky130_fd_sc_hd__buf_6
*I *1085:Y O *D sky130_fd_sc_hd__xnor2_2
*CAP
1 *1590:A 0.000364024
2 *1085:Y 0.000364024
3 *1083:B1 *1590:A 0
4 *1085:B *1590:A 0
5 *63:6 *1590:A 0.000402784
*RES
1 *1085:Y *1590:A 33.0643 
*END

*D_NET *664 0.000513268
*CONN
*I *1591:A I *D sky130_fd_sc_hd__buf_6
*I *1130:Y O *D sky130_fd_sc_hd__xnor2_2
*CAP
1 *1591:A 0.000185031
2 *1130:Y 0.000185031
3 *104:10 *1591:A 0.000128154
4 *105:10 *1591:A 1.50524e-05
*RES
1 *1130:Y *1591:A 30.6 
*END

*D_NET *665 0.0149194
*CONN
*I *1026:B I *D sky130_fd_sc_hd__and3_4
*I *1521:A I *D sky130_fd_sc_hd__buf_6
*I *1553:X O *D sky130_fd_sc_hd__buf_6
*CAP
1 *1026:B 1.75051e-05
2 *1521:A 0.000296042
3 *1553:X 0.000187828
4 *665:41 0.00227828
5 *665:35 0.00394937
6 *665:6 0.00217246
7 *1026:B *1026:C 5.52238e-05
8 *1521:A *1619:A 1.6815e-05
9 *1521:A *702:29 0.000109659
10 *1521:A *711:8 8.44626e-05
11 *665:35 *673:18 2.40868e-05
12 *665:35 *673:100 8.84345e-05
13 *665:35 *698:44 1.03904e-05
14 *665:41 *1013:B1 0.000131491
15 *665:41 *1021:A 7.50601e-05
16 *665:41 *1023:B2 0
17 *665:41 *705:22 0
18 *665:41 *705:26 0
19 *665:41 *717:37 0
20 *665:41 *717:48 0
21 *665:41 *727:25 0.000147346
22 *1027:A2 *665:41 0
23 *1027:B1 *665:41 0.000166051
24 *1064:A *665:41 5.07157e-05
25 *1065:A1 *665:41 1.78447e-05
26 *1065:A2 *665:41 0
27 *1070:C *1026:B 9.90367e-05
28 *1086:A3 *1026:B 2.44318e-05
29 *1090:A *665:41 0
30 *1165:B1 *665:41 0.000150625
31 *1170:A2 *665:41 0.000187726
32 *1171:B1 *665:41 0
33 *1206:A4 *665:35 0
34 *1207:A1 *665:41 9.12446e-05
35 *1233:A2 *665:41 0.000217034
36 *1233:B1 *665:41 0
37 *1278:A1 *665:35 9.7659e-05
38 *1278:A2 *665:35 2.95641e-05
39 *1278:B1 *665:35 7.49387e-06
40 *1279:B1 *665:35 0.000153054
41 *1286:A1 *665:35 0.000139331
42 *1313:A2 *665:35 0.000224356
43 *1313:B1 *665:41 0.00015234
44 *1314:A1 *665:41 0
45 *1537:A *665:41 0
46 *65:14 *665:41 0
47 *142:12 *665:41 0.000120708
48 *146:8 *665:41 0
49 *149:14 *665:41 0
50 *175:6 *665:35 4.58194e-05
51 *178:8 *665:35 0.000125724
52 *185:8 *665:41 0.000421321
53 *185:28 *665:41 0.00015234
54 *203:12 *665:41 0.000722829
55 *253:10 *665:35 0.000442809
56 *305:62 *665:41 0
57 *305:75 *665:41 0
58 *305:92 *665:41 0
59 *316:10 *665:35 3.11713e-05
60 *499:10 *665:41 0.000105689
61 *499:36 *665:41 0.000113038
62 *555:18 *1521:A 1.03853e-05
63 *555:18 *665:6 0.000131003
64 *555:18 *665:35 7.8351e-05
65 *562:43 *665:35 7.74068e-05
66 *562:58 *665:35 0.000887867
*RES
1 *1553:X *665:6 12.9161 
2 *665:6 *1521:A 24.7911 
3 *665:6 *665:35 43.0804 
4 *665:35 *665:41 48.1429 
5 *665:41 *1026:B 14.7464 
*END

*D_NET *666 0.00085833
*CONN
*I *1592:A I *D sky130_fd_sc_hd__buf_6
*I *1195:X O *D sky130_fd_sc_hd__or2_4
*CAP
1 *1592:A 0.000352819
2 *1195:X 0.000352819
3 *1193:C *1592:A 1.92789e-05
4 *1194:B1 *1592:A 0
5 *1195:A *1592:A 3.18676e-05
6 *1195:B *1592:A 0
7 *1680:A *1592:A 0.000101545
*RES
1 *1195:X *1592:A 32.6714 
*END

*D_NET *667 0.00123911
*CONN
*I *1593:A I *D sky130_fd_sc_hd__buf_6
*I *1273:X O *D sky130_fd_sc_hd__and2_4
*CAP
1 *1593:A 0.000619554
2 *1273:X 0.000619554
*RES
1 *1273:X *1593:A 38.0821 
*END

*D_NET *668 0.000854897
*CONN
*I *1594:A I *D sky130_fd_sc_hd__clkbuf_2
*I *1340:X O *D sky130_fd_sc_hd__xor2_2
*CAP
1 *1594:A 0.000427448
2 *1340:X 0.000427448
*RES
1 *1340:X *1594:A 34.2964 
*END

*D_NET *669 0.00469084
*CONN
*I *1262:A I *D sky130_fd_sc_hd__and3_2
*I *1258:A2 I *D sky130_fd_sc_hd__a21bo_4
*I *1260:A1_N I *D sky130_fd_sc_hd__o2bb2ai_4
*I *1259:C1 I *D sky130_fd_sc_hd__o211ai_2
*I *1263:C1 I *D sky130_fd_sc_hd__o211ai_2
*I *1275:A2_N I *D sky130_fd_sc_hd__o2bb2ai_2
*I *1575:X O *D sky130_fd_sc_hd__buf_6
*CAP
1 *1262:A 4.99526e-05
2 *1258:A2 0.000201427
3 *1260:A1_N 0.000112985
4 *1259:C1 9.94693e-05
5 *1263:C1 0.000289431
6 *1275:A2_N 0.000137969
7 *1575:X 3.29541e-05
8 *669:50 0.000381974
9 *669:39 0.000316166
10 *669:33 0.000488519
11 *669:6 0.000170923
12 *1247:A *1275:A2_N 0.000227532
13 *1258:A1 *1258:A2 0.000102902
14 *1258:A1 *1260:A1_N 0.000397924
15 *1258:B1_N *1260:A1_N 0.000187768
16 *1259:B1 *1259:C1 6.05161e-06
17 *1261:A *1275:A2_N 0.000129347
18 *1261:A *669:6 4.72917e-05
19 *1262:B *1275:A2_N 9.80173e-05
20 *1263:A1 *1262:A 0.000129868
21 *1263:A2 *1275:A2_N 2.39779e-05
22 *1263:A2 *669:33 3.18676e-05
23 *1265:A *1258:A2 9.25014e-06
24 *1670:A *1258:A2 4.80729e-05
25 *1670:A *669:39 0.000128154
26 *1670:A *669:50 0.000191163
27 *230:10 *1275:A2_N 5.80706e-06
28 *231:8 *1275:A2_N 0
29 *233:10 *1275:A2_N 1.02504e-05
30 *233:14 *1275:A2_N 0.000128154
31 *241:35 *1258:A2 2.49484e-05
32 *241:35 *1262:A 0.000202835
33 *241:35 *669:39 6.51946e-05
34 *241:35 *669:50 0.000100969
35 *246:37 *1262:A 4.00025e-05
36 *549:6 *1275:A2_N 7.17235e-05
*RES
1 *1575:X *669:6 10.2464 
2 *669:6 *1275:A2_N 23.2643 
3 *669:6 *1263:C1 9.3 
4 *1263:C1 *669:33 13.5321 
5 *669:33 *669:39 7.5 
6 *669:39 *1259:C1 15.1571 
7 *669:39 *669:50 2.55357 
8 *669:50 *1260:A1_N 18.05 
9 *669:50 *1258:A2 17.9429 
10 *669:33 *1262:A 20.8536 
*END

*D_NET *670 0.00380646
*CONN
*I *1599:A I *D sky130_fd_sc_hd__buf_2
*I *1246:C1 I *D sky130_fd_sc_hd__o211ai_4
*I *1248:A2_N I *D sky130_fd_sc_hd__o2bb2ai_4
*I *1249:C1 I *D sky130_fd_sc_hd__o211ai_2
*I *1244:A2_N I *D sky130_fd_sc_hd__o2bb2ai_4
*I *1576:X O *D sky130_fd_sc_hd__buf_6
*CAP
1 *1599:A 0
2 *1246:C1 0.000163652
3 *1248:A2_N 0
4 *1249:C1 5.93685e-05
5 *1244:A2_N 7.1297e-05
6 *1576:X 0.000132208
7 *670:35 8.0858e-05
8 *670:31 0.000289767
9 *670:20 0.000397758
10 *670:16 0.000354044
11 *1246:C1 *1257:A2 0
12 *670:20 *1257:A2 0
13 *670:20 *680:39 0.000145753
14 *670:20 *680:47 4.49293e-05
15 *670:20 *733:33 9.77024e-05
16 *670:31 *1257:A2 0
17 *1241:A *670:20 1.77672e-05
18 *1244:A1_N *1244:A2_N 0.000186662
19 *1246:A2 *1246:C1 0
20 *1246:B1 *1246:C1 0.000106542
21 *1246:B1 *670:31 7.8327e-05
22 *1249:B1 *1249:C1 0.000360894
23 *1249:B1 *670:35 8.57023e-05
24 *1277:A1 *670:16 0.000187643
25 *1633:A *670:16 5.33005e-05
26 *126:6 *670:16 4.99429e-05
27 *126:23 *670:16 0.00018372
28 *131:24 *670:16 0.000374655
29 *207:25 *670:20 0
30 *211:20 *670:20 5.58941e-05
31 *217:10 *670:20 0
32 *217:10 *670:31 0
33 *225:10 *1246:C1 0
34 *228:20 *1249:C1 0.000191356
35 *228:20 *670:35 3.67142e-05
*RES
1 *1576:X *670:16 15.2018 
2 *670:16 *670:20 9.48214 
3 *670:20 *1244:A2_N 15.5679 
4 *670:20 *670:31 2.25 
5 *670:31 *670:35 5.44643 
6 *670:35 *1249:C1 12.7107 
7 *670:35 *1248:A2_N 9.3 
8 *670:31 *1246:C1 17.1929 
9 *670:16 *1599:A 9.3 
*END

*D_NET *671 0.00512846
*CONN
*I *1105:B1 I *D sky130_fd_sc_hd__a32o_2
*I *1107:D1 I *D sky130_fd_sc_hd__o2111ai_4
*I *1682:A I *D sky130_fd_sc_hd__buf_6
*I *1106:D1 I *D sky130_fd_sc_hd__o2111a_2
*I *1577:X O *D sky130_fd_sc_hd__buf_6
*CAP
1 *1105:B1 0.000282744
2 *1107:D1 0.000143
3 *1682:A 3.82418e-05
4 *1106:D1 3.15136e-05
5 *1577:X 0.000640324
6 *671:23 0.000524644
7 *671:12 0.000374915
8 *671:10 0.000923069
9 *671:10 *1052:D 0.000121573
10 *671:10 *1058:C 2.49388e-05
11 *1051:B2 *671:10 0.000145753
12 *1054:C *671:10 6.40986e-05
13 *1055:A2 *671:10 8.56716e-05
14 *1055:C1 *671:10 0.000150625
15 *1057:B1 *671:10 2.87566e-05
16 *1073:A *1105:B1 0
17 *1104:A2 *1107:D1 0.000175526
18 *1105:A1 *1105:B1 0
19 *1105:B2 *1105:B1 0.000195555
20 *1105:B2 *1107:D1 0
21 *1106:A1 *1682:A 0
22 *1106:A1 *671:23 0.000178847
23 *1106:B1 *671:23 4.74645e-05
24 *1106:C1 *1106:D1 6.05161e-06
25 *1106:C1 *671:23 5.74499e-06
26 *1107:A1 *1105:B1 0.000185304
27 *1125:A1 *1105:B1 5.44172e-05
28 *1125:B1 *1105:B1 9.25014e-06
29 *37:10 *671:10 0
30 *80:14 *671:10 9.90431e-05
31 *84:12 *1105:B1 3.38136e-05
32 *523:34 *1107:D1 1.32552e-05
33 *523:34 *671:23 4.62969e-05
34 *527:10 *671:10 7.73662e-05
35 *528:22 *671:10 6.66939e-05
36 *528:33 *671:10 6.8646e-06
37 *529:10 *1105:B1 3.34366e-05
38 *529:10 *671:10 0.00012401
39 *530:10 *671:10 7.67315e-05
40 *558:67 *671:10 0.000112916
41 *627:23 *1107:D1 0
42 *643:12 *671:10 0
*RES
1 *1577:X *671:10 29.4429 
2 *671:10 *671:12 4.5 
3 *671:12 *1106:D1 9.83571 
4 *671:12 *671:23 5.78571 
5 *671:23 *1682:A 10.0321 
6 *671:23 *1107:D1 21.0857 
7 *671:10 *1105:B1 19.9429 
*END

*D_NET *672 0.00567298
*CONN
*I *1205:B2 I *D sky130_fd_sc_hd__o22ai_4
*I *1652:A I *D sky130_fd_sc_hd__buf_2
*I *1204:A1 I *D sky130_fd_sc_hd__o21bai_2
*I *1210:A1 I *D sky130_fd_sc_hd__o211ai_4
*I *1651:A I *D sky130_fd_sc_hd__buf_2
*I *1578:X O *D sky130_fd_sc_hd__buf_6
*CAP
1 *1205:B2 0.000246673
2 *1652:A 0.000457467
3 *1204:A1 0.000571068
4 *1210:A1 0.000246673
5 *1651:A 3.89139e-05
6 *1578:X 0.000377872
7 *672:29 0.00118472
8 *672:20 0.000495139
9 *1205:B2 *703:8 0.000266473
10 *1205:B2 *717:12 0.00011016
11 *1651:A *1198:B 5.50313e-05
12 *1652:A *694:60 0.000208375
13 *672:29 *717:12 0
14 *1196:B1 *1652:A 4.60235e-05
15 *1204:A2 *1204:A1 3.93346e-05
16 *1204:B1_N *1204:A1 2.28598e-05
17 *1204:B1_N *672:20 0
18 *1204:B1_N *672:29 0
19 *1206:A4 *672:20 0.000177234
20 *1208:A *1204:A1 2.60984e-05
21 *1208:B *1204:A1 0.000273443
22 *1208:B *672:29 0
23 *1208:C *1652:A 0
24 *1208:C *672:29 0
25 *1209:B1 *672:20 0
26 *1227:B2 *1652:A 9.90367e-05
27 *1612:A *1652:A 0.00026828
28 *172:8 *672:20 0
29 *172:8 *672:29 0
30 *174:10 *672:20 0
31 *174:30 *672:20 0
32 *181:6 *1205:B2 0.000310768
33 *181:21 *672:29 0.00015134
34 *182:19 *672:20 0
*RES
1 *1578:X *1651:A 19.5464 
2 *1578:X *672:20 18.7821 
3 *672:20 *1210:A1 13.8 
4 *672:20 *672:29 3.16071 
5 *672:29 *1204:A1 21.4786 
6 *672:29 *1652:A 22.1036 
7 *1210:A1 *1205:B2 25.0286 
*END

*D_NET *673 0.018092
*CONN
*I *1167:A2 I *D sky130_fd_sc_hd__o22ai_2
*I *1163:A2 I *D sky130_fd_sc_hd__o211ai_2
*I *1203:A2 I *D sky130_fd_sc_hd__o211ai_2
*I *1286:A2 I *D sky130_fd_sc_hd__o211ai_2
*I *1288:A2 I *D sky130_fd_sc_hd__o22a_2
*I *1342:A2 I *D sky130_fd_sc_hd__o21a_2
*I *1349:A1_N I *D sky130_fd_sc_hd__a2bb2oi_2
*I *1350:B1 I *D sky130_fd_sc_hd__o2bb2ai_2
*I *1444:B1 I *D sky130_fd_sc_hd__o2bb2a_2
*I *1402:B1 I *D sky130_fd_sc_hd__o2bb2ai_2
*I *1504:X O *D sky130_fd_sc_hd__buf_2
*CAP
1 *1167:A2 0
2 *1163:A2 0.000313934
3 *1203:A2 1.69531e-05
4 *1286:A2 0
5 *1288:A2 0
6 *1342:A2 0
7 *1349:A1_N 0
8 *1350:B1 0.000216035
9 *1444:B1 0
10 *1402:B1 0.000238063
11 *1504:X 0.00018508
12 *673:138 0.000779853
13 *673:125 0.00136493
14 *673:100 0.0010098
15 *673:48 0.00056061
16 *673:36 0.000605352
17 *673:34 0.000639213
18 *673:28 0.00073114
19 *673:18 0.000837442
20 *673:8 0.00099157
21 *1163:A2 *1160:A1 5.52238e-05
22 *1163:A2 *1162:D 5.33005e-05
23 *1163:A2 *708:50 3.06511e-05
24 *1163:A2 *708:65 0.000158376
25 *1203:A2 *1206:A1 5.33005e-05
26 *1203:A2 *1206:A3 5.33005e-05
27 *1402:B1 *1403:C 0.00020099
28 *673:18 *698:44 0.000215108
29 *673:28 *710:31 7.58841e-05
30 *673:48 *710:10 1.31235e-05
31 *673:48 *716:30 9.32943e-05
32 *673:125 *1198:A 0.000303362
33 *673:125 *698:63 0.000222397
34 *673:125 *698:84 2.24646e-05
35 *673:125 *711:26 0.000540582
36 *673:138 *700:22 0.000312022
37 *673:138 *703:83 0.000346507
38 *673:138 *717:12 0.000522227
39 *1159:B1 *673:138 0.000175512
40 *1160:B2 *1163:A2 5.52238e-05
41 *1162:A *1163:A2 5.96516e-05
42 *1163:A1 *1163:A2 0.000101761
43 *1167:B2 *673:138 2.37761e-05
44 *1173:C *1163:A2 0.000188891
45 *1199:A2 *673:125 0.000170459
46 *1203:B1 *673:125 0.000148707
47 *1205:A2 *673:125 0.000145406
48 *1205:A2 *673:138 0.000172925
49 *1206:A4 *673:18 2.60122e-05
50 *1206:A4 *673:100 4.98055e-06
51 *1208:B *673:138 7.72009e-05
52 *1286:A1 *673:18 3.50409e-05
53 *1288:B1 *673:18 0.000137639
54 *1307:A *673:34 5.50052e-05
55 *1342:A1 *673:28 7.58841e-05
56 *1342:B1 *673:28 5.89471e-05
57 *1342:B1 *673:34 0.000100165
58 *1350:A2_N *673:34 5.80706e-06
59 *1350:A2_N *673:36 6.09572e-05
60 *1350:A2_N *673:48 2.61337e-05
61 *1350:B2 *1350:B1 0.000260333
62 *1350:B2 *673:36 3.75052e-05
63 *1350:B2 *673:48 1.19402e-05
64 *1351:A *1350:B1 2.32013e-05
65 *1353:B1 *673:34 1.78393e-05
66 *1404:A2 *673:48 9.6087e-05
67 *1443:D *1402:B1 0.000397472
68 *1444:A1_N *1402:B1 0.000110381
69 *1444:A2_N *1402:B1 2.03635e-05
70 *1444:B2 *1402:B1 5.52238e-05
71 *1502:A *673:138 5.59013e-05
72 *1504:A *673:8 0.000267377
73 *1600:A *673:34 6.48098e-05
74 *136:15 *673:138 1.27784e-05
75 *257:12 *673:8 5.52238e-05
76 *257:12 *673:100 0.000150257
77 *260:10 *673:28 1.67239e-05
78 *283:10 *673:138 5.51502e-05
79 *294:39 *1163:A2 4.98055e-06
80 *305:25 *673:28 9.15842e-06
81 *326:72 *673:34 0.000105639
82 *326:72 *673:36 4.1331e-06
83 *329:8 *673:34 7.30056e-05
84 *334:20 *673:34 0.000183711
85 *335:24 *1402:B1 0.000238692
86 *335:24 *673:48 0.000356028
87 *533:27 *1163:A2 9.46766e-05
88 *535:25 *1163:A2 5.33005e-05
89 *555:18 *673:18 0.000471419
90 *562:103 *673:125 0.000218741
91 *588:29 *673:125 0.000666709
92 *608:96 *673:18 0.000122523
93 *665:35 *673:18 2.40868e-05
94 *665:35 *673:100 8.84345e-05
*RES
1 *1504:X *673:8 17.2107 
2 *673:8 *673:18 15.625 
3 *673:18 *673:28 11.8214 
4 *673:28 *673:34 16.375 
5 *673:34 *673:36 1.64286 
6 *673:36 *673:48 11.8571 
7 *673:48 *1402:B1 26.0143 
8 *673:48 *1444:B1 9.3 
9 *673:36 *1350:B1 17.1214 
10 *673:34 *1349:A1_N 13.8 
11 *673:28 *1342:A2 9.3 
12 *673:18 *1288:A2 9.3 
13 *673:8 *673:100 7.69643 
14 *673:100 *1286:A2 9.3 
15 *673:100 *673:125 35.1071 
16 *673:125 *1203:A2 14.3357 
17 *673:125 *673:138 19.1964 
18 *673:138 *1163:A2 26.3179 
19 *673:138 *1167:A2 9.3 
*END

*D_NET *674 0.0185923
*CONN
*I *1152:B1 I *D sky130_fd_sc_hd__o2bb2ai_2
*I *1056:A1 I *D sky130_fd_sc_hd__o22ai_4
*I *1109:A1 I *D sky130_fd_sc_hd__o21ai_2
*I *1316:A1 I *D sky130_fd_sc_hd__o21a_2
*I *1220:A1_N I *D sky130_fd_sc_hd__a2bb2oi_4
*I *1217:A1 I *D sky130_fd_sc_hd__o211ai_2
*I *1303:A1 I *D sky130_fd_sc_hd__o22a_4
*I *1301:A1 I *D sky130_fd_sc_hd__o211a_4
*I *1373:A1 I *D sky130_fd_sc_hd__o31a_2
*I *1371:A1 I *D sky130_fd_sc_hd__o21a_2
*I *1505:X O *D sky130_fd_sc_hd__clkbuf_4
*CAP
1 *1152:B1 0.000615913
2 *1056:A1 8.32754e-05
3 *1109:A1 0.000543084
4 *1316:A1 0
5 *1220:A1_N 0
6 *1217:A1 0
7 *1303:A1 0
8 *1301:A1 0.000545606
9 *1373:A1 0.000499239
10 *1371:A1 1.69531e-05
11 *1505:X 1.69531e-05
12 *674:108 0.00172805
13 *674:102 0.00222574
14 *674:91 0.000824183
15 *674:74 0.000435208
16 *674:63 0.000280761
17 *674:37 0.000822701
18 *674:31 0.000578303
19 *674:16 0.000638856
20 *1109:A1 *1053:A 0.000235242
21 *1109:A1 *705:58 5.33005e-05
22 *1109:A1 *705:60 0.000186662
23 *1152:B1 *1615:A 0.00044852
24 *1152:B1 *694:60 7.43045e-06
25 *1301:A1 *1299:A 0.00012401
26 *1301:A1 *1299:D 7.6021e-05
27 *1301:A1 *1306:D 6.96806e-05
28 *1301:A1 *1372:A2 1.98839e-05
29 *1301:A1 *1372:A3 0.000224583
30 *1301:A1 *1573:A 0
31 *1301:A1 *683:31 0
32 *1301:A1 *732:6 5.33005e-05
33 *674:37 *683:31 3.34295e-05
34 *674:37 *683:46 0.000271526
35 *674:37 *683:59 0
36 *674:37 *719:25 0
37 *674:63 *1211:B 4.27935e-05
38 *674:63 *1221:A1 0.000401945
39 *674:63 *1617:A 0.000230475
40 *674:63 *683:59 0
41 *674:63 *719:25 0
42 *674:74 *1211:B 0.000273962
43 *674:74 *1221:A1 8.76257e-05
44 *674:74 *683:59 6.8646e-06
45 *674:91 *1211:B 1.10632e-05
46 *674:108 *1534:A 1.58163e-05
47 *674:108 *1672:A 0
48 *674:108 *686:55 0
49 *674:108 *693:10 0
50 *674:108 *694:60 5.39166e-06
51 *674:108 *705:80 0.000193118
52 *1053:B *1109:A1 5.23057e-05
53 *1053:C *1109:A1 5.62793e-05
54 *1056:A2 *1056:A1 8.16036e-05
55 *1056:A2 *674:108 3.57844e-05
56 *1057:A2 *674:108 0.000145753
57 *1102:A1 *674:108 0
58 *1109:B1 *1109:A1 0.00010096
59 *1149:D *674:108 0.000124534
60 *1152:B2 *1152:B1 7.51141e-05
61 *1153:D1 *1152:B1 0.000122918
62 *1176:A1 *674:108 0.000119159
63 *1181:B1 *674:108 5.76092e-05
64 *1217:C1 *674:74 8.61371e-05
65 *1217:C1 *674:91 4.6025e-06
66 *1222:B *674:102 5.09751e-05
67 *1222:D *674:102 0
68 *1225:A *674:102 7.17932e-05
69 *1230:B *674:102 8.68569e-05
70 *1230:B *674:108 0.000874409
71 *1299:B *1301:A1 1.08359e-05
72 *1316:A2 *674:91 0.00016185
73 *1320:A2 *674:102 0
74 *1372:A1 *1301:A1 1.97617e-05
75 *1373:A2 *1373:A1 2.60117e-05
76 *1535:A *674:102 0
77 *1535:A *674:108 3.40128e-05
78 *1536:A *1301:A1 9.41642e-05
79 *1541:A *1301:A1 3.73361e-05
80 *35:10 *1056:A1 0
81 *76:12 *674:108 0.00015234
82 *81:23 *674:108 0.000100481
83 *130:55 *674:108 5.91694e-05
84 *189:6 *674:63 6.88059e-05
85 *189:6 *674:74 2.14658e-05
86 *191:31 *674:91 4.99283e-06
87 *272:12 *674:37 6.53781e-05
88 *274:12 *674:37 7.2754e-05
89 *276:19 *1301:A1 0
90 *277:68 *1371:A1 5.33005e-05
91 *294:45 *674:108 0.000271108
92 *337:19 *674:74 1.19402e-05
93 *337:36 *674:74 1.27784e-05
94 *355:22 *1301:A1 4.25716e-05
95 *527:10 *1109:A1 5.52238e-05
96 *560:23 *674:91 5.33293e-05
97 *560:23 *674:102 9.0105e-05
98 *574:10 *1371:A1 5.33005e-05
99 *574:10 *1373:A1 0.00057628
100 *574:10 *674:31 0.000131439
101 *580:10 *674:108 7.6021e-05
102 *622:8 *674:108 0.000906725
103 *622:17 *674:108 5.58941e-05
104 *622:38 *674:108 0.000198698
105 *646:56 *1056:A1 0
*RES
1 *1505:X *1371:A1 19.1357 
2 *1505:X *674:16 9.3 
3 *674:16 *1373:A1 16.3179 
4 *674:16 *674:31 6.39286 
5 *674:31 *674:37 10.5536 
6 *674:37 *1301:A1 28.9786 
7 *674:37 *1303:A1 9.3 
8 *674:31 *674:63 9.66071 
9 *674:63 *1217:A1 9.3 
10 *674:63 *674:74 8.60714 
11 *674:74 *1220:A1_N 13.8 
12 *674:74 *674:91 9.60233 
13 *674:91 *1316:A1 13.8 
14 *674:91 *674:102 13.7321 
15 *674:102 *674:108 36.3393 
16 *674:108 *1109:A1 24.6214 
17 *674:108 *1056:A1 15.7464 
18 *674:102 *1152:B1 18.6214 
*END

*D_NET *675 0.0223987
*CONN
*I *998:A I *D sky130_fd_sc_hd__and2_2
*I *1142:A1 I *D sky130_fd_sc_hd__a22o_2
*I *1143:C I *D sky130_fd_sc_hd__nand4_2
*I *1113:A1 I *D sky130_fd_sc_hd__a22o_4
*I *1114:C I *D sky130_fd_sc_hd__nand4_4
*I *1134:A1 I *D sky130_fd_sc_hd__a31oi_2
*I *989:A I *D sky130_fd_sc_hd__inv_2
*I *1257:A3 I *D sky130_fd_sc_hd__a31o_2
*I *1133:A1 I *D sky130_fd_sc_hd__a31o_2
*I *1145:A1 I *D sky130_fd_sc_hd__a211o_4
*I *1506:X O *D sky130_fd_sc_hd__buf_4
*CAP
1 *998:A 0
2 *1142:A1 0
3 *1143:C 0
4 *1113:A1 0.000171745
5 *1114:C 8.79302e-06
6 *1134:A1 0.000198718
7 *989:A 5.9995e-05
8 *1257:A3 0
9 *1133:A1 0.000624476
10 *1145:A1 5.68107e-05
11 *1506:X 0.00067055
12 *675:143 0.000327459
13 *675:132 0.000416477
14 *675:119 0.000483399
15 *675:97 0.000763568
16 *675:82 0.000443736
17 *675:74 0.000678516
18 *675:70 0.000310049
19 *675:58 0.00111406
20 *675:44 0.0026827
21 *675:18 0.00247112
22 *1113:A1 *1108:A 0.000101545
23 *1133:A1 *1133:A2 1.02504e-05
24 *1133:A1 *1257:A2 3.57366e-05
25 *1134:A1 *1133:A2 3.14193e-05
26 *1134:A1 *684:56 2.28499e-05
27 *1145:A1 *1145:A2 0.00018051
28 *675:18 *701:41 3.93185e-05
29 *675:18 *734:10 8.84757e-05
30 *675:44 *1010:B 9.86146e-05
31 *675:44 *1010:C 9.16173e-05
32 *675:44 *1169:A1 0.000478619
33 *675:44 *686:76 0
34 *675:44 *717:69 0.000100505
35 *675:44 *730:10 0.00107971
36 *675:58 *1138:A1 6.60521e-05
37 *675:58 *1142:A2 1.46576e-05
38 *675:58 *680:121 5.52238e-05
39 *675:58 *733:83 9.10431e-06
40 *675:70 *1143:D 5.52238e-05
41 *675:70 *684:115 6.51946e-05
42 *675:74 *1145:A2 0.000146474
43 *675:74 *684:43 9.25014e-06
44 *675:82 *1145:A2 0.000330289
45 *675:119 *684:43 0.00020042
46 *675:119 *684:52 0.000760929
47 *675:132 *684:52 0.000176234
48 *675:132 *684:80 4.49293e-05
49 *998:B *675:18 4.34543e-05
50 *1001:A *675:44 5.52238e-05
51 *1001:B *675:18 5.33005e-05
52 *1001:B *675:44 6.22009e-05
53 *1006:A *675:18 0.000121573
54 *1008:A3 *675:44 0
55 *1009:B *675:18 0
56 *1019:A_N *675:18 5.52238e-05
57 *1019:B *675:18 3.30099e-06
58 *1019:C *675:18 1.76204e-05
59 *1095:B2 *675:44 0.000359997
60 *1113:B1 *1113:A1 2.58997e-05
61 *1114:A *1113:A1 2.28598e-05
62 *1138:B2 *675:74 9.10431e-06
63 *1139:B1 *675:82 5.33005e-05
64 *1141:C *675:74 1.721e-05
65 *1142:B1 *675:58 5.52302e-05
66 *1142:B1 *675:70 0.000101545
67 *1145:C1 *675:82 9.95494e-05
68 *1146:A *675:58 0.000105607
69 *1146:B *675:58 3.34295e-05
70 *1169:C1 *675:44 8.43535e-06
71 *1185:A1 *989:A 0.000139907
72 *1185:A1 *1113:A1 0.000150625
73 *1185:A2 *675:119 9.25014e-06
74 *1185:A2 *675:132 0.000211913
75 *1250:B1 *675:58 1.18064e-05
76 *1251:A2 *675:44 0
77 *1251:A3 *675:44 0.000140933
78 *1251:B1 *675:58 4.02462e-05
79 *1256:B1 *675:119 0.000367396
80 *1257:A1 *675:82 9.74783e-05
81 *1260:B1 *1133:A1 7.76647e-05
82 *1260:B2 *1133:A1 3.14078e-05
83 *1260:B2 *675:97 9.15804e-05
84 *1274:A1 *1145:A1 3.99614e-06
85 *1524:A *675:18 0.000100831
86 *1645:A *675:44 5.52302e-05
87 *1647:A *1133:A1 0
88 *65:14 *675:44 0.00027587
89 *74:14 *675:70 2.24195e-05
90 *90:28 *1113:A1 0.000153947
91 *90:28 *1114:C 1.04232e-05
92 *90:28 *675:143 2.89114e-05
93 *90:30 *1134:A1 0.000357048
94 *90:30 *675:143 8.86413e-05
95 *115:10 *675:97 1.76135e-05
96 *115:23 *675:97 6.12236e-05
97 *115:31 *1145:A1 4.05411e-05
98 *115:31 *675:82 1.00073e-05
99 *116:26 *675:82 0.000219711
100 *118:14 *675:70 0.000124471
101 *118:14 *675:74 0.000168939
102 *118:14 *675:119 0.000213635
103 *119:8 *675:58 1.98839e-05
104 *120:6 *675:70 2.89016e-05
105 *123:8 *675:58 1.58163e-05
106 *154:16 *675:58 5.41494e-05
107 *156:10 *675:58 5.33005e-05
108 *156:27 *675:58 0.000353073
109 *158:14 *675:44 0
110 *165:14 *1133:A1 0.000280098
111 *226:10 *675:70 1.08359e-05
112 *231:8 *675:97 0
113 *231:32 *1133:A1 0
114 *232:32 *1133:A1 5.58941e-05
115 *232:32 *675:97 0
116 *233:6 *1133:A1 0.000186669
117 *246:18 *1133:A1 0
118 *369:21 *675:18 0
119 *534:30 *675:44 0.00018372
120 *592:8 *675:44 0.000490416
121 *653:26 *675:18 0.000110117
122 *655:31 *675:44 9.94317e-05
123 *655:53 *675:44 5.33005e-05
*RES
1 *1506:X *675:18 29.2286 
2 *675:18 *675:44 49.75 
3 *675:44 *675:58 23.5714 
4 *675:58 *675:70 13.7857 
5 *675:70 *675:74 7.05357 
6 *675:74 *675:82 12.1607 
7 *675:82 *1145:A1 11.3893 
8 *675:82 *675:97 11.5536 
9 *675:97 *1133:A1 31.1571 
10 *675:97 *1257:A3 9.3 
11 *675:74 *675:119 12.2679 
12 *675:119 *989:A 15.1571 
13 *675:119 *675:132 7.35714 
14 *675:132 *1134:A1 13.9429 
15 *675:132 *675:143 2.60714 
16 *675:143 *1114:C 9.72857 
17 *675:143 *1113:A1 22.425 
18 *675:70 *1143:C 9.3 
19 *675:58 *1142:A1 9.3 
20 *675:18 *998:A 9.3 
*END

*D_NET *676 0.00670804
*CONN
*I *1692:A I *D sky130_fd_sc_hd__buf_2
*I *1518:A I *D sky130_fd_sc_hd__buf_8
*I *1554:X O *D sky130_fd_sc_hd__buf_8
*CAP
1 *1692:A 7.64436e-05
2 *1518:A 0
3 *1554:X 0.00259579
4 *676:16 0.000394413
5 *676:12 0.00291376
6 *1692:A *691:16 7.33085e-05
7 *676:16 *691:16 5.94737e-05
8 *676:16 *713:37 0
9 *1354:A1 *676:16 6.80677e-05
10 *1354:B1 *1692:A 0.000212627
11 *1354:B1 *676:16 3.34366e-05
12 *1554:A *676:12 0
13 *608:36 *676:16 0.000268536
14 *645:18 *1692:A 1.21859e-05
*RES
1 *1554:X *676:12 48.925 
2 *676:12 *676:16 11 
3 *676:16 *1518:A 13.8 
4 *676:16 *1692:A 16.6571 
*END

*D_NET *677 0.00444549
*CONN
*I *1003:A I *D sky130_fd_sc_hd__and4_4
*I *1002:B2 I *D sky130_fd_sc_hd__a22oi_2
*I *1702:A I *D sky130_fd_sc_hd__buf_2
*I *1701:A I *D sky130_fd_sc_hd__buf_2
*I *1507:X O *D sky130_fd_sc_hd__buf_6
*CAP
1 *1003:A 7.31034e-05
2 *1002:B2 0
3 *1702:A 9.99718e-05
4 *1701:A 0
5 *1507:X 0.000167665
6 *677:23 9.99718e-05
7 *677:21 0.000464458
8 *677:8 0.00055902
9 *1003:A *1003:D 5.41797e-05
10 *1003:A *699:27 4.46186e-06
11 *1702:A *1002:A1 9.41642e-05
12 *1702:A *1003:C 2.28499e-05
13 *677:8 *999:A 0
14 *677:8 *699:27 0.000357541
15 *677:21 *699:27 0.000915063
16 *677:21 *734:132 0
17 *1008:B1 *677:8 0.000239389
18 *1008:B1 *677:21 4.56437e-05
19 *1499:A2 *677:21 0.000344925
20 *1540:A *677:21 0.000102184
21 *1579:A *1003:A 0
22 *1587:A *677:21 4.06782e-05
23 *1588:A *1003:A 0.000134788
24 *1588:A *677:21 0.000549422
25 *641:46 *677:21 2.58997e-05
26 *653:70 *677:8 5.01117e-05
*RES
1 *1507:X *677:8 18.4786 
2 *677:8 *1701:A 13.8 
3 *677:8 *677:21 15.3571 
4 *677:21 *677:23 4.5 
5 *677:23 *1702:A 11.0679 
6 *677:23 *1002:B2 9.3 
7 *677:21 *1003:A 15.7464 
*END

*D_NET *678 0.0141301
*CONN
*I *1304:A2 I *D sky130_fd_sc_hd__a22o_2
*I *1295:B I *D sky130_fd_sc_hd__and2_2
*I *997:A I *D sky130_fd_sc_hd__inv_2
*I *1412:D I *D sky130_fd_sc_hd__nand4_2
*I *1359:B1 I *D sky130_fd_sc_hd__a22o_2
*I *1355:B I *D sky130_fd_sc_hd__nand2_2
*I *1357:D I *D sky130_fd_sc_hd__and4_2
*I *1466:A2 I *D sky130_fd_sc_hd__a31o_2
*I *1497:B1 I *D sky130_fd_sc_hd__o311ai_2
*I *1465:B1 I *D sky130_fd_sc_hd__a22oi_2
*I *1508:X O *D sky130_fd_sc_hd__clkbuf_4
*CAP
1 *1304:A2 5.21345e-05
2 *1295:B 0.000193534
3 *997:A 3.28826e-05
4 *1412:D 0.000242348
5 *1359:B1 0.000219257
6 *1355:B 1.68118e-05
7 *1357:D 9.9821e-05
8 *1466:A2 0
9 *1497:B1 0.000248921
10 *1465:B1 0.000459678
11 *1508:X 0
12 *678:126 0.000498316
13 *678:109 0.00104426
14 *678:82 0.00202125
15 *678:58 0.000266026
16 *678:47 0.000170625
17 *678:38 8.32393e-05
18 *678:10 0.00082211
19 *678:8 0.00040253
20 *678:4 0.0012668
21 *1295:B *1295:A 0.000177791
22 *1304:A2 *1295:A 1.46576e-05
23 *1355:B *1355:A 9.84673e-05
24 *1359:B1 *1359:A1 3.50746e-05
25 *1359:B1 *1359:B2 3.60673e-05
26 *1359:B1 *715:27 5.99365e-05
27 *1412:D *1412:C 5.52238e-05
28 *1412:D *685:16 0.000113073
29 *1412:D *718:25 2.15539e-05
30 *1465:B1 *712:42 4.56279e-06
31 *1465:B1 *715:27 0.000158137
32 *678:10 *715:27 4.59619e-05
33 *678:47 *715:27 1.53675e-05
34 *678:58 *715:27 1.48252e-05
35 *678:109 *1501:A 0.000895689
36 *678:126 *1501:A 0.000141941
37 *1358:A *1359:B1 6.0178e-05
38 *1358:A *678:38 8.08608e-06
39 *1358:A *678:47 2.11693e-05
40 *1358:A *678:58 1.50223e-05
41 *1361:A2 *678:109 8.60897e-05
42 *1407:B *678:109 0.000216755
43 *1407:C *1412:D 0
44 *1412:A *1412:D 1.76135e-05
45 *1412:B *1412:D 3.34366e-05
46 *1413:B *1412:D 9.90367e-05
47 *1414:A *678:82 4.7201e-05
48 *1414:C *1412:D 3.75868e-05
49 *1444:B2 *678:126 1.35465e-05
50 *1464:B1 *678:82 1.51881e-05
51 *1464:B1 *678:109 1.12713e-05
52 *1467:A_N *1497:B1 5.52238e-05
53 *1468:A *1465:B1 0.000117245
54 *1468:A *678:8 0.000351482
55 *1468:A *678:82 0.000182806
56 *1487:A *1465:B1 5.982e-05
57 *1487:A *1497:B1 1.40306e-05
58 *1497:A1 *1465:B1 3.10819e-05
59 *1497:A1 *678:10 0.000161681
60 *1497:A3 *1497:B1 2.21991e-05
61 *326:18 *1295:B 9.84729e-05
62 *334:20 *1295:B 4.63305e-05
63 *334:20 *1304:A2 1.46576e-05
64 *336:45 *1355:B 9.84673e-05
65 *336:45 *1357:D 0.000140243
66 *337:8 *678:109 9.58632e-05
67 *337:19 *997:A 2.72055e-05
68 *348:6 *678:126 4.86074e-05
69 *348:10 *1304:A2 4.66056e-05
70 *348:10 *678:126 9.96553e-05
71 *348:111 *678:82 0.000155074
72 *348:111 *678:109 0.000100165
73 *398:10 *678:82 0.00034595
74 *426:29 *678:10 0.000124714
75 *426:29 *678:38 9.16818e-05
76 *436:12 *1465:B1 0.00057113
77 *455:6 *1497:B1 2.47833e-05
78 *618:37 *678:10 0.000148078
79 *618:37 *678:38 0.000124019
80 *618:37 *678:47 1.00887e-05
81 *618:54 *678:47 1.17134e-05
*RES
1 *1508:X *678:4 9.3 
2 *678:4 *678:8 7.91071 
3 *678:8 *678:10 3.76786 
4 *678:10 *1465:B1 25.2821 
5 *678:10 *1497:B1 17.7643 
6 *678:8 *678:38 1.64286 
7 *678:38 *1466:A2 13.8 
8 *678:38 *678:47 1.03571 
9 *678:47 *1357:D 15.1571 
10 *678:47 *678:58 0.732143 
11 *678:58 *1355:B 14.7464 
12 *678:58 *1359:B1 18.55 
13 *678:4 *678:82 13.2679 
14 *678:82 *1412:D 23.5679 
15 *678:82 *678:109 14.8036 
16 *678:109 *997:A 19.0321 
17 *678:109 *678:126 9.75 
18 *678:126 *1295:B 17.7821 
19 *678:126 *1304:A2 14.6795 
*END

*D_NET *679 0.00832478
*CONN
*I *1443:B I *D sky130_fd_sc_hd__and4_2
*I *1306:D I *D sky130_fd_sc_hd__nand4_2
*I *1372:A2 I *D sky130_fd_sc_hd__a31o_2
*I *1356:B I *D sky130_fd_sc_hd__nand2_2
*I *1447:B1 I *D sky130_fd_sc_hd__a32o_2
*I *1509:X O *D sky130_fd_sc_hd__dlymetal6s4s_1
*CAP
1 *1443:B 7.07982e-05
2 *1306:D 0.000201119
3 *1372:A2 0.000126435
4 *1356:B 0.000108937
5 *1447:B1 0.000139793
6 *1509:X 8.03027e-05
7 *679:50 0.000570885
8 *679:33 0.000518834
9 *679:29 0.00135792
10 *679:8 0.00134065
11 *1356:B *996:A 9.84729e-05
12 *1356:B *1361:A1 0.000139344
13 *1356:B *1501:A 0.00024145
14 *1356:B *712:28 0.000239788
15 *1372:A2 *1372:A3 0.000103882
16 *1372:A2 *732:6 4.08637e-05
17 *1443:B *1443:C 2.89016e-05
18 *1443:B *690:34 0.00018372
19 *1443:B *716:44 6.05161e-06
20 *1447:B1 *1447:B2 2.54295e-05
21 *679:29 *1401:B2 2.89016e-05
22 *679:29 *685:16 4.35421e-05
23 *679:29 *686:12 0
24 *679:29 *687:6 0.000478806
25 *679:29 *690:34 2.07168e-05
26 *679:33 *687:25 0
27 *679:33 *690:55 9.25014e-06
28 *679:50 *996:A 0
29 *1301:A1 *1306:D 6.96806e-05
30 *1301:A1 *1372:A2 1.98839e-05
31 *1304:B2 *679:50 0.000238129
32 *1365:A1 *679:50 2.06178e-05
33 *1372:A1 *1306:D 6.62144e-05
34 *1372:A1 *1372:A2 0.000181703
35 *1401:B1 *679:29 5.52238e-05
36 *1402:B2 *679:33 0.000145649
37 *1407:C *679:29 0.000186155
38 *1412:A *679:29 5.17155e-05
39 *1412:B *679:29 0
40 *275:32 *1306:D 0
41 *277:21 *679:50 0.000143825
42 *337:19 *1306:D 0.000112691
43 *337:19 *679:33 9.10894e-05
44 *337:19 *679:50 0.000508823
45 *348:25 *1306:D 0
46 *387:39 *1447:B1 3.89337e-05
47 *387:39 *679:29 0
48 *388:16 *679:29 2.22043e-05
49 *388:25 *679:29 0.000140368
50 *429:8 *679:29 5.76036e-06
51 *433:6 *1447:B1 2.13202e-05
*RES
1 *1509:X *679:8 14.6839 
2 *679:8 *1447:B1 16.4518 
3 *679:8 *679:29 21.3661 
4 *679:29 *679:33 7.66071 
5 *679:33 *1356:B 18.175 
6 *679:33 *679:50 11.3036 
7 *679:50 *1372:A2 12.8714 
8 *679:50 *1306:D 22.5143 
9 *679:29 *1443:B 11.0679 
*END

*D_NET *680 0.0216234
*CONN
*I *1508:A I *D sky130_fd_sc_hd__clkbuf_4
*I *1240:A2 I *D sky130_fd_sc_hd__a211o_2
*I *1142:A2 I *D sky130_fd_sc_hd__a22o_2
*I *1145:A2 I *D sky130_fd_sc_hd__a211o_4
*I *1143:D I *D sky130_fd_sc_hd__nand4_2
*I *1242:A2_N I *D sky130_fd_sc_hd__o2bb2a_4
*I *1241:B I *D sky130_fd_sc_hd__and4_2
*I *1234:B I *D sky130_fd_sc_hd__nand2_2
*I *1237:B I *D sky130_fd_sc_hd__and3_4
*I *1509:A I *D sky130_fd_sc_hd__dlymetal6s4s_1
*I *1510:X O *D sky130_fd_sc_hd__clkbuf_2
*CAP
1 *1508:A 0
2 *1240:A2 0
3 *1142:A2 2.68424e-06
4 *1145:A2 0.000769725
5 *1143:D 8.23628e-05
6 *1242:A2_N 0.000460539
7 *1241:B 4.1049e-05
8 *1234:B 0
9 *1237:B 0.000155113
10 *1509:A 0.00100134
11 *1510:X 9.00419e-05
12 *680:121 0.00104505
13 *680:111 0.000577736
14 *680:88 0.000924229
15 *680:84 0.000203404
16 *680:73 0.000211296
17 *680:47 0.000423887
18 *680:39 0.00176246
19 *680:27 0.00194484
20 *680:10 0.00159098
21 *1142:A2 *1138:A1 2.22085e-06
22 *1241:B *1241:C 5.52238e-05
23 *1242:A2_N *1242:A1_N 5.33005e-05
24 *1242:A2_N *1516:A 0.00026565
25 *1242:A2_N *692:10 0.000230475
26 *1242:A2_N *733:33 9.71197e-05
27 *680:10 *1510:A 4.46186e-06
28 *680:10 *1562:A 0
29 *680:10 *706:6 5.71472e-05
30 *680:10 *715:27 3.22339e-05
31 *680:27 *1512:A 0
32 *680:27 *1513:A 0
33 *680:27 *681:27 0
34 *680:27 *715:27 0.000425864
35 *680:39 *1296:A 8.56716e-05
36 *680:39 *1357:B 0.000289204
37 *680:39 *681:27 0
38 *680:39 *715:27 0.00124923
39 *680:39 *725:26 2.71248e-05
40 *680:47 *1234:A 0.00010096
41 *680:47 *733:35 5.19835e-05
42 *680:88 *1240:A1 7.8327e-05
43 *680:88 *733:12 1.08359e-05
44 *680:111 *684:115 1.65558e-05
45 *680:111 *733:10 6.14499e-05
46 *680:111 *733:12 9.24491e-05
47 *680:111 *733:83 2.90068e-05
48 *680:121 *1138:A1 0.000240196
49 *1138:B2 *1145:A2 0
50 *1138:B2 *680:121 0
51 *1140:B *680:121 5.33005e-05
52 *1140:C *1143:D 3.57366e-05
53 *1141:C *1145:A2 0.000168939
54 *1141:C *680:121 9.22948e-05
55 *1142:B1 *680:121 3.4855e-05
56 *1145:A1 *1145:A2 0.00018051
57 *1236:A *1237:B 0.00015134
58 *1238:B1 *1237:B 1.24368e-05
59 *1239:A *680:39 6.83482e-05
60 *1240:B1 *680:84 3.99614e-06
61 *1240:C1 *680:84 0
62 *1241:D *1241:B 5.52302e-05
63 *1241:D *680:39 5.90322e-05
64 *1241:D *680:84 8.57023e-05
65 *1242:B1 *1242:A2_N 1.21258e-05
66 *1243:A *680:47 5.71472e-05
67 *1243:B *1241:B 0.000138881
68 *1243:B *680:47 0.000222666
69 *1243:B *680:84 0.000185643
70 *1246:A1 *680:111 0.000197262
71 *1253:A2 *680:111 5.59013e-05
72 *1319:B1 *680:39 7.49239e-05
73 *1319:B2 *680:39 0
74 *1322:B1 *680:39 0.000115611
75 *1324:A1 *680:39 5.94884e-05
76 *1329:A1 *680:39 0.000192195
77 *1362:A2 *680:39 9.5584e-05
78 *1374:A1 *680:39 0.000148196
79 *1376:C *680:39 2.04825e-05
80 *1380:A1 *680:39 0.000128154
81 *1465:A2 *680:27 9.15186e-06
82 *1526:A *1509:A 0.00146339
83 *1631:A *1242:A2_N 6.05161e-06
84 *74:14 *1143:D 1.21289e-05
85 *74:20 *1143:D 1.7859e-05
86 *115:31 *1145:A2 5.19842e-06
87 *116:26 *1145:A2 0.000260574
88 *118:14 *1143:D 2.44318e-05
89 *131:32 *1237:B 0
90 *207:25 *680:88 8.31502e-05
91 *207:25 *680:111 2.26327e-05
92 *207:51 *680:111 7.92975e-05
93 *210:8 *1237:B 1.98839e-05
94 *210:8 *680:47 1.24368e-05
95 *210:34 *680:47 4.08637e-05
96 *211:20 *1237:B 3.93247e-05
97 *211:20 *680:39 3.34783e-05
98 *214:16 *680:39 2.05938e-05
99 *215:10 *1237:B 5.80217e-05
100 *217:10 *680:111 1.50181e-05
101 *219:10 *680:47 0.000268396
102 *219:10 *680:84 3.48705e-05
103 *224:12 *680:111 0.00018567
104 *226:10 *680:111 0.000207762
105 *273:12 *680:39 0.000198542
106 *298:10 *680:39 0
107 *298:19 *680:39 0
108 *307:18 *1237:B 1.74352e-05
109 *355:35 *680:39 4.88223e-05
110 *355:56 *680:39 6.47136e-05
111 *533:50 *680:121 3.17148e-05
112 *571:10 *680:39 0
113 *670:20 *680:39 0.000145753
114 *670:20 *680:47 4.49293e-05
115 *675:58 *1142:A2 1.46576e-05
116 *675:58 *680:121 5.52238e-05
117 *675:70 *1143:D 5.52238e-05
118 *675:74 *1145:A2 0.000146474
119 *675:82 *1145:A2 0.000330289
*RES
1 *1510:X *680:10 15.2196 
2 *680:10 *1509:A 23.8571 
3 *680:10 *680:27 10.9018 
4 *680:27 *680:39 39.0357 
5 *680:39 *680:47 11.5357 
6 *680:47 *1237:B 22.1571 
7 *680:47 *1234:B 9.3 
8 *680:39 *680:73 5.03571 
9 *680:73 *1241:B 10.6571 
10 *680:73 *680:84 3.01786 
11 *680:84 *680:88 6.75 
12 *680:88 *1242:A2_N 23.5679 
13 *680:88 *680:111 14.9464 
14 *680:111 *680:121 9.28571 
15 *680:121 *1143:D 15.5857 
16 *680:121 *1145:A2 25.9429 
17 *680:111 *1142:A2 9.44732 
18 *680:84 *1240:A2 9.3 
19 *680:27 *1508:A 13.8 
*END

*D_NET *681 0.0118397
*CONN
*I *1440:B I *D sky130_fd_sc_hd__and2_2
*I *1621:A I *D sky130_fd_sc_hd__buf_2
*I *1298:B1 I *D sky130_fd_sc_hd__a22o_4
*I *996:A I *D sky130_fd_sc_hd__inv_2
*I *1300:D I *D sky130_fd_sc_hd__nand4_4
*I *1622:A I *D sky130_fd_sc_hd__buf_2
*I *1620:A I *D sky130_fd_sc_hd__buf_2
*I *1511:X O *D sky130_fd_sc_hd__buf_6
*CAP
1 *1440:B 0
2 *1621:A 0.000166251
3 *1298:B1 0.000298818
4 *996:A 0.000221473
5 *1300:D 7.20007e-05
6 *1622:A 0
7 *1620:A 0
8 *1511:X 0.00056943
9 *681:83 0.000269832
10 *681:51 0.00155522
11 *681:37 8.38432e-05
12 *681:31 0.00227824
13 *681:27 0.00193566
14 *681:16 0.00117004
15 *996:A *1299:A 7.69776e-06
16 *996:A *1501:A 0.000100165
17 *996:A *687:25 0.000348967
18 *996:A *720:21 9.02649e-06
19 *996:A *732:29 0.000227059
20 *1300:D *683:31 1.84865e-05
21 *681:16 *1511:A 0
22 *681:16 *1561:A 9.90431e-05
23 *681:16 *689:12 0.00010096
24 *681:16 *689:22 0
25 *681:27 *1440:A 0.000106088
26 *681:27 *1512:A 9.25014e-06
27 *681:83 *1440:A 6.30912e-05
28 *1296:B *1621:A 0
29 *1356:B *996:A 9.84729e-05
30 *1357:C *681:27 0.000220219
31 *1363:B1 *681:83 0.000183711
32 *1365:A1 *996:A 4.19624e-06
33 *1365:A1 *681:51 0
34 *1369:A2 *681:37 9.59532e-06
35 *1399:A *1621:A 7.589e-05
36 *1465:A1 *681:16 5.33005e-05
37 *1466:B1 *681:27 0.000308688
38 *1533:A *681:51 1.4966e-05
39 *1556:A *681:16 6.25702e-05
40 *335:39 *1300:D 0.000182804
41 *337:19 *1298:B1 6.27272e-06
42 *344:14 *681:27 2.11419e-05
43 *344:14 *681:83 0.000138515
44 *348:111 *681:37 1.90936e-05
45 *426:12 *681:83 2.24718e-05
46 *433:22 *681:16 0.00039045
47 *433:22 *681:27 5.52238e-05
48 *555:43 *1298:B1 7.35951e-05
49 *555:43 *681:51 1.48272e-05
50 *564:10 *1621:A 0
51 *564:10 *681:27 2.06791e-05
52 *564:10 *681:83 0.000152342
53 *679:50 *996:A 0
54 *680:27 *681:27 0
55 *680:39 *681:27 0
*RES
1 *1511:X *681:16 28.9964 
2 *681:16 *1620:A 9.3 
3 *681:16 *681:27 17.7589 
4 *681:27 *681:31 5.69107 
5 *681:31 *681:37 8.18679 
6 *681:37 *1622:A 9.3 
7 *681:37 *1300:D 11.0679 
8 *681:31 *681:51 1.7766 
9 *681:51 *996:A 23.2904 
10 *681:51 *1298:B1 18.1103 
11 *681:27 *681:83 8.36607 
12 *681:83 *1621:A 21.1571 
13 *681:83 *1440:B 9.3 
*END

*D_NET *682 0.0030601
*CONN
*I *1560:A I *D sky130_fd_sc_hd__buf_6
*I *1511:A I *D sky130_fd_sc_hd__buf_6
*I *1512:X O *D sky130_fd_sc_hd__buf_6
*CAP
1 *1560:A 0.000282401
2 *1511:A 0.000277959
3 *1512:X 0
4 *682:6 0.00056036
5 *1511:A *1440:A 4.22135e-06
6 *1511:A *1512:A 0
7 *1511:A *1561:A 9.60939e-05
8 *1511:A *1562:A 0
9 *1511:A *689:12 9.80173e-05
10 *1511:A *689:22 0
11 *1560:A *1464:A1 0.000231509
12 *1560:A *685:10 0.000354652
13 *1560:A *689:22 0
14 *1366:B *1560:A 5.66943e-05
15 *1411:A1 *1560:A 2.52654e-05
16 *1556:A *1511:A 0.000212907
17 *426:12 *1560:A 5.03866e-05
18 *618:54 *1560:A 2.06112e-05
19 *618:58 *1511:A 0.000182497
20 *618:58 *1560:A 0.000606527
21 *681:16 *1511:A 0
*RES
1 *1512:X *682:6 13.8 
2 *682:6 *1511:A 20.0321 
3 *682:6 *1560:A 23.3357 
*END

*D_NET *683 0.00951294
*CONN
*I *1211:B I *D sky130_fd_sc_hd__nand2_2
*I *1617:A I *D sky130_fd_sc_hd__buf_2
*I *1299:D I *D sky130_fd_sc_hd__and4_4
*I *1297:B2 I *D sky130_fd_sc_hd__a22oi_2
*I *1618:A I *D sky130_fd_sc_hd__buf_2
*I *1560:X O *D sky130_fd_sc_hd__buf_6
*CAP
1 *1211:B 0.000331035
2 *1617:A 3.09283e-05
3 *1299:D 7.57281e-05
4 *1297:B2 4.24247e-05
5 *1618:A 0
6 *1560:X 0.000353339
7 *683:59 0.00061797
8 *683:46 0.000494427
9 *683:31 0.00108607
10 *683:10 0.00123429
11 *1297:B2 *725:85 1.3701e-05
12 *683:10 *718:25 0.00103487
13 *683:31 *1300:B 0.000106836
14 *683:31 *1300:C 7.22574e-05
15 *683:31 *1356:A 9.20091e-05
16 *683:31 *1573:A 9.11813e-05
17 *683:31 *725:12 0
18 *1216:A *1211:B 0.000173083
19 *1222:D *1211:B 3.14626e-05
20 *1225:B *1211:B 1.02504e-05
21 *1300:D *683:31 1.84865e-05
22 *1301:A1 *1299:D 7.6021e-05
23 *1301:A1 *683:31 0
24 *1302:A2 *683:59 3.25078e-05
25 *1361:A2 *683:31 7.80059e-05
26 *1365:A1 *683:31 2.53112e-06
27 *1366:A *683:10 7.24537e-05
28 *1366:B *683:10 0.000108
29 *1369:A2 *683:10 3.11088e-05
30 *1369:A2 *683:31 9.21413e-05
31 *1411:A2 *683:10 5.50052e-05
32 *184:60 *1211:B 5.52302e-05
33 *186:33 *1211:B 3.18676e-05
34 *189:6 *1211:B 9.71197e-05
35 *189:6 *1617:A 0.000230475
36 *191:31 *1211:B 8.51637e-06
37 *191:53 *1211:B 2.05938e-05
38 *191:64 *1211:B 4.98055e-06
39 *272:12 *683:31 0.000103266
40 *274:12 *1297:B2 2.89016e-05
41 *274:12 *683:46 7.1959e-05
42 *274:12 *683:59 0
43 *276:19 *1299:D 7.71321e-05
44 *334:26 *683:10 9.84729e-05
45 *334:26 *683:31 0.00016867
46 *335:39 *683:31 0.000168075
47 *336:70 *683:10 0.000283505
48 *337:19 *683:59 0
49 *348:44 *1299:D 3.34366e-05
50 *348:44 *683:59 0.000128146
51 *560:23 *1211:B 0.00049694
52 *565:8 *683:31 7.74135e-05
53 *674:37 *683:31 3.34295e-05
54 *674:37 *683:46 0.000271526
55 *674:37 *683:59 0
56 *674:63 *1211:B 4.27935e-05
57 *674:63 *1617:A 0.000230475
58 *674:63 *683:59 0
59 *674:74 *1211:B 0.000273962
60 *674:74 *683:59 6.8646e-06
61 *674:91 *1211:B 1.10632e-05
*RES
1 *1560:X *683:10 21.0679 
2 *683:10 *1618:A 9.3 
3 *683:10 *683:31 34.6786 
4 *683:31 *1297:B2 10.2643 
5 *683:31 *683:46 8.44643 
6 *683:46 *1299:D 16.05 
7 *683:46 *683:59 9.17857 
8 *683:59 *1617:A 11.4786 
9 *683:59 *1211:B 28.1571 
*END

*D_NET *684 0.0216898
*CONN
*I *1138:A2 I *D sky130_fd_sc_hd__a22oi_2
*I *1140:D I *D sky130_fd_sc_hd__and4_2
*I *1139:A2 I *D sky130_fd_sc_hd__a22o_4
*I *1113:A2 I *D sky130_fd_sc_hd__a22o_4
*I *1114:D I *D sky130_fd_sc_hd__nand4_4
*I *1134:A2 I *D sky130_fd_sc_hd__a31oi_2
*I *1133:A2 I *D sky130_fd_sc_hd__a31o_2
*I *1141:B I *D sky130_fd_sc_hd__nand4_4
*I *1318:A2 I *D sky130_fd_sc_hd__a31o_2
*I *1561:X O *D sky130_fd_sc_hd__clkbuf_4
*CAP
1 *1138:A2 0
2 *1140:D 0.000167939
3 *1139:A2 0
4 *1113:A2 0.0002233
5 *1114:D 0
6 *1134:A2 2.23854e-05
7 *1133:A2 0.000643056
8 *1141:B 0
9 *1318:A2 0.000176222
10 *1561:X 0.00160338
11 *684:115 0.000595226
12 *684:80 0.000251116
13 *684:56 0.000876204
14 *684:52 0.000716406
15 *684:43 0.000559725
16 *684:37 0.000110982
17 *684:35 0.000634978
18 *684:33 0.00181376
19 *684:10 0.00341475
20 *1113:A2 *1108:A 3.69047e-06
21 *1140:D *1257:A2 0
22 *1318:A2 *689:22 3.82538e-05
23 *1318:A2 *732:75 1.02936e-05
24 *684:10 *1561:A 3.18676e-05
25 *684:10 *689:22 0.00101966
26 *684:10 *718:10 0
27 *684:33 *1148:B 2.84398e-05
28 *684:33 *1235:A3 0.000509383
29 *684:33 *1564:A 0
30 *684:33 *1650:A 0
31 *684:33 *688:45 0
32 *684:33 *692:10 0
33 *684:33 *733:10 0
34 *684:33 *733:12 0
35 *684:33 *733:112 0
36 *684:35 *1139:A1 0.000183726
37 *684:37 *1139:A1 5.52238e-05
38 *684:115 *1138:A1 0.000302853
39 *1113:B1 *1113:A2 9.60875e-05
40 *1113:B2 *1113:A2 6.48957e-05
41 *1113:B2 *684:80 1.19402e-05
42 *1115:A *1113:A2 0.000117621
43 *1133:A1 *1133:A2 1.02504e-05
44 *1134:A1 *1133:A2 3.14193e-05
45 *1134:A1 *684:56 2.28499e-05
46 *1134:B1 *1133:A2 2.89016e-05
47 *1138:B2 *684:115 3.18676e-05
48 *1141:C *684:43 0.00020042
49 *1141:C *684:52 1.02504e-05
50 *1141:C *684:115 9.32406e-05
51 *1142:B1 *684:115 9.11365e-06
52 *1142:B2 *684:115 0.000174812
53 *1144:A1 *684:52 0
54 *1144:A1 *684:115 6.8646e-06
55 *1144:B1 *684:52 0
56 *1146:B *684:33 4.25523e-05
57 *1182:B1 *684:33 0.000246071
58 *1185:A2 *1113:A2 0.000105347
59 *1245:A3 *684:33 8.91726e-05
60 *1251:B2 *684:33 0.000100823
61 *1318:A1 *684:33 0
62 *1319:A2_N *684:33 6.44449e-05
63 *1369:B1_N *684:10 0
64 *1375:A1_N *684:10 4.90803e-05
65 *1378:A1 *1318:A2 0.00014285
66 *1397:A1 *684:10 0
67 *1410:A *684:10 0
68 *1413:C *684:10 0
69 *1414:B *684:10 0
70 *1576:A *684:33 0.000333493
71 *1607:A *1140:D 1.02504e-05
72 *1625:A *1140:D 9.90367e-05
73 *1661:A *684:10 0
74 *1665:A *684:33 0.000428217
75 *74:14 *684:33 0.000245493
76 *90:30 *684:56 0.000397911
77 *91:6 *1113:A2 5.62995e-05
78 *92:8 *1113:A2 0
79 *110:10 *1133:A2 0
80 *111:6 *1133:A2 3.80195e-05
81 *115:10 *1140:D 0.000291838
82 *115:10 *684:115 6.9276e-05
83 *116:26 *684:35 0.000128496
84 *116:26 *684:37 8.46829e-05
85 *116:26 *684:43 5.52238e-05
86 *116:28 *684:115 5.85228e-05
87 *117:10 *1140:D 2.59355e-05
88 *156:10 *684:33 4.66511e-05
89 *156:27 *684:115 0.00040279
90 *157:14 *684:33 0
91 *161:23 *1133:A2 0.000266479
92 *165:14 *1133:A2 6.8551e-05
93 *188:8 *684:10 0.000148182
94 *188:27 *684:10 6.91157e-05
95 *188:27 *684:33 0.000289564
96 *218:14 *684:33 0.000123288
97 *219:10 *684:33 0
98 *228:20 *684:33 0
99 *229:12 *1140:D 4.38511e-05
100 *246:18 *1133:A2 0
101 *261:10 *684:52 0
102 *261:34 *684:52 0
103 *348:62 *684:33 0
104 *352:10 *684:10 0.000103253
105 *386:42 *684:10 0
106 *390:24 *684:10 0.000181172
107 *436:12 *684:10 0.00020659
108 *533:50 *684:115 2.16719e-05
109 *566:10 *684:10 0.00011765
110 *566:29 *684:10 8.19176e-05
111 *597:12 *684:33 0.000179183
112 *675:70 *684:115 6.51946e-05
113 *675:74 *684:43 9.25014e-06
114 *675:119 *684:43 0.00020042
115 *675:119 *684:52 0.000760929
116 *675:132 *684:52 0.000176234
117 *675:132 *684:80 4.49293e-05
118 *680:111 *684:115 1.65558e-05
*RES
1 *1561:X *684:10 46.1393 
2 *684:10 *1318:A2 16.4071 
3 *684:10 *684:33 49.7321 
4 *684:33 *684:35 3.82143 
5 *684:35 *684:37 0.946429 
6 *684:37 *684:43 7.58929 
7 *684:43 *1141:B 13.8 
8 *684:43 *684:52 11.9643 
9 *684:52 *684:56 8.73214 
10 *684:56 *1133:A2 27.5679 
11 *684:56 *1134:A2 9.72857 
12 *684:52 *684:80 0.732143 
13 *684:80 *1114:D 13.8 
14 *684:80 *1113:A2 19.7643 
15 *684:37 *1139:A2 9.3 
16 *684:35 *684:115 21.4286 
17 *684:115 *1140:D 22.6571 
18 *684:115 *1138:A2 9.3 
*END

*D_NET *685 0.00755449
*CONN
*I *1464:A1 I *D sky130_fd_sc_hd__a31o_2
*I *1704:A I *D sky130_fd_sc_hd__buf_6
*I *1501:A I *D sky130_fd_sc_hd__clkbuf_1
*I *1513:X O *D sky130_fd_sc_hd__clkbuf_2
*CAP
1 *1464:A1 0.000126507
2 *1704:A 0
3 *1501:A 0.00040767
4 *1513:X 0.000424099
5 *685:16 0.00100499
6 *685:10 0.00114792
7 *1501:A *1361:A1 0.00016733
8 *1501:A *686:12 0.000194034
9 *1501:A *712:28 5.03332e-05
10 *685:10 *689:22 0
11 *685:16 *1412:C 5.52238e-05
12 *996:A *1501:A 0.000100165
13 *1356:B *1501:A 0.00024145
14 *1361:A2 *1501:A 5.33005e-05
15 *1361:B1 *1501:A 9.75679e-05
16 *1407:A *1501:A 0.000195564
17 *1411:A1 *1464:A1 0.000240896
18 *1411:A1 *685:10 0.000191253
19 *1412:D *685:16 0.000113073
20 *1413:B *685:16 0.00010116
21 *1450:A *685:10 4.91264e-05
22 *1464:B1 *1501:A 2.05612e-05
23 *1486:B *685:16 0.000368141
24 *1560:A *1464:A1 0.000231509
25 *1560:A *685:10 0.000354652
26 *348:6 *1501:A 5.4959e-05
27 *397:10 *685:16 4.58194e-05
28 *398:10 *1464:A1 1.58163e-05
29 *433:22 *685:10 0.000420194
30 *678:109 *1501:A 0.000895689
31 *678:126 *1501:A 0.000141941
32 *679:29 *685:16 4.35421e-05
*RES
1 *1513:X *685:10 23.5321 
2 *685:10 *685:16 17.375 
3 *685:16 *1501:A 32.9071 
4 *685:16 *1704:A 9.3 
5 *685:10 *1464:A1 17.4964 
*END

*D_NET *686 0.019107
*CONN
*I *1515:A I *D sky130_fd_sc_hd__clkbuf_2
*I *1221:A3 I *D sky130_fd_sc_hd__a41oi_2
*I *1214:A2 I *D sky130_fd_sc_hd__a22oi_2
*I *1099:B I *D sky130_fd_sc_hd__nand3_2
*I *1098:A2 I *D sky130_fd_sc_hd__a22o_4
*I *1516:A I *D sky130_fd_sc_hd__clkdlybuf4s25_1
*I *1215:A2 I *D sky130_fd_sc_hd__a22o_4
*I *1555:X O *D sky130_fd_sc_hd__clkbuf_4
*CAP
1 *1515:A 0.000379983
2 *1221:A3 0.0005418
3 *1214:A2 2.23854e-05
4 *1099:B 0.000123934
5 *1098:A2 0
6 *1516:A 0.00069867
7 *1215:A2 0.000469525
8 *1555:X 0.00168286
9 *686:94 0.000595144
10 *686:76 0.000500518
11 *686:55 0.00190958
12 *686:43 0.00109994
13 *686:12 0.00200705
14 *1214:A2 *1214:B2 0
15 *1215:A2 *1215:A1 3.63587e-05
16 *1215:A2 *688:12 9.25014e-06
17 *1215:A2 *688:26 0.000173804
18 *1215:A2 *688:45 3.34366e-05
19 *1215:A2 *732:97 0.000195562
20 *1221:A3 *1221:A1 1.15407e-05
21 *1221:A3 *1221:A4 0.000266244
22 *1515:A *690:10 5.62995e-05
23 *686:12 *1214:B1 0.000260512
24 *686:12 *1299:C 4.57445e-05
25 *686:12 *688:74 1.00375e-05
26 *686:12 *690:55 0.00163745
27 *686:12 *719:14 1.82999e-05
28 *686:12 *719:61 2.16719e-05
29 *686:12 *725:85 0.000360109
30 *686:43 *1214:B1 0.000490498
31 *686:43 *1221:A4 4.87953e-05
32 *686:55 *1150:A2 2.62628e-05
33 *686:55 *1214:A1 0.000173097
34 *686:55 *1565:A 0
35 *686:55 *1672:A 0.000127998
36 *686:55 *693:10 2.84209e-05
37 *686:55 *721:8 0.000189448
38 *686:76 *730:10 0
39 *686:94 *1221:A4 7.32955e-05
40 *1096:A1 *1099:B 0
41 *1098:B2 *1099:B 0.000108848
42 *1098:B2 *686:76 5.80706e-06
43 *1174:A1 *1516:A 0.000123295
44 *1174:B1 *1516:A 5.62995e-05
45 *1174:B1 *686:55 4.58976e-05
46 *1176:A1 *686:55 0
47 *1176:A1 *686:76 0
48 *1181:A2 *686:76 7.03479e-05
49 *1219:A2 *1215:A2 5.7661e-06
50 *1221:B1 *1221:A3 9.90431e-05
51 *1225:C *1221:A3 9.71197e-05
52 *1227:A1 *1221:A3 0.000351149
53 *1227:A2 *1221:A3 0.000282756
54 *1242:A2_N *1516:A 0.00026565
55 *1242:B1 *1516:A 5.74499e-06
56 *1242:B2 *1516:A 2.14757e-05
57 *1250:A1 *1099:B 0
58 *1251:A2 *686:76 0
59 *1251:A3 *686:76 4.75717e-05
60 *1320:B1 *686:43 0.000384988
61 *1320:B1 *686:55 0.000197991
62 *1320:C1 *686:43 1.41029e-05
63 *1365:A1 *686:12 6.53937e-05
64 *1406:B1 *686:12 0.000224618
65 *1407:A *686:12 0.000100007
66 *1407:B *686:12 1.30327e-05
67 *1407:C *686:12 6.07037e-07
68 *1445:C1 *686:12 5.26944e-05
69 *1447:A1 *686:12 0.000219599
70 *1501:A *686:12 0.000194034
71 *1597:A *1516:A 0.000114655
72 *149:49 *1516:A 9.60875e-05
73 *149:49 *686:55 0
74 *151:10 *1516:A 0.000229456
75 *152:10 *686:55 5.52238e-05
76 *152:10 *686:76 0.000103253
77 *155:12 *1516:A 0.000174103
78 *189:50 *686:12 0
79 *190:20 *1215:A2 2.43155e-05
80 *191:29 *686:12 4.46186e-06
81 *191:29 *686:43 3.69697e-05
82 *201:12 *1221:A3 0.000264421
83 *201:12 *686:43 4.58194e-05
84 *201:12 *686:94 6.57914e-05
85 *292:8 *1215:A2 0.00026353
86 *292:12 *1215:A2 6.37237e-05
87 *292:22 *1215:A2 6.90561e-05
88 *300:10 *686:12 0
89 *300:10 *686:43 0
90 *300:16 *1215:A2 2.59355e-05
91 *348:56 *1516:A 0
92 *348:56 *686:55 0
93 *348:56 *686:76 0
94 *348:111 *686:12 0
95 *386:21 *686:12 4.85835e-05
96 *386:34 *686:12 1.1594e-05
97 *388:16 *686:12 2.95746e-06
98 *548:10 *1516:A 2.77289e-05
99 *622:8 *686:76 0
100 *674:108 *686:55 0
101 *675:44 *686:76 0
102 *679:29 *686:12 0
*RES
1 *1555:X *686:12 46.5679 
2 *686:12 *1215:A2 31.1214 
3 *686:12 *686:43 12.25 
4 *686:43 *686:55 25.7143 
5 *686:55 *1516:A 31.0857 
6 *686:55 *686:76 11.6071 
7 *686:76 *1098:A2 13.8 
8 *686:76 *1099:B 16.3536 
9 *686:43 *686:94 1.35714 
10 *686:94 *1214:A2 9.72857 
11 *686:94 *1221:A3 22.6214 
12 *1555:X *1515:A 25.2964 
*END

*D_NET *687 0.00715808
*CONN
*I *1401:A1 I *D sky130_fd_sc_hd__a22o_2
*I *1298:A2 I *D sky130_fd_sc_hd__a22o_4
*I *995:A I *D sky130_fd_sc_hd__inv_2
*I *1300:C I *D sky130_fd_sc_hd__nand4_4
*I *1400:B I *D sky130_fd_sc_hd__nand4_4
*I *1704:X O *D sky130_fd_sc_hd__buf_6
*CAP
1 *1401:A1 0
2 *1298:A2 0
3 *995:A 0.00060335
4 *1300:C 0.000238649
5 *1400:B 0.000513369
6 *1704:X 0.000138085
7 *687:36 0.000737188
8 *687:25 0.000674919
9 *687:8 0.0008158
10 *687:6 0.000138085
11 *1300:C *1298:A1 4.08637e-05
12 *1300:C *1300:A 9.84673e-05
13 *1400:B *1400:C 5.52302e-05
14 *1400:B *1441:B 3.14078e-05
15 *1400:B *712:34 7.73099e-05
16 *1400:B *712:70 1.02821e-05
17 *687:6 *1401:A2 3.02036e-05
18 *687:25 *1361:A1 9.59152e-05
19 *687:25 *690:55 0
20 *687:25 *712:28 8.19993e-05
21 *687:25 *720:21 0.000239433
22 *687:36 *1298:A1 0.000219366
23 *996:A *687:25 0.000348967
24 *1298:B2 *995:A 9.47378e-05
25 *1305:A *995:A 0.000100074
26 *1305:B *995:A 3.09985e-05
27 *1307:B *995:A 6.05161e-06
28 *1401:B1 *1400:B 5.77138e-05
29 *1401:B1 *687:25 4.46186e-06
30 *1403:A *1400:B 0.000191914
31 *1445:B1 *1400:B 0.000102197
32 *271:10 *995:A 3.59945e-05
33 *277:8 *1300:C 7.14308e-05
34 *335:39 *1300:C 5.23735e-05
35 *350:12 *995:A 0.000100173
36 *350:12 *1300:C 5.0241e-05
37 *350:12 *687:36 1.21258e-05
38 *385:10 *1400:B 0.000142969
39 *385:10 *687:6 2.24422e-05
40 *385:10 *687:25 6.98302e-05
41 *429:8 *687:6 9.73506e-05
42 *618:88 *1400:B 0.000175047
43 *679:29 *687:6 0.000478806
44 *679:33 *687:25 0
45 *683:31 *1300:C 7.22574e-05
*RES
1 *1704:X *687:6 13.9429 
2 *687:6 *687:8 4.5 
3 *687:8 *1400:B 24.9607 
4 *687:8 *687:25 12.2143 
5 *687:25 *1300:C 14.7821 
6 *687:25 *687:36 2.58929 
7 *687:36 *995:A 29.3179 
8 *687:36 *1298:A2 9.3 
9 *687:6 *1401:A1 9.3 
*END

*D_NET *688 0.00835595
*CONN
*I *1297:A2 I *D sky130_fd_sc_hd__a22oi_2
*I *1299:C I *D sky130_fd_sc_hd__and4_4
*I *1221:A4 I *D sky130_fd_sc_hd__a41oi_2
*I *1214:B2 I *D sky130_fd_sc_hd__a22oi_2
*I *1215:B2 I *D sky130_fd_sc_hd__a22o_4
*I *1213:D I *D sky130_fd_sc_hd__nand4_4
*I *1212:A I *D sky130_fd_sc_hd__and4_4
*I *1514:X O *D sky130_fd_sc_hd__buf_6
*CAP
1 *1297:A2 0
2 *1299:C 0.000606782
3 *1221:A4 0.000437255
4 *1214:B2 1.91209e-05
5 *1215:B2 2.82803e-05
6 *1213:D 0.00021907
7 *1212:A 1.42796e-05
8 *1514:X 3.34103e-05
9 *688:74 0.000825852
10 *688:45 0.000823812
11 *688:26 0.000455589
12 *688:12 0.000123877
13 *688:8 0.000202879
14 *1212:A *1212:C 5.33005e-05
15 *1212:A *1212:D 5.52302e-05
16 *1215:B2 *1215:B1 5.52238e-05
17 *1221:A4 *732:112 0.00101531
18 *1299:C *725:8 0.000224596
19 *1299:C *732:61 0.000292614
20 *1299:C *732:71 9.76491e-05
21 *688:12 *1212:D 7.6644e-05
22 *688:12 *1215:B1 0.000236333
23 *688:12 *732:71 5.41797e-05
24 *688:12 *732:97 1.721e-05
25 *688:26 *1215:B1 0.00013966
26 *688:45 *1650:A 0
27 *688:45 *732:97 8.5662e-05
28 *688:45 *732:112 0.000321938
29 *688:74 *1212:C 3.18676e-05
30 *688:74 *1213:C 1.04232e-05
31 *688:74 *690:57 6.57815e-05
32 *688:74 *725:85 0.000168281
33 *688:74 *725:91 0.000183713
34 *1214:A2 *1214:B2 0
35 *1215:A2 *688:12 9.25014e-06
36 *1215:A2 *688:26 0.000173804
37 *1215:A2 *688:45 3.34366e-05
38 *1221:A3 *1221:A4 0.000266244
39 *1225:C *1221:A4 4.58194e-05
40 *1227:A2 *1221:A4 4.22908e-05
41 *1375:B1 *1299:C 5.80706e-06
42 *1375:B1 *688:74 7.80929e-05
43 *190:10 *688:45 9.31209e-05
44 *191:29 *1215:B2 1.21258e-05
45 *201:12 *1221:A4 1.65169e-05
46 *201:12 *688:45 6.0509e-05
47 *272:12 *1299:C 1.98839e-05
48 *292:22 *688:8 5.33005e-05
49 *292:22 *688:26 0
50 *300:16 *1215:B2 5.33334e-05
51 *348:56 *688:74 0.000188967
52 *348:111 *1299:C 4.38511e-05
53 *348:111 *688:74 5.90443e-06
54 *597:12 *688:45 0
55 *684:33 *688:45 0
56 *686:12 *1299:C 4.57445e-05
57 *686:12 *688:74 1.00375e-05
58 *686:43 *1221:A4 4.87953e-05
59 *686:94 *1221:A4 7.32955e-05
*RES
1 *1514:X *688:8 14.3357 
2 *688:8 *688:12 7.66071 
3 *688:12 *1212:A 9.83571 
4 *688:12 *1213:D 9.3 
5 *688:8 *688:26 2.25 
6 *688:26 *1215:B2 14.7464 
7 *688:26 *688:45 12.5357 
8 *688:45 *1214:B2 9.72857 
9 *688:45 *1221:A4 21.7643 
10 *1213:D *688:74 20.675 
11 *688:74 *1299:C 22.9607 
12 *688:74 *1297:A2 13.8 
*END

*D_NET *689 0.00771804
*CONN
*I *1650:A I *D sky130_fd_sc_hd__buf_4
*I *1514:A I *D sky130_fd_sc_hd__buf_6
*I *1562:X O *D sky130_fd_sc_hd__buf_6
*CAP
1 *1650:A 0.000224228
2 *1514:A 0
3 *1562:X 9.52368e-05
4 *689:22 0.00166948
5 *689:12 0.00154048
6 *1650:A *732:75 4.38128e-05
7 *689:12 *1561:A 0.000225705
8 *689:22 *1317:C 0.000242906
9 *689:22 *1318:A3 3.99614e-06
10 *689:22 *732:75 0.000179745
11 *1318:A1 *689:22 0
12 *1318:A2 *689:22 3.82538e-05
13 *1366:C *689:22 0.000166374
14 *1370:A *689:22 0
15 *1397:A2 *689:22 0.000472835
16 *1410:A *689:22 0.000150625
17 *1511:A *689:12 9.80173e-05
18 *1511:A *689:22 0
19 *1560:A *689:22 0
20 *1661:A *1650:A 0.000126439
21 *188:27 *1650:A 4.43698e-05
22 *292:22 *1650:A 3.90513e-05
23 *293:22 *1650:A 9.34004e-05
24 *336:76 *689:22 0.000250977
25 *349:19 *689:22 0
26 *353:12 *689:22 1.08359e-05
27 *358:18 *689:22 0
28 *390:24 *689:22 0.000183115
29 *566:10 *689:12 0.00043419
30 *566:10 *689:22 0.000188195
31 *566:29 *689:22 7.51432e-05
32 *609:10 *689:22 0
33 *681:16 *689:12 0.00010096
34 *681:16 *689:22 0
35 *684:10 *689:22 0.00101966
36 *684:33 *1650:A 0
37 *685:10 *689:22 0
38 *688:45 *1650:A 0
*RES
1 *1562:X *689:12 18.9964 
2 *689:12 *689:22 39.5357 
3 *689:22 *1514:A 9.3 
4 *689:22 *1650:A 23.8179 
*END

*D_NET *690 0.0108827
*CONN
*I *1213:C I *D sky130_fd_sc_hd__nand4_4
*I *1212:C I *D sky130_fd_sc_hd__and4_4
*I *1401:B2 I *D sky130_fd_sc_hd__a22o_2
*I *1563:A I *D sky130_fd_sc_hd__buf_4
*I *1400:A I *D sky130_fd_sc_hd__nand4_4
*I *1515:X O *D sky130_fd_sc_hd__clkbuf_2
*CAP
1 *1213:C 1.99857e-05
2 *1212:C 0.000110085
3 *1401:B2 1.57318e-05
4 *1563:A 0
5 *1400:A 0
6 *1515:X 0.000496715
7 *690:57 0.000229243
8 *690:55 0.0013623
9 *690:34 0.00146878
10 *690:23 0.000607328
11 *690:10 0.00091412
12 *1212:C *1212:D 9.31794e-05
13 *1212:C *725:91 2.42662e-05
14 *1213:C *725:91 0
15 *690:10 *709:14 2.72083e-05
16 *690:23 *1674:A 0
17 *690:23 *691:12 5.52238e-05
18 *690:23 *709:14 0
19 *690:23 *716:44 9.98676e-05
20 *690:34 *716:44 3.98662e-05
21 *690:55 *1442:A1 4.79874e-05
22 *690:55 *719:14 0.000951776
23 *690:55 *719:25 0.000373316
24 *690:55 *719:61 2.31791e-05
25 *690:57 *725:91 2.95726e-05
26 *1212:A *1212:C 5.33005e-05
27 *1317:B *1212:C 0.000282858
28 *1317:B *690:57 0.00030926
29 *1401:B1 *690:55 4.78056e-05
30 *1402:B2 *690:55 5.74562e-05
31 *1407:B *690:55 0.000267447
32 *1441:D *690:10 8.98643e-05
33 *1441:D *690:23 0.000146878
34 *1442:A2 *690:55 1.51021e-05
35 *1442:B2 *690:55 0.000309779
36 *1443:A *690:23 0
37 *1443:B *690:34 0.00018372
38 *1444:A2_N *690:23 0
39 *1444:B2 *690:23 0.0001139
40 *1515:A *690:10 5.62995e-05
41 *386:8 *690:55 7.56296e-05
42 *429:8 *1401:B2 1.55885e-05
43 *429:8 *690:34 2.89016e-05
44 *568:10 *690:23 3.47561e-05
45 *679:29 *1401:B2 2.89016e-05
46 *679:29 *690:34 2.07168e-05
47 *679:33 *690:55 9.25014e-06
48 *686:12 *690:55 0.00163745
49 *687:25 *690:55 0
50 *688:74 *1212:C 3.18676e-05
51 *688:74 *1213:C 1.04232e-05
52 *688:74 *690:57 6.57815e-05
*RES
1 *1515:X *690:10 22.3357 
2 *690:10 *1400:A 13.8 
3 *690:10 *690:23 13.375 
4 *690:23 *1563:A 9.3 
5 *690:23 *690:34 4.26786 
6 *690:34 *1401:B2 9.83571 
7 *690:34 *690:55 48.9464 
8 *690:55 *690:57 3 
9 *690:57 *1212:C 13.1393 
10 *690:57 *1213:C 9.72857 
*END

*D_NET *691 0.0103055
*CONN
*I *1290:C I *D sky130_fd_sc_hd__nand4_2
*I *993:A I *D sky130_fd_sc_hd__inv_2
*I *1280:A I *D sky130_fd_sc_hd__nand2_2
*I *1347:A1 I *D sky130_fd_sc_hd__a22oi_2
*I *1346:B I *D sky130_fd_sc_hd__nand4_2
*I *1345:A I *D sky130_fd_sc_hd__nand2_2
*I *1563:X O *D sky130_fd_sc_hd__buf_4
*CAP
1 *1290:C 0.0001483
2 *993:A 0.000346444
3 *1280:A 4.57182e-05
4 *1347:A1 0
5 *1346:B 6.10028e-05
6 *1345:A 0
7 *1563:X 0.000977736
8 *691:64 0.000757131
9 *691:49 0.000345038
10 *691:26 0.000517247
11 *691:16 0.000674628
12 *691:12 0.00123305
13 *1290:C *710:31 0
14 *1346:B *1345:B 3.57366e-05
15 *1346:B *1346:C 0.000287989
16 *691:12 *710:31 0.000114736
17 *691:16 *713:31 0.000493492
18 *691:16 *713:37 1.02504e-05
19 *691:26 *698:18 0.000196171
20 *691:49 *713:31 5.41794e-05
21 *691:64 *713:31 0.000338492
22 *1286:A1 *993:A 3.37161e-05
23 *1288:B1 *993:A 1.62025e-05
24 *1288:B2 *993:A 0.000226274
25 *1343:A1 *1280:A 5.52302e-05
26 *1346:A *1346:B 8.87236e-05
27 *1346:D *1346:B 5.23057e-05
28 *1349:B2 *691:12 0.000183726
29 *1352:A2 *691:12 2.89114e-05
30 *1352:B1 *691:12 2.89016e-05
31 *1353:B2 *691:12 3.81843e-05
32 *1354:B1 *691:16 0
33 *1354:B1 *691:49 0
34 *1598:A *1280:A 0.000139907
35 *1598:A *691:12 5.52238e-05
36 *1667:A *993:A 5.33005e-05
37 *1667:A *691:64 0.000100698
38 *1692:A *691:16 7.33085e-05
39 *255:22 *1280:A 5.30637e-06
40 *256:14 *691:49 1.02504e-05
41 *256:14 *691:64 0.000214358
42 *256:32 *691:64 0.000148514
43 *258:10 *691:26 7.60306e-05
44 *264:10 *993:A 0.000317503
45 *265:8 *1290:C 0.000366232
46 *265:8 *691:64 0.000259116
47 *266:8 *1290:C 1.7845e-05
48 *305:8 *993:A 0.000116543
49 *305:62 *993:A 5.66971e-05
50 *325:10 *691:49 0
51 *327:8 *691:26 0
52 *555:18 *1290:C 9.10894e-05
53 *555:18 *691:64 7.58841e-05
54 *608:20 *691:12 0.000522445
55 *608:28 *691:26 5.44666e-05
56 *608:36 *691:26 2.59355e-05
57 *644:12 *691:26 0
58 *645:18 *691:16 2.06112e-05
59 *676:16 *691:16 5.94737e-05
60 *690:23 *691:12 5.52238e-05
*RES
1 *1563:X *691:12 30.0857 
2 *691:12 *691:16 11 
3 *691:16 *691:26 17.0357 
4 *691:26 *1345:A 9.3 
5 *691:26 *1346:B 12.7464 
6 *691:16 *1347:A1 9.3 
7 *691:12 *691:49 0.732143 
8 *691:49 *1280:A 15.1571 
9 *691:49 *691:64 8.67857 
10 *691:64 *993:A 22.5679 
11 *691:64 *1290:C 18.4786 
*END

*D_NET *692 0.00315188
*CONN
*I *1148:D I *D sky130_fd_sc_hd__and4_2
*I *1564:A I *D sky130_fd_sc_hd__buf_6
*I *1516:X O *D sky130_fd_sc_hd__clkdlybuf4s25_1
*CAP
1 *1148:D 0
2 *1564:A 0.000429745
3 *1516:X 0.00022899
4 *692:10 0.000658735
5 *1564:A *1148:B 5.80706e-06
6 *1564:A *1565:A 5.52238e-05
7 *692:10 *1148:B 3.07555e-05
8 *692:10 *1240:A1 0
9 *692:10 *733:12 0
10 *1148:A *1564:A 9.80173e-05
11 *1235:A1 *1564:A 0.00044366
12 *1242:A2_N *692:10 0.000230475
13 *1576:A *1564:A 9.90367e-05
14 *131:24 *1564:A 0.000643893
15 *211:20 *1564:A 0.000227539
16 *219:10 *1564:A 0
17 *219:10 *692:10 0
18 *684:33 *1564:A 0
19 *684:33 *692:10 0
*RES
1 *1516:X *692:10 18.5321 
2 *692:10 *1564:A 26.1571 
3 *692:10 *1148:D 13.8 
*END

*D_NET *693 0.00194511
*CONN
*I *1672:A I *D sky130_fd_sc_hd__buf_2
*I *1673:A I *D sky130_fd_sc_hd__buf_2
*I *1150:B1 I *D sky130_fd_sc_hd__a22o_4
*I *1564:X O *D sky130_fd_sc_hd__buf_6
*CAP
1 *1672:A 0.000208371
2 *1673:A 1.22324e-05
3 *1150:B1 0.000178418
4 *1564:X 0.000119815
5 *693:12 0.00019065
6 *693:10 0.000328186
7 *1150:B1 *1150:A1 3.08382e-06
8 *1150:B1 *1150:A2 5.83489e-05
9 *1150:B1 *694:12 1.00733e-05
10 *1150:B1 *694:27 0.000102197
11 *1150:B1 *694:38 5.81579e-05
12 *1673:A *1150:A2 2.28598e-05
13 *1673:A *694:38 5.52302e-05
14 *693:10 *1150:A2 5.31122e-05
15 *1148:A *693:10 5.52238e-05
16 *1149:D *693:10 2.87041e-05
17 *1174:B1 *1672:A 5.52302e-05
18 *1176:A1 *1672:A 8.33655e-05
19 *1606:A *1672:A 5.52302e-05
20 *131:24 *693:10 3.18676e-05
21 *580:10 *1672:A 7.83366e-05
22 *674:108 *1672:A 0
23 *674:108 *693:10 0
24 *686:55 *1672:A 0.000127998
25 *686:55 *693:10 2.84209e-05
*RES
1 *1564:X *693:10 16.2821 
2 *693:10 *693:12 4.5 
3 *693:12 *1150:B1 13.1571 
4 *693:12 *1673:A 9.83571 
5 *693:10 *1672:A 19.3179 
*END

*D_NET *694 0.00917296
*CONN
*I *1689:A I *D sky130_fd_sc_hd__buf_2
*I *992:A I *D sky130_fd_sc_hd__inv_2
*I *1150:A1 I *D sky130_fd_sc_hd__a22o_4
*I *1565:A I *D sky130_fd_sc_hd__buf_8
*I *1517:X O *D sky130_fd_sc_hd__buf_8
*CAP
1 *1689:A 0
2 *992:A 0
3 *1150:A1 1.48784e-05
4 *1565:A 0.000186348
5 *1517:X 0.000135334
6 *694:60 0.00193912
7 *694:38 0.00206185
8 *694:27 0.000192603
9 *694:12 0.000376672
10 *694:12 *1150:B2 0.000444573
11 *694:12 *1517:A 1.02821e-05
12 *694:27 *1517:A 0.000123673
13 *694:38 *1150:A2 0.00010523
14 *694:38 *1517:A 0.000327163
15 *694:60 *1153:C1 1.15281e-05
16 *694:60 *1615:A 8.95278e-05
17 *694:60 *722:21 0
18 *1148:A *1565:A 0.00010047
19 *1148:A *694:12 0.00030012
20 *1149:C *694:60 8.20042e-05
21 *1150:B1 *1150:A1 3.08382e-06
22 *1150:B1 *694:12 1.00733e-05
23 *1150:B1 *694:27 0.000102197
24 *1150:B1 *694:38 5.81579e-05
25 *1152:B1 *694:60 7.43045e-06
26 *1153:A1 *694:60 9.60875e-05
27 *1153:A2 *694:60 8.1579e-05
28 *1153:B1 *694:60 5.52302e-05
29 *1153:D1 *694:60 0.000454289
30 *1164:A1 *694:60 9.60875e-05
31 *1164:A2 *694:60 6.87574e-05
32 *1164:B1_N *694:60 5.71472e-05
33 *1196:B1 *694:60 0.000137561
34 *1230:B *694:60 0.000310691
35 *1564:A *1565:A 5.52238e-05
36 *1612:A *694:60 0.000204
37 *1652:A *694:60 0.000208375
38 *1673:A *694:38 5.52302e-05
39 *130:18 *694:60 0.000182694
40 *131:24 *1565:A 5.71472e-05
41 *294:39 *694:60 4.52569e-05
42 *305:62 *694:60 0.000140933
43 *348:56 *1565:A 3.90558e-05
44 *531:12 *694:60 0.000139907
45 *674:108 *694:60 5.39166e-06
46 *686:55 *1565:A 0
*RES
1 *1517:X *694:12 14.925 
2 *694:12 *1565:A 21.3893 
3 *694:12 *694:27 2.17857 
4 *694:27 *1150:A1 9.72857 
5 *694:27 *694:38 4.25 
6 *694:38 *694:60 45.5714 
7 *694:60 *992:A 9.3 
8 *694:38 *1689:A 9.3 
*END

*D_NET *695 0.00387653
*CONN
*I *1513:A I *D sky130_fd_sc_hd__clkbuf_2
*I *1562:A I *D sky130_fd_sc_hd__buf_6
*I *1556:X O *D sky130_fd_sc_hd__clkdlybuf4s25_1
*CAP
1 *1513:A 0.000295356
2 *1562:A 0.000127717
3 *1556:X 0.00075606
4 *695:8 0.00117913
5 *1513:A *1512:A 3.69436e-05
6 *1562:A *1510:A 0
7 *1562:A *1512:A 4.70092e-05
8 *695:8 *712:42 0.00024162
9 *1465:A1 *1513:A 0.000182389
10 *1465:A2 *1513:A 2.11419e-05
11 *1511:A *1562:A 0
12 *433:22 *1513:A 0.000122101
13 *436:12 *695:8 0.000867056
14 *680:10 *1562:A 0
15 *680:27 *1513:A 0
*RES
1 *1556:X *695:8 24.6036 
2 *695:8 *1562:A 15.7464 
3 *695:8 *1513:A 19.3714 
*END

*D_NET *696 0.00646594
*CONN
*I *1690:A I *D sky130_fd_sc_hd__buf_2
*I *1096:B1 I *D sky130_fd_sc_hd__a22o_4
*I *1094:D I *D sky130_fd_sc_hd__nand4_4
*I *1148:C I *D sky130_fd_sc_hd__and4_2
*I *1565:X O *D sky130_fd_sc_hd__buf_8
*CAP
1 *1690:A 0.000117476
2 *1096:B1 5.29703e-05
3 *1094:D 0.000353499
4 *1148:C 0.000311574
5 *1565:X 0.000191816
6 *696:31 0.000767421
7 *696:12 0.000981817
8 *1094:D *727:73 0
9 *1094:D *730:48 9.71197e-05
10 *1690:A *1096:B2 1.02504e-05
11 *1690:A *727:33 0.000148196
12 *1690:A *727:45 3.34295e-05
13 *696:31 *1242:A1_N 0.000121573
14 *696:31 *727:45 0.000334161
15 *1093:B *1094:D 3.93247e-05
16 *1148:A *696:12 2.14658e-05
17 *1179:A *1094:D 2.61337e-05
18 *1230:A *696:12 0
19 *1235:B1 *696:12 3.20672e-05
20 *1235:B1 *696:31 7.6644e-05
21 *1240:C1 *1148:C 0.000434806
22 *1240:C1 *696:12 5.52302e-05
23 *1240:C1 *696:31 0.000245356
24 *1242:B1 *696:31 0.000148911
25 *1250:A1 *1096:B1 1.39726e-05
26 *1250:A2 *1094:D 0.000180777
27 *1250:A2 *1096:B1 1.33343e-05
28 *1250:A2 *696:31 0.000119618
29 *74:77 *1094:D 8.00806e-05
30 *80:14 *1094:D 4.08132e-05
31 *80:14 *1690:A 0.000139913
32 *155:12 *696:31 0.000629933
33 *158:14 *1690:A 8.0089e-05
34 *348:56 *696:12 0
35 *538:12 *696:31 0.000196787
36 *548:10 *696:31 0.000114759
37 *597:53 *1094:D 0.000219741
38 *643:12 *1690:A 3.4879e-05
*RES
1 *1565:X *696:12 21.1929 
2 *696:12 *1148:C 13.5321 
3 *696:12 *696:31 24.7857 
4 *696:31 *1094:D 24.3 
5 *696:31 *1096:B1 10.2643 
6 *1094:D *1690:A 31.2071 
*END

*D_NET *697 0.00156802
*CONN
*I *1691:A I *D sky130_fd_sc_hd__buf_2
*I *1566:A I *D sky130_fd_sc_hd__buf_8
*I *1518:X O *D sky130_fd_sc_hd__buf_8
*CAP
1 *1691:A 9.91086e-05
2 *1566:A 8.10704e-05
3 *1518:X 0.000158786
4 *697:8 0.000338965
5 *1691:A *716:8 0.000140933
6 *1354:A1 *697:8 9.41642e-05
7 *1354:B1 *1691:A 2.46999e-05
8 *1354:B1 *697:8 1.98839e-05
9 *325:10 *1566:A 0.000108848
10 *325:10 *1691:A 0.000103041
11 *608:20 *1691:A 7.48091e-05
12 *644:8 *1566:A 0.000185304
13 *644:8 *1691:A 0.000128161
14 *644:12 *1566:A 1.02504e-05
*RES
1 *1518:X *697:8 16.3893 
2 *697:8 *1566:A 16.3536 
3 *697:8 *1691:A 17.7107 
*END

*D_NET *698 0.0220451
*CONN
*I *1281:A2 I *D sky130_fd_sc_hd__a22oi_2
*I *1147:C I *D sky130_fd_sc_hd__nand3_2
*I *1517:A I *D sky130_fd_sc_hd__buf_8
*I *1198:A I *D sky130_fd_sc_hd__nand2_2
*I *1282:A1 I *D sky130_fd_sc_hd__a22o_2
*I *1285:B I *D sky130_fd_sc_hd__nand4_2
*I *1284:B I *D sky130_fd_sc_hd__and4_2
*I *1566:X O *D sky130_fd_sc_hd__buf_8
*CAP
1 *1281:A2 5.55554e-05
2 *1147:C 4.59977e-05
3 *1517:A 0.00137699
4 *1198:A 0.00027896
5 *1282:A1 0
6 *1285:B 1.17665e-05
7 *1284:B 0.000308519
8 *1566:X 0.00113055
9 *698:84 0.00310337
10 *698:63 0.002821
11 *698:44 0.00100021
12 *698:31 0.000174738
13 *698:20 0.00039333
14 *698:18 0.00124649
15 *1147:C *1147:B 3.57366e-05
16 *1198:A *1198:B 2.34059e-05
17 *1198:A *1201:A 5.33005e-05
18 *1198:A *708:23 2.42516e-05
19 *1281:A2 *712:14 5.49995e-05
20 *1285:B *713:6 5.49995e-05
21 *1517:A *1147:B 0.000730745
22 *1517:A *1150:A2 0.000147479
23 *1517:A *1150:B2 0.000271352
24 *1517:A *722:44 5.74499e-06
25 *698:18 *712:28 9.15842e-06
26 *698:20 *712:28 4.44838e-05
27 *698:63 *1200:A2 6.884e-05
28 *698:63 *1282:A2 0.000239416
29 *698:63 *1568:A 1.59782e-05
30 *698:63 *702:29 0.000375936
31 *698:63 *711:8 2.80728e-05
32 *698:63 *711:26 0.000416743
33 *698:84 *1159:A2 9.41642e-05
34 *698:84 *1519:A 0.00024292
35 *698:84 *702:29 0.000219942
36 *698:84 *703:107 2.14658e-05
37 *698:84 *708:42 2.72695e-05
38 *698:84 *714:37 5.33005e-05
39 *698:84 *714:50 3.17148e-05
40 *1164:A2 *698:84 4.06782e-05
41 *1165:B1 *698:84 0.00014183
42 *1167:B2 *698:84 0.000137983
43 *1172:B1 *698:84 2.14378e-05
44 *1172:B2 *698:84 0.000246064
45 *1196:A1 *698:84 1.39726e-05
46 *1197:A1 *698:84 0.000132879
47 *1199:A2 *698:63 0.00019554
48 *1204:A2 *698:84 0.000165262
49 *1240:C1 *1517:A 0
50 *1281:B2 *1281:A2 1.32293e-05
51 *1282:B2 *698:63 5.33005e-05
52 *1284:A *1284:B 0.00035408
53 *1284:A *1285:B 5.49995e-05
54 *1284:D *1284:B 4.75424e-05
55 *1287:A1 *698:18 0.000102876
56 *1287:A1 *698:20 2.16573e-05
57 *1504:A *698:63 3.47538e-05
58 *1578:A *1198:A 1.58163e-05
59 *128:10 *1517:A 0.000424134
60 *134:28 *698:84 0.000399826
61 *139:14 *698:84 0.000152998
62 *149:14 *1147:C 5.62995e-05
63 *149:14 *1517:A 7.49387e-06
64 *149:14 *698:84 8.37955e-05
65 *174:8 *1198:A 1.24368e-05
66 *177:8 *698:63 3.34295e-05
67 *177:8 *698:84 0.000362545
68 *316:10 *698:18 0
69 *348:56 *1517:A 0
70 *562:6 *1281:A2 2.12647e-05
71 *562:21 *698:20 7.74068e-05
72 *562:21 *698:31 5.36422e-05
73 *562:21 *698:44 9.15842e-06
74 *562:43 *698:44 0.000322133
75 *562:58 *698:63 9.41642e-05
76 *562:71 *1198:A 3.37161e-05
77 *562:103 *1198:A 0.000135028
78 *580:10 *1517:A 0.000290785
79 *588:29 *698:84 4.91188e-05
80 *588:52 *698:84 4.19624e-06
81 *608:28 *698:18 0.000684197
82 *608:36 *698:18 2.6269e-05
83 *608:61 *698:18 0.00011616
84 *608:70 *698:20 1.8441e-05
85 *608:70 *698:31 1.42331e-05
86 *608:70 *698:44 6.93626e-06
87 *608:96 *698:44 3.6236e-05
88 *642:8 *1517:A 5.52302e-05
89 *665:35 *698:44 1.03904e-05
90 *673:18 *698:44 0.000215108
91 *673:125 *1198:A 0.000303362
92 *673:125 *698:63 0.000222397
93 *673:125 *698:84 2.24646e-05
94 *691:26 *698:18 0.000196171
95 *694:12 *1517:A 1.02821e-05
96 *694:27 *1517:A 0.000123673
97 *694:38 *1517:A 0.000327163
*RES
1 *1566:X *698:18 34.0143 
2 *698:18 *698:20 1.64286 
3 *698:20 *1284:B 18.0321 
4 *698:20 *698:31 0.732143 
5 *698:31 *1285:B 14.3357 
6 *698:31 *698:44 9.17857 
7 *698:44 *1282:A1 9.3 
8 *698:44 *698:63 26.6786 
9 *698:63 *1198:A 19.5857 
10 *698:63 *698:84 37.8393 
11 *698:84 *1517:A 44.5321 
12 *698:84 *1147:C 10.9786 
13 *698:18 *1281:A2 14.8714 
*END

*D_NET *699 0.00679215
*CONN
*I *1003:D I *D sky130_fd_sc_hd__and4_4
*I *1002:B1 I *D sky130_fd_sc_hd__a22oi_2
*I *1567:A I *D sky130_fd_sc_hd__buf_12
*I *1519:X O *D sky130_fd_sc_hd__buf_8
*CAP
1 *1003:D 0.000315627
2 *1002:B1 0
3 *1567:A 0
4 *1519:X 0.000157263
5 *699:27 0.00113146
6 *699:12 0.000973094
7 *699:12 *702:29 0.000409196
8 *699:27 *1507:A 0.000547703
9 *699:27 *700:22 0.000227532
10 *699:27 *726:8 0.000144512
11 *1003:A *1003:D 5.41797e-05
12 *1003:A *699:27 4.46186e-06
13 *1162:A *699:27 1.24368e-05
14 *1172:A2_N *699:12 2.59355e-05
15 *1579:A *1003:D 6.09476e-05
16 *1579:A *699:27 0.000446428
17 *1688:A *699:27 6.04046e-05
18 *411:10 *1003:D 6.05161e-06
19 *532:23 *699:27 0.0002887
20 *532:46 *699:27 0
21 *533:14 *699:12 0.000408189
22 *533:14 *699:27 0
23 *535:25 *699:27 4.43256e-05
24 *636:27 *699:27 0
25 *641:10 *699:27 0.000179166
26 *653:70 *699:27 2.19302e-05
27 *677:8 *699:27 0.000357541
28 *677:21 *699:27 0.000915063
*RES
1 *1519:X *699:12 24.1214 
2 *699:12 *1567:A 9.3 
3 *699:12 *699:27 32.5714 
4 *699:27 *1002:B1 13.8 
5 *699:27 *1003:D 18.5857 
*END

*D_NET *700 0.0119948
*CONN
*I *991:A I *D sky130_fd_sc_hd__inv_2
*I *1166:C I *D sky130_fd_sc_hd__nand4_4
*I *1025:A2 I *D sky130_fd_sc_hd__a22oi_2
*I *1021:B I *D sky130_fd_sc_hd__nand2_2
*I *1011:A2 I *D sky130_fd_sc_hd__a22o_4
*I *1010:C I *D sky130_fd_sc_hd__nand4_2
*I *1169:A1 I *D sky130_fd_sc_hd__o2111ai_2
*I *1157:A I *D sky130_fd_sc_hd__nand2_4
*I *1567:X O *D sky130_fd_sc_hd__buf_12
*CAP
1 *991:A 8.67368e-05
2 *1166:C 0
3 *1025:A2 0
4 *1021:B 0.000389711
5 *1011:A2 2.76349e-05
6 *1010:C 0.000131249
7 *1169:A1 0.000148599
8 *1157:A 1.40568e-05
9 *1567:X 0.000512448
10 *700:78 0.00101234
11 *700:63 0.000766802
12 *700:43 0.000279848
13 *700:41 0.000642344
14 *700:30 0.000688477
15 *700:26 0.000543912
16 *700:22 0.00099448
17 *1011:A2 *701:41 2.89114e-05
18 *1169:A1 *717:69 0.000268396
19 *700:22 *1166:D 5.7661e-06
20 *700:22 *1519:A 5.41794e-05
21 *700:22 *703:83 1.02504e-05
22 *700:22 *703:94 0.000162118
23 *700:22 *703:107 9.10431e-06
24 *700:22 *714:50 5.59013e-05
25 *700:26 *1166:D 0.000216403
26 *700:30 *717:37 0
27 *700:41 *714:76 4.87885e-05
28 *700:63 *714:76 7.13188e-05
29 *700:63 *734:29 0
30 *700:78 *1013:A2 0.000220455
31 *700:78 *731:64 0.000623705
32 *700:78 *734:46 0
33 *1025:B2 *1021:B 1.86816e-05
34 *1027:A1 *700:78 0.000212831
35 *1090:B *700:78 4.78056e-05
36 *1162:A *700:22 5.96516e-05
37 *1163:C1 *700:41 0
38 *1164:A2 *700:22 0
39 *1165:A3 *700:41 0
40 *1166:A *700:26 2.44318e-05
41 *1166:B *700:26 4.96113e-05
42 *1167:B2 *700:22 4.78056e-05
43 *1172:A2_N *991:A 4.70048e-05
44 *1172:B2 *991:A 0.000212153
45 *1172:B2 *700:26 0.00056097
46 *1173:A_N *700:41 0.000105025
47 *1173:A_N *700:63 7.6021e-05
48 *1196:A2 *700:26 0.000139913
49 *1502:A *700:41 0.000176022
50 *134:28 *1157:A 5.52238e-05
51 *139:14 *700:41 0
52 *139:18 *700:30 0
53 *149:14 *1157:A 2.89016e-05
54 *173:10 *700:30 0
55 *283:10 *991:A 2.32625e-05
56 *283:10 *700:26 1.65169e-05
57 *305:92 *700:30 0
58 *305:92 *700:41 0
59 *305:92 *700:78 0
60 *488:21 *700:78 0
61 *499:16 *1021:B 0.000197427
62 *535:25 *700:22 0.000651562
63 *613:12 *700:41 0.00012026
64 *673:138 *700:22 0.000312022
65 *675:44 *1010:C 9.16173e-05
66 *675:44 *1169:A1 0.000478619
67 *699:27 *700:22 0.000227532
*RES
1 *1567:X *700:22 39.2464 
2 *700:22 *700:26 9.89286 
3 *700:26 *700:30 6.75 
4 *700:30 *1157:A 14.3357 
5 *700:30 *700:41 9.83929 
6 *700:41 *700:43 4.5 
7 *700:43 *1169:A1 13.9429 
8 *700:43 *1010:C 11.925 
9 *700:41 *700:63 2.85714 
10 *700:63 *1011:A2 14.3357 
11 *700:63 *700:78 19.7321 
12 *700:78 *1021:B 14.7107 
13 *700:78 *1025:A2 9.3 
14 *700:26 *1166:C 9.3 
15 *700:22 *991:A 12.2107 
*END

*D_NET *701 0.00885369
*CONN
*I *1700:A I *D sky130_fd_sc_hd__buf_2
*I *1699:A I *D sky130_fd_sc_hd__buf_2
*I *1519:A I *D sky130_fd_sc_hd__buf_8
*I *1520:X O *D sky130_fd_sc_hd__buf_8
*CAP
1 *1700:A 0.000129648
2 *1699:A 2.65875e-05
3 *1519:A 0.000197016
4 *1520:X 0.000136268
5 *701:41 0.00157334
6 *701:10 0.00175039
7 *1519:A *702:29 0.000518955
8 *1519:A *714:50 0.000108383
9 *1700:A *1635:A 9.25014e-06
10 *1700:A *722:50 0.000207769
11 *701:41 *1011:A1 2.89016e-05
12 *701:41 *1091:A2 7.83659e-05
13 *701:41 *1091:B1 0.000363496
14 *701:41 *702:29 3.34366e-05
15 *701:41 *714:50 3.67356e-05
16 *701:41 *714:62 0.000304394
17 *701:41 *714:76 3.97677e-05
18 *701:41 *714:78 0.000129407
19 *701:41 *722:50 0.000244642
20 *701:41 *734:10 0.000410289
21 *1011:A2 *701:41 2.89114e-05
22 *1011:B2 *701:41 9.60875e-05
23 *1029:A *701:41 0
24 *1090:A *701:41 3.30352e-05
25 *1092:A2 *1700:A 0.000117408
26 *1092:A2 *701:41 1.46624e-05
27 *1163:A1 *701:41 8.14438e-05
28 *1173:A_N *701:41 0.000390994
29 *1502:A *701:41 9.25014e-06
30 *1524:A *1699:A 0.000140933
31 *369:10 *701:41 6.19181e-05
32 *369:21 *701:41 8.80655e-05
33 *487:10 *701:41 1.32552e-05
34 *532:46 *701:41 2.58997e-05
35 *533:14 *701:10 0.000135028
36 *533:14 *701:41 1.90111e-05
37 *533:27 *701:10 0
38 *533:27 *701:41 0.000306317
39 *534:47 *1699:A 0.000140933
40 *655:10 *701:41 6.07328e-05
41 *658:23 *701:41 0.000426351
42 *675:18 *701:41 3.93185e-05
43 *698:84 *1519:A 0.00024292
44 *700:22 *1519:A 5.41794e-05
*RES
1 *1520:X *701:10 16.3 
2 *701:10 *1519:A 20.6036 
3 *701:10 *701:41 49.625 
4 *701:41 *1699:A 15.1571 
5 *701:41 *1700:A 17.1929 
*END

*D_NET *702 0.00616913
*CONN
*I *1520:A I *D sky130_fd_sc_hd__buf_8
*I *1619:A I *D sky130_fd_sc_hd__buf_2
*I *1521:X O *D sky130_fd_sc_hd__buf_6
*CAP
1 *1520:A 0
2 *1619:A 0.000173674
3 *1521:X 0
4 *702:29 0.00141481
5 *702:6 0.00158848
6 *702:29 *1200:A2 3.3245e-05
7 *702:29 *1200:B1 0.000148189
8 *702:29 *1200:B2 4.53124e-05
9 *702:29 *1568:A 0.00012501
10 *702:29 *708:10 4.90803e-05
11 *702:29 *714:24 0.000195287
12 *702:29 *714:131 0.000108031
13 *1204:A2 *702:29 0.00010286
14 *1519:A *702:29 0.000518955
15 *1521:A *1619:A 1.6815e-05
16 *1521:A *702:29 0.000109659
17 *1531:A *702:29 0
18 *177:8 *702:29 0.000176316
19 *532:46 *702:29 0.000122226
20 *533:14 *702:29 0.000202673
21 *698:63 *702:29 0.000375936
22 *698:84 *702:29 0.000219942
23 *699:12 *702:29 0.000409196
24 *701:41 *702:29 3.34366e-05
*RES
1 *1521:X *702:6 13.8 
2 *702:6 *1619:A 16.8893 
3 *702:6 *702:29 44.5 
4 *702:29 *1520:A 9.3 
*END

*D_NET *703 0.012558
*CONN
*I *1161:B I *D sky130_fd_sc_hd__and4_2
*I *1162:B I *D sky130_fd_sc_hd__nand4_4
*I *1165:A2 I *D sky130_fd_sc_hd__a41oi_2
*I *1159:A1 I *D sky130_fd_sc_hd__a22oi_2
*I *1089:A I *D sky130_fd_sc_hd__nand2_2
*I *1206:A1 I *D sky130_fd_sc_hd__a41o_2
*I *1201:A I *D sky130_fd_sc_hd__and4_4
*I *1202:A I *D sky130_fd_sc_hd__nand4_2
*I *1200:B2 I *D sky130_fd_sc_hd__a22o_2
*I *1199:B2 I *D sky130_fd_sc_hd__a22oi_2
*I *1522:X O *D sky130_fd_sc_hd__clkbuf_4
*CAP
1 *1161:B 0.000172439
2 *1162:B 3.19429e-05
3 *1165:A2 0.000405786
4 *1159:A1 0
5 *1089:A 0
6 *1206:A1 0.000122213
7 *1201:A 1.69531e-05
8 *1202:A 0.000133642
9 *1200:B2 0.000590369
10 *1199:B2 9.71873e-05
11 *1522:X 0.000272684
12 *703:111 0.00101545
13 *703:107 0.000898271
14 *703:94 0.000218268
15 *703:83 0.000415564
16 *703:16 0.000731374
17 *703:14 0.000255329
18 *703:12 0.000161416
19 *703:10 0.000250955
20 *703:8 0.000680236
21 *1161:B *1161:C 6.27659e-05
22 *1161:B *708:76 7.58516e-05
23 *1161:B *734:10 9.10431e-06
24 *1199:B2 *1202:C 5.66157e-05
25 *1200:B2 *1200:B1 5.80706e-06
26 *1200:B2 *1202:C 8.85631e-05
27 *1202:A *707:6 0.000105471
28 *1206:A1 *1206:A3 0.000204671
29 *703:8 *717:12 5.13075e-05
30 *703:10 *708:42 1.0946e-05
31 *703:12 *708:42 2.49484e-05
32 *703:14 *1202:C 3.34366e-05
33 *703:16 *1202:C 0.00012401
34 *703:83 *708:42 0.00011664
35 *703:94 *708:42 7.50505e-05
36 *703:107 *1159:A2 1.3701e-05
37 *703:107 *708:42 5.03772e-05
38 *1158:B *1165:A2 0.000107472
39 *1162:A *1162:B 1.97695e-05
40 *1162:A *1165:A2 3.20584e-05
41 *1162:A *703:111 0.000760204
42 *1164:A2 *703:94 9.11365e-06
43 *1164:A2 *703:107 0.000193125
44 *1165:A1 *1165:A2 0
45 *1165:A3 *1165:A2 0.000389842
46 *1167:B2 *703:107 0.000225372
47 *1198:A *1201:A 5.33005e-05
48 *1199:B1 *1199:B2 1.08359e-05
49 *1203:A1 *703:10 0.000147834
50 *1203:A1 *703:83 5.41794e-05
51 *1203:A2 *1206:A1 5.33005e-05
52 *1203:B1 *1202:A 6.57032e-05
53 *1203:C1 *1206:A1 9.71197e-05
54 *1205:A2 *1199:B2 0.000104974
55 *1205:A2 *703:10 0.000160805
56 *1205:A2 *703:12 0.000159689
57 *1205:A2 *703:14 0.00021192
58 *1205:A2 *703:16 0.000115474
59 *1205:A2 *703:83 2.48938e-05
60 *1205:B2 *703:8 0.000266473
61 *1206:A2 *1206:A1 0.000175681
62 *1206:A2 *703:12 0.000121573
63 *1206:A2 *703:14 3.17148e-05
64 *1278:B1 *1199:B2 0
65 *1502:A *1161:B 0
66 *1502:A *703:107 0
67 *1531:A *1200:B2 0
68 *1653:A *1199:B2 0
69 *138:10 *1161:B 0.000261069
70 *138:10 *703:107 4.45756e-05
71 *175:6 *1199:B2 5.33005e-05
72 *175:6 *1200:B2 6.05161e-06
73 *294:8 *703:83 0.000308351
74 *562:71 *1201:A 5.33005e-05
75 *588:29 *1199:B2 9.10431e-06
76 *588:29 *703:14 5.56962e-05
77 *653:26 *1161:B 0
78 *673:138 *703:83 0.000346507
79 *698:84 *703:107 2.14658e-05
80 *700:22 *703:83 1.02504e-05
81 *700:22 *703:94 0.000162118
82 *700:22 *703:107 9.10431e-06
83 *702:29 *1200:B2 4.53124e-05
*RES
1 *1522:X *703:8 18.4429 
2 *703:8 *703:10 2.25 
3 *703:10 *703:12 2.25 
4 *703:12 *703:14 2.85714 
5 *703:14 *703:16 1.64286 
6 *703:16 *1199:B2 16.1036 
7 *703:16 *1200:B2 30.2107 
8 *703:14 *1202:A 16.4071 
9 *703:12 *1201:A 14.3357 
10 *703:10 *1206:A1 18.0321 
11 *703:8 *703:83 9.33929 
12 *703:83 *1089:A 13.8 
13 *703:83 *703:94 6.75 
14 *703:94 *1159:A1 9.3 
15 *703:94 *703:107 9.03571 
16 *703:107 *703:111 12.4286 
17 *703:111 *1165:A2 15.6214 
18 *703:111 *1162:B 10.0321 
19 *703:107 *1161:B 18.175 
*END

*D_NET *704 0.00740322
*CONN
*I *1002:A2 I *D sky130_fd_sc_hd__a22oi_2
*I *1003:C I *D sky130_fd_sc_hd__and4_4
*I *1697:A I *D sky130_fd_sc_hd__buf_2
*I *1160:A1 I *D sky130_fd_sc_hd__a22o_2
*I *1523:X O *D sky130_fd_sc_hd__buf_6
*CAP
1 *1002:A2 0
2 *1003:C 0.000355213
3 *1697:A 3.87483e-05
4 *1160:A1 0.000530998
5 *1523:X 3.07457e-05
6 *704:44 0.000854292
7 *704:16 0.000761536
8 *704:8 0.000721615
9 *1003:C *1002:A1 0.000299267
10 *1003:C *1003:B 7.83659e-05
11 *1160:A1 *999:A 5.68722e-05
12 *1160:A1 *1160:B1 6.90011e-05
13 *1160:A1 *1507:A 0.000139907
14 p[1] *704:44 0
15 *999:C *1160:A1 0.000244793
16 *999:C *704:16 5.63161e-05
17 *1004:B1 *704:44 0.000175519
18 *1005:C *704:44 0.000116944
19 *1160:B2 *1160:A1 0.000368329
20 *1163:A2 *1160:A1 5.52238e-05
21 *1540:A *704:44 0
22 *1579:A *704:16 0.000144578
23 *1579:A *704:44 0.000496365
24 *1702:A *1003:C 2.28499e-05
25 *137:19 *1160:A1 0.000317403
26 *369:10 *1160:A1 0.00048746
27 *400:10 *1003:C 1.17966e-05
28 *400:10 *704:44 0.000175519
29 *411:10 *1003:C 8.00806e-05
30 *532:46 *1160:A1 0.000138723
31 *636:27 *704:8 5.52238e-05
32 *636:27 *704:16 0.000199699
33 *641:10 *704:16 6.8646e-06
34 *641:89 *704:44 0.0001793
35 *653:6 *1160:A1 7.48992e-05
36 *653:6 *1697:A 1.32552e-05
37 *653:8 *1160:A1 4.55132e-05
*RES
1 *1523:X *704:8 14.3357 
2 *704:8 *704:16 10.1429 
3 *704:16 *1160:A1 25.7286 
4 *704:16 *1697:A 10.2643 
5 *704:8 *704:44 18.8929 
6 *704:44 *1003:C 24.0143 
7 *704:44 *1002:A2 9.3 
*END

*D_NET *705 0.0103131
*CONN
*I *1091:A1 I *D sky130_fd_sc_hd__a22oi_2
*I *1087:A I *D sky130_fd_sc_hd__and2_2
*I *1024:B I *D sky130_fd_sc_hd__nand4_4
*I *1023:B2 I *D sky130_fd_sc_hd__a22o_4
*I *1057:A1 I *D sky130_fd_sc_hd__a41o_4
*I *1051:A1 I *D sky130_fd_sc_hd__a22o_2
*I *1052:A I *D sky130_fd_sc_hd__and4_2
*I *1053:A I *D sky130_fd_sc_hd__nand4_2
*I *1050:A2 I *D sky130_fd_sc_hd__a22oi_2
*I *1022:B2 I *D sky130_fd_sc_hd__a22oi_2
*I *1524:X O *D sky130_fd_sc_hd__buf_6
*CAP
1 *1091:A1 0
2 *1087:A 1.99765e-05
3 *1024:B 5.59217e-05
4 *1023:B2 0.00017761
5 *1057:A1 0
6 *1051:A1 0.000185329
7 *1052:A 0
8 *1053:A 0.000109004
9 *1050:A2 0
10 *1022:B2 0
11 *1524:X 0.000139205
12 *705:80 0.000310674
13 *705:60 0.000139649
14 *705:58 0.000625978
15 *705:41 0.000970415
16 *705:35 0.000728451
17 *705:26 0.000187044
18 *705:22 0.000513338
19 *705:18 0.00044649
20 *705:14 0.000244933
21 *1023:B2 *722:69 4.75956e-06
22 *1024:B *734:46 0.000142856
23 *1051:A1 *727:27 0.000306932
24 *1051:A1 *727:102 5.33005e-05
25 *1087:A *1087:B 0.00010096
26 *1087:A *1091:B1 0.000131439
27 *705:14 *1091:B1 4.88637e-05
28 *705:14 *722:50 5.03787e-05
29 *705:18 *1091:B1 0.000275173
30 *705:22 *1635:A 2.63433e-05
31 *705:22 *722:69 3.88323e-05
32 *705:35 *722:69 5.90434e-05
33 *705:41 *1050:B1 0
34 *1024:C *705:26 0.000222878
35 *1024:C *705:35 2.31791e-05
36 *1026:A *1023:B2 2.94103e-05
37 *1053:B *1053:A 9.60875e-05
38 *1057:A3 *1051:A1 0
39 *1057:B1 *1051:A1 0.000320024
40 *1057:B1 *705:80 0
41 *1064:B *1023:B2 1.97381e-05
42 *1065:A1 *1023:B2 4.97732e-05
43 *1065:A2 *1023:B2 3.34366e-05
44 *1065:A2 *705:26 3.51442e-05
45 *1065:A2 *705:35 0.000153047
46 *1065:C1 *705:41 5.52302e-05
47 *1067:A1 *705:41 3.08382e-06
48 *1067:A1 *705:58 1.21436e-05
49 *1067:B1 *705:41 3.18676e-05
50 *1071:B1 *705:41 0.000142856
51 *1071:B1 *705:58 1.21258e-05
52 *1090:A *705:22 0.000125724
53 *1092:A2 *705:22 0.000310314
54 *1101:A1 *1087:A 2.14757e-05
55 *1101:A1 *705:14 9.90431e-05
56 *1101:A1 *705:18 0.000120885
57 *1109:A1 *1053:A 0.000235242
58 *1109:A1 *705:58 5.33005e-05
59 *1109:A1 *705:60 0.000186662
60 *1109:A2 *1051:A1 0.000191874
61 *1693:A *705:58 4.64967e-05
62 *36:10 *1051:A1 7.32955e-05
63 *44:6 *705:41 7.99256e-05
64 *44:12 *705:41 5.04705e-05
65 *44:12 *705:58 9.60875e-05
66 *65:14 *705:22 8.08022e-05
67 *326:39 *705:14 5.48581e-05
68 *500:8 *1023:B2 3.43988e-06
69 *500:17 *1023:B2 6.35998e-05
70 *500:21 *1023:B2 7.48091e-05
71 *534:47 *705:14 5.33334e-05
72 *655:53 *705:58 0.000137983
73 *655:57 *705:58 0.000120617
74 *655:59 *1053:A 0.00010096
75 *655:59 *705:58 3.97677e-05
76 *655:59 *705:60 9.47613e-05
77 *655:61 *1053:A 0.000271352
78 *665:41 *1023:B2 0
79 *665:41 *705:22 0
80 *665:41 *705:26 0
81 *674:108 *705:80 0.000193118
*RES
1 *1524:X *705:14 22.1393 
2 *705:14 *705:18 3.01786 
3 *705:18 *705:22 11.9107 
4 *705:22 *705:26 3.39286 
5 *705:26 *1022:B2 13.8 
6 *705:26 *705:35 1.94643 
7 *705:35 *705:41 12.8571 
8 *705:41 *1050:A2 9.3 
9 *705:41 *705:58 9.05357 
10 *705:58 *705:60 1.76786 
11 *705:60 *1053:A 13.9607 
12 *705:60 *1052:A 9.3 
13 *705:58 *705:80 11.5536 
14 *705:80 *1051:A1 16.8714 
15 *705:80 *1057:A1 9.3 
16 *705:35 *1023:B2 18.3179 
17 *705:22 *1024:B 15.1571 
18 *705:18 *1087:A 10.6571 
19 *705:14 *1091:A1 9.3 
*END

*D_NET *706 0.00394238
*CONN
*I *1512:A I *D sky130_fd_sc_hd__buf_6
*I *1561:A I *D sky130_fd_sc_hd__clkbuf_4
*I *1557:X O *D sky130_fd_sc_hd__clkdlybuf4s25_1
*CAP
1 *1512:A 0.000212436
2 *1561:A 0.00038056
3 *1557:X 0.000530084
4 *706:6 0.00112308
5 *1512:A *1440:A 9.02862e-06
6 *706:6 *715:8 0.000230475
7 *1465:A1 *1512:A 0.000125241
8 *1466:B1 *1512:A 0.000151141
9 *1469:C *706:6 7.77652e-05
10 *1511:A *1512:A 0
11 *1511:A *1561:A 9.60939e-05
12 *1513:A *1512:A 3.69436e-05
13 *1548:A *1561:A 6.05161e-06
14 *1548:A *706:6 0.000219073
15 *1557:A *706:6 0.000144478
16 *1558:A *706:6 5.33334e-05
17 *1562:A *1512:A 4.70092e-05
18 *566:10 *1561:A 7.65719e-05
19 *680:10 *706:6 5.71472e-05
20 *680:27 *1512:A 0
21 *681:16 *1561:A 9.90431e-05
22 *681:27 *1512:A 9.25014e-06
23 *684:10 *1561:A 3.18676e-05
24 *689:12 *1561:A 0.000225705
*RES
1 *1557:X *706:6 20.925 
2 *706:6 *1561:A 17.675 
3 *706:6 *1512:A 22.675 
*END

*D_NET *707 0.00194365
*CONN
*I *1671:A I *D sky130_fd_sc_hd__buf_2
*I *1568:A I *D sky130_fd_sc_hd__buf_8
*I *1525:X O *D sky130_fd_sc_hd__buf_6
*CAP
1 *1671:A 0.00014204
2 *1568:A 7.35146e-05
3 *1525:X 0.000450557
4 *707:6 0.000666112
5 *1568:A *1200:A2 7.83587e-05
6 *707:6 *1200:A2 1.46576e-05
7 *1199:B1 *707:6 5.33005e-05
8 *1200:A1 *1671:A 2.14658e-05
9 *1200:A1 *707:6 6.44636e-05
10 *1202:A *707:6 0.000105471
11 *1203:B1 *707:6 1.40034e-05
12 *562:103 *707:6 4.58194e-05
13 *620:8 *1671:A 6.26078e-05
14 *620:8 *707:6 1.02936e-05
15 *698:63 *1568:A 1.59782e-05
16 *702:29 *1568:A 0.00012501
*RES
1 *1525:X *707:6 15.9964 
2 *707:6 *1568:A 20.3714 
3 *707:6 *1671:A 11.9071 
*END

*D_NET *708 0.00865721
*CONN
*I *1159:B2 I *D sky130_fd_sc_hd__a22oi_2
*I *1161:D I *D sky130_fd_sc_hd__and4_2
*I *1160:B1 I *D sky130_fd_sc_hd__a22o_2
*I *1664:A I *D sky130_fd_sc_hd__buf_2
*I *1162:D I *D sky130_fd_sc_hd__nand4_4
*I *1201:D I *D sky130_fd_sc_hd__and4_4
*I *1200:B1 I *D sky130_fd_sc_hd__a22o_2
*I *1568:X O *D sky130_fd_sc_hd__buf_8
*CAP
1 *1159:B2 0
2 *1161:D 1.72105e-05
3 *1160:B1 0.000334219
4 *1664:A 0
5 *1162:D 3.93689e-05
6 *1201:D 0
7 *1200:B1 7.8694e-05
8 *1568:X 4.73373e-05
9 *708:76 0.000493026
10 *708:65 0.000262611
11 *708:50 0.000289347
12 *708:42 0.000882997
13 *708:23 0.000903054
14 *708:10 0.000275052
15 *1161:D *1161:C 5.59013e-05
16 *1161:D *734:10 4.66511e-05
17 *1200:B1 *714:131 3.17148e-05
18 *708:10 *714:131 6.87415e-05
19 *708:23 *1201:C 0.000219711
20 *708:23 *714:131 0.000135028
21 *708:42 *1201:C 2.28499e-05
22 *708:76 *1161:C 9.25014e-06
23 *708:76 *734:10 0.000166503
24 *1160:A1 *1160:B1 6.90011e-05
25 *1160:B2 *1160:B1 0.00063636
26 *1161:B *708:76 7.58516e-05
27 *1162:A *1162:D 9.41642e-05
28 *1163:A1 *708:65 0.000156661
29 *1163:A2 *1162:D 5.33005e-05
30 *1163:A2 *708:50 3.06511e-05
31 *1163:A2 *708:65 0.000158376
32 *1164:A2 *708:42 0.000333486
33 *1167:B2 *708:42 2.42516e-05
34 *1173:B *1160:B1 9.60939e-05
35 *1173:C *708:50 0.000163128
36 *1197:A1 *708:42 2.84026e-05
37 *1198:A *708:23 2.42516e-05
38 *1200:B2 *1200:B1 5.80706e-06
39 *1203:A1 *708:42 0.000192968
40 *1206:A2 *708:42 0.000144038
41 *1531:A *1200:B1 0
42 *136:15 *708:50 3.34295e-05
43 *138:10 *1160:B1 9.41642e-05
44 *149:14 *708:42 0.000346906
45 *283:10 *708:50 0.000140318
46 *283:10 *708:65 9.25014e-06
47 *294:8 *708:42 0.000319309
48 *533:27 *708:65 9.41642e-05
49 *533:27 *708:76 0.000137983
50 *562:103 *708:23 1.98839e-05
51 *562:103 *708:42 5.90666e-05
52 *588:29 *708:42 0.000217651
53 *588:52 *708:42 1.04707e-05
54 *613:12 *708:65 6.05161e-06
55 *698:84 *708:42 2.72695e-05
56 *702:29 *1200:B1 0.000148189
57 *702:29 *708:10 4.90803e-05
58 *703:10 *708:42 1.0946e-05
59 *703:12 *708:42 2.49484e-05
60 *703:83 *708:42 0.00011664
61 *703:94 *708:42 7.50505e-05
62 *703:107 *708:42 5.03772e-05
*RES
1 *1568:X *708:10 15.0679 
2 *708:10 *1200:B1 15.7464 
3 *708:10 *708:23 7.91071 
4 *708:23 *1201:D 9.3 
5 *708:23 *708:42 28.1964 
6 *708:42 *708:50 8.01786 
7 *708:50 *1162:D 14.7464 
8 *708:50 *708:65 7.69643 
9 *708:65 *1664:A 9.3 
10 *708:65 *708:76 8.10714 
11 *708:76 *1160:B1 21.3536 
12 *708:76 *1161:D 14.5321 
13 *708:42 *1159:B2 9.3 
*END

*D_NET *709 0.00171393
*CONN
*I *1674:A I *D sky130_fd_sc_hd__buf_2
*I *1569:A I *D sky130_fd_sc_hd__buf_8
*I *1526:X O *D sky130_fd_sc_hd__buf_6
*CAP
1 *1674:A 0.000297257
2 *1569:A 0
3 *1526:X 0.000285841
4 *709:14 0.000583098
5 *1674:A *710:10 0
6 *1674:A *716:44 9.60875e-05
7 *709:14 *710:10 0
8 *1404:A1 *1674:A 3.93986e-05
9 *1441:D *709:14 0
10 *1444:B2 *1674:A 0.000171368
11 *1526:A *709:14 0.000117581
12 *568:34 *1674:A 9.60875e-05
13 *690:10 *709:14 2.72083e-05
14 *690:23 *1674:A 0
15 *690:23 *709:14 0
*RES
1 *1526:X *709:14 19.1929 
2 *709:14 *1569:A 13.8 
3 *709:14 *1674:A 19.7286 
*END

*D_NET *710 0.00692034
*CONN
*I *1525:A I *D sky130_fd_sc_hd__buf_6
*I *1660:A I *D sky130_fd_sc_hd__buf_2
*I *1569:X O *D sky130_fd_sc_hd__buf_8
*CAP
1 *1525:A 0
2 *1660:A 0
3 *1569:X 0.000432428
4 *710:31 0.0018108
5 *710:10 0.00224323
6 *710:31 *716:107 0.000404132
7 *1206:A4 *710:31 3.18676e-05
8 *1288:B2 *710:31 6.321e-05
9 *1289:A1 *710:31 0.000138135
10 *1290:C *710:31 0
11 *1293:A *710:31 5.59013e-05
12 *1314:A1 *710:31 7.252e-05
13 *1342:A1 *710:31 1.9516e-05
14 *1343:B1 *710:31 0.000335947
15 *1349:B1 *710:31 2.89114e-05
16 *1349:B2 *710:31 4.17014e-05
17 *1350:B2 *710:10 0.000149904
18 *1352:A2 *710:31 1.92905e-05
19 *1353:B2 *710:31 0.000186669
20 *1354:C1 *710:10 0
21 *1404:A1 *710:10 3.93893e-05
22 *1444:B2 *710:10 0
23 *1674:A *710:10 0
24 *203:12 *710:31 0
25 *253:10 *710:31 0.0002253
26 *253:12 *710:31 0.000224592
27 *256:14 *710:31 3.70777e-05
28 *266:8 *710:31 9.10877e-06
29 *269:12 *710:31 0
30 *305:25 *710:31 2.07809e-05
31 *327:8 *710:10 0
32 *388:16 *710:10 9.59532e-06
33 *645:18 *710:31 0.00011659
34 *673:28 *710:31 7.58841e-05
35 *673:48 *710:10 1.31235e-05
36 *691:12 *710:31 0.000114736
37 *709:14 *710:10 0
*RES
1 *1569:X *710:10 25.7107 
2 *710:10 *1660:A 9.3 
3 *710:10 *710:31 44.6429 
4 *710:31 *1525:A 9.3 
*END

*D_NET *711 0.00431958
*CONN
*I *1202:C I *D sky130_fd_sc_hd__nand4_2
*I *1199:A1 I *D sky130_fd_sc_hd__a22oi_2
*I *1570:A I *D sky130_fd_sc_hd__buf_4
*I *1282:A2 I *D sky130_fd_sc_hd__a22o_2
*I *1527:X O *D sky130_fd_sc_hd__buf_4
*CAP
1 *1202:C 0.000186723
2 *1199:A1 0
3 *1570:A 0
4 *1282:A2 0.000159973
5 *1527:X 0.000367184
6 *711:26 0.000412053
7 *711:10 0.000159973
8 *711:8 0.000592514
9 *1199:A2 *711:26 1.02504e-05
10 *1199:B1 *1202:C 0.000197984
11 *1199:B2 *1202:C 5.66157e-05
12 *1200:B2 *1202:C 8.85631e-05
13 *1504:A *1282:A2 0.000112158
14 *1521:A *711:8 8.44626e-05
15 *588:18 *711:8 0.000190958
16 *588:29 *711:8 0.000194914
17 *588:29 *711:26 0.000122993
18 *673:125 *711:26 0.000540582
19 *698:63 *1282:A2 0.000239416
20 *698:63 *711:8 2.80728e-05
21 *698:63 *711:26 0.000416743
22 *703:14 *1202:C 3.34366e-05
23 *703:16 *1202:C 0.00012401
*RES
1 *1527:X *711:8 23.3357 
2 *711:8 *711:10 4.5 
3 *711:10 *1282:A2 12.8893 
4 *711:10 *1570:A 9.3 
5 *711:8 *711:26 14.3393 
6 *711:26 *1199:A1 9.3 
7 *711:26 *1202:C 23.05 
*END

*D_NET *712 0.0185735
*CONN
*I *1281:A1 I *D sky130_fd_sc_hd__a22oi_2
*I *1401:A2 I *D sky130_fd_sc_hd__a22o_2
*I *1442:A1 I *D sky130_fd_sc_hd__a22o_2
*I *1441:B I *D sky130_fd_sc_hd__nand4_2
*I *1400:C I *D sky130_fd_sc_hd__nand4_4
*I *1465:B2 I *D sky130_fd_sc_hd__a22oi_2
*I *1440:A I *D sky130_fd_sc_hd__and2_2
*I *1570:X O *D sky130_fd_sc_hd__buf_4
*CAP
1 *1281:A1 0
2 *1401:A2 1.15841e-05
3 *1442:A1 6.97842e-05
4 *1441:B 0.00014827
5 *1400:C 5.01113e-05
6 *1465:B2 0
7 *1440:A 0.00063112
8 *1570:X 0.000389515
9 *712:70 0.000334883
10 *712:42 0.00149594
11 *712:34 0.00129913
12 *712:30 0.000479236
13 *712:28 0.0024264
14 *712:14 0.00269268
15 *712:28 *1361:A1 8.47008e-05
16 *712:42 *718:6 0.000295549
17 *712:42 *719:14 9.90367e-05
18 *1281:A2 *712:14 5.49995e-05
19 *1281:B2 *712:14 1.52217e-05
20 *1281:B2 *712:28 0.000236106
21 *1286:A1 *712:14 5.83768e-05
22 *1348:A *712:28 1.62025e-05
23 *1348:B *712:28 0.000525347
24 *1356:B *712:28 0.000239788
25 *1363:B1 *1440:A 2.38501e-05
26 *1400:B *1400:C 5.52302e-05
27 *1400:B *1441:B 3.14078e-05
28 *1400:B *712:34 7.73099e-05
29 *1400:B *712:70 1.02821e-05
30 *1403:A *712:30 3.06466e-05
31 *1403:A *712:34 0.000166503
32 *1405:A1 *1440:A 5.33072e-05
33 *1441:A *1441:B 6.10591e-05
34 *1441:C *1441:B 7.02884e-05
35 *1442:B2 *1442:A1 9.71197e-05
36 *1444:B2 *712:28 0.000224575
37 *1445:A1 *712:34 0
38 *1445:A1 *712:42 2.95641e-05
39 *1445:A2 *712:34 0
40 *1445:B1 *712:42 0.000318101
41 *1445:B1 *712:70 0.000274294
42 *1465:B1 *712:42 4.56279e-06
43 *1466:B1 *1440:A 0.000752761
44 *1501:A *712:28 5.03332e-05
45 *1511:A *1440:A 4.22135e-06
46 *1512:A *1440:A 9.02862e-06
47 *1556:A *712:42 0.000482594
48 *256:8 *712:28 0.000110694
49 *316:10 *712:14 0.000135378
50 *335:24 *712:28 0.000127971
51 *335:24 *712:30 8.69449e-05
52 *335:24 *712:34 5.86416e-05
53 *344:14 *1440:A 5.86706e-05
54 *348:6 *712:28 0.00022887
55 *385:10 *1401:A2 1.46968e-05
56 *385:10 *712:28 5.66157e-05
57 *385:10 *712:30 0.000155293
58 *386:8 *1442:A1 0.000226835
59 *426:12 *1440:A 0.000521158
60 *431:14 *712:42 0.000596747
61 *436:12 *1440:A 3.18676e-05
62 *436:12 *712:42 3.45337e-05
63 *561:16 *712:34 0
64 *562:6 *712:14 7.28875e-05
65 *588:18 *712:14 0.000195856
66 *588:29 *712:14 0.00035056
67 *608:61 *712:28 5.54817e-06
68 *608:70 *712:28 2.71964e-05
69 *618:58 *1440:A 0.000370851
70 *681:27 *1440:A 0.000106088
71 *681:83 *1440:A 6.30912e-05
72 *687:6 *1401:A2 3.02036e-05
73 *687:25 *712:28 8.19993e-05
74 *690:55 *1442:A1 4.79874e-05
75 *695:8 *712:42 0.00024162
76 *698:18 *712:28 9.15842e-06
77 *698:20 *712:28 4.44838e-05
*RES
1 *1570:X *712:14 28.8357 
2 *712:14 *712:28 45.4643 
3 *712:28 *712:30 2.55357 
4 *712:30 *712:34 9.78571 
5 *712:34 *712:42 21.0179 
6 *712:42 *1440:A 37.3893 
7 *712:42 *1465:B2 9.3 
8 *712:34 *712:70 3 
9 *712:70 *1400:C 10.5679 
10 *712:70 *1441:B 21.9071 
11 *712:30 *1442:A1 16.4071 
12 *712:28 *1401:A2 14.1036 
13 *712:14 *1281:A1 9.3 
*END

*D_NET *713 0.00553643
*CONN
*I *1347:A2 I *D sky130_fd_sc_hd__a22oi_2
*I *1345:B I *D sky130_fd_sc_hd__nand2_2
*I *1346:C I *D sky130_fd_sc_hd__nand4_2
*I *1285:C I *D sky130_fd_sc_hd__nand4_2
*I *1284:C I *D sky130_fd_sc_hd__and4_2
*I *1528:X O *D sky130_fd_sc_hd__dlymetal6s2s_1
*CAP
1 *1347:A2 0
2 *1345:B 3.00142e-05
3 *1346:C 0.000227823
4 *1285:C 2.31647e-05
5 *1284:C 0.00050615
6 *1528:X 0.000225622
7 *713:37 0.000670403
8 *713:31 0.000835188
9 *713:6 0.000332314
10 *713:31 *716:86 0
11 *713:31 *716:101 0
12 *1283:A *1345:B 0
13 *1283:A *713:37 1.39726e-05
14 *1283:B *713:37 1.97865e-05
15 *1284:A *1284:C 2.38501e-05
16 *1284:A *713:6 9.80189e-05
17 *1284:D *1284:C 0.000212169
18 *1285:A *713:6 5.33005e-05
19 *1285:B *713:6 5.49995e-05
20 *1287:A2 *1284:C 2.12647e-05
21 *1287:A2 *713:6 6.05161e-06
22 *1346:A *1346:C 1.74352e-05
23 *1346:A *713:37 1.21289e-05
24 *1346:B *1345:B 3.57366e-05
25 *1346:B *1346:C 0.000287989
26 *1346:D *1346:C 4.55318e-05
27 *1528:A *713:6 0.000141036
28 *255:22 *713:31 8.49275e-05
29 *258:10 *713:37 0.000227539
30 *260:6 *1284:C 8.43386e-05
31 *260:10 *1284:C 0.000136733
32 *265:8 *713:31 0.000101178
33 *325:10 *1346:C 1.33343e-05
34 *325:10 *713:37 9.80173e-05
35 *608:28 *713:31 0
36 *676:16 *713:37 0
37 *691:16 *713:31 0.000493492
38 *691:16 *713:37 1.02504e-05
39 *691:49 *713:31 5.41794e-05
40 *691:64 *713:31 0.000338492
*RES
1 *1528:X *713:6 13.9429 
2 *713:6 *1284:C 12.3179 
3 *713:6 *1285:C 9.72857 
4 *1284:C *713:31 25.1571 
5 *713:31 *713:37 11.8036 
6 *713:37 *1346:C 14.2643 
7 *713:37 *1345:B 10.0321 
8 *713:31 *1347:A2 13.8 
*END

*D_NET *714 0.0149008
*CONN
*I *1200:A2 I *D sky130_fd_sc_hd__a22o_2
*I *1201:C I *D sky130_fd_sc_hd__and4_4
*I *1161:C I *D sky130_fd_sc_hd__and4_2
*I *1160:A2 I *D sky130_fd_sc_hd__a22o_2
*I *1090:D I *D sky130_fd_sc_hd__and4_2
*I *1091:B1 I *D sky130_fd_sc_hd__a22oi_2
*I *1087:B I *D sky130_fd_sc_hd__and2_2
*I *1159:A2 I *D sky130_fd_sc_hd__a22oi_2
*I *1088:B I *D sky130_fd_sc_hd__nand2_2
*I *1206:A3 I *D sky130_fd_sc_hd__a41o_2
*I *1529:X O *D sky130_fd_sc_hd__buf_6
*CAP
1 *1200:A2 0.000119995
2 *1201:C 0.000201289
3 *1161:C 0.00015264
4 *1160:A2 0
5 *1090:D 0
6 *1091:B1 0.000242299
7 *1087:B 1.3534e-05
8 *1159:A2 6.65663e-05
9 *1088:B 0
10 *1206:A3 0.000399199
11 *1529:X 0.000452111
12 *714:131 0.000651755
13 *714:78 0.000319914
14 *714:76 0.000412685
15 *714:62 0.00116378
16 *714:50 0.0012054
17 *714:37 0.000583927
18 *714:24 0.000520553
19 *714:22 0.000624156
20 *1087:A *1087:B 0.00010096
21 *1087:A *1091:B1 0.000131439
22 *1090:A *714:76 9.41642e-05
23 *1090:A *714:78 6.87146e-05
24 *1101:A1 *1087:B 0.000144773
25 *1101:A1 *1091:B1 1.74352e-05
26 *1101:A1 *714:78 0.000185643
27 *1160:B2 *1161:C 0.000139907
28 *1161:B *1161:C 6.27659e-05
29 *1161:D *1161:C 5.59013e-05
30 *1163:C1 *714:62 0
31 *1164:A2 *714:50 1.31516e-05
32 *1170:A1 *714:76 0.000246351
33 *1172:B1 *714:50 0.000144038
34 *1172:B2 *1159:A2 6.05161e-06
35 *1172:B2 *714:37 5.96516e-05
36 *1173:A_N *714:62 5.19454e-05
37 *1173:B *714:62 0
38 *1200:A1 *1200:A2 1.57155e-05
39 *1200:B1 *714:131 3.17148e-05
40 *1203:A1 *1206:A3 5.33005e-05
41 *1203:A2 *1206:A3 5.33005e-05
42 *1206:A1 *1206:A3 0.000204671
43 *1206:A2 *1206:A3 2.94234e-05
44 *1206:B1 *1206:A3 0.000309603
45 *1502:A *714:62 0.000647134
46 *1503:A *714:24 0
47 *1519:A *714:50 0.000108383
48 *1529:A *1206:A3 0.000181796
49 *1529:A *714:22 9.60939e-05
50 *1531:A *714:24 0
51 *1531:A *714:131 0
52 *1545:A *714:24 0.000154762
53 *1545:A *714:37 0.000414502
54 *1568:A *1200:A2 7.83587e-05
55 *137:19 *714:62 7.13226e-06
56 *137:19 *714:76 4.69415e-05
57 *138:10 *1161:C 0.000128595
58 *138:10 *714:50 0.000122879
59 *149:14 *1159:A2 2.15245e-05
60 *149:14 *714:37 2.47753e-05
61 *305:92 *714:76 0.000358902
62 *532:46 *1161:C 4.18895e-05
63 *533:14 *714:24 0.000154762
64 *533:14 *714:37 0.000429398
65 *533:27 *714:62 1.5424e-05
66 *534:14 *714:76 5.71472e-05
67 *653:26 *1161:C 1.76039e-05
68 *698:63 *1200:A2 6.884e-05
69 *698:84 *1159:A2 9.41642e-05
70 *698:84 *714:37 5.33005e-05
71 *698:84 *714:50 3.17148e-05
72 *700:22 *714:50 5.59013e-05
73 *700:41 *714:76 4.87885e-05
74 *700:63 *714:76 7.13188e-05
75 *701:41 *1091:B1 0.000363496
76 *701:41 *714:50 3.67356e-05
77 *701:41 *714:62 0.000304394
78 *701:41 *714:76 3.97677e-05
79 *701:41 *714:78 0.000129407
80 *702:29 *1200:A2 3.3245e-05
81 *702:29 *714:24 0.000195287
82 *702:29 *714:131 0.000108031
83 *703:107 *1159:A2 1.3701e-05
84 *705:14 *1091:B1 4.88637e-05
85 *705:18 *1091:B1 0.000275173
86 *707:6 *1200:A2 1.46576e-05
87 *708:10 *714:131 6.87415e-05
88 *708:23 *1201:C 0.000219711
89 *708:23 *714:131 0.000135028
90 *708:42 *1201:C 2.28499e-05
91 *708:76 *1161:C 9.25014e-06
*RES
1 *1529:X *1206:A3 27.2607 
2 *1529:X *714:22 14.7464 
3 *714:22 *714:24 6.80357 
4 *714:24 *1088:B 13.8 
5 *714:24 *714:37 12.6786 
6 *714:37 *1159:A2 10.9786 
7 *714:37 *714:50 9.78571 
8 *714:50 *714:62 25.1652 
9 *714:62 *714:76 18.567 
10 *714:76 *714:78 2.58929 
11 *714:78 *1087:B 10.6571 
12 *714:78 *1091:B1 16.2286 
13 *714:76 *1090:D 9.3 
14 *714:62 *1160:A2 9.3 
15 *714:50 *1161:C 26.6393 
16 *714:22 *714:131 10.5714 
17 *714:131 *1201:C 11.8893 
18 *714:131 *1200:A2 20.7509 
*END

*D_NET *715 0.0117717
*CONN
*I *1257:A2 I *D sky130_fd_sc_hd__a31o_2
*I *1510:A I *D sky130_fd_sc_hd__clkbuf_2
*I *1558:X O *D sky130_fd_sc_hd__clkdlybuf4s25_1
*CAP
1 *1257:A2 0.00153362
2 *1510:A 0.000122964
3 *1558:X 0.000146166
4 *715:27 0.00330587
5 *715:8 0.00204137
6 *1257:A2 *1237:A 5.12344e-05
7 *1257:A2 *733:33 0
8 *1133:A1 *1257:A2 3.57366e-05
9 *1138:B1 *1257:A2 6.09572e-05
10 *1140:B *1257:A2 0
11 *1140:D *1257:A2 0
12 *1236:A *1257:A2 0
13 *1238:A1 *1257:A2 8.00806e-05
14 *1239:A *1257:A2 2.50314e-05
15 *1239:A *715:27 0.00010935
16 *1241:A *1257:A2 0
17 *1243:A *1257:A2 4.25716e-05
18 *1243:A *715:27 0
19 *1246:C1 *1257:A2 0
20 *1252:B1 *1257:A2 0
21 *1257:B1 *1257:A2 0
22 *1260:B2 *1257:A2 6.05161e-06
23 *1329:B1 *715:27 0.000315165
24 *1359:B1 *715:27 5.99365e-05
25 *1374:A1 *715:27 0.000146474
26 *1377:B *715:27 0.000126439
27 *1380:A1 *715:27 0.000128154
28 *1381:A1 *715:27 0
29 *1385:A2 *715:27 0
30 *1396:A1 *715:27 0
31 *1465:B1 *715:27 0.000158137
32 *1548:A *1510:A 5.52302e-05
33 *1551:A *1510:A 0
34 *1551:A *715:27 0
35 *1557:A *1510:A 9.25014e-06
36 *1562:A *1510:A 0
37 *1607:A *1257:A2 0
38 *1625:A *1257:A2 0
39 *115:10 *1257:A2 0
40 *117:10 *1257:A2 0
41 *122:8 *1257:A2 0.000100823
42 *156:27 *1257:A2 0.000155857
43 *210:34 *1257:A2 0
44 *214:50 *715:27 5.41794e-05
45 *222:10 *1257:A2 0
46 *225:10 *1257:A2 0.000116545
47 *273:12 *715:27 0.000200263
48 *301:10 *715:27 0
49 *307:18 *1257:A2 9.95988e-05
50 *307:18 *715:27 2.15512e-05
51 *353:35 *715:27 9.91086e-05
52 *353:61 *715:27 0.000148911
53 *533:50 *1257:A2 0
54 *566:10 *1510:A 5.71472e-05
55 *618:37 *715:27 0.000129902
56 *618:54 *715:27 9.59532e-06
57 *670:20 *1257:A2 0
58 *670:31 *1257:A2 0
59 *678:10 *715:27 4.59619e-05
60 *678:47 *715:27 1.53675e-05
61 *678:58 *715:27 1.48252e-05
62 *680:10 *1510:A 4.46186e-06
63 *680:10 *715:27 3.22339e-05
64 *680:27 *715:27 0.000425864
65 *680:39 *715:27 0.00124923
66 *706:6 *715:8 0.000230475
*RES
1 *1558:X *715:8 15.9786 
2 *715:8 *1510:A 16.3357 
3 *715:8 *715:27 44.8304 
4 *715:27 *1257:A2 41.0411 
*END

*D_NET *716 0.0230452
*CONN
*I *994:A I *D sky130_fd_sc_hd__inv_2
*I *1290:D I *D sky130_fd_sc_hd__nand4_2
*I *1198:B I *D sky130_fd_sc_hd__nand2_2
*I *1048:B I *D sky130_fd_sc_hd__and2_4
*I *1061:C1 I *D sky130_fd_sc_hd__o2111ai_2
*I *1280:B I *D sky130_fd_sc_hd__nand2_2
*I *1351:C I *D sky130_fd_sc_hd__nand3_2
*I *1344:A I *D sky130_fd_sc_hd__nand2_2
*I *1403:C I *D sky130_fd_sc_hd__nand4_4
*I *1443:C I *D sky130_fd_sc_hd__and4_2
*I *1530:X O *D sky130_fd_sc_hd__buf_4
*CAP
1 *994:A 0.000148732
2 *1290:D 0
3 *1198:B 0.000301728
4 *1048:B 0
5 *1061:C1 0.000351932
6 *1280:B 0
7 *1351:C 1.63023e-05
8 *1344:A 0
9 *1403:C 0.000238382
10 *1443:C 4.16687e-05
11 *1530:X 0
12 *716:131 0.000446812
13 *716:125 0.00274793
14 *716:107 0.00346731
15 *716:101 0.00125826
16 *716:86 0.000904516
17 *716:44 0.000727075
18 *716:30 0.00104909
19 *716:8 0.000944116
20 *716:6 0.000643289
21 *716:4 0.000307477
22 *1061:C1 *1050:B1 9.0573e-05
23 *1061:C1 *728:44 0.000375421
24 *1061:C1 *728:74 2.14757e-05
25 *716:125 *1023:B1 3.17148e-05
26 *716:131 *1024:D 5.33005e-05
27 *716:131 *728:74 0.000227532
28 *1048:A *1061:C1 0.000142856
29 *1048:A *716:131 2.14658e-05
30 *1061:B1 *1061:C1 0
31 *1063:B *716:131 1.24368e-05
32 *1072:B *1061:C1 3.34366e-05
33 *1092:B1 *716:125 0
34 *1175:A2_N *716:125 7.50505e-05
35 *1198:A *1198:B 2.34059e-05
36 *1206:A4 *716:107 0
37 *1206:A4 *716:125 0
38 *1207:B1 *716:125 1.30905e-05
39 *1209:A1 *716:125 0.000127446
40 *1209:B1 *716:125 9.9784e-05
41 *1209:C1 *716:125 0
42 *1229:A1 *716:125 0.000526014
43 *1286:C1 *716:101 5.33005e-05
44 *1287:A2 *716:101 6.87672e-05
45 *1287:B1_N *716:101 8.82741e-05
46 *1291:A1 *716:107 0
47 *1291:A2 *716:107 0.000166983
48 *1292:C *716:101 0.000115045
49 *1344:B *716:30 0
50 *1344:B *716:44 1.04232e-05
51 *1350:A1_N *716:30 9.60875e-05
52 *1350:A2_N *716:30 2.44318e-05
53 *1350:B2 *716:30 2.54632e-05
54 *1351:B *1351:C 1.3701e-05
55 *1351:B *716:30 0.000239116
56 *1351:B *716:44 8.1579e-05
57 *1352:B1 *716:30 5.59013e-05
58 *1354:A2 *716:30 7.6644e-05
59 *1354:B1 *716:30 2.65105e-05
60 *1354:C1 *716:30 4.78056e-05
61 *1402:B1 *1403:C 0.00020099
62 *1403:D *1403:C 9.60939e-05
63 *1404:A2 *716:30 0.000186808
64 *1441:C *1403:C 3.49788e-05
65 *1443:A *1403:C 8.56716e-05
66 *1443:B *1443:C 2.89016e-05
67 *1443:B *716:44 6.05161e-06
68 *1443:D *1403:C 9.63113e-05
69 *1444:A2_N *1403:C 5.86416e-05
70 *1446:A1 *1403:C 5.52238e-05
71 *1530:A *994:A 5.94528e-05
72 *1537:A *716:125 5.33786e-05
73 *1578:A *1198:B 8.50056e-05
74 *1651:A *1198:B 5.50313e-05
75 *1674:A *716:44 9.60875e-05
76 *1691:A *716:8 0.000140933
77 *79:20 *1061:C1 0.000591342
78 *130:18 *716:125 0.000490154
79 *172:8 *716:125 1.76266e-05
80 *203:12 *716:125 0
81 *255:22 *716:101 8.83386e-05
82 *258:10 *716:30 6.5185e-05
83 *260:34 *716:101 0.000498388
84 *266:8 *716:107 0.000174329
85 *272:41 *716:125 0.000478975
86 *326:39 *716:125 0.000121623
87 *335:24 *1403:C 0.000172259
88 *523:28 *1061:C1 4.87953e-05
89 *534:30 *716:125 0.000116427
90 *534:39 *716:125 0.000103041
91 *534:77 *716:125 0.000165761
92 *555:79 *716:125 0.000346731
93 *558:31 *716:125 0
94 *558:48 *716:125 0.000191027
95 *568:10 *716:44 0.000103253
96 *568:34 *716:44 0.000140481
97 *608:20 *716:6 6.81335e-05
98 *608:20 *716:8 0.000177401
99 *608:20 *716:30 3.32631e-05
100 *608:28 *716:86 0
101 *608:61 *716:86 0
102 *608:61 *716:101 0
103 *608:78 *716:101 1.46689e-05
104 *622:38 *1061:C1 2.24079e-05
105 *622:38 *716:131 5.378e-05
106 *645:18 *716:107 0.000100494
107 *655:53 *1061:C1 2.49484e-05
108 *655:53 *716:125 0
109 *673:48 *716:30 9.32943e-05
110 *690:23 *716:44 9.98676e-05
111 *690:34 *716:44 3.98662e-05
112 *710:31 *716:107 0.000404132
113 *713:31 *716:86 0
114 *713:31 *716:101 0
*RES
1 *1530:X *716:4 9.3 
2 *716:4 *716:6 3 
3 *716:6 *716:8 6.28571 
4 *716:8 *716:30 30.0179 
5 *716:30 *716:44 17.3036 
6 *716:44 *1443:C 9.83571 
7 *716:44 *1403:C 25.6393 
8 *716:30 *1344:A 9.3 
9 *716:8 *1351:C 9.72857 
10 *716:6 *716:86 7.05357 
11 *716:86 *1280:B 13.8 
12 *716:86 *716:101 20.1964 
13 *716:101 *716:107 21.5714 
14 *716:107 *716:125 48.6196 
15 *716:125 *716:131 7.51786 
16 *716:131 *1061:C1 29.0143 
17 *716:131 *1048:B 9.3 
18 *716:107 *1198:B 14.8 
19 *716:101 *1290:D 9.3 
20 *716:4 *994:A 12.4786 
*END

*D_NET *717 0.011034
*CONN
*I *1090:C I *D sky130_fd_sc_hd__and4_2
*I *1169:B1 I *D sky130_fd_sc_hd__o2111ai_2
*I *1091:A2 I *D sky130_fd_sc_hd__a22oi_2
*I *1168:B1 I *D sky130_fd_sc_hd__o2111a_2
*I *1157:B I *D sky130_fd_sc_hd__nand2_4
*I *1166:D I *D sky130_fd_sc_hd__nand4_4
*I *1089:B I *D sky130_fd_sc_hd__nand2_2
*I *1531:X O *D sky130_fd_sc_hd__clkbuf_2
*CAP
1 *1090:C 0.000144444
2 *1169:B1 0
3 *1091:A2 0.000101312
4 *1168:B1 0.000307836
5 *1157:B 0
6 *1166:D 0.000679294
7 *1089:B 0
8 *1531:X 0.000997468
9 *717:69 0.000385905
10 *717:63 0.000498523
11 *717:48 0.000685818
12 *717:37 0.00041551
13 *717:12 0.00156975
14 *1091:A2 *722:50 7.15687e-05
15 *1090:A *1090:C 5.33005e-05
16 *1164:A1 *717:12 0.000151389
17 *1166:A *1166:D 0.000139907
18 *1166:B *1166:D 9.66977e-05
19 *1168:A1 *1168:B1 5.71472e-05
20 *1169:A1 *717:69 0.000268396
21 *1169:A2 *1168:B1 5.2304e-05
22 *1169:C1 *717:69 1.3701e-05
23 *1170:A2 *1168:B1 5.33005e-05
24 *1170:B1 *1168:B1 9.90367e-05
25 *1196:A2 *1166:D 2.14757e-05
26 *1205:B2 *717:12 0.00011016
27 *1208:B *717:12 8.9163e-05
28 *1522:A *717:12 9.24825e-05
29 *1537:A *1090:C 0.000276877
30 *1537:A *717:48 0.000221163
31 *1537:A *717:63 0.000183733
32 *65:14 *1091:A2 5.33005e-05
33 *65:14 *717:69 2.28598e-05
34 *135:12 *1168:B1 2.59355e-05
35 *136:15 *717:12 5.80706e-06
36 *142:12 *717:48 0
37 *147:14 *1168:B1 0.000268396
38 *181:6 *717:12 9.80173e-05
39 *283:10 *1166:D 5.71472e-05
40 *305:92 *1090:C 0.000286128
41 *305:92 *717:37 7.25296e-05
42 *305:92 *717:48 0.000546522
43 *305:92 *717:63 0.000192983
44 *534:14 *1168:B1 0.000222933
45 *588:52 *717:12 0.000118344
46 *655:10 *1091:A2 0.00021559
47 *655:31 *1091:A2 2.28499e-05
48 *655:31 *717:69 1.24368e-05
49 *665:41 *717:37 0
50 *665:41 *717:48 0
51 *672:29 *717:12 0
52 *673:138 *717:12 0.000522227
53 *675:44 *717:69 0.000100505
54 *700:22 *1166:D 5.7661e-06
55 *700:26 *1166:D 0.000216403
56 *700:30 *717:37 0
57 *701:41 *1091:A2 7.83659e-05
58 *703:8 *717:12 5.13075e-05
*RES
1 *1531:X *717:12 34.675 
2 *717:12 *1089:B 9.3 
3 *717:12 *1166:D 19.7286 
4 *1166:D *717:37 16.05 
5 *717:37 *1157:B 13.8 
6 *717:37 *717:48 7.64286 
7 *717:48 *1168:B1 21.05 
8 *717:48 *717:63 2.55357 
9 *717:63 *717:69 9.98214 
10 *717:69 *1091:A2 21.6929 
11 *717:69 *1169:B1 9.3 
12 *717:63 *1090:C 18.1036 
*END

*D_NET *718 0.00873935
*CONN
*I *1571:A I *D sky130_fd_sc_hd__buf_2
*I *1447:B2 I *D sky130_fd_sc_hd__a32o_2
*I *1357:A I *D sky130_fd_sc_hd__and4_2
*I *1355:A I *D sky130_fd_sc_hd__nand2_2
*I *1359:A1 I *D sky130_fd_sc_hd__a22o_2
*I *1412:C I *D sky130_fd_sc_hd__nand4_2
*I *1532:X O *D sky130_fd_sc_hd__dlymetal6s2s_1
*CAP
1 *1571:A 0.000267936
2 *1447:B2 4.4144e-05
3 *1357:A 0
4 *1355:A 0.000215982
5 *1359:A1 0.000140962
6 *1412:C 1.1624e-05
7 *1532:X 0.000404468
8 *718:60 0.000376346
9 *718:25 0.00119606
10 *718:10 0.00117389
11 *718:6 0.00079189
12 *1359:A1 *1359:B2 3.69047e-06
13 *1359:A1 *725:26 1.52891e-05
14 *1355:B *1355:A 9.84673e-05
15 *1357:C *1355:A 0.000136733
16 *1357:C *1359:A1 5.89258e-05
17 *1357:C *718:25 4.51148e-05
18 *1359:A2 *1359:A1 3.19083e-05
19 *1359:B1 *1359:A1 3.50746e-05
20 *1362:A2 *1359:A1 0.000127939
21 *1362:B1 *1359:A1 1.00887e-05
22 *1410:A *718:10 0.000141447
23 *1412:B *718:10 7.95787e-05
24 *1412:B *718:25 4.46186e-06
25 *1412:D *1412:C 5.52238e-05
26 *1412:D *718:25 2.15539e-05
27 *1413:B *718:10 7.6644e-05
28 *1413:C *718:10 0
29 *1413:C *718:25 0
30 *1414:B *718:25 6.80587e-05
31 *1414:C *718:25 0.000147784
32 *1447:B1 *1447:B2 2.54295e-05
33 *1449:B *718:10 0
34 *334:39 *718:25 7.80059e-05
35 *336:45 *1355:A 0.000125173
36 *336:70 *718:25 5.4401e-05
37 *339:10 *1355:A 0.000225374
38 *349:10 *718:25 0.000269734
39 *386:42 *718:10 5.58875e-06
40 *387:39 *1447:B2 1.02504e-05
41 *387:39 *718:10 6.28667e-05
42 *390:24 *718:10 4.15592e-05
43 *431:14 *1571:A 0.000312114
44 *431:14 *718:6 0.000274294
45 *431:14 *718:10 0
46 *431:14 *718:60 8.76257e-05
47 *683:10 *718:25 0.00103487
48 *684:10 *718:10 0
49 *685:16 *1412:C 5.52238e-05
50 *712:42 *718:6 0.000295549
*RES
1 *1532:X *718:6 14.9696 
2 *718:6 *718:10 11 
3 *718:10 *1412:C 14.3357 
4 *718:10 *718:25 22.5357 
5 *718:25 *1359:A1 21.7464 
6 *718:25 *1355:A 14.8 
7 *718:25 *1357:A 9.3 
8 *718:6 *718:60 0.946429 
9 *718:60 *1447:B2 19.6393 
10 *718:60 *1571:A 13.4429 
*END

*D_NET *719 0.0139488
*CONN
*I *1215:A1 I *D sky130_fd_sc_hd__a22o_4
*I *1212:D I *D sky130_fd_sc_hd__and4_4
*I *1221:A1 I *D sky130_fd_sc_hd__a41oi_2
*I *1213:A I *D sky130_fd_sc_hd__nand4_4
*I *1297:A1 I *D sky130_fd_sc_hd__a22oi_2
*I *1571:X O *D sky130_fd_sc_hd__buf_2
*CAP
1 *1215:A1 0.000206189
2 *1212:D 0.000199595
3 *1221:A1 0.00171773
4 *1213:A 0
5 *1297:A1 3.04135e-05
6 *1571:X 0.000940614
7 *719:61 0.000728783
8 *719:29 0.00179323
9 *719:25 0.000610202
10 *719:14 0.00118273
11 *1212:D *1212:B 0.00014183
12 *1212:D *1215:B1 1.08359e-05
13 *1212:D *725:91 5.71472e-05
14 *1212:D *732:71 0.000101545
15 *1215:A1 *732:71 0.000121573
16 *1215:A1 *732:97 0.000166503
17 *1297:A1 *725:85 5.33005e-05
18 *719:14 *1300:B 7.3961e-05
19 *719:14 *725:12 0.000170661
20 *719:14 *725:72 0.000140368
21 *719:25 *725:72 9.25014e-06
22 *1212:A *1212:D 5.52302e-05
23 *1212:C *1212:D 9.31794e-05
24 *1215:A2 *1215:A1 3.63587e-05
25 *1217:A2 *1221:A1 2.89016e-05
26 *1217:C1 *1221:A1 1.32552e-05
27 *1219:A2 *1215:A1 9.7049e-06
28 *1221:A3 *1221:A1 1.15407e-05
29 *1221:B1 *1221:A1 5.45614e-05
30 *1223:A2 *1221:A1 0
31 *1226:A2_N *1221:A1 0
32 *1227:A1 *1221:A1 6.42095e-05
33 *1233:C1 *1221:A1 0.000379783
34 *1312:A2 *1221:A1 4.25809e-05
35 *1314:A2 *1221:A1 0
36 *1314:C1 *1221:A1 0
37 *1315:A *1221:A1 0.000288679
38 *1315:B *1221:A1 5.83304e-05
39 *1317:B *1212:D 0.000106101
40 *1317:B *719:29 7.03393e-05
41 *1317:B *719:61 0.000383558
42 *1320:D1 *1215:A1 0.000121573
43 *1365:A2 *719:14 2.15261e-05
44 *1407:B *719:14 0.000313615
45 *1445:A1 *719:14 7.15099e-05
46 *1445:C1 *719:14 0.000166594
47 *1464:B1 *719:14 8.30438e-05
48 *184:14 *1221:A1 0
49 *184:16 *1221:A1 0
50 *186:18 *1221:A1 5.86225e-05
51 *189:6 *1221:A1 0.000130029
52 *189:6 *719:29 5.71472e-05
53 *189:19 *1221:A1 1.74352e-05
54 *189:50 *719:61 2.8266e-06
55 *190:20 *1215:A1 8.35358e-06
56 *191:29 *1215:A1 9.41642e-05
57 *272:12 *719:25 7.03856e-05
58 *300:16 *1215:A1 5.74499e-06
59 *305:62 *1221:A1 0
60 *326:18 *1221:A1 0
61 *335:39 *719:14 0
62 *348:56 *1215:A1 5.12344e-05
63 *387:10 *719:14 8.2018e-05
64 *387:75 *719:14 0.000149421
65 *429:10 *719:14 0.000237285
66 *674:37 *719:25 0
67 *674:63 *1221:A1 0.000401945
68 *674:63 *719:25 0
69 *674:74 *1221:A1 8.76257e-05
70 *686:12 *719:14 1.82999e-05
71 *686:12 *719:61 2.16719e-05
72 *688:12 *1212:D 7.6644e-05
73 *690:55 *719:14 0.000951776
74 *690:55 *719:25 0.000373316
75 *690:55 *719:61 2.31791e-05
76 *712:42 *719:14 9.90367e-05
*RES
1 *1571:X *719:14 37.9964 
2 *719:14 *1297:A1 14.3357 
3 *719:14 *719:25 4.98214 
4 *719:25 *719:29 6.26786 
5 *719:29 *1213:A 9.3 
6 *719:29 *1221:A1 47.425 
7 *719:25 *719:61 9.35714 
8 *719:61 *1212:D 23.175 
9 *719:61 *1215:A1 23.4429 
*END

*D_NET *720 0.00417859
*CONN
*I *1360:C I *D sky130_fd_sc_hd__and3_2
*I *1299:A I *D sky130_fd_sc_hd__and4_4
*I *1298:A1 I *D sky130_fd_sc_hd__a22o_4
*I *1300:A I *D sky130_fd_sc_hd__nand4_4
*I *1361:A1 I *D sky130_fd_sc_hd__a21oi_2
*I *1533:X O *D sky130_fd_sc_hd__clkdlybuf4s25_1
*CAP
1 *1360:C 0.000114195
2 *1299:A 0.000333286
3 *1298:A1 7.26596e-05
4 *1300:A 1.68118e-05
5 *1361:A1 0.000346283
6 *1533:X 0
7 *720:23 8.94714e-05
8 *720:21 0.00048823
9 *720:6 0.000501227
10 *720:4 0.000114195
11 *1299:A *1356:A 0
12 *1299:A *1573:A 0
13 *1299:A *732:29 0
14 *1299:A *732:61 3.70198e-05
15 *1360:C *732:29 1.32293e-05
16 *720:21 *1356:A 0
17 *996:A *1299:A 7.69776e-06
18 *996:A *720:21 9.02649e-06
19 *1299:B *1299:A 0.000151361
20 *1300:C *1298:A1 4.08637e-05
21 *1300:C *1300:A 9.84673e-05
22 *1301:A1 *1299:A 0.00012401
23 *1356:B *1361:A1 0.000139344
24 *1360:A *1360:C 5.33005e-05
25 *1360:A *720:21 0
26 *1361:B1 *1361:A1 9.75679e-05
27 *1372:B1 *1299:A 1.17508e-05
28 *1464:B1 *1361:A1 9.67754e-05
29 *1501:A *1361:A1 0.00016733
30 *277:8 *1298:A1 0.000221978
31 *277:8 *1300:A 9.84673e-05
32 *334:20 *1360:C 1.51955e-05
33 *335:24 *1361:A1 1.66067e-05
34 *350:12 *1298:A1 1.98839e-05
35 *355:22 *1299:A 0
36 *555:43 *1299:A 4.29471e-05
37 *687:25 *1361:A1 9.59152e-05
38 *687:25 *720:21 0.000239433
39 *687:36 *1298:A1 0.000219366
40 *712:28 *1361:A1 8.47008e-05
*RES
1 *1533:X *720:4 9.3 
2 *720:4 *720:6 4.5 
3 *720:6 *1361:A1 21.0321 
4 *720:6 *720:21 3.46429 
5 *720:21 *720:23 4.5 
6 *720:23 *1300:A 10.2464 
7 *720:23 *1298:A1 11.8893 
8 *720:21 *1299:A 19.9607 
9 *720:4 *1360:C 10.6571 
*END

*D_NET *721 0.00194638
*CONN
*I *1572:A I *D sky130_fd_sc_hd__buf_6
*I *1214:A1 I *D sky130_fd_sc_hd__a22oi_2
*I *1534:X O *D sky130_fd_sc_hd__dlymetal6s2s_1
*CAP
1 *1572:A 0.000199471
2 *1214:A1 8.24512e-05
3 *1534:X 7.72302e-05
4 *721:8 0.000359152
5 *1230:B *1572:A 0.000392019
6 *1320:A1 *1572:A 0.000136958
7 *1320:A2 *1572:A 1.98839e-05
8 *1320:B1 *1214:A1 1.3142e-05
9 *1535:A *721:8 0
10 *200:12 *1214:A1 6.63476e-05
11 *200:12 *721:8 6.04162e-05
12 *209:12 *1572:A 0.00017676
13 *686:55 *1214:A1 0.000173097
14 *686:55 *721:8 0.000189448
*RES
1 *1534:X *721:8 16.3536 
2 *721:8 *1214:A1 16.3536 
3 *721:8 *1572:A 19.6929 
*END

*D_NET *722 0.0131824
*CONN
*I *1147:A I *D sky130_fd_sc_hd__nand3_2
*I *1050:A1 I *D sky130_fd_sc_hd__a22oi_2
*I *1052:C I *D sky130_fd_sc_hd__and4_2
*I *1635:A I *D sky130_fd_sc_hd__buf_2
*I *1150:A2 I *D sky130_fd_sc_hd__a22o_4
*I *1703:A I *D sky130_fd_sc_hd__buf_4
*I *1572:X O *D sky130_fd_sc_hd__buf_6
*CAP
1 *1147:A 4.50677e-05
2 *1050:A1 4.98328e-06
3 *1052:C 0.000664732
4 *1635:A 8.16834e-05
5 *1150:A2 0.000459601
6 *1703:A 1.40355e-05
7 *1572:X 0.000111717
8 *722:69 0.00162373
9 *722:50 0.00186475
10 *722:44 0.00161063
11 *722:21 0.00142515
12 *722:8 0.000354789
13 *1052:C *1050:B1 5.33005e-05
14 *1147:A *1147:B 0.000140933
15 *1703:A *1615:A 5.52302e-05
16 *722:8 *1222:C 1.02504e-05
17 *722:8 *1615:A 9.69119e-06
18 *722:21 *1149:B 0.000121165
19 *722:21 *1615:A 1.69115e-05
20 *722:44 *1147:B 6.25993e-05
21 *722:50 *729:8 0
22 *722:69 *734:57 2.37761e-05
23 *1023:B2 *722:69 4.75956e-06
24 *1024:C *722:69 0.000245342
25 *1061:B1 *1050:A1 2.06178e-05
26 *1061:B1 *1052:C 4.15183e-05
27 *1091:A2 *722:50 7.15687e-05
28 *1092:A2 *1635:A 9.90367e-05
29 *1149:C *722:21 0
30 *1150:B1 *1150:A2 5.83489e-05
31 *1151:A2_N *722:44 4.58976e-05
32 *1168:A1 *722:50 2.05938e-05
33 *1168:D1 *722:50 6.74404e-05
34 *1222:D *722:8 3.34295e-05
35 *1230:B *722:8 0
36 *1230:B *722:21 0
37 *1233:B1 *722:50 7.5425e-05
38 *1517:A *1150:A2 0.000147479
39 *1517:A *722:44 5.74499e-06
40 *1673:A *1150:A2 2.28598e-05
41 *1693:A *1052:C 5.33005e-05
42 *1700:A *1635:A 9.25014e-06
43 *1700:A *722:50 0.000207769
44 *124:10 *1147:A 5.33005e-05
45 *127:40 *1150:A2 1.33343e-05
46 *127:40 *722:44 8.40933e-05
47 *128:10 *1150:A2 7.41433e-05
48 *128:10 *722:44 5.38242e-05
49 *135:12 *722:50 0.000377295
50 *326:18 *722:8 0
51 *326:35 *722:44 0.000259549
52 *326:39 *722:50 0
53 *326:39 *722:69 0
54 *500:8 *722:69 0.000300075
55 *531:12 *1703:A 2.89114e-05
56 *531:12 *722:21 8.17008e-05
57 *534:132 *722:50 0.000424217
58 *641:60 *1635:A 1.98839e-05
59 *655:10 *722:50 1.18451e-05
60 *655:53 *1050:A1 1.24469e-05
61 *655:53 *1052:C 6.0325e-05
62 *655:57 *1052:C 0.000338713
63 *655:59 *1052:C 0.000342681
64 *655:61 *1052:C 5.71472e-05
65 *686:55 *1150:A2 2.62628e-05
66 *693:10 *1150:A2 5.31122e-05
67 *694:38 *1150:A2 0.00010523
68 *694:60 *722:21 0
69 *701:41 *722:50 0.000244642
70 *705:14 *722:50 5.03787e-05
71 *705:22 *1635:A 2.63433e-05
72 *705:22 *722:69 3.88323e-05
73 *705:35 *722:69 5.90434e-05
*RES
1 *1572:X *722:8 15.7464 
2 *722:8 *1703:A 14.3357 
3 *722:8 *722:21 8.875 
4 *722:21 *1150:A2 26.7107 
5 *722:21 *722:44 9.48214 
6 *722:44 *722:50 23.6339 
7 *722:50 *1635:A 16.0411 
8 *722:50 *722:69 14.5768 
9 *722:69 *1052:C 23.1304 
10 *722:69 *1050:A1 14.0768 
11 *722:44 *1147:A 10.6571 
*END

*D_NET *723 0.00176947
*CONN
*I *1615:A I *D sky130_fd_sc_hd__buf_2
*I *1534:A I *D sky130_fd_sc_hd__dlymetal6s2s_1
*I *1535:X O *D sky130_fd_sc_hd__buf_6
*CAP
1 *1615:A 0.00018262
2 *1534:A 0.000164748
3 *1535:X 0.000347368
4 *1152:B1 *1615:A 0.00044852
5 *1703:A *1615:A 5.52302e-05
6 *127:44 *1615:A 0.000220959
7 *200:12 *1534:A 6.05161e-06
8 *326:18 *1615:A 0
9 *531:12 *1615:A 0.00020248
10 *531:23 *1615:A 9.54798e-06
11 *674:108 *1534:A 1.58163e-05
12 *694:60 *1615:A 8.95278e-05
13 *722:8 *1615:A 9.69119e-06
14 *722:21 *1615:A 1.69115e-05
*RES
1 *1535:X *1534:A 21.1893 
2 *1535:X *1615:A 34.9929 
*END

*D_NET *724 0.0023919
*CONN
*I *1573:A I *D sky130_fd_sc_hd__buf_4
*I *1356:A I *D sky130_fd_sc_hd__nand2_2
*I *1536:X O *D sky130_fd_sc_hd__dlygate4sd1_1
*CAP
1 *1573:A 0.000223789
2 *1356:A 0.000340094
3 *1536:X 0.000296219
4 *724:8 0.000860102
5 *1573:A *732:61 5.52302e-05
6 *724:8 *1300:B 7.83989e-06
7 *724:8 *725:20 7.89897e-06
8 *1299:A *1356:A 0
9 *1299:A *1573:A 0
10 *1301:A1 *1573:A 0
11 *1360:A *1356:A 7.00805e-05
12 *1365:A2 *1356:A 0
13 *1533:A *1356:A 4.47273e-05
14 *1536:A *724:8 4.68201e-05
15 *335:39 *1356:A 2.51304e-05
16 *355:22 *1573:A 0.000174846
17 *561:10 *1356:A 5.59324e-05
18 *683:31 *1356:A 9.20091e-05
19 *683:31 *1573:A 9.11813e-05
20 *720:21 *1356:A 0
*RES
1 *1536:X *724:8 17.2107 
2 *724:8 *1356:A 20.3 
3 *724:8 *1573:A 18.3357 
*END

*D_NET *725 0.01328
*CONN
*I *1214:B1 I *D sky130_fd_sc_hd__a22oi_2
*I *1213:B I *D sky130_fd_sc_hd__nand4_4
*I *1215:B1 I *D sky130_fd_sc_hd__a22o_4
*I *1212:B I *D sky130_fd_sc_hd__and4_4
*I *1297:B1 I *D sky130_fd_sc_hd__a22oi_2
*I *1300:B I *D sky130_fd_sc_hd__nand4_4
*I *1296:A I *D sky130_fd_sc_hd__nand2_2
*I *1357:B I *D sky130_fd_sc_hd__and4_2
*I *1359:B2 I *D sky130_fd_sc_hd__a22o_2
*I *1573:X O *D sky130_fd_sc_hd__buf_4
*CAP
1 *1214:B1 0.000312633
2 *1213:B 0
3 *1215:B1 0.000323935
4 *1212:B 9.24102e-05
5 *1297:B1 0
6 *1300:B 0.000198815
7 *1296:A 6.48325e-05
8 *1357:B 9.45715e-05
9 *1359:B2 0.000156711
10 *1573:X 5.05872e-05
11 *725:91 0.000731922
12 *725:87 0.000315576
13 *725:85 0.00061606
14 *725:72 0.000364159
15 *725:26 0.000387156
16 *725:20 0.00130479
17 *725:12 0.00140073
18 *725:8 0.00020915
19 *1215:B1 *732:71 6.8646e-06
20 *725:8 *732:61 6.87574e-05
21 *1212:C *725:91 2.42662e-05
22 *1212:D *1212:B 0.00014183
23 *1212:D *1215:B1 1.08359e-05
24 *1212:D *725:91 5.71472e-05
25 *1213:C *725:91 0
26 *1215:B2 *1215:B1 5.52238e-05
27 *1296:B *1296:A 7.33494e-06
28 *1297:A1 *725:85 5.33005e-05
29 *1297:B2 *725:85 1.3701e-05
30 *1299:C *725:8 0.000224596
31 *1320:C1 *1214:B1 0.000539826
32 *1359:A1 *1359:B2 3.69047e-06
33 *1359:A1 *725:26 1.52891e-05
34 *1359:A2 *725:26 1.72933e-05
35 *1359:B1 *1359:B2 3.60673e-05
36 *1362:A2 *1357:B 0.000290727
37 *1362:A2 *725:26 0.000124749
38 *1362:B1 *725:20 2.59355e-05
39 *1362:B1 *725:26 0.000124749
40 *1363:A2 *725:20 0.000107869
41 *1363:B1 *725:20 0.00104232
42 *1661:A *1215:B1 0
43 *191:29 *1215:B1 5.33334e-05
44 *272:12 *725:8 9.71197e-05
45 *272:12 *725:12 1.52978e-05
46 *272:12 *725:72 7.8327e-05
47 *292:22 *1215:B1 6.26559e-05
48 *300:16 *1215:B1 1.74352e-05
49 *335:39 *1300:B 3.10819e-05
50 *348:56 *1214:B1 6.40035e-05
51 *348:56 *725:85 9.11365e-06
52 *353:12 *725:20 0.00031119
53 *355:35 *1296:A 5.83304e-05
54 *564:10 *1296:A 5.33978e-05
55 *564:10 *725:26 2.48187e-05
56 *680:39 *1296:A 8.56716e-05
57 *680:39 *1357:B 0.000289204
58 *680:39 *725:26 2.71248e-05
59 *683:31 *1300:B 0.000106836
60 *683:31 *725:12 0
61 *686:12 *1214:B1 0.000260512
62 *686:12 *725:85 0.000360109
63 *686:43 *1214:B1 0.000490498
64 *688:12 *1215:B1 0.000236333
65 *688:26 *1215:B1 0.00013966
66 *688:74 *725:85 0.000168281
67 *688:74 *725:91 0.000183713
68 *690:57 *725:91 2.95726e-05
69 *719:14 *1300:B 7.3961e-05
70 *719:14 *725:12 0.000170661
71 *719:14 *725:72 0.000140368
72 *719:25 *725:72 9.25014e-06
73 *724:8 *1300:B 7.83989e-06
74 *724:8 *725:20 7.89897e-06
*RES
1 *1573:X *725:8 15.9786 
2 *725:8 *725:12 6.75 
3 *725:12 *725:20 23.25 
4 *725:20 *725:26 7.69643 
5 *725:26 *1359:B2 11.3893 
6 *725:26 *1357:B 22.0679 
7 *725:20 *1296:A 16.05 
8 *725:12 *1300:B 22.4071 
9 *725:8 *725:72 6.44643 
10 *725:72 *1297:B1 9.3 
11 *725:72 *725:85 11.375 
12 *725:85 *725:87 4.5 
13 *725:87 *725:91 4.55357 
14 *725:91 *1212:B 10.6571 
15 *725:91 *1215:B1 25.3714 
16 *725:87 *1213:B 9.3 
17 *725:85 *1214:B1 23.6393 
*END

*D_NET *726 0.00209951
*CONN
*I *1506:A I *D sky130_fd_sc_hd__buf_4
*I *1507:A I *D sky130_fd_sc_hd__buf_6
*I *1559:X O *D sky130_fd_sc_hd__clkdlybuf4s25_1
*CAP
1 *1506:A 0
2 *1507:A 0.000236193
3 *1559:X 3.55965e-05
4 *726:8 0.00027179
5 *1160:A1 *1507:A 0.000139907
6 *1579:A *1507:A 9.90819e-06
7 *1579:A *726:8 0.000132769
8 *1586:A *1507:A 0.000317602
9 *1586:A *726:8 1.02504e-05
10 *641:10 *1507:A 0.000170173
11 *641:23 *1507:A 3.42512e-05
12 *653:6 *1507:A 4.88515e-05
13 *699:27 *1507:A 0.000547703
14 *699:27 *726:8 0.000144512
*RES
1 *1559:X *726:8 15.7464 
2 *726:8 *1507:A 22.2643 
3 *726:8 *1506:A 13.8 
*END

*D_NET *727 0.0153366
*CONN
*I *1012:D I *D sky130_fd_sc_hd__nand4_4
*I *1022:B1 I *D sky130_fd_sc_hd__a22oi_2
*I *1051:B1 I *D sky130_fd_sc_hd__a22o_2
*I *1052:D I *D sky130_fd_sc_hd__and4_2
*I *1053:D I *D sky130_fd_sc_hd__nand4_2
*I *1094:C I *D sky130_fd_sc_hd__nand4_4
*I *1096:B2 I *D sky130_fd_sc_hd__a22o_4
*I *1150:B2 I *D sky130_fd_sc_hd__a22o_4
*I *1148:B I *D sky130_fd_sc_hd__and4_2
*I *1013:B1 I *D sky130_fd_sc_hd__a22o_2
*I *1537:X O *D sky130_fd_sc_hd__clkbuf_2
*CAP
1 *1012:D 0.000187002
2 *1022:B1 8.07024e-05
3 *1051:B1 0
4 *1052:D 0.000250082
5 *1053:D 0.000134885
6 *1094:C 0
7 *1096:B2 6.03406e-05
8 *1150:B2 0.000220962
9 *1148:B 0.000193384
10 *1013:B1 0.000160715
11 *1537:X 0
12 *727:102 0.000322454
13 *727:73 0.000120845
14 *727:45 0.00100539
15 *727:33 0.000781754
16 *727:31 0.000513099
17 *727:27 0.00180886
18 *727:25 0.00216072
19 *727:6 0.000752259
20 *727:4 0.000187002
21 *1096:B2 *730:48 9.91086e-05
22 *727:45 *1242:A1_N 0.000121573
23 *727:45 *730:48 7.2343e-05
24 *727:73 *730:48 1.58163e-05
25 *1022:A1 *1022:B1 1.04232e-05
26 *1022:A2 *1022:B1 0
27 *1022:A2 *727:27 0.000113073
28 *1024:A *1012:D 9.90431e-05
29 *1024:A *727:25 6.74911e-05
30 *1024:C *1022:B1 9.41642e-05
31 *1024:C *727:25 8.25843e-06
32 *1024:C *727:27 5.74499e-06
33 *1051:A1 *727:27 0.000306932
34 *1051:A1 *727:102 5.33005e-05
35 *1051:A2 *727:31 6.25394e-06
36 *1053:B *1052:D 9.41642e-05
37 *1053:C *1052:D 5.74562e-05
38 *1057:A3 *727:27 0.000216613
39 *1093:B *727:73 9.60939e-05
40 *1094:B *727:73 0
41 *1094:D *727:73 0
42 *1109:A2 *1053:D 0
43 *1109:A2 *727:31 1.80095e-05
44 *1137:B *727:33 0.000137939
45 *1137:B *727:45 6.0038e-05
46 *1148:A *1150:B2 3.37161e-05
47 *1179:A *727:45 0.000197977
48 *1230:A *727:45 0.000480427
49 *1242:B1 *727:45 0.000128161
50 *1250:A2 *727:45 2.26327e-05
51 *1517:A *1150:B2 0.000271352
52 *1524:A *1013:B1 3.48001e-05
53 *1537:A *1013:B1 0.000117388
54 *1564:A *1148:B 5.80706e-06
55 *1690:A *1096:B2 1.02504e-05
56 *1690:A *727:33 0.000148196
57 *1690:A *727:45 3.34295e-05
58 *36:10 *727:27 3.90148e-05
59 *74:77 *727:73 8.25843e-06
60 *80:14 *727:45 0.000135405
61 *125:17 *1148:B 0.000306324
62 *125:17 *1150:B2 4.18895e-05
63 *158:14 *1053:D 3.17148e-05
64 *158:14 *1096:B2 0.000197262
65 *158:14 *727:33 6.58631e-05
66 *158:14 *727:45 0
67 *158:22 *727:31 5.33005e-05
68 *294:45 *1013:B1 1.92789e-05
69 *305:92 *1013:B1 0
70 *305:92 *727:25 0
71 *526:10 *1053:D 7.99044e-05
72 *526:10 *727:31 5.33005e-05
73 *531:36 *727:27 0.000229122
74 *534:90 *727:27 3.1521e-05
75 *538:12 *727:45 0.000104477
76 *558:67 *1052:D 9.25014e-06
77 *597:53 *1053:D 0
78 *597:53 *727:33 0
79 *597:53 *727:45 0.000215378
80 *641:60 *1012:D 0.000127279
81 *655:61 *1052:D 0.000171289
82 *665:41 *1013:B1 0.000131491
83 *665:41 *727:25 0.000147346
84 *671:10 *1052:D 0.000121573
85 *684:33 *1148:B 2.84398e-05
86 *692:10 *1148:B 3.07555e-05
87 *694:12 *1150:B2 0.000444573
88 *696:31 *727:45 0.000334161
*RES
1 *1537:X *727:4 9.3 
2 *727:4 *727:6 4.5 
3 *727:6 *1013:B1 18.0321 
4 *727:6 *727:25 13.3214 
5 *727:25 *727:27 19.8393 
6 *727:27 *727:31 7.5 
7 *727:31 *727:33 3.76786 
8 *727:33 *727:45 23.3571 
9 *727:45 *1148:B 22.0321 
10 *727:45 *1150:B2 15.1929 
11 *727:33 *727:73 5.875 
12 *727:73 *1096:B2 20.8536 
13 *727:73 *1094:C 9.3 
14 *727:31 *1053:D 16.9607 
15 *727:27 *727:102 1.57143 
16 *727:102 *1052:D 22.5321 
17 *727:102 *1051:B1 9.3 
18 *727:25 *1022:B1 11.2821 
19 *727:4 *1012:D 13.1393 
*END

*D_NET *728 0.0123729
*CONN
*I *1147:B I *D sky130_fd_sc_hd__nand3_2
*I *1024:D I *D sky130_fd_sc_hd__nand4_4
*I *1023:B1 I *D sky130_fd_sc_hd__a22o_4
*I *1050:B1 I *D sky130_fd_sc_hd__a22oi_2
*I *1057:A4 I *D sky130_fd_sc_hd__a41o_4
*I *1095:B1 I *D sky130_fd_sc_hd__a22oi_2
*I *1149:B I *D sky130_fd_sc_hd__nand4_4
*I *1538:X O *D sky130_fd_sc_hd__clkbuf_2
*CAP
1 *1147:B 0.000252424
2 *1024:D 0.000353924
3 *1023:B1 0.000667926
4 *1050:B1 7.3493e-05
5 *1057:A4 0.000148068
6 *1095:B1 0
7 *1149:B 0.000324763
8 *1538:X 7.5001e-05
9 *728:74 0.00119799
10 *728:44 0.000541451
11 *728:38 0.00080067
12 *728:27 0.000532106
13 *728:8 0.000690198
14 *728:6 0.000465392
15 *1024:D *1063:A 8.07313e-05
16 *1024:D *734:46 2.78584e-05
17 *1023:A2 *1023:B1 0.000584036
18 *1052:C *1050:B1 5.33005e-05
19 *1057:A3 *1057:A4 0.000173616
20 *1061:B1 *728:44 1.87097e-05
21 *1061:C1 *1050:B1 9.0573e-05
22 *1061:C1 *728:44 0.000375421
23 *1061:C1 *728:74 2.14757e-05
24 *1063:B *1024:D 4.43256e-05
25 *1067:A2 *1023:B1 0
26 *1092:A1 *728:44 3.34366e-05
27 *1147:A *1147:B 0.000140933
28 *1147:C *1147:B 3.57366e-05
29 *1148:A *1149:B 9.76491e-05
30 *1149:C *1149:B 0
31 *1151:A2_N *1147:B 9.71197e-05
32 *1175:A1_N *728:27 0.000247786
33 *1177:C *728:27 0.000247771
34 *1517:A *1147:B 0.000730745
35 *1693:A *1057:A4 1.24368e-05
36 *36:10 *1057:A4 5.71472e-05
37 *79:20 *728:44 2.82057e-05
38 *124:10 *1147:B 2.28598e-05
39 *127:29 *1149:B 1.90936e-05
40 *128:14 *1149:B 4.91424e-05
41 *130:18 *1149:B 9.46929e-05
42 *130:18 *728:6 4.58194e-05
43 *130:18 *728:8 9.0145e-05
44 *131:24 *1149:B 0.000185643
45 *149:14 *1147:B 3.69047e-06
46 *154:16 *728:27 0.000185177
47 *154:16 *728:38 6.9253e-05
48 *326:35 *1147:B 0.000120895
49 *531:12 *1149:B 8.6229e-06
50 *531:23 *1149:B 0.000297132
51 *531:23 *728:27 7.80714e-06
52 *531:23 *728:38 0.000143389
53 *531:23 *728:44 0.000105037
54 *534:77 *1023:B1 7.16652e-05
55 *555:79 *1147:B 0.00012401
56 *558:31 *1147:B 0.00012401
57 *558:31 *728:27 0.000127979
58 *622:53 *1024:D 1.11474e-05
59 *641:60 *728:38 8.359e-05
60 *646:10 *1023:B1 0
61 *655:53 *1023:B1 0
62 *655:53 *1050:B1 0.000137182
63 *655:53 *728:27 5.80706e-06
64 *655:53 *728:38 0.000374355
65 *655:53 *728:44 1.02504e-05
66 *655:57 *1050:B1 3.57366e-05
67 *705:41 *1050:B1 0
68 *716:125 *1023:B1 3.17148e-05
69 *716:131 *1024:D 5.33005e-05
70 *716:131 *728:74 0.000227532
71 *722:21 *1149:B 0.000121165
72 *722:44 *1147:B 6.25993e-05
*RES
1 *1538:X *728:6 10.2464 
2 *728:6 *728:8 1.76786 
3 *728:8 *1149:B 25.9071 
4 *728:8 *728:27 12.5179 
5 *728:27 *1095:B1 13.8 
6 *728:27 *728:38 13.7321 
7 *728:38 *728:44 10.75 
8 *728:44 *1057:A4 16.9607 
9 *728:44 *1050:B1 16.1036 
10 *728:38 *728:74 2.58929 
11 *728:74 *1023:B1 30.5679 
12 *728:74 *1024:D 14.2643 
13 *728:6 *1147:B 27.4786 
*END

*D_NET *729 0.00221733
*CONN
*I *1574:A I *D sky130_fd_sc_hd__clkbuf_4
*I *1154:C1 I *D sky130_fd_sc_hd__o2111ai_2
*I *1153:C1 I *D sky130_fd_sc_hd__o2111a_2
*I *1539:X O *D sky130_fd_sc_hd__clkbuf_2
*CAP
1 *1574:A 0.000222662
2 *1154:C1 0
3 *1153:C1 0.000200325
4 *1539:X 0
5 *729:8 0.000462176
6 *729:6 0.000484513
7 *1153:B1 *1153:C1 0.00010122
8 *1153:B1 *729:8 1.01912e-05
9 *1153:D1 *1153:C1 3.69047e-06
10 *1168:D1 *1574:A 2.12687e-05
11 *1233:B1 *1153:C1 0
12 *1233:B1 *729:8 0
13 *124:10 *729:8 0
14 *135:12 *1574:A 0.000110398
15 *135:12 *729:8 1.41706e-05
16 *272:41 *1153:C1 4.45994e-05
17 *272:41 *729:8 4.86866e-05
18 *326:39 *1574:A 0.000233774
19 *326:39 *729:8 0.000145584
20 *534:22 *1574:A 0.000102545
21 *694:60 *1153:C1 1.15281e-05
22 *722:50 *729:8 0
*RES
1 *1539:X *729:6 13.8 
2 *729:6 *729:8 5.58929 
3 *729:8 *1153:C1 17.8 
4 *729:8 *1154:C1 13.8 
5 *729:6 *1574:A 19.9964 
*END

*D_NET *730 0.0140834
*CONN
*I *1097:A1 I *D sky130_fd_sc_hd__a22oi_2
*I *1055:B1 I *D sky130_fd_sc_hd__o211a_2
*I *1058:C I *D sky130_fd_sc_hd__nand4_2
*I *1049:A I *D sky130_fd_sc_hd__nand2_4
*I *1093:A I *D sky130_fd_sc_hd__nand2_2
*I *1235:A3 I *D sky130_fd_sc_hd__a31o_2
*I *1099:C I *D sky130_fd_sc_hd__nand3_2
*I *1098:A1 I *D sky130_fd_sc_hd__a22o_4
*I *1574:X O *D sky130_fd_sc_hd__clkbuf_4
*CAP
1 *1097:A1 9.98039e-05
2 *1055:B1 7.08047e-05
3 *1058:C 6.90255e-05
4 *1049:A 0
5 *1093:A 0
6 *1235:A3 0.000577205
7 *1099:C 2.23854e-05
8 *1098:A1 0.000173309
9 *1574:X 0.000598254
10 *730:91 0.000525795
11 *730:68 0.000741723
12 *730:59 0.000377161
13 *730:48 0.001252
14 *730:27 0.000813078
15 *730:23 0.00030487
16 *730:10 0.000839333
17 *1054:B *730:91 5.59013e-05
18 *1055:A1 *1055:B1 1.23559e-06
19 *1055:C1 *1058:C 0.000150625
20 *1070:D *1055:B1 7.3237e-05
21 *1070:D *730:91 4.0633e-05
22 *1093:B *730:48 1.90111e-05
23 *1094:D *730:48 9.71197e-05
24 *1096:A2 *1099:C 0
25 *1096:A2 *730:48 2.89016e-05
26 *1096:B2 *730:48 9.91086e-05
27 *1098:B1 *1098:A1 5.52238e-05
28 *1098:B1 *730:10 3.17148e-05
29 *1098:B1 *730:23 0.000141382
30 *1098:B2 *730:10 1.00375e-05
31 *1101:B2 *1097:A1 2.89114e-05
32 *1111:A *730:68 0
33 *1111:A *730:91 0
34 *1112:A1 *730:91 9.90367e-05
35 *1112:A2 *1055:B1 3.98517e-05
36 *1112:A2 *730:91 0.000162546
37 *1112:B1 *730:91 0.000140426
38 *1137:A *730:68 5.26277e-05
39 *1182:B1 *730:68 0
40 *1250:A1 *730:48 0.000136951
41 *1251:B2 *1235:A3 0.000100823
42 *1256:A2 *730:68 0
43 *1577:A *1097:A1 1.31516e-05
44 *1577:A *730:27 9.60875e-05
45 *72:37 *1097:A1 0.000162125
46 *72:37 *730:23 3.34295e-05
47 *73:10 *730:10 0.000405727
48 *74:77 *730:48 0.000175892
49 *77:6 *730:27 4.87854e-05
50 *87:12 *730:68 0.000125724
51 *154:16 *1098:A1 6.37975e-05
52 *156:10 *1235:A3 5.41794e-05
53 *218:14 *1235:A3 0.000123288
54 *348:62 *1235:A3 0
55 *348:62 *730:59 0
56 *348:62 *730:68 0
57 *528:22 *1058:C 9.25014e-06
58 *528:33 *1058:C 0.00019384
59 *528:33 *730:91 2.61337e-05
60 *592:8 *730:10 0.00010096
61 *597:12 *1235:A3 2.21972e-05
62 *597:40 *1235:A3 3.54188e-05
63 *597:53 *1235:A3 0.00140613
64 *597:53 *730:59 5.83304e-05
65 *597:53 *730:68 0.000760603
66 *597:53 *730:91 0.000159924
67 *597:57 *730:91 2.59355e-05
68 *622:8 *1097:A1 6.41079e-05
69 *622:8 *730:10 7.04538e-05
70 *622:8 *730:23 6.04256e-05
71 *656:8 *1097:A1 5.52302e-05
72 *671:10 *1058:C 2.49388e-05
73 *675:44 *730:10 0.00107971
74 *684:33 *1235:A3 0.000509383
75 *686:76 *730:10 0
76 *727:45 *730:48 7.2343e-05
77 *727:73 *730:48 1.58163e-05
*RES
1 *1574:X *730:10 28.3893 
2 *730:10 *1098:A1 16.8179 
3 *730:10 *730:23 2.25 
4 *730:23 *730:27 7.08929 
5 *730:27 *1099:C 9.72857 
6 *730:27 *730:48 23.625 
7 *730:48 *1235:A3 32.7464 
8 *730:48 *730:59 0.732143 
9 *730:59 *1093:A 13.8 
10 *730:59 *730:68 9.83929 
11 *730:68 *1049:A 13.8 
12 *730:68 *730:91 21.8929 
13 *730:91 *1058:C 20.8536 
14 *730:91 *1055:B1 11.0857 
15 *730:23 *1097:A1 16.8893 
*END

*D_NET *731 0.00916691
*CONN
*I *1004:A2_N I *D sky130_fd_sc_hd__o2bb2a_2
*I *1012:C I *D sky130_fd_sc_hd__nand4_4
*I *1013:A2 I *D sky130_fd_sc_hd__a22o_2
*I *1026:C I *D sky130_fd_sc_hd__and3_4
*I *1025:A1 I *D sky130_fd_sc_hd__a22oi_2
*I *1021:A I *D sky130_fd_sc_hd__nand2_2
*I *1005:D I *D sky130_fd_sc_hd__and4bb_2
*I *1540:X O *D sky130_fd_sc_hd__clkbuf_2
*CAP
1 *1004:A2_N 8.14522e-05
2 *1012:C 7.62875e-05
3 *1013:A2 0.000134914
4 *1026:C 0.000159828
5 *1025:A1 0
6 *1021:A 0.000417155
7 *1005:D 3.43231e-05
8 *1540:X 0.000205618
9 *731:64 0.000476878
10 *731:42 0.00019976
11 *731:25 0.000626221
12 *731:23 0.00168396
13 *731:6 0.00140763
14 *1013:A2 *734:46 1.69115e-05
15 *731:64 *734:46 7.79781e-06
16 *1005:C *1004:A2_N 7.83587e-05
17 *1005:C *1005:D 2.89016e-05
18 *1005:C *731:6 3.63775e-05
19 *1013:A1 *1013:A2 7.40229e-05
20 *1015:D *1013:A2 8.68665e-05
21 *1015:D *731:64 9.57064e-05
22 *1018:A1 *731:23 0.000151071
23 *1018:A2 *731:23 4.40008e-05
24 *1018:B1 *731:23 2.89016e-05
25 *1018:C1 *731:23 1.74352e-05
26 *1026:B *1026:C 5.52238e-05
27 *1027:A1 *1026:C 0.000288082
28 *1027:A1 *731:42 0.000153047
29 *1064:A *1021:A 3.51442e-05
30 *1065:A1 *1021:A 0.000156877
31 *1070:C *1026:C 7.96335e-05
32 *1086:A3 *1026:C 9.90367e-05
33 *1540:A *1004:A2_N 3.92757e-05
34 *56:10 *1026:C 0.000132967
35 *294:45 *1013:A2 2.45656e-05
36 *305:92 *1026:C 0.000160396
37 *305:92 *731:42 0.000153047
38 *432:14 *731:23 0.000183209
39 *488:21 *731:64 0
40 *489:6 *1013:A2 7.32173e-05
41 *641:60 *1012:C 7.02611e-05
42 *652:8 *731:23 0.00023342
43 *653:28 *1013:A2 0.000139913
44 *665:41 *1021:A 7.50601e-05
45 *700:78 *1013:A2 0.000220455
46 *700:78 *731:64 0.000623705
*RES
1 *1540:X *731:6 11.4786 
2 *731:6 *1005:D 10.2643 
3 *731:6 *731:23 16.7143 
4 *731:23 *731:25 1.76786 
5 *731:25 *1021:A 24.0679 
6 *731:25 *731:42 6.44643 
7 *731:42 *1025:A1 13.8 
8 *731:42 *1026:C 19.4607 
9 *731:23 *731:64 12.5179 
10 *731:64 *1013:A2 18.6036 
11 *731:64 *1012:C 15.1571 
12 *1540:X *1004:A2_N 29.1714 
*END

*D_NET *732 0.0162538
*CONN
*I *1306:C I *D sky130_fd_sc_hd__nand4_2
*I *990:A I *D sky130_fd_sc_hd__inv_2
*I *1222:C I *D sky130_fd_sc_hd__and4_2
*I *1211:A I *D sky130_fd_sc_hd__nand2_2
*I *1218:B1 I *D sky130_fd_sc_hd__o211a_2
*I *1317:C I *D sky130_fd_sc_hd__and3_2
*I *1318:A3 I *D sky130_fd_sc_hd__a31o_2
*I *1295:A I *D sky130_fd_sc_hd__and2_2
*I *1304:A1 I *D sky130_fd_sc_hd__a22o_2
*I *1372:A3 I *D sky130_fd_sc_hd__a31o_2
*I *1541:X O *D sky130_fd_sc_hd__buf_6
*CAP
1 *1306:C 0.000164143
2 *990:A 0
3 *1222:C 0.000205758
4 *1211:A 4.24076e-05
5 *1218:B1 0
6 *1317:C 0.000100773
7 *1318:A3 3.4668e-05
8 *1295:A 8.44177e-05
9 *1304:A1 0
10 *1372:A3 8.03768e-05
11 *1541:X 1.49752e-05
12 *732:112 0.00121957
13 *732:97 0.00115232
14 *732:75 0.000296304
15 *732:71 0.000911762
16 *732:61 0.000874048
17 *732:49 0.000537646
18 *732:29 0.000616862
19 *732:17 0.000601879
20 *732:6 9.53521e-05
21 *996:A *732:29 0.000227059
22 *1212:D *732:71 0.000101545
23 *1215:A1 *732:71 0.000121573
24 *1215:A1 *732:97 0.000166503
25 *1215:A2 *732:97 0.000195562
26 *1215:B1 *732:71 6.8646e-06
27 *1221:A4 *732:112 0.00101531
28 *1222:A *1222:C 4.98872e-05
29 *1222:B *1222:C 0.000142856
30 *1222:D *1211:A 0.000125724
31 *1222:D *1222:C 0.000368595
32 *1225:D *1211:A 0.000125724
33 *1225:D *1222:C 5.59013e-05
34 *1227:A1 *1222:C 4.56251e-05
35 *1295:B *1295:A 0.000177791
36 *1299:A *732:29 0
37 *1299:A *732:61 3.70198e-05
38 *1299:B *732:61 8.71227e-05
39 *1299:C *732:61 0.000292614
40 *1299:C *732:71 9.76491e-05
41 *1301:A1 *1372:A3 0.000224583
42 *1301:A1 *732:6 5.33005e-05
43 *1304:A2 *1295:A 1.46576e-05
44 *1304:B2 *732:29 0.000439888
45 *1318:A1 *1317:C 7.63945e-05
46 *1318:A2 *732:75 1.02936e-05
47 *1320:D1 *732:97 2.04866e-05
48 *1360:C *732:29 1.32293e-05
49 *1369:A2 *732:71 5.80706e-06
50 *1372:A2 *1372:A3 0.000103882
51 *1372:A2 *732:6 4.08637e-05
52 *1372:B1 *732:29 3.20782e-05
53 *1372:B1 *732:49 0.000162587
54 *1375:B2 *732:71 0.000225314
55 *1378:A1 *1318:A3 2.89016e-05
56 *1378:A1 *732:75 2.59355e-05
57 *1536:A *1372:A3 0
58 *1573:A *732:61 5.52302e-05
59 *1626:A *1318:A3 5.52238e-05
60 *1626:A *732:75 0.00016641
61 *1650:A *732:75 4.38128e-05
62 *1661:A *732:71 0
63 *190:10 *732:112 0.000115467
64 *190:20 *732:97 0.000197984
65 *190:20 *732:112 1.02504e-05
66 *193:10 *1222:C 1.17968e-05
67 *209:12 *1222:C 2.44318e-05
68 *272:12 *732:61 0.000139907
69 *276:8 *1306:C 4.08637e-05
70 *276:8 *732:61 5.33005e-05
71 *276:19 *732:49 3.17148e-05
72 *277:21 *732:29 0.000154412
73 *277:21 *732:49 0.000193675
74 *277:27 *1306:C 0.000212667
75 *291:16 *732:75 1.5424e-05
76 *292:22 *732:75 0.000268396
77 *293:22 *732:75 0.000438788
78 *334:20 *1295:A 0.000219428
79 *334:20 *732:29 9.82059e-05
80 *348:56 *732:71 0
81 *348:111 *732:71 0.000210127
82 *355:22 *732:61 0.000362568
83 *355:22 *732:71 0.000184787
84 *555:79 *1222:C 0
85 *609:10 *1317:C 1.19309e-05
86 *688:12 *732:71 5.41797e-05
87 *688:12 *732:97 1.721e-05
88 *688:45 *732:97 8.5662e-05
89 *688:45 *732:112 0.000321938
90 *689:22 *1317:C 0.000242906
91 *689:22 *1318:A3 3.99614e-06
92 *689:22 *732:75 0.000179745
93 *722:8 *1222:C 1.02504e-05
94 *725:8 *732:61 6.87574e-05
*RES
1 *1541:X *732:6 9.83571 
2 *732:6 *1372:A3 11.9071 
3 *732:6 *732:17 4.5 
4 *732:17 *732:29 15.9286 
5 *732:29 *1304:A1 9.3 
6 *732:29 *1295:A 12.4429 
7 *732:17 *732:49 7.05357 
8 *732:49 *732:61 9.35714 
9 *732:61 *732:71 18.1071 
10 *732:71 *732:75 10.7857 
11 *732:75 *1318:A3 10.2643 
12 *732:75 *1317:C 21.4607 
13 *732:71 *732:97 5.28571 
14 *732:97 *1218:B1 13.8 
15 *732:97 *732:112 23.0893 
16 *732:112 *1211:A 15.4429 
17 *732:112 *1222:C 19.9964 
18 *732:61 *990:A 9.3 
19 *732:49 *1306:C 13.2821 
*END

*D_NET *733 0.0141022
*CONN
*I *1108:A I *D sky130_fd_sc_hd__nand2_2
*I *1111:C I *D sky130_fd_sc_hd__nand4_2
*I *1110:C I *D sky130_fd_sc_hd__and4_2
*I *1139:A1 I *D sky130_fd_sc_hd__a22o_4
*I *1138:A1 I *D sky130_fd_sc_hd__a22oi_2
*I *1242:A1_N I *D sky130_fd_sc_hd__o2bb2a_4
*I *1241:C I *D sky130_fd_sc_hd__and4_2
*I *1234:A I *D sky130_fd_sc_hd__nand2_2
*I *1237:A I *D sky130_fd_sc_hd__and3_4
*I *1240:A1 I *D sky130_fd_sc_hd__a211o_2
*I *1542:X O *D sky130_fd_sc_hd__dlygate4sd1_1
*CAP
1 *1108:A 0.000418931
2 *1111:C 0
3 *1110:C 2.07967e-05
4 *1139:A1 9.79952e-05
5 *1138:A1 0.000254451
6 *1242:A1_N 0.000606124
7 *1241:C 6.33307e-05
8 *1234:A 6.1076e-05
9 *1237:A 0.000143307
10 *1240:A1 0.00010724
11 *1542:X 0.000237425
12 *733:136 0.000523126
13 *733:125 0.00054281
14 *733:112 0.000730914
15 *733:83 0.000667917
16 *733:35 0.000432281
17 *733:33 0.000785741
18 *733:12 0.00071847
19 *733:10 0.000891574
20 *733:8 0.000604523
21 *1108:B *1108:A 5.87909e-05
22 *1110:B *733:136 0
23 *1111:D *733:136 0.000125731
24 *1113:A1 *1108:A 0.000101545
25 *1113:A2 *1108:A 3.69047e-06
26 *1113:B1 *1108:A 0.000148196
27 *1115:A *1108:A 3.3801e-05
28 *1138:B2 *1138:A1 5.52238e-05
29 *1140:B *1138:A1 0.000304848
30 *1142:A2 *1138:A1 2.22085e-06
31 *1142:B1 *733:112 1.41029e-05
32 *1144:A1 *733:112 2.16719e-05
33 *1144:A1 *733:125 0.000390583
34 *1144:A2 *733:125 0.000125731
35 *1144:B1 *733:125 5.85228e-05
36 *1146:A *1138:A1 0
37 *1146:B *733:112 1.17968e-05
38 *1182:B1 *1110:C 5.52302e-05
39 *1182:B1 *733:112 0
40 *1182:B1 *733:125 0
41 *1185:A1 *1108:A 0.000123743
42 *1185:A1 *733:136 1.76135e-05
43 *1239:B *1237:A 7.83587e-05
44 *1239:C *1237:A 2.26327e-05
45 *1241:A *733:33 3.34366e-05
46 *1241:B *1241:C 5.52238e-05
47 *1242:A2_N *1242:A1_N 5.33005e-05
48 *1242:A2_N *733:33 9.71197e-05
49 *1242:B1 *1242:A1_N 6.05161e-06
50 *1243:A *733:33 1.17968e-05
51 *1243:A *733:35 3.18676e-05
52 *1243:B *1241:C 2.14757e-05
53 *1243:B *733:35 4.58194e-05
54 *1244:A1_N *733:33 0.000187882
55 *1246:A1 *1242:A1_N 2.14757e-05
56 *1246:A1 *733:10 0.000197984
57 *1250:B1 *733:83 3.17148e-05
58 *1250:B1 *733:112 0.000173097
59 *1251:B1 *733:83 0
60 *1253:A2 *733:83 5.59013e-05
61 *1257:A2 *1237:A 5.12344e-05
62 *1257:A2 *733:33 0
63 *1631:A *733:33 2.58821e-05
64 *89:8 *1108:A 0.000125724
65 *115:10 *1138:A1 5.52238e-05
66 *116:28 *733:112 8.91726e-05
67 *119:8 *1138:A1 2.286e-05
68 *156:27 *1138:A1 9.86487e-05
69 *157:14 *733:8 9.90431e-05
70 *210:34 *1237:A 3.92854e-05
71 *218:14 *1242:A1_N 0.00044659
72 *219:10 *1240:A1 5.83118e-05
73 *226:10 *733:83 0.000220441
74 *226:10 *733:112 0.00013966
75 *228:20 *733:10 6.19458e-05
76 *228:20 *733:83 3.34672e-05
77 *261:10 *1108:A 0
78 *261:10 *733:125 8.2731e-05
79 *261:10 *733:136 0
80 *307:18 *1237:A 1.76039e-05
81 *348:62 *733:83 0
82 *533:37 *733:10 1.21859e-05
83 *533:50 *733:8 9.71197e-05
84 *538:12 *1242:A1_N 1.58163e-05
85 *670:20 *733:33 9.77024e-05
86 *675:58 *1138:A1 6.60521e-05
87 *675:58 *733:83 9.10431e-06
88 *680:47 *1234:A 0.00010096
89 *680:47 *733:35 5.19835e-05
90 *680:88 *1240:A1 7.8327e-05
91 *680:88 *733:12 1.08359e-05
92 *680:111 *733:10 6.14499e-05
93 *680:111 *733:12 9.24491e-05
94 *680:111 *733:83 2.90068e-05
95 *680:121 *1138:A1 0.000240196
96 *684:33 *733:10 0
97 *684:33 *733:12 0
98 *684:33 *733:112 0
99 *684:35 *1139:A1 0.000183726
100 *684:37 *1139:A1 5.52238e-05
101 *684:115 *1138:A1 0.000302853
102 *692:10 *1240:A1 0
103 *692:10 *733:12 0
104 *696:31 *1242:A1_N 0.000121573
105 *727:45 *1242:A1_N 0.000121573
*RES
1 *1542:X *733:8 16.8 
2 *733:8 *733:10 4.07143 
3 *733:10 *733:12 2.55357 
4 *733:12 *1240:A1 16.2821 
5 *733:12 *733:33 21.1071 
6 *733:33 *733:35 3 
7 *733:35 *1237:A 21.3893 
8 *733:35 *1234:A 10.9786 
9 *733:33 *1241:C 10.2464 
10 *733:10 *1242:A1_N 31.675 
11 *733:8 *733:83 4.375 
12 *733:83 *1138:A1 23.5321 
13 *733:83 *733:112 5.51786 
14 *733:112 *1139:A1 15.9786 
15 *733:112 *733:125 10.375 
16 *733:125 *1110:C 14.3357 
17 *733:125 *733:136 2.25 
18 *733:136 *1111:C 13.8 
19 *733:136 *1108:A 21.9071 
*END

*D_NET *734 0.0157069
*CONN
*I *1003:B I *D sky130_fd_sc_hd__and4_4
*I *1002:A1 I *D sky130_fd_sc_hd__a22oi_2
*I *1000:A2 I *D sky130_fd_sc_hd__a22oi_2
*I *999:A I *D sky130_fd_sc_hd__and3_2
*I *1008:A1 I *D sky130_fd_sc_hd__a31o_2
*I *1066:C I *D sky130_fd_sc_hd__nand4_4
*I *1086:A1 I *D sky130_fd_sc_hd__a41o_2
*I *1063:A I *D sky130_fd_sc_hd__nand2_2
*I *1011:A1 I *D sky130_fd_sc_hd__a22o_4
*I *1010:B I *D sky130_fd_sc_hd__nand4_2
*I *1543:X O *D sky130_fd_sc_hd__buf_6
*CAP
1 *1003:B 3.75538e-05
2 *1002:A1 0.000107521
3 *1000:A2 0.000253263
4 *999:A 9.72757e-05
5 *1008:A1 0
6 *1066:C 8.02962e-05
7 *1086:A1 5.85006e-05
8 *1063:A 2.74016e-05
9 *1011:A1 2.76557e-05
10 *1010:B 0.000116967
11 *1543:X 0.000236005
12 *734:132 0.000739561
13 *734:96 0.000360579
14 *734:87 8.74239e-05
15 *734:81 0.000936557
16 *734:57 0.000551632
17 *734:46 0.00133499
18 *734:29 0.00100931
19 *734:14 0.00077926
20 *734:10 0.00107608
21 *998:B *734:81 0.0003487
22 *999:C *999:A 5.52302e-05
23 *1000:B1 *1000:A2 9.99644e-06
24 *1000:B2 *999:A 3.47641e-06
25 *1000:B2 *1000:A2 2.03618e-05
26 *1000:B2 *734:132 0
27 *1001:B *1000:A2 0.00013767
28 *1001:B *734:87 7.36008e-05
29 *1001:B *734:96 3.60837e-05
30 *1003:C *1002:A1 0.000299267
31 *1003:C *1003:B 7.83659e-05
32 *1004:B2 *734:132 0.000239179
33 *1008:A2 *734:87 4.13288e-05
34 *1008:A2 *734:96 1.12387e-05
35 *1008:B1 *999:A 6.18969e-06
36 *1010:D *1010:B 9.54798e-06
37 *1010:D *734:14 7.53697e-05
38 *1013:A2 *734:46 1.69115e-05
39 *1015:D *734:46 0.000340073
40 *1019:C *734:132 5.89198e-05
41 *1020:C *734:132 9.53302e-05
42 *1023:A1 *734:57 0
43 *1024:B *734:46 0.000142856
44 *1024:C *734:46 5.33005e-05
45 *1024:D *1063:A 8.07313e-05
46 *1024:D *734:46 2.78584e-05
47 *1029:B *734:29 4.46186e-06
48 *1029:B *734:46 0.000179873
49 *1065:C1 *734:57 0.000184855
50 *1066:B *1066:C 0.00014209
51 *1070:C *1086:A1 4.58194e-05
52 *1086:A3 *1086:A1 9.41642e-05
53 *1086:B1 *1066:C 0.000225314
54 *1160:A1 *999:A 5.68722e-05
55 *1161:B *734:10 9.10431e-06
56 *1161:D *734:10 4.66511e-05
57 *1173:A_N *1010:B 4.54301e-05
58 *1173:A_N *734:29 2.70899e-05
59 *1500:B *734:132 0.0002678
60 *1502:A *734:10 3.48139e-05
61 *1586:A *1000:A2 0.000301125
62 *1587:A *734:132 0.00047267
63 *1588:A *1003:B 0.000100831
64 *1588:A *734:132 0.00059121
65 *1702:A *1002:A1 9.41642e-05
66 *326:39 *1066:C 0
67 *326:39 *734:57 0
68 *400:10 *1002:A1 1.92789e-05
69 *411:10 *1003:B 8.2958e-06
70 *411:10 *734:132 0.000124947
71 *488:8 *734:46 0.000202128
72 *488:21 *734:46 2.31791e-05
73 *493:23 *734:132 2.04866e-05
74 *533:37 *734:14 6.23226e-05
75 *622:53 *1063:A 5.04589e-05
76 *622:53 *1066:C 1.02504e-05
77 *622:53 *734:46 2.89114e-05
78 *622:53 *734:57 0.00067074
79 *622:62 *1066:C 9.4724e-05
80 *645:37 *1010:B 2.95841e-05
81 *645:37 *734:14 2.1479e-05
82 *645:37 *734:29 4.18564e-05
83 *653:26 *999:A 4.36994e-05
84 *653:26 *734:10 0
85 *653:26 *734:87 8.40344e-05
86 *653:26 *734:132 0.000194562
87 *653:70 *999:A 4.78056e-05
88 *675:18 *734:10 8.84757e-05
89 *675:44 *1010:B 9.86146e-05
90 *677:8 *999:A 0
91 *677:21 *734:132 0
92 *700:63 *734:29 0
93 *700:78 *734:46 0
94 *701:41 *1011:A1 2.89016e-05
95 *701:41 *734:10 0.000410289
96 *708:76 *734:10 0.000166503
97 *722:69 *734:57 2.37761e-05
98 *731:64 *734:46 7.79781e-06
*RES
1 *1543:X *734:10 23.5582 
2 *734:10 *734:14 4.7542 
3 *734:14 *1010:B 16.4696 
4 *734:14 *734:29 1.79464 
5 *734:29 *1011:A1 14.3357 
6 *734:29 *734:46 22.7321 
7 *734:46 *1063:A 10.6571 
8 *734:46 *734:57 14.0357 
9 *734:57 *1086:A1 15.175 
10 *734:57 *1066:C 16.9607 
11 *734:10 *734:81 4.1056 
12 *734:81 *734:87 6.40179 
13 *734:87 *1008:A1 9.3 
14 *734:87 *734:96 4.85714 
15 *734:96 *999:A 16.2821 
16 *734:96 *1000:A2 19.2107 
17 *734:81 *734:132 18.4018 
18 *734:132 *1002:A1 16.8179 
19 *734:132 *1003:B 15.1393 
*END
