*SPEF "ieee 1481-1999"
*DESIGN "opt_ds"
*DATE "14:50:29 Sunday September 06, 2026"
*VENDOR "The OpenROAD Project"
*PROGRAM "OpenROAD"
*VERSION "dcf36133a369abc8f3c5e5738cd4d82e4903c0e0"
*DESIGN_FLOW "NAME_SCOPE LOCAL" "PIN_CAP NONE"
*DIVIDER /
*DELIMITER :
*BUS_DELIMITER []
*T_UNIT 1 NS
*C_UNIT 1 PF
*R_UNIT 1 OHM
*L_UNIT 1 HENRY

*NAME_MAP
*3 a[0]
*4 a[1]
*5 a[2]
*6 a[3]
*7 b[0]
*8 b[1]
*9 b[2]
*10 b[3]
*11 p[0]
*12 p[1]
*13 p[2]
*14 p[3]
*15 p[4]
*16 p[5]
*17 p[6]
*18 p[7]
*19 n10
*20 n100
*21 n101
*22 n102
*23 n104
*24 n105
*25 n106
*26 n107
*27 n108
*28 n109
*29 n11
*30 n110
*31 n111
*32 n113
*33 n114
*34 n115
*35 n116
*36 n117
*37 n118
*38 n119
*39 n12
*40 n120
*41 n122
*42 n123
*43 n124
*44 n125
*45 n126
*46 n127
*47 n128
*48 n129
*49 n13
*50 n132
*51 n133
*52 n134
*53 n135
*54 n136
*55 n137
*56 n138
*57 n139
*58 n14
*59 n140
*60 n141
*61 n15
*62 n16
*63 n17
*64 n18
*65 n19
*66 n20
*67 n21
*68 n22
*69 n23
*70 n24
*71 n25
*72 n26
*73 n27
*74 n28
*75 n29
*76 n30
*77 n31
*78 n32
*79 n33
*80 n34
*81 n35
*82 n36
*83 n37
*84 n38
*85 n39
*86 n40
*87 n41
*88 n42
*89 n44
*90 n45
*91 n46
*92 n47
*93 n48
*94 n49
*95 n50
*96 n51
*97 n52
*98 n53
*99 n54
*100 n55
*101 n56
*102 n57
*103 n58
*104 n59
*105 n60
*106 n61
*107 n62
*108 n63
*109 n64
*110 n65
*111 n66
*112 n67
*113 n68
*114 n69
*115 n70
*116 n72
*117 n73
*118 n74
*119 n75
*120 n76
*121 n77
*122 n78
*123 n79
*124 n8
*125 n80
*126 n81
*127 n82
*128 n83
*129 n84
*130 n85
*131 n86
*132 n87
*133 n88
*134 n89
*135 n90
*136 n91
*137 n92
*138 n93
*139 n94
*140 n95
*141 n96
*142 n97
*143 n98
*144 n99
*145 PHY_EDGE_ROW_0_Left_13
*146 PHY_EDGE_ROW_0_Right_0
*147 PHY_EDGE_ROW_10_Left_23
*148 PHY_EDGE_ROW_10_Right_10
*149 PHY_EDGE_ROW_11_Left_24
*150 PHY_EDGE_ROW_11_Right_11
*151 PHY_EDGE_ROW_12_Left_25
*152 PHY_EDGE_ROW_12_Right_12
*153 PHY_EDGE_ROW_1_Left_14
*154 PHY_EDGE_ROW_1_Right_1
*155 PHY_EDGE_ROW_2_Left_15
*156 PHY_EDGE_ROW_2_Right_2
*157 PHY_EDGE_ROW_3_Left_16
*158 PHY_EDGE_ROW_3_Right_3
*159 PHY_EDGE_ROW_4_Left_17
*160 PHY_EDGE_ROW_4_Right_4
*161 PHY_EDGE_ROW_5_Left_18
*162 PHY_EDGE_ROW_5_Right_5
*163 PHY_EDGE_ROW_6_Left_19
*164 PHY_EDGE_ROW_6_Right_6
*165 PHY_EDGE_ROW_7_Left_20
*166 PHY_EDGE_ROW_7_Right_7
*167 PHY_EDGE_ROW_8_Left_21
*168 PHY_EDGE_ROW_8_Right_8
*169 PHY_EDGE_ROW_9_Left_22
*170 PHY_EDGE_ROW_9_Right_9
*171 TAP_TAPCELL_ROW_0_26
*172 TAP_TAPCELL_ROW_0_27
*173 TAP_TAPCELL_ROW_10_37
*174 TAP_TAPCELL_ROW_11_38
*175 TAP_TAPCELL_ROW_12_39
*176 TAP_TAPCELL_ROW_12_40
*177 TAP_TAPCELL_ROW_1_28
*178 TAP_TAPCELL_ROW_2_29
*179 TAP_TAPCELL_ROW_3_30
*180 TAP_TAPCELL_ROW_4_31
*181 TAP_TAPCELL_ROW_5_32
*182 TAP_TAPCELL_ROW_6_33
*183 TAP_TAPCELL_ROW_7_34
*184 TAP_TAPCELL_ROW_8_35
*185 TAP_TAPCELL_ROW_9_36
*186 g10
*187 g100
*188 g101
*189 g102
*190 g103
*191 g104
*192 g105
*193 g106
*194 g107
*195 g108
*196 g109
*197 g11
*198 g110
*199 g111
*200 g112
*201 g113
*202 g114
*203 g115
*204 g116
*205 g117
*206 g118
*207 g119
*208 g12
*209 g120
*210 g121
*211 g122
*212 g123
*213 g124
*214 g125
*215 g126
*216 g127
*217 g128
*218 g129
*219 g13
*220 g130
*221 g131
*222 g132
*223 g133
*224 g134
*225 g135
*226 g136
*227 g137
*228 g138
*229 g139
*230 g14
*231 g140
*232 g141
*233 g15
*234 g16
*235 g17
*236 g18
*237 g19
*238 g20
*239 g21
*240 g22
*241 g23
*242 g24
*243 g25
*244 g26
*245 g27
*246 g28
*247 g29
*248 g30
*249 g31
*250 g32
*251 g33
*252 g34
*253 g35
*254 g36
*255 g37
*256 g38
*257 g39
*258 g40
*259 g41
*260 g42
*261 g43
*262 g44
*263 g45
*264 g46
*265 g47
*266 g48
*267 g49
*268 g50
*269 g51
*270 g52
*271 g53
*272 g54
*273 g55
*274 g56
*275 g57
*276 g58
*277 g59
*278 g60
*279 g61
*280 g62
*281 g63
*282 g64
*283 g65
*284 g66
*285 g67
*286 g68
*287 g69
*288 g70
*289 g71
*290 g72
*291 g73
*292 g74
*293 g75
*294 g76
*295 g77
*296 g78
*297 g79
*298 g8
*299 g80
*300 g81
*301 g82
*302 g83
*303 g84
*304 g85
*305 g86
*306 g87
*307 g88
*308 g89
*309 g9
*310 g90
*311 g91
*312 g92
*313 g93
*314 g94
*315 g95
*316 g96
*317 g97
*318 g98
*319 g99

*PORTS
a[0] I
a[1] I
a[2] I
a[3] I
b[0] I
b[1] I
b[2] I
b[3] I
p[0] O
p[1] O
p[2] O
p[3] O
p[4] O
p[5] O
p[6] O
p[7] O

*D_NET *3 0.00700508
*CONN
*P a[0] I
*I *298:A I *D sky130_fd_sc_hd__nand2_1
*I *186:A I *D sky130_fd_sc_hd__nand2_1
*I *230:A I *D sky130_fd_sc_hd__nand2_1
*I *208:A I *D sky130_fd_sc_hd__nand2_4
*I *228:A I *D sky130_fd_sc_hd__nand2_4
*CAP
1 a[0] 0.000451164
2 *298:A 0.000120097
3 *186:A 8.02797e-05
4 *230:A 0.000366909
5 *208:A 0.000106008
6 *228:A 5.69335e-05
7 *3:48 0.000597493
8 *3:22 0.000550832
9 *3:9 0.000723385
10 *3:5 0.00143682
11 *186:A *197:A 4.01768e-05
12 *186:A *235:A 1.3701e-05
13 *208:A *208:B 0.000175519
14 *230:A *208:B 8.32242e-05
15 *230:A *271:A 0
16 *230:A *278:B 2.38651e-06
17 *230:A *9:21 9.4724e-05
18 *230:A *9:45 0.000262415
19 *230:A *90:10 0
20 *230:A *92:16 0
21 *298:A *234:B 9.24491e-05
22 *3:5 *237:B 0
23 *3:5 *4:11 0.00058342
24 *3:9 *231:A 2.67489e-05
25 *3:9 *237:A 0.000183713
26 *3:9 *263:A 5.45307e-05
27 *3:9 *4:11 9.90431e-05
28 *3:9 *4:24 0.000153485
29 *3:9 *90:10 5.57989e-05
30 *3:48 *197:A 5.49589e-06
31 *3:48 *232:B 1.87955e-05
32 *3:48 *234:A 0.000318101
33 *3:48 *234:B 0
34 *3:48 *235:A 0.000107312
35 *3:48 *237:B 0
36 *3:48 *262:A 7.49387e-06
37 *3:48 *8:22 5.75803e-05
38 *3:48 *89:10 7.90536e-05
*RES
1 a[0] *3:5 12.8393 
2 *3:5 *3:9 14.8929 
3 *3:9 *228:A 10.5679 
4 *3:9 *3:22 5.85714 
5 *3:22 *208:A 16.05 
6 *3:22 *230:A 21.5679 
7 *3:5 *3:48 12.6071 
8 *3:48 *186:A 10.9786 
9 *3:48 *298:A 20.55 
*END

*D_NET *4 0.00701478
*CONN
*P a[1] I
*I *232:A I *D sky130_fd_sc_hd__nand2_4
*I *240:A I *D sky130_fd_sc_hd__nand2_1
*I *238:A I *D sky130_fd_sc_hd__nand2_1
*I *234:A I *D sky130_fd_sc_hd__nand2_1
*I *236:A I *D sky130_fd_sc_hd__nand2_4
*CAP
1 a[1] 0.000534846
2 *232:A 0
3 *240:A 0.000199083
4 *238:A 1.79444e-05
5 *234:A 0.00034407
6 *236:A 1.2122e-05
7 *4:41 0.000880186
8 *4:30 0.00113413
9 *4:24 0.000180968
10 *4:11 0.000601031
11 *234:A *235:A 1.3701e-05
12 *234:A *262:A 5.78607e-05
13 *236:A *64:8 0
14 *238:A *239:A 1.04232e-05
15 *238:A *9:19 5.7661e-06
16 *240:A *239:A 2.44318e-05
17 *240:A *9:13 5.71472e-05
18 *240:A *9:19 1.21289e-05
19 *240:A *10:15 4.58192e-05
20 *240:A *67:12 0
21 *4:11 *197:A 0
22 *4:11 *64:8 0.000100625
23 *4:24 *237:A 0.00010096
24 *4:24 *64:8 0.000279339
25 *4:30 *232:B 0
26 *4:30 *237:B 3.17148e-05
27 *4:30 *264:A 5.29648e-05
28 *4:30 *271:A 0
29 *4:30 *8:22 0
30 *4:41 *219:A 0.000153619
31 *4:41 *233:A 0.00024715
32 *4:41 *239:A 9.34847e-05
33 *4:41 *264:B 0.000185118
34 *4:41 *265:A 0.000251915
35 *4:41 *9:19 0.000133098
36 *4:41 *61:12 1.96517e-05
37 *4:41 *67:12 1.96517e-05
38 *4:41 *91:12 3.08664e-05
39 *4:41 *92:16 2.89114e-05
40 *3:5 *4:11 0.00058342
41 *3:9 *4:11 9.90431e-05
42 *3:9 *4:24 0.000153485
43 *3:48 *234:A 0.000318101
*RES
1 a[1] *4:11 19.5357 
2 *4:11 *236:A 9.72857 
3 *4:11 *4:24 3.55357 
4 *4:24 *4:30 11.5536 
5 *4:30 *234:A 16.425 
6 *4:30 *4:41 15.3214 
7 *4:41 *238:A 9.72857 
8 *4:41 *240:A 22.2107 
9 *4:24 *232:A 9.3 
*END

*D_NET *5 0.00515145
*CONN
*P a[2] I
*I *248:A I *D sky130_fd_sc_hd__nand2_1
*I *246:A I *D sky130_fd_sc_hd__nand2_1
*I *244:A I *D sky130_fd_sc_hd__nand2_1
*I *242:A I *D sky130_fd_sc_hd__nand2_1
*CAP
1 a[2] 0.000458568
2 *248:A 0.000403751
3 *246:A 2.13113e-05
4 *244:A 2.13113e-05
5 *242:A 0.000135941
6 *5:35 0.000897944
7 *5:26 0.00104054
8 *5:5 0.00114086
9 *242:A *290:A 3.71362e-05
10 *242:A *7:11 9.15842e-06
11 *242:A *7:26 0
12 *248:A *247:A 0.000141036
13 *248:A *248:B 1.16198e-05
14 *5:5 p[0] 0
15 *5:5 p[2] 0.000164154
16 *5:5 *8:7 0
17 *5:26 *243:A 5.7903e-06
18 *5:26 *244:B 9.58689e-05
19 *5:26 *245:A 5.66971e-05
20 *5:35 *229:A 0.000185248
21 *5:35 *293:B 9.75679e-05
22 *5:35 *106:12 0.000226946
*RES
1 a[2] *5:5 1.45387 
2 *5:5 *242:A 19.3082 
3 *5:5 *5:26 12.7038 
4 *5:26 *244:A 9.72857 
5 *5:26 *5:35 8.75 
6 *5:35 *246:A 9.72857 
7 *5:35 *248:A 25.3 
*END

*D_NET *6 0.00552104
*CONN
*P a[3] I
*I *256:A I *D sky130_fd_sc_hd__nand2_1
*I *254:A I *D sky130_fd_sc_hd__nand2_1
*I *252:A I *D sky130_fd_sc_hd__nand2_1
*I *250:A I *D sky130_fd_sc_hd__nand2_1
*CAP
1 a[3] 0.000353603
2 *256:A 0.000288766
3 *254:A 4.20936e-05
4 *252:A 2.18506e-05
5 *250:A 0
6 *6:43 0.000725747
7 *6:30 0.00100698
8 *6:13 0.000943849
9 *252:A *305:B 0
10 *254:A *315:B 0
11 *256:A *254:B 2.85234e-05
12 *256:A *315:B 0.000335802
13 *256:A *316:A 5.00248e-05
14 *256:A *318:A 0.000144773
15 *256:A *318:B 5.71472e-05
16 *256:A *319:B 1.82906e-05
17 *256:A *135:8 6.83371e-05
18 *6:13 p[3] 0
19 *6:13 *250:B 0
20 *6:13 *7:7 0.000349304
21 *6:30 *251:A 3.18676e-05
22 *6:30 *296:A 5.49995e-05
23 *6:30 *296:B 6.20656e-05
24 *6:30 *297:B 2.6968e-05
25 *6:30 *299:A 1.16543e-05
26 *6:30 *299:B 6.02956e-05
27 *6:30 *121:8 3.01245e-06
28 *6:43 *305:B 0.00032848
29 *6:43 *308:A 0.000230432
30 *6:43 *308:B 0.000100684
31 *6:43 *310:B 0.000101982
32 *6:43 *131:10 3.9257e-05
33 *6:43 *135:8 3.42426e-05
*RES
1 a[3] *6:13 11.5112 
2 *6:13 *250:A 9.3 
3 *6:13 *6:30 10.0714 
4 *6:30 *252:A 9.72857 
5 *6:30 *6:43 9.71429 
6 *6:43 *254:A 10.0321 
7 *6:43 *256:A 16.9786 
*END

*D_NET *7 0.00394479
*CONN
*P b[0] I
*I *250:B I *D sky130_fd_sc_hd__nand2_1
*I *298:B I *D sky130_fd_sc_hd__nand2_1
*I *234:B I *D sky130_fd_sc_hd__nand2_1
*I *242:B I *D sky130_fd_sc_hd__nand2_1
*CAP
1 b[0] 0.000231277
2 *250:B 0.000110269
3 *298:B 3.98048e-05
4 *234:B 0.00015094
5 *242:B 3.06569e-05
6 *7:26 0.000641685
7 *7:11 0.000659308
8 *7:7 0.000519257
9 *234:B *186:B 0
10 *234:B *89:10 5.29554e-05
11 *250:B *297:A 4.26814e-05
12 *250:B *120:14 0
13 *7:7 *8:7 0.000476814
14 *7:11 *290:A 0
15 *7:26 p[0] 0
16 *7:26 *243:A 0.000241733
17 *7:26 *269:A 9.12446e-05
18 *7:26 *289:A 2.97838e-05
19 *7:26 *290:A 9.96487e-05
20 *7:26 *89:10 4.46186e-06
21 *7:26 *97:12 7.13543e-05
22 *242:A *7:11 9.15842e-06
23 *242:A *7:26 0
24 *298:A *234:B 9.24491e-05
25 *3:48 *234:B 0
26 *6:13 *250:B 0
27 *6:13 *7:7 0.000349304
*RES
1 b[0] *7:7 4.7918 
2 *7:7 *7:11 7.50893 
3 *7:11 *242:B 9.83571 
4 *7:11 *7:26 13.9107 
5 *7:26 *234:B 17.1929 
6 *7:26 *298:B 14.3357 
7 *7:7 *250:B 15.8982 
*END

*D_NET *8 0.00641389
*CONN
*P b[1] I
*I *252:B I *D sky130_fd_sc_hd__nand2_1
*I *236:B I *D sky130_fd_sc_hd__nand2_4
*I *186:B I *D sky130_fd_sc_hd__nand2_1
*I *232:B I *D sky130_fd_sc_hd__nand2_4
*I *244:B I *D sky130_fd_sc_hd__nand2_1
*CAP
1 b[1] 0.000723263
2 *252:B 0.000161579
3 *236:B 3.21587e-05
4 *186:B 0.000384858
5 *232:B 4.27279e-05
6 *244:B 4.27786e-05
7 *8:35 0.00070848
8 *8:22 0.000830511
9 *8:9 0.000733962
10 *8:7 0.00107971
11 *186:B *197:A 0
12 *186:B *260:B 0.00010096
13 *186:B *63:12 2.56694e-05
14 *186:B *86:17 0.00018372
15 *236:B *64:8 0
16 *236:B *86:17 1.3701e-05
17 *252:B *294:A 4.6205e-05
18 *252:B *295:B 5.57728e-05
19 *8:7 p[2] 8.08429e-05
20 *8:9 *243:A 0
21 *8:9 *245:A 6.66813e-05
22 *8:9 *294:A 4.40661e-05
23 *8:22 *222:B 0
24 *8:22 *268:A 0.000179656
25 *8:22 *89:10 0
26 *8:22 *91:12 0
27 *8:35 *64:8 0.000227532
28 *234:B *186:B 0
29 *3:48 *232:B 1.87955e-05
30 *3:48 *8:22 5.75803e-05
31 *4:30 *232:B 0
32 *4:30 *8:22 0
33 *5:5 *8:7 0
34 *5:26 *244:B 9.58689e-05
35 *7:7 *8:7 0.000476814
*RES
1 b[1] *8:7 5.8728 
2 *8:7 *8:9 3.91964 
3 *8:9 *244:B 14.7464 
4 *8:9 *8:22 9.76786 
5 *8:22 *232:B 14.5321 
6 *8:22 *8:35 8.32143 
7 *8:35 *186:B 23.7643 
8 *8:35 *236:B 10.0321 
9 *8:7 *252:B 17.1125 
*END

*D_NET *9 0.00665064
*CONN
*P b[2] I
*I *238:B I *D sky130_fd_sc_hd__nand2_1
*I *254:B I *D sky130_fd_sc_hd__nand2_1
*I *246:B I *D sky130_fd_sc_hd__nand2_1
*I *228:B I *D sky130_fd_sc_hd__nand2_4
*I *208:B I *D sky130_fd_sc_hd__nand2_4
*CAP
1 b[2] 0.000576677
2 *238:B 0
3 *254:B 0.000383275
4 *246:B 0
5 *228:B 9.24414e-05
6 *208:B 0.000179199
7 *9:45 0.000784616
8 *9:21 0.000303527
9 *9:19 0.00101952
10 *9:13 0.00116297
11 *208:B *219:A 3.34295e-05
12 *208:B *227:A 9.90431e-05
13 *254:B *247:A 5.92441e-05
14 *254:B *310:A 0.000111735
15 *254:B *135:8 5.49995e-05
16 *9:13 *10:9 0.000393614
17 *9:19 *219:A 2.59355e-05
18 *9:19 *233:A 0.00013889
19 *9:19 *239:A 0.000141736
20 *9:21 *219:A 0.000101545
21 *9:45 *219:A 5.66157e-05
22 *9:45 *233:A 0
23 *9:45 *277:A 7.90803e-05
24 *9:45 *102:12 0
25 *208:A *208:B 0.000175519
26 *230:A *208:B 8.32242e-05
27 *230:A *9:21 9.4724e-05
28 *230:A *9:45 0.000262415
29 *238:A *9:19 5.7661e-06
30 *240:A *9:13 5.71472e-05
31 *240:A *9:19 1.21289e-05
32 *256:A *254:B 2.85234e-05
33 *4:41 *9:19 0.000133098
*RES
1 b[2] *9:13 15.0053 
2 *9:13 *9:19 13.1607 
3 *9:19 *9:21 1.33929 
4 *9:21 *208:B 18.3179 
5 *9:21 *228:B 15.175 
6 *9:19 *9:45 8.32143 
7 *9:45 *246:B 13.8 
8 *9:45 *254:B 21.4429 
9 *9:13 *238:B 9.3 
*END

*D_NET *10 0.00517666
*CONN
*P b[3] I
*I *240:B I *D sky130_fd_sc_hd__nand2_1
*I *256:B I *D sky130_fd_sc_hd__nand2_1
*I *248:B I *D sky130_fd_sc_hd__nand2_1
*I *230:B I *D sky130_fd_sc_hd__nand2_1
*CAP
1 b[3] 0.00041217
2 *240:B 0
3 *256:B 0.000290898
4 *248:B 0.000117067
5 *230:B 0.000290111
6 *10:32 0.000787366
7 *10:15 0.00097605
8 *10:9 0.000718707
9 *230:B *275:A 0.000305118
10 *256:B *77:12 3.90086e-05
11 *256:B *139:20 0.000157096
12 *10:15 *272:B 1.74352e-05
13 *10:15 *275:A 5.52302e-05
14 *10:15 *99:8 6.87574e-05
15 *10:32 *241:A 0
16 *10:32 *280:A 0.00016799
17 *10:32 *282:A 0
18 *10:32 *283:A 0.000200404
19 *10:32 *61:12 2.05938e-05
20 *10:32 *67:12 3.69697e-05
21 *10:32 *111:18 6.464e-05
22 *240:A *10:15 4.58192e-05
23 *248:A *248:B 1.16198e-05
24 *9:13 *10:9 0.000393614
*RES
1 b[3] *10:9 5.25972 
2 *10:9 *10:15 8.94643 
3 *10:15 *230:B 13.7464 
4 *10:15 *10:32 13.0268 
5 *10:32 *248:B 15.4339 
6 *10:32 *256:B 18.9339 
7 *10:9 *240:B 13.8 
*END

*D_NET *11 0.00111833
*CONN
*P p[0] O
*I *309:Y O *D sky130_fd_sc_hd__inv_1
*CAP
1 p[0] 0.000559167
2 *309:Y 0.000559167
3 p[0] p[1] 0
4 *5:5 p[0] 0
5 *7:26 p[0] 0
*RES
1 *309:Y p[0] 21.6958 
*END

*D_NET *12 0.00157819
*CONN
*P p[1] O
*I *261:Y O *D sky130_fd_sc_hd__nand2_1
*CAP
1 p[1] 0.000723862
2 *261:Y 0.000723862
3 p[1] *261:B 3.14193e-05
4 p[1] *29:12 9.90431e-05
5 p[0] p[1] 0
*RES
1 *261:Y p[1] 26.8424 
*END

*D_NET *13 0.00159976
*CONN
*P p[2] O
*I *289:Y O *D sky130_fd_sc_hd__nand2_1
*CAP
1 p[2] 0.000677379
2 *289:Y 0.000677379
3 *5:5 p[2] 0.000164154
4 *8:7 p[2] 8.08429e-05
*RES
1 *289:Y p[2] 26.8424 
*END

*D_NET *14 0.000908055
*CONN
*P p[3] O
*I *190:Y O *D sky130_fd_sc_hd__nand2_1
*CAP
1 p[3] 0.000425454
2 *190:Y 0.000425454
3 p[3] *190:A 5.71472e-05
4 *6:13 p[3] 0
*RES
1 *190:Y p[3] 21.5586 
*END

*D_NET *15 0.00195163
*CONN
*P p[4] O
*I *200:Y O *D sky130_fd_sc_hd__nand2_1
*CAP
1 p[4] 0.000881522
2 *200:Y 0.000881522
3 p[4] *200:A 0.000188586
*RES
1 *200:Y p[4] 30.6884 
*END

*D_NET *16 0.00183647
*CONN
*P p[5] O
*I *210:Y O *D sky130_fd_sc_hd__nand2_1
*CAP
1 p[5] 0.000873636
2 *210:Y 0.000873636
3 p[5] *201:A 0
4 p[5] *205:B 0
5 p[5] *210:A 7.83587e-05
6 p[5] *210:B 1.08359e-05
*RES
1 *210:Y p[5] 30.6884 
*END

*D_NET *17 0.00181793
*CONN
*P p[6] O
*I *220:Y O *D sky130_fd_sc_hd__nand2_2
*CAP
1 p[6] 0.000843976
2 *220:Y 0.000843976
3 p[6] *216:B 5.52302e-05
4 p[6] *218:A 1.76039e-05
5 p[6] *220:A 5.71472e-05
*RES
1 *220:Y p[6] 32.608 
*END

*D_NET *18 0.0011352
*CONN
*P p[7] O
*I *221:Y O *D sky130_fd_sc_hd__nand2_1
*CAP
1 p[7] 0.0005565
2 *221:Y 0.0005565
3 p[7] *221:B 2.22043e-05
*RES
1 *221:Y p[7] 19.1318 
*END

*D_NET *19 0.00115489
*CONN
*I *197:A I *D sky130_fd_sc_hd__inv_1
*I *186:Y O *D sky130_fd_sc_hd__nand2_1
*CAP
1 *197:A 0.0003854
2 *186:Y 0.0003854
3 *197:A *235:A 7.58999e-05
4 *197:A *261:A 5.26091e-05
5 *197:A *262:A 0.000176588
6 *197:A *29:12 0
7 *197:A *63:12 3.33238e-05
8 *186:A *197:A 4.01768e-05
9 *186:B *197:A 0
10 *3:48 *197:A 5.49589e-06
11 *4:11 *197:A 0
*RES
1 *186:Y *197:A 35.1491 
*END

*D_NET *20 0.00103155
*CONN
*I *191:A I *D sky130_fd_sc_hd__inv_1
*I *189:B I *D sky130_fd_sc_hd__nand2_1
*I *188:B I *D sky130_fd_sc_hd__nand2_1
*I *187:Y O *D sky130_fd_sc_hd__nand2_1
*CAP
1 *191:A 0.00015324
2 *189:B 8.28388e-05
3 *188:B 4.95102e-05
4 *187:Y 0.000230623
5 *20:6 0.000209732
6 *188:B *188:A 5.7661e-06
7 *188:B *190:A 3.28977e-05
8 *189:B *187:B 6.51946e-05
9 *189:B *190:B 5.56943e-05
10 *189:B *251:A 2.8266e-06
11 *189:B *125:10 0
12 *191:A *188:A 3.18676e-05
13 *191:A *200:B 5.35423e-05
14 *20:6 *188:A 5.17614e-05
15 *20:6 *190:A 6.05161e-06
*RES
1 *187:Y *20:6 10.6571 
2 *20:6 *188:B 10.2643 
3 *20:6 *189:B 20.2464 
4 *187:Y *191:A 30.3634 
*END

*D_NET *21 0.000321153
*CONN
*I *190:A I *D sky130_fd_sc_hd__nand2_1
*I *188:Y O *D sky130_fd_sc_hd__nand2_1
*CAP
1 *190:A 0.000112528
2 *188:Y 0.000112528
3 *190:A *188:A 0
4 p[3] *190:A 5.71472e-05
5 *188:B *190:A 3.28977e-05
6 *20:6 *190:A 6.05161e-06
*RES
1 *188:Y *190:A 20.7964 
*END

*D_NET *22 0.000208331
*CONN
*I *190:B I *D sky130_fd_sc_hd__nand2_1
*I *189:Y O *D sky130_fd_sc_hd__nand2_1
*CAP
1 *190:B 7.63182e-05
2 *189:Y 7.63182e-05
3 *190:B *187:B 0
4 *189:B *190:B 5.56943e-05
*RES
1 *189:Y *190:B 29.2429 
*END

*D_NET *23 0.000802783
*CONN
*I *196:B I *D sky130_fd_sc_hd__nand2_1
*I *199:A I *D sky130_fd_sc_hd__nand2_1
*I *191:Y O *D sky130_fd_sc_hd__inv_1
*CAP
1 *196:B 0
2 *199:A 0.000114528
3 *191:Y 0.000154711
4 *23:10 0.000269239
5 *199:A *195:B 0
6 *199:A *199:B 9.4736e-05
7 *199:A *200:B 5.26184e-05
8 *199:A *125:10 0
9 *23:10 *200:A 8.38463e-05
10 *23:10 *27:8 1.97695e-05
11 *23:10 *28:6 1.33343e-05
*RES
1 *191:Y *23:10 12.6482 
2 *23:10 *199:A 21.1571 
3 *23:10 *196:B 9.3 
*END

*D_NET *24 0.000979105
*CONN
*I *201:A I *D sky130_fd_sc_hd__nand2_1
*I *193:B I *D sky130_fd_sc_hd__nand2_1
*I *194:B I *D sky130_fd_sc_hd__nand2_1
*I *192:Y O *D sky130_fd_sc_hd__nand2_1
*CAP
1 *201:A 0.000111412
2 *193:B 5.05864e-06
3 *194:B 8.83654e-05
4 *192:Y 4.31982e-05
5 *24:10 0.000157573
6 *24:6 0.000218759
7 *193:B *192:B 1.04232e-05
8 *193:B *193:A 1.97695e-05
9 *194:B *192:B 3.46775e-05
10 *201:A *195:A 5.26184e-05
11 *201:A *199:B 0
12 *24:6 *193:A 8.76257e-05
13 *24:10 *192:B 2.95641e-05
14 *24:10 *193:A 6.29133e-05
15 *24:10 *195:A 5.71472e-05
16 p[5] *201:A 0
*RES
1 *192:Y *24:6 10.2464 
2 *24:6 *24:10 1.78571 
3 *24:10 *194:B 11.0857 
4 *24:10 *193:B 9.72857 
5 *24:6 *201:A 20.55 
*END

*D_NET *25 0.000400828
*CONN
*I *195:A I *D sky130_fd_sc_hd__nand2_1
*I *193:Y O *D sky130_fd_sc_hd__nand2_1
*CAP
1 *195:A 0.000106843
2 *193:Y 0.000106843
3 *195:A *195:B 7.73758e-05
4 *201:A *195:A 5.26184e-05
5 *24:10 *195:A 5.71472e-05
*RES
1 *193:Y *195:A 30.0821 
*END

*D_NET *26 0.000265412
*CONN
*I *195:B I *D sky130_fd_sc_hd__nand2_1
*I *194:Y O *D sky130_fd_sc_hd__nand2_1
*CAP
1 *195:B 9.40181e-05
2 *194:Y 9.40181e-05
3 *195:B *199:B 0
4 *195:A *195:B 7.73758e-05
5 *199:A *195:B 0
*RES
1 *194:Y *195:B 29.5464 
*END

*D_NET *27 0.000585671
*CONN
*I *198:A I *D sky130_fd_sc_hd__nand2_1
*I *196:A I *D sky130_fd_sc_hd__nand2_1
*I *195:Y O *D sky130_fd_sc_hd__nand2_1
*CAP
1 *198:A 0
2 *196:A 1.31164e-05
3 *195:Y 5.95738e-05
4 *27:8 7.26903e-05
5 *196:A *200:A 5.71472e-05
6 *196:A *28:6 6.05161e-06
7 *196:A *28:21 2.14757e-05
8 *27:8 *198:B 8.19593e-05
9 *27:8 *200:A 2.44318e-05
10 *27:8 *28:21 0.000229456
11 *23:10 *27:8 1.97695e-05
*RES
1 *195:Y *27:8 11.9071 
2 *27:8 *196:A 9.83571 
3 *27:8 *198:A 9.3 
*END

*D_NET *28 0.00138777
*CONN
*I *198:B I *D sky130_fd_sc_hd__nand2_1
*I *201:B I *D sky130_fd_sc_hd__nand2_1
*I *199:B I *D sky130_fd_sc_hd__nand2_1
*I *196:Y O *D sky130_fd_sc_hd__nand2_1
*CAP
1 *198:B 0.00013725
2 *201:B 0
3 *199:B 9.44141e-05
4 *196:Y 3.14335e-05
5 *28:21 0.00033939
6 *28:6 0.000327988
7 *198:B *200:A 0
8 *198:B *223:B 0
9 *198:B *32:8 0
10 *199:B *81:12 0
11 *28:6 *200:A 1.02821e-05
12 *28:21 *32:8 0
13 *195:B *199:B 0
14 *196:A *28:6 6.05161e-06
15 *196:A *28:21 2.14757e-05
16 *199:A *199:B 9.4736e-05
17 *201:A *199:B 0
18 *23:10 *28:6 1.33343e-05
19 *27:8 *198:B 8.19593e-05
20 *27:8 *28:21 0.000229456
*RES
1 *196:Y *28:6 9.83571 
2 *28:6 *199:B 20.55 
3 *28:6 *28:21 4.14286 
4 *28:21 *201:B 9.3 
5 *28:21 *198:B 12.3357 
*END

*D_NET *29 0.0007111
*CONN
*I *258:B I *D sky130_fd_sc_hd__nand2_1
*I *260:A I *D sky130_fd_sc_hd__nand2_1
*I *197:Y O *D sky130_fd_sc_hd__inv_1
*CAP
1 *258:B 0
2 *260:A 2.36895e-05
3 *197:Y 0.000194082
4 *29:12 0.000217771
5 *260:A *260:B 5.52238e-05
6 *29:12 *261:A 3.2534e-05
7 *29:12 *261:B 8.4295e-05
8 *29:12 *63:12 4.46186e-06
9 p[1] *29:12 9.90431e-05
10 *197:A *29:12 0
*RES
1 *197:Y *29:12 22.5232 
2 *29:12 *260:A 9.83571 
3 *29:12 *258:B 9.3 
*END

*D_NET *30 0.000503288
*CONN
*I *200:A I *D sky130_fd_sc_hd__nand2_1
*I *198:Y O *D sky130_fd_sc_hd__nand2_1
*CAP
1 *200:A 6.94975e-05
2 *198:Y 6.94975e-05
3 p[4] *200:A 0.000188586
4 *196:A *200:A 5.71472e-05
5 *198:B *200:A 0
6 *23:10 *200:A 8.38463e-05
7 *27:8 *200:A 2.44318e-05
8 *28:6 *200:A 1.02821e-05
*RES
1 *198:Y *200:A 21.2071 
*END

*D_NET *31 0.000557355
*CONN
*I *200:B I *D sky130_fd_sc_hd__nand2_1
*I *199:Y O *D sky130_fd_sc_hd__nand2_1
*CAP
1 *200:B 0.000225597
2 *199:Y 0.000225597
3 *191:A *200:B 5.35423e-05
4 *199:A *200:B 5.26184e-05
*RES
1 *199:Y *200:B 31.3143 
*END

*D_NET *32 0.00143988
*CONN
*I *206:B I *D sky130_fd_sc_hd__nand2_1
*I *223:B I *D sky130_fd_sc_hd__nand2_1
*I *209:A I *D sky130_fd_sc_hd__nand2_1
*I *201:Y O *D sky130_fd_sc_hd__nand2_1
*CAP
1 *206:B 3.30201e-05
2 *223:B 0.00032638
3 *209:A 0
4 *201:Y 0.000111264
5 *32:8 0.000345679
6 *32:6 0.000163584
7 *206:B *206:A 1.8461e-05
8 *206:B *209:B 4.10796e-05
9 *206:B *210:B 9.99853e-05
10 *223:B *206:A 2.90548e-05
11 *223:B *207:A 1.04232e-05
12 *223:B *207:B 0.000108279
13 *223:B *209:B 0.000119755
14 *223:B *223:A 5.38444e-06
15 *223:B *36:8 2.17647e-05
16 *32:8 *209:B 5.7661e-06
17 *198:B *223:B 0
18 *198:B *32:8 0
19 *28:21 *32:8 0
*RES
1 *201:Y *32:6 11.0679 
2 *32:6 *32:8 0.428571 
3 *32:8 *209:A 9.3 
4 *32:8 *223:B 14.5857 
5 *32:6 *206:B 11.0857 
*END

*D_NET *33 0.00129015
*CONN
*I *211:A I *D sky130_fd_sc_hd__nand2_1
*I *203:B I *D sky130_fd_sc_hd__nand2_1
*I *204:B I *D sky130_fd_sc_hd__nand2_1
*I *202:Y O *D sky130_fd_sc_hd__nand2_1
*CAP
1 *211:A 0.000229983
2 *203:B 0
3 *204:B 0.000151768
4 *202:Y 5.56143e-05
5 *33:19 0.00024232
6 *33:8 0.00021972
7 *204:B *202:A 2.44318e-05
8 *204:B *204:A 5.65955e-05
9 *204:B *205:B 1.13883e-05
10 *204:B *83:14 4.17433e-05
11 *211:A *202:A 5.52238e-05
12 *211:A *205:A 0.000118309
13 *211:A *210:A 0
14 *211:A *218:B 0
15 *211:A *41:6 5.52238e-05
16 *211:A *83:14 2.38651e-06
17 *211:A *143:12 9.25014e-06
18 *33:19 *202:A 1.61893e-05
*RES
1 *202:Y *33:8 10.2643 
2 *33:8 *204:B 12.3179 
3 *33:8 *33:19 0.428571 
4 *33:19 *203:B 9.3 
5 *33:19 *211:A 22.8893 
*END

*D_NET *34 0.000510343
*CONN
*I *205:A I *D sky130_fd_sc_hd__nand2_1
*I *203:Y O *D sky130_fd_sc_hd__nand2_1
*CAP
1 *205:A 0.000157156
2 *203:Y 0.000157156
3 *205:A *211:B 4.15819e-05
4 *205:A *223:A 1.17091e-05
5 *205:A *41:6 2.44318e-05
6 *211:A *205:A 0.000118309
*RES
1 *203:Y *205:A 31.1536 
*END

*D_NET *35 0.000346224
*CONN
*I *205:B I *D sky130_fd_sc_hd__nand2_1
*I *204:Y O *D sky130_fd_sc_hd__nand2_1
*CAP
1 *205:B 0.000149967
2 *204:Y 0.000149967
3 *205:B *204:A 4.85049e-06
4 *205:B *210:B 3.00522e-05
5 p[5] *205:B 0
6 *204:B *205:B 1.13883e-05
*RES
1 *204:Y *205:B 30.0821 
*END

*D_NET *36 0.000714235
*CONN
*I *223:A I *D sky130_fd_sc_hd__nand2_1
*I *207:A I *D sky130_fd_sc_hd__nand2_1
*I *206:A I *D sky130_fd_sc_hd__nand2_1
*I *205:Y O *D sky130_fd_sc_hd__nand2_1
*CAP
1 *223:A 7.55751e-06
2 *207:A 8.09773e-06
3 *206:A 4.14704e-05
4 *205:Y 4.42858e-05
5 *36:8 0.000101318
6 *36:6 0.000103593
7 *206:A *207:B 4.10796e-05
8 *206:A *210:B 0.000141132
9 *207:A *207:B 5.38444e-06
10 *36:6 *211:B 5.07619e-05
11 *36:8 *210:B 4.18895e-05
12 *36:8 *211:B 3.08664e-05
13 *205:A *223:A 1.17091e-05
14 *206:B *206:A 1.8461e-05
15 *223:B *206:A 2.90548e-05
16 *223:B *207:A 1.04232e-05
17 *223:B *223:A 5.38444e-06
18 *223:B *36:8 2.17647e-05
*RES
1 *205:Y *36:6 10.2464 
2 *36:6 *36:8 1.35714 
3 *36:8 *206:A 11.0857 
4 *36:8 *207:A 9.72857 
5 *36:6 *223:A 9.72857 
*END

*D_NET *37 0.000455102
*CONN
*I *207:B I *D sky130_fd_sc_hd__nand2_1
*I *209:B I *D sky130_fd_sc_hd__nand2_1
*I *206:Y O *D sky130_fd_sc_hd__nand2_1
*CAP
1 *207:B 2.60983e-05
2 *209:B 2.72686e-05
3 *206:Y 0
4 *37:4 5.33668e-05
5 *207:B *210:B 1.10868e-05
6 *209:B *210:B 1.59373e-05
7 *206:A *207:B 4.10796e-05
8 *206:B *209:B 4.10796e-05
9 *207:A *207:B 5.38444e-06
10 *223:B *207:B 0.000108279
11 *223:B *209:B 0.000119755
12 *32:8 *209:B 5.7661e-06
*RES
1 *206:Y *37:4 9.3 
2 *37:4 *209:B 10.675 
3 *37:4 *207:B 10.675 
*END

*D_NET *38 0.000493578
*CONN
*I *210:A I *D sky130_fd_sc_hd__nand2_1
*I *207:Y O *D sky130_fd_sc_hd__nand2_1
*CAP
1 *210:A 0.00011774
2 *207:Y 0.00011774
3 *210:A *210:B 0.000179739
4 *210:A *83:14 0
5 *210:A *134:12 0
6 p[5] *210:A 7.83587e-05
7 *211:A *210:A 0
*RES
1 *207:Y *210:A 30.0821 
*END

*D_NET *39 0.000382023
*CONN
*I *227:A I *D sky130_fd_sc_hd__inv_2
*I *208:Y O *D sky130_fd_sc_hd__nand2_4
*CAP
1 *227:A 0.00014149
2 *208:Y 0.00014149
3 *208:B *227:A 9.90431e-05
*RES
1 *208:Y *227:A 21.2071 
*END

*D_NET *40 0.00121928
*CONN
*I *210:B I *D sky130_fd_sc_hd__nand2_1
*I *209:Y O *D sky130_fd_sc_hd__nand2_1
*CAP
1 *210:B 0.00034431
2 *209:Y 0.00034431
3 *210:B *193:A 0
4 p[5] *210:B 1.08359e-05
5 *205:B *210:B 3.00522e-05
6 *206:A *210:B 0.000141132
7 *206:B *210:B 9.99853e-05
8 *207:B *210:B 1.10868e-05
9 *209:B *210:B 1.59373e-05
10 *210:A *210:B 0.000179739
11 *36:8 *210:B 4.18895e-05
*RES
1 *209:Y *210:B 34.7429 
*END

*D_NET *41 0.00193337
*CONN
*I *216:B I *D sky130_fd_sc_hd__nand2_1
*I *218:A I *D sky130_fd_sc_hd__nand2_1
*I *225:B I *D sky130_fd_sc_hd__nand2_1
*I *211:Y O *D sky130_fd_sc_hd__nand2_1
*CAP
1 *216:B 0.000164101
2 *218:A 0.00013738
3 *225:B 2.03441e-05
4 *211:Y 0.000255915
5 *41:17 0.000470711
6 *41:6 0.000445488
7 *216:B *217:B 0
8 *216:B *220:A 5.22903e-05
9 *216:B *225:A 7.49387e-06
10 *218:A *214:A 0
11 *218:A *218:B 4.23086e-05
12 *218:A *220:B 0.00015234
13 *218:A *221:B 0
14 *218:A *45:8 0
15 *218:A *45:23 0
16 *225:B *225:A 5.7661e-06
17 *41:17 *218:B 4.45768e-06
18 *41:17 *225:A 2.22891e-05
19 p[6] *216:B 5.52302e-05
20 p[6] *218:A 1.76039e-05
21 *205:A *41:6 2.44318e-05
22 *211:A *41:6 5.52238e-05
*RES
1 *211:Y *41:6 13.5321 
2 *41:6 *225:B 9.72857 
3 *41:6 *41:17 2.19643 
4 *41:17 *218:A 21.7643 
5 *41:17 *216:B 11.8 
*END

*D_NET *42 0.00119523
*CONN
*I *213:B I *D sky130_fd_sc_hd__nand2_1
*I *221:A I *D sky130_fd_sc_hd__nand2_1
*I *214:B I *D sky130_fd_sc_hd__nand2_1
*I *212:Y O *D sky130_fd_sc_hd__nand2_1
*CAP
1 *213:B 8.62816e-05
2 *221:A 1.12635e-05
3 *214:B 0.000238108
4 *212:Y 5.64576e-05
5 *42:23 0.00018113
6 *42:10 0.000378151
7 *213:B *215:A 5.17614e-05
8 *214:B *215:A 1.92789e-05
9 *214:B *215:B 0.000111718
10 *221:A *215:A 3.99614e-06
11 *221:A *215:B 0
12 *42:10 *213:A 2.56601e-05
13 *42:10 *214:A 0
14 *42:23 *215:A 3.14193e-05
15 *42:23 *215:B 0
*RES
1 *212:Y *42:10 19.3357 
2 *42:10 *214:B 12.6214 
3 *42:10 *42:23 1.375 
4 *42:23 *221:A 9.72857 
5 *42:23 *213:B 11.0857 
*END

*D_NET *43 0.00036673
*CONN
*I *215:A I *D sky130_fd_sc_hd__nand2_1
*I *213:Y O *D sky130_fd_sc_hd__nand2_1
*CAP
1 *215:A 0.000127254
2 *213:Y 0.000127254
3 *215:A *215:B 5.7661e-06
4 *213:B *215:A 5.17614e-05
5 *214:B *215:A 1.92789e-05
6 *221:A *215:A 3.99614e-06
7 *42:23 *215:A 3.14193e-05
*RES
1 *213:Y *215:A 21.2071 
*END

*D_NET *44 0.000225117
*CONN
*I *215:B I *D sky130_fd_sc_hd__nand2_1
*I *214:Y O *D sky130_fd_sc_hd__nand2_1
*CAP
1 *215:B 5.38164e-05
2 *214:Y 5.38164e-05
3 *214:B *215:B 0.000111718
4 *215:A *215:B 5.7661e-06
5 *221:A *215:B 0
6 *42:23 *215:B 0
*RES
1 *214:Y *215:B 19.975 
*END

*D_NET *45 0.00108282
*CONN
*I *217:A I *D sky130_fd_sc_hd__nand2_1
*I *216:A I *D sky130_fd_sc_hd__nand2_1
*I *225:A I *D sky130_fd_sc_hd__nand2_1
*I *215:Y O *D sky130_fd_sc_hd__nand2_1
*CAP
1 *217:A 1.16062e-05
2 *216:A 0
3 *225:A 0.000219941
4 *215:Y 6.34426e-05
5 *45:23 4.31874e-05
6 *45:8 0.000314965
7 *217:A *220:A 5.52302e-05
8 *217:A *46:6 5.52302e-05
9 *225:A *218:B 1.24368e-05
10 *225:A *220:A 0.000191713
11 *45:8 *221:B 5.33882e-05
12 *45:23 *221:B 2.61337e-05
13 *216:B *225:A 7.49387e-06
14 *218:A *45:8 0
15 *218:A *45:23 0
16 *225:B *225:A 5.7661e-06
17 *41:17 *225:A 2.22891e-05
*RES
1 *215:Y *45:8 15.1393 
2 *45:8 *225:A 17.9429 
3 *45:8 *45:23 5.23214 
4 *45:23 *216:A 9.3 
5 *45:23 *217:A 9.83571 
*END

*D_NET *46 0.000800138
*CONN
*I *217:B I *D sky130_fd_sc_hd__nand2_1
*I *221:B I *D sky130_fd_sc_hd__nand2_1
*I *216:Y O *D sky130_fd_sc_hd__nand2_1
*CAP
1 *217:B 5.76421e-05
2 *221:B 0.000167216
3 *216:Y 7.25088e-05
4 *46:6 0.000297367
5 *221:B *213:A 4.1331e-06
6 *221:B *214:A 0
7 *46:6 *220:A 4.43157e-05
8 p[7] *221:B 2.22043e-05
9 *216:B *217:B 0
10 *217:A *46:6 5.52302e-05
11 *218:A *221:B 0
12 *45:8 *221:B 5.33882e-05
13 *45:23 *221:B 2.61337e-05
*RES
1 *216:Y *46:6 10.6571 
2 *46:6 *221:B 21.4607 
3 *46:6 *217:B 10.2643 
*END

*D_NET *47 0.000611365
*CONN
*I *220:A I *D sky130_fd_sc_hd__nand2_2
*I *217:Y O *D sky130_fd_sc_hd__nand2_1
*CAP
1 *220:A 0.000105334
2 *217:Y 0.000105334
3 p[6] *220:A 5.71472e-05
4 *216:B *220:A 5.22903e-05
5 *217:A *220:A 5.52302e-05
6 *225:A *220:A 0.000191713
7 *46:6 *220:A 4.43157e-05
*RES
1 *217:Y *220:A 22.1536 
*END

*D_NET *48 0.000363128
*CONN
*I *220:B I *D sky130_fd_sc_hd__nand2_2
*I *218:Y O *D sky130_fd_sc_hd__nand2_1
*CAP
1 *220:B 6.62149e-05
2 *218:Y 6.62149e-05
3 *220:B *218:B 7.83587e-05
4 *218:A *220:B 0.00015234
*RES
1 *218:Y *220:B 29.5464 
*END

*D_NET *49 0.000438651
*CONN
*I *265:A I *D sky130_fd_sc_hd__nand2_2
*I *219:Y O *D sky130_fd_sc_hd__inv_1
*CAP
1 *265:A 9.33677e-05
2 *219:Y 9.33677e-05
3 *4:41 *265:A 0.000251915
*RES
1 *219:Y *265:A 20.9839 
*END

*D_NET *50 0.000444154
*CONN
*I *271:B I *D sky130_fd_sc_hd__nand2_1
*I *222:Y O *D sky130_fd_sc_hd__nand2_1
*CAP
1 *271:B 0.000160296
2 *222:Y 0.000160296
3 *271:B *222:A 1.46231e-05
4 *271:B *224:B 3.1001e-05
5 *271:B *266:A 6.51653e-05
6 *271:B *266:B 7.92229e-06
7 *271:B *92:16 4.85049e-06
*RES
1 *222:Y *271:B 21.1 
*END

*D_NET *51 0.000396464
*CONN
*I *211:B I *D sky130_fd_sc_hd__nand2_1
*I *223:Y O *D sky130_fd_sc_hd__nand2_1
*CAP
1 *211:B 0.000136627
2 *223:Y 0.000136627
3 *205:A *211:B 4.15819e-05
4 *36:6 *211:B 5.07619e-05
5 *36:8 *211:B 3.08664e-05
*RES
1 *223:Y *211:B 21.2071 
*END

*D_NET *52 0.000253651
*CONN
*I *222:A I *D sky130_fd_sc_hd__nand2_1
*I *224:Y O *D sky130_fd_sc_hd__nand2_1
*CAP
1 *222:A 3.71499e-05
2 *224:Y 3.71499e-05
3 *222:A *224:B 9.7049e-06
4 *222:A *266:A 3.93247e-05
5 *222:A *266:B 0.000115698
6 *271:B *222:A 1.46231e-05
*RES
1 *224:Y *222:A 19.975 
*END

*D_NET *53 0.000382491
*CONN
*I *218:B I *D sky130_fd_sc_hd__nand2_1
*I *225:Y O *D sky130_fd_sc_hd__nand2_1
*CAP
1 *218:B 0.000122464
2 *225:Y 0.000122464
3 *218:B *143:12 0
4 *211:A *218:B 0
5 *218:A *218:B 4.23086e-05
6 *220:B *218:B 7.83587e-05
7 *225:A *218:B 1.24368e-05
8 *41:17 *218:B 4.45768e-06
*RES
1 *225:Y *218:B 30.0821 
*END

*D_NET *54 0.000485791
*CONN
*I *300:B I *D sky130_fd_sc_hd__nand2_1
*I *226:Y O *D sky130_fd_sc_hd__nand2_1
*CAP
1 *300:B 0.000183596
2 *226:Y 0.000183596
3 *300:B *120:6 8.74903e-05
4 *300:B *120:14 3.11088e-05
*RES
1 *226:Y *300:B 22.0286 
*END

*D_NET *55 0.000399241
*CONN
*I *263:B I *D sky130_fd_sc_hd__nand2_4
*I *227:Y O *D sky130_fd_sc_hd__inv_2
*CAP
1 *263:B 0.000199621
2 *227:Y 0.000199621
*RES
1 *227:Y *263:B 30.0821 
*END

*D_NET *56 0.000736685
*CONN
*I *219:A I *D sky130_fd_sc_hd__inv_1
*I *228:Y O *D sky130_fd_sc_hd__nand2_4
*CAP
1 *219:A 0.00018277
2 *228:Y 0.00018277
3 *208:B *219:A 3.34295e-05
4 *4:41 *219:A 0.000153619
5 *9:19 *219:A 2.59355e-05
6 *9:21 *219:A 0.000101545
7 *9:45 *219:A 5.66157e-05
*RES
1 *228:Y *219:A 31.3634 
*END

*D_NET *57 0.000491572
*CONN
*I *293:B I *D sky130_fd_sc_hd__nand2_1
*I *229:Y O *D sky130_fd_sc_hd__nand2_1
*CAP
1 *293:B 0.000138289
2 *229:Y 0.000138289
3 *293:B *229:B 7.58841e-05
4 *293:B *245:A 3.59945e-05
5 *293:B *300:A 5.54817e-06
6 *5:35 *293:B 9.75679e-05
*RES
1 *229:Y *293:B 30.1893 
*END

*D_NET *58 0.000700791
*CONN
*I *233:A I *D sky130_fd_sc_hd__inv_1
*I *230:Y O *D sky130_fd_sc_hd__nand2_1
*CAP
1 *233:A 0.000157376
2 *230:Y 0.000157376
3 *233:A *61:12 0
4 *4:41 *233:A 0.00024715
5 *9:19 *233:A 0.00013889
6 *9:45 *233:A 0
*RES
1 *230:Y *233:A 31.8813 
*END

*D_NET *59 0.000133221
*CONN
*I *263:A I *D sky130_fd_sc_hd__nand2_4
*I *231:Y O *D sky130_fd_sc_hd__inv_2
*CAP
1 *263:A 3.93451e-05
2 *231:Y 3.93451e-05
3 *3:9 *263:A 5.45307e-05
*RES
1 *231:Y *263:A 19.5464 
*END

*D_NET *60 0.000878786
*CONN
*I *237:A I *D sky130_fd_sc_hd__nand2_2
*I *232:Y O *D sky130_fd_sc_hd__nand2_4
*CAP
1 *237:A 0.000115388
2 *232:Y 0.000115388
3 *237:A *231:A 1.98839e-05
4 *237:A *237:B 0.000197977
5 *237:A *264:A 0.00012401
6 *237:A *64:8 2.14658e-05
7 *3:9 *237:A 0.000183713
8 *4:24 *237:A 0.00010096
*RES
1 *232:Y *237:A 31.9214 
*END

*D_NET *61 0.00105379
*CONN
*I *272:B I *D sky130_fd_sc_hd__nand2_1
*I *274:A I *D sky130_fd_sc_hd__nand2_1
*I *233:Y O *D sky130_fd_sc_hd__inv_1
*CAP
1 *272:B 0.000208606
2 *274:A 0
3 *233:Y 0.000159206
4 *61:12 0.000367812
5 *272:B *272:A 5.52302e-05
6 *272:B *275:A 1.21289e-05
7 *272:B *275:B 6.09963e-05
8 *272:B *99:8 7.43705e-05
9 *272:B *99:10 5.33005e-05
10 *61:12 *280:A 4.46186e-06
11 *233:A *61:12 0
12 *4:41 *61:12 1.96517e-05
13 *10:15 *272:B 1.74352e-05
14 *10:32 *61:12 2.05938e-05
*RES
1 *233:Y *61:12 20.5768 
2 *61:12 *274:A 9.3 
3 *61:12 *272:B 13.8179 
*END

*D_NET *62 0.000279054
*CONN
*I *235:A I *D sky130_fd_sc_hd__inv_1
*I *234:Y O *D sky130_fd_sc_hd__nand2_1
*CAP
1 *235:A 3.422e-05
2 *234:Y 3.422e-05
3 *186:A *235:A 1.3701e-05
4 *197:A *235:A 7.58999e-05
5 *234:A *235:A 1.3701e-05
6 *3:48 *235:A 0.000107312
*RES
1 *234:Y *235:A 20.2563 
*END

*D_NET *63 0.000420571
*CONN
*I *259:A I *D sky130_fd_sc_hd__nand2_1
*I *258:A I *D sky130_fd_sc_hd__nand2_1
*I *235:Y O *D sky130_fd_sc_hd__inv_1
*CAP
1 *259:A 2.21097e-05
2 *258:A 0
3 *235:Y 0.000108413
4 *63:12 0.000130523
5 *259:A *261:A 3.69047e-06
6 *259:A *86:17 5.52302e-05
7 *63:12 *262:A 3.71496e-05
8 *186:B *63:12 2.56694e-05
9 *197:A *63:12 3.33238e-05
10 *29:12 *63:12 4.46186e-06
*RES
1 *235:Y *63:12 20.2732 
2 *63:12 *258:A 9.3 
3 *63:12 *259:A 9.83571 
*END

*D_NET *64 0.00182102
*CONN
*I *231:A I *D sky130_fd_sc_hd__inv_2
*I *237:B I *D sky130_fd_sc_hd__nand2_2
*I *236:Y O *D sky130_fd_sc_hd__nand2_4
*CAP
1 *231:A 0.000106848
2 *237:B 0.000129762
3 *236:Y 0.000208782
4 *64:8 0.000445391
5 *237:B *264:A 2.49484e-05
6 *236:A *64:8 0
7 *236:B *64:8 0
8 *237:A *231:A 1.98839e-05
9 *237:A *237:B 0.000197977
10 *237:A *64:8 2.14658e-05
11 *3:5 *237:B 0
12 *3:9 *231:A 2.67489e-05
13 *3:48 *237:B 0
14 *4:11 *64:8 0.000100625
15 *4:24 *64:8 0.000279339
16 *4:30 *237:B 3.17148e-05
17 *8:35 *64:8 0.000227532
*RES
1 *236:Y *64:8 14.7821 
2 *64:8 *237:B 21.4607 
3 *64:8 *231:A 11.0857 
*END

*D_NET *65 0.000775004
*CONN
*I *264:A I *D sky130_fd_sc_hd__nand2_1
*I *237:Y O *D sky130_fd_sc_hd__nand2_2
*CAP
1 *264:A 0.000286541
2 *237:Y 0.000286541
3 *237:A *264:A 0.00012401
4 *237:B *264:A 2.49484e-05
5 *4:30 *264:A 5.29648e-05
*RES
1 *237:Y *264:A 32.6179 
*END

*D_NET *66 0.000344319
*CONN
*I *239:A I *D sky130_fd_sc_hd__inv_1
*I *238:Y O *D sky130_fd_sc_hd__nand2_1
*CAP
1 *239:A 3.71216e-05
2 *238:Y 3.71216e-05
3 *238:A *239:A 1.04232e-05
4 *240:A *239:A 2.44318e-05
5 *4:41 *239:A 9.34847e-05
6 *9:19 *239:A 0.000141736
*RES
1 *238:Y *239:A 20.6223 
*END

*D_NET *67 0.000477059
*CONN
*I *272:A I *D sky130_fd_sc_hd__nand2_1
*I *273:A I *D sky130_fd_sc_hd__nand2_1
*I *239:Y O *D sky130_fd_sc_hd__inv_1
*CAP
1 *272:A 1.16062e-05
2 *273:A 0
3 *239:Y 0.000143383
4 *67:12 0.000154989
5 *272:A *99:8 5.52302e-05
6 *240:A *67:12 0
7 *272:B *272:A 5.52302e-05
8 *4:41 *67:12 1.96517e-05
9 *10:32 *67:12 3.69697e-05
*RES
1 *239:Y *67:12 20.5768 
2 *67:12 *273:A 9.3 
3 *67:12 *272:A 9.83571 
*END

*D_NET *68 0.000427817
*CONN
*I *241:A I *D sky130_fd_sc_hd__inv_1
*I *240:Y O *D sky130_fd_sc_hd__nand2_1
*CAP
1 *241:A 0.000135688
2 *240:Y 0.000135688
3 *241:A *282:A 1.02504e-05
4 *241:A *69:8 0.000112762
5 *241:A *108:8 3.34295e-05
6 *10:32 *241:A 0
*RES
1 *240:Y *241:A 30.3455 
*END

*D_NET *69 0.00110452
*CONN
*I *281:A I *D sky130_fd_sc_hd__nand2_2
*I *282:A I *D sky130_fd_sc_hd__nand2_1
*I *241:Y O *D sky130_fd_sc_hd__inv_1
*CAP
1 *281:A 0
2 *282:A 0.000247832
3 *241:Y 0.000123084
4 *69:8 0.000370916
5 *282:A *283:B 0.000115509
6 *282:A *284:A 1.4796e-05
7 *282:A *108:8 8.40501e-05
8 *282:A *111:18 5.54817e-06
9 *69:8 *281:B 1.97695e-05
10 *241:A *282:A 1.02504e-05
11 *241:A *69:8 0.000112762
12 *10:32 *282:A 0
*RES
1 *241:Y *69:8 11.7018 
2 *69:8 *282:A 23.05 
3 *69:8 *281:A 9.3 
*END

*D_NET *70 0.000857841
*CONN
*I *243:A I *D sky130_fd_sc_hd__inv_1
*I *242:Y O *D sky130_fd_sc_hd__nand2_1
*CAP
1 *243:A 0.000305159
2 *242:Y 0.000305159
3 *5:26 *243:A 5.7903e-06
4 *7:26 *243:A 0.000241733
5 *8:9 *243:A 0
*RES
1 *242:Y *243:A 32.0687 
*END

*D_NET *71 0.000633399
*CONN
*I *286:B I *D sky130_fd_sc_hd__nand2_1
*I *288:A I *D sky130_fd_sc_hd__nand2_1
*I *243:Y O *D sky130_fd_sc_hd__inv_1
*CAP
1 *286:B 1.70818e-05
2 *288:A 0.000120421
3 *243:Y 6.85971e-05
4 *71:8 0.0002061
5 *288:A *287:A 5.49995e-05
6 *288:A *287:B 1.00733e-05
7 *288:A *288:B 3.61573e-05
8 *288:A *289:A 2.85234e-05
9 *288:A *289:B 2.85234e-05
10 *288:A *113:8 6.29219e-05
*RES
1 *243:Y *71:8 10.4696 
2 *71:8 *288:A 12.3179 
3 *71:8 *286:B 9.72857 
*END

*D_NET *72 0.000498413
*CONN
*I *245:A I *D sky130_fd_sc_hd__inv_1
*I *244:Y O *D sky130_fd_sc_hd__nand2_1
*CAP
1 *245:A 0.000158195
2 *244:Y 0.000158195
3 *245:A *294:A 6.05161e-06
4 *245:A *73:6 1.65984e-05
5 *293:B *245:A 3.59945e-05
6 *5:26 *245:A 5.66971e-05
7 *8:9 *245:A 6.66813e-05
*RES
1 *244:Y *245:A 30.4259 
*END

*D_NET *73 0.00122527
*CONN
*I *291:B I *D sky130_fd_sc_hd__nand2_1
*I *229:B I *D sky130_fd_sc_hd__nand2_1
*I *293:A I *D sky130_fd_sc_hd__nand2_1
*I *245:Y O *D sky130_fd_sc_hd__inv_1
*CAP
1 *291:B 0.000151339
2 *229:B 0.00010037
3 *293:A 3.64069e-05
4 *245:Y 6.05082e-05
5 *73:15 0.000357106
6 *73:6 0.000202313
7 *291:B *294:A 9.45048e-06
8 *291:B *300:A 3.67279e-06
9 *291:B *106:25 2.6304e-05
10 *291:B *117:8 0.000141935
11 *73:6 *294:A 1.0484e-05
12 *73:15 *294:A 3.29028e-05
13 *245:A *73:6 1.65984e-05
14 *293:B *229:B 7.58841e-05
*RES
1 *245:Y *73:6 10.0411 
2 *73:6 *293:A 10.0321 
3 *73:6 *73:15 1.35714 
4 *73:15 *229:B 19.9429 
5 *73:15 *291:B 20.8 
*END

*D_NET *74 0.000785892
*CONN
*I *247:A I *D sky130_fd_sc_hd__inv_1
*I *246:Y O *D sky130_fd_sc_hd__nand2_1
*CAP
1 *247:A 0.000217435
2 *246:Y 0.000217435
3 *247:A *75:6 4.04571e-05
4 *247:A *111:18 0.000110285
5 *248:A *247:A 0.000141036
6 *254:B *247:A 5.92441e-05
*RES
1 *246:Y *247:A 31.658 
*END

*D_NET *75 0.000932887
*CONN
*I *301:B I *D sky130_fd_sc_hd__nand2_2
*I *303:A I *D sky130_fd_sc_hd__nand2_1
*I *247:Y O *D sky130_fd_sc_hd__inv_1
*CAP
1 *301:B 2.71727e-05
2 *303:A 0.000249864
3 *247:Y 8.01977e-05
4 *75:6 0.000357234
5 *301:B *111:18 1.02301e-05
6 *303:A *302:A 7.62237e-05
7 *303:A *302:B 1.02132e-05
8 *303:A *303:B 2.46851e-05
9 *303:A *111:18 1.4796e-05
10 *303:A *127:8 2.70262e-05
11 *75:6 *111:18 1.47872e-05
12 *247:A *75:6 4.04571e-05
*RES
1 *247:Y *75:6 10.4518 
2 *75:6 *303:A 13.0321 
3 *75:6 *301:B 10.0321 
*END

*D_NET *76 0.000358024
*CONN
*I *249:A I *D sky130_fd_sc_hd__inv_1
*I *248:Y O *D sky130_fd_sc_hd__nand2_1
*CAP
1 *249:A 0.000103014
2 *248:Y 0.000103014
3 *249:A *111:18 0.000151996
*RES
1 *248:Y *249:A 21.0777 
*END

*D_NET *77 0.00157003
*CONN
*I *311:B I *D sky130_fd_sc_hd__nand2_1
*I *313:A I *D sky130_fd_sc_hd__nand2_1
*I *249:Y O *D sky130_fd_sc_hd__inv_1
*CAP
1 *311:B 0.000281657
2 *313:A 5.7039e-05
3 *249:Y 0.000149244
4 *77:12 0.00048794
5 *311:B *311:A 2.85321e-05
6 *311:B *313:B 6.93704e-06
7 *311:B *314:A 0.000132642
8 *311:B *314:B 3.50746e-05
9 *311:B *136:6 1.62025e-05
10 *311:B *136:12 1.83428e-05
11 *313:A *313:B 0.000172714
12 *313:A *314:B 7.91924e-05
13 *77:12 *111:18 4.04485e-05
14 *77:12 *139:20 2.50593e-05
15 *256:B *77:12 3.90086e-05
*RES
1 *249:Y *77:12 21.2911 
2 *77:12 *313:A 11.5813 
3 *77:12 *311:B 14.0679 
*END

*D_NET *78 0.000457373
*CONN
*I *251:A I *D sky130_fd_sc_hd__inv_1
*I *250:Y O *D sky130_fd_sc_hd__nand2_1
*CAP
1 *251:A 0.000202997
2 *250:Y 0.000202997
3 *251:A *79:8 1.66856e-05
4 *251:A *125:10 0
5 *189:B *251:A 2.8266e-06
6 *6:30 *251:A 3.18676e-05
*RES
1 *250:Y *251:A 30.7295 
*END

*D_NET *79 0.000744236
*CONN
*I *187:B I *D sky130_fd_sc_hd__nand2_1
*I *189:A I *D sky130_fd_sc_hd__nand2_1
*I *251:Y O *D sky130_fd_sc_hd__inv_1
*CAP
1 *187:B 0.000204999
2 *189:A 0
3 *251:Y 8.70058e-05
4 *79:8 0.000292005
5 *187:B *125:10 7.83462e-05
6 *189:B *187:B 6.51946e-05
7 *190:B *187:B 0
8 *251:A *79:8 1.66856e-05
*RES
1 *251:Y *79:8 10.7732 
2 *79:8 *189:A 9.3 
3 *79:8 *187:B 22.4429 
*END

*D_NET *80 0.000322197
*CONN
*I *253:A I *D sky130_fd_sc_hd__inv_1
*I *252:Y O *D sky130_fd_sc_hd__nand2_1
*CAP
1 *253:A 0.000152733
2 *252:Y 0.000152733
3 *253:A *308:B 0
4 *253:A *81:12 1.67305e-05
*RES
1 *252:Y *253:A 30.2384 
*END

*D_NET *81 0.000793668
*CONN
*I *194:A I *D sky130_fd_sc_hd__nand2_1
*I *192:B I *D sky130_fd_sc_hd__nand2_1
*I *253:Y O *D sky130_fd_sc_hd__inv_1
*CAP
1 *194:A 0
2 *192:B 0.000137135
3 *253:Y 0.000180085
4 *81:12 0.00031722
5 *192:B *193:A 6.78317e-05
6 *81:12 *134:12 0
7 *193:B *192:B 1.04232e-05
8 *194:B *192:B 3.46775e-05
9 *199:B *81:12 0
10 *253:A *81:12 1.67305e-05
11 *24:10 *192:B 2.95641e-05
*RES
1 *253:Y *81:12 20.6839 
2 *81:12 *192:B 12.3357 
3 *81:12 *194:A 9.3 
*END

*D_NET *82 0.000267575
*CONN
*I *255:A I *D sky130_fd_sc_hd__inv_1
*I *254:Y O *D sky130_fd_sc_hd__nand2_1
*CAP
1 *255:A 0.000133788
2 *254:Y 0.000133788
3 *255:A *308:A 0
4 *255:A *318:B 0
*RES
1 *254:Y *255:A 29.783 
*END

*D_NET *83 0.000534142
*CONN
*I *202:B I *D sky130_fd_sc_hd__nand2_1
*I *204:A I *D sky130_fd_sc_hd__nand2_1
*I *255:Y O *D sky130_fd_sc_hd__inv_1
*CAP
1 *202:B 0
2 *204:A 1.6743e-05
3 *255:Y 0.00019754
4 *83:14 0.000214283
5 *204:B *204:A 5.65955e-05
6 *204:B *83:14 4.17433e-05
7 *205:B *204:A 4.85049e-06
8 *210:A *83:14 0
9 *211:A *83:14 2.38651e-06
*RES
1 *255:Y *83:14 21.2196 
2 *83:14 *204:A 9.83571 
3 *83:14 *202:B 9.3 
*END

*D_NET *84 0.000318675
*CONN
*I *257:A I *D sky130_fd_sc_hd__inv_1
*I *256:Y O *D sky130_fd_sc_hd__nand2_1
*CAP
1 *257:A 0.000157924
2 *256:Y 0.000157924
3 *257:A *214:A 2.8266e-06
4 *257:A *318:A 0
5 *257:A *144:10 0
*RES
1 *256:Y *257:A 30.2384 
*END

*D_NET *85 0.000464364
*CONN
*I *212:B I *D sky130_fd_sc_hd__nand2_1
*I *214:A I *D sky130_fd_sc_hd__nand2_1
*I *257:Y O *D sky130_fd_sc_hd__inv_1
*CAP
1 *212:B 3.08975e-05
2 *214:A 0.000177687
3 *257:Y 2.21844e-05
4 *85:6 0.000230769
5 *214:A *213:A 0
6 *218:A *214:A 0
7 *221:B *214:A 0
8 *257:A *214:A 2.8266e-06
9 *42:10 *214:A 0
*RES
1 *257:Y *85:6 9.63036 
2 *85:6 *214:A 21.2107 
3 *85:6 *212:B 9.83571 
*END

*D_NET *86 0.00149822
*CONN
*I *259:B I *D sky130_fd_sc_hd__nand2_1
*I *262:A I *D sky130_fd_sc_hd__inv_1
*I *260:B I *D sky130_fd_sc_hd__nand2_1
*I *258:Y O *D sky130_fd_sc_hd__nand2_1
*CAP
1 *259:B 0
2 *262:A 0.000230071
3 *260:B 0.000104287
4 *258:Y 0
5 *86:17 0.000295093
6 *86:4 0.000169309
7 *86:17 *261:A 1.15281e-05
8 *186:B *260:B 0.00010096
9 *186:B *86:17 0.00018372
10 *197:A *262:A 0.000176588
11 *234:A *262:A 5.78607e-05
12 *236:B *86:17 1.3701e-05
13 *259:A *86:17 5.52302e-05
14 *260:A *260:B 5.52238e-05
15 *3:48 *262:A 7.49387e-06
16 *63:12 *262:A 3.71496e-05
*RES
1 *258:Y *86:4 9.3 
2 *86:4 *260:B 11.4964 
3 *86:4 *86:17 2.19643 
4 *86:17 *262:A 22.3134 
5 *86:17 *259:B 9.3 
*END

*D_NET *87 0.000354046
*CONN
*I *261:A I *D sky130_fd_sc_hd__nand2_1
*I *259:Y O *D sky130_fd_sc_hd__nand2_1
*CAP
1 *261:A 0.000126842
2 *259:Y 0.000126842
3 *261:A *261:B 0
4 *197:A *261:A 5.26091e-05
5 *259:A *261:A 3.69047e-06
6 *29:12 *261:A 3.2534e-05
7 *86:17 *261:A 1.15281e-05
*RES
1 *259:Y *261:A 30.0821 
*END

*D_NET *88 0.000422453
*CONN
*I *261:B I *D sky130_fd_sc_hd__nand2_1
*I *260:Y O *D sky130_fd_sc_hd__nand2_1
*CAP
1 *261:B 0.000153369
2 *260:Y 0.000153369
3 p[1] *261:B 3.14193e-05
4 *261:A *261:B 0
5 *29:12 *261:B 8.4295e-05
*RES
1 *260:Y *261:B 30.9036 
*END

*D_NET *89 0.0018925
*CONN
*I *269:A I *D sky130_fd_sc_hd__nand2_1
*I *267:B I *D sky130_fd_sc_hd__nand2_1
*I *222:B I *D sky130_fd_sc_hd__nand2_1
*I *262:Y O *D sky130_fd_sc_hd__inv_1
*CAP
1 *269:A 0.00010143
2 *267:B 0
3 *222:B 0.000292015
4 *262:Y 0.000139541
5 *89:14 0.000445103
6 *89:10 0.00039406
7 *222:B *266:A 1.02821e-05
8 *222:B *266:B 1.24368e-05
9 *222:B *91:12 0
10 *222:B *93:8 0.000249225
11 *222:B *94:12 1.32552e-05
12 *269:A *268:A 0
13 *269:A *94:12 0
14 *89:14 *94:12 7.43578e-06
15 *234:B *89:10 5.29554e-05
16 *3:48 *89:10 7.90536e-05
17 *7:26 *269:A 9.12446e-05
18 *7:26 *89:10 4.46186e-06
19 *8:22 *222:B 0
20 *8:22 *89:10 0
*RES
1 *262:Y *89:10 16.4875 
2 *89:10 *89:14 7.08929 
3 *89:14 *222:B 23.7107 
4 *89:14 *267:B 9.3 
5 *89:10 *269:A 16.05 
*END

*D_NET *90 0.00130182
*CONN
*I *271:A I *D sky130_fd_sc_hd__nand2_1
*I *265:B I *D sky130_fd_sc_hd__nand2_2
*I *264:B I *D sky130_fd_sc_hd__nand2_1
*I *263:Y O *D sky130_fd_sc_hd__nand2_4
*CAP
1 *271:A 0.000173232
2 *265:B 0
3 *264:B 7.30416e-05
4 *263:Y 0.000172976
5 *90:12 7.30416e-05
6 *90:10 0.000346208
7 *271:A *276:B 9.25014e-06
8 *271:A *92:16 0.000158209
9 *271:A *98:8 5.49489e-05
10 *230:A *271:A 0
11 *230:A *90:10 0
12 *3:9 *90:10 5.57989e-05
13 *4:30 *271:A 0
14 *4:41 *264:B 0.000185118
*RES
1 *263:Y *90:10 16.9964 
2 *90:10 *90:12 4.5 
3 *90:12 *264:B 11.0679 
4 *90:12 *265:B 9.3 
5 *90:10 *271:A 17.1929 
*END

*D_NET *91 0.000925851
*CONN
*I *266:A I *D sky130_fd_sc_hd__nand2_1
*I *224:A I *D sky130_fd_sc_hd__nand2_1
*I *264:Y O *D sky130_fd_sc_hd__nand2_1
*CAP
1 *266:A 0.000137714
2 *224:A 0
3 *264:Y 0.000183179
4 *91:12 0.000320893
5 *266:A *224:B 5.38444e-06
6 *266:A *266:B 7.58953e-05
7 *266:A *93:8 5.71472e-05
8 *222:A *266:A 3.93247e-05
9 *222:B *266:A 1.02821e-05
10 *222:B *91:12 0
11 *271:B *266:A 6.51653e-05
12 *4:41 *91:12 3.08664e-05
13 *8:22 *91:12 0
*RES
1 *264:Y *91:12 20.7821 
2 *91:12 *224:A 9.3 
3 *91:12 *266:A 12.8714 
*END

*D_NET *92 0.00134776
*CONN
*I *266:B I *D sky130_fd_sc_hd__nand2_1
*I *224:B I *D sky130_fd_sc_hd__nand2_1
*I *265:Y O *D sky130_fd_sc_hd__nand2_2
*CAP
1 *266:B 0.000190294
2 *224:B 1.96387e-05
3 *265:Y 0.000212727
4 *92:16 0.000422659
5 *266:B *93:8 0
6 *92:16 *278:A 1.33343e-05
7 *92:16 *98:8 3.90883e-05
8 *222:A *224:B 9.7049e-06
9 *222:A *266:B 0.000115698
10 *222:B *266:B 1.24368e-05
11 *230:A *92:16 0
12 *266:A *224:B 5.38444e-06
13 *266:A *266:B 7.58953e-05
14 *271:A *92:16 0.000158209
15 *271:B *224:B 3.1001e-05
16 *271:B *266:B 7.92229e-06
17 *271:B *92:16 4.85049e-06
18 *4:41 *92:16 2.89114e-05
*RES
1 *265:Y *92:16 22.3714 
2 *92:16 *224:B 10.2643 
3 *92:16 *266:B 13.7107 
*END

*D_NET *93 0.00087294
*CONN
*I *267:A I *D sky130_fd_sc_hd__nand2_1
*I *268:A I *D sky130_fd_sc_hd__nand2_1
*I *266:Y O *D sky130_fd_sc_hd__nand2_1
*CAP
1 *267:A 0
2 *268:A 7.55358e-05
3 *266:Y 8.58031e-05
4 *93:8 0.000161339
5 *268:A *94:12 6.42338e-05
6 *222:B *93:8 0.000249225
7 *266:A *93:8 5.71472e-05
8 *266:B *93:8 0
9 *269:A *268:A 0
10 *8:22 *268:A 0.000179656
*RES
1 *266:Y *93:8 11.9071 
2 *93:8 *268:A 20.55 
3 *93:8 *267:A 9.3 
*END

*D_NET *94 0.000688123
*CONN
*I *268:B I *D sky130_fd_sc_hd__nand2_1
*I *269:B I *D sky130_fd_sc_hd__nand2_1
*I *267:Y O *D sky130_fd_sc_hd__nand2_1
*CAP
1 *268:B 0
2 *269:B 0.000127028
3 *267:Y 0.000127135
4 *94:12 0.000254164
5 *269:B *270:A 3.93247e-05
6 *269:B *270:B 4.22908e-05
7 *269:B *97:12 1.32552e-05
8 *222:B *94:12 1.32552e-05
9 *268:A *94:12 6.42338e-05
10 *269:A *94:12 0
11 *89:14 *94:12 7.43578e-06
*RES
1 *267:Y *94:12 20.4786 
2 *94:12 *269:B 11.925 
3 *94:12 *268:B 9.3 
*END

*D_NET *95 0.000187264
*CONN
*I *270:A I *D sky130_fd_sc_hd__nand2_1
*I *268:Y O *D sky130_fd_sc_hd__nand2_1
*CAP
1 *270:A 6.4085e-05
2 *268:Y 6.4085e-05
3 *270:A *270:B 1.97695e-05
4 *269:B *270:A 3.93247e-05
*RES
1 *268:Y *270:A 19.975 
*END

*D_NET *96 0.000192354
*CONN
*I *270:B I *D sky130_fd_sc_hd__nand2_1
*I *269:Y O *D sky130_fd_sc_hd__nand2_1
*CAP
1 *270:B 3.69972e-05
2 *269:Y 3.69972e-05
3 *270:B *97:12 5.62995e-05
4 *269:B *270:B 4.22908e-05
5 *270:A *270:B 1.97695e-05
*RES
1 *269:Y *270:B 19.975 
*END

*D_NET *97 0.001077
*CONN
*I *286:A I *D sky130_fd_sc_hd__nand2_1
*I *287:A I *D sky130_fd_sc_hd__nand2_1
*I *270:Y O *D sky130_fd_sc_hd__nand2_1
*CAP
1 *286:A 0
2 *287:A 1.17665e-05
3 *270:Y 0.000362578
4 *97:12 0.000374345
5 *287:A *113:8 5.49995e-05
6 *97:12 *289:A 7.74068e-05
7 *269:B *97:12 1.32552e-05
8 *270:B *97:12 5.62995e-05
9 *288:A *287:A 5.49995e-05
10 *7:26 *97:12 7.13543e-05
*RES
1 *270:Y *97:12 23.6571 
2 *97:12 *287:A 9.83571 
3 *97:12 *286:A 9.3 
*END

*D_NET *98 0.00126426
*CONN
*I *278:A I *D sky130_fd_sc_hd__nand2_1
*I *276:B I *D sky130_fd_sc_hd__nand2_2
*I *271:Y O *D sky130_fd_sc_hd__nand2_1
*CAP
1 *278:A 4.19448e-05
2 *276:B 0.000291464
3 *271:Y 9.23173e-05
4 *98:8 0.000425726
5 *276:B *276:A 1.17091e-05
6 *276:B *277:A 7.15905e-06
7 *276:B *277:B 2.95138e-05
8 *276:B *278:B 0
9 *276:B *279:A 0.000138576
10 *276:B *279:B 7.83587e-05
11 *278:A *279:B 3.08664e-05
12 *271:A *276:B 9.25014e-06
13 *271:A *98:8 5.49489e-05
14 *92:16 *278:A 1.33343e-05
15 *92:16 *98:8 3.90883e-05
*RES
1 *271:Y *98:8 11.0857 
2 *98:8 *276:B 22.8536 
3 *98:8 *278:A 10.2464 
*END

*D_NET *99 0.00105744
*CONN
*I *273:B I *D sky130_fd_sc_hd__nand2_1
*I *274:B I *D sky130_fd_sc_hd__nand2_1
*I *280:A I *D sky130_fd_sc_hd__nand2_1
*I *272:Y O *D sky130_fd_sc_hd__nand2_1
*CAP
1 *273:B 0
2 *274:B 0
3 *280:A 0.000151168
4 *272:Y 6.20215e-05
5 *99:10 0.000166087
6 *99:8 7.69397e-05
7 *280:A *102:12 0
8 *280:A *107:6 9.90367e-05
9 *99:8 *275:A 5.52302e-05
10 *99:8 *275:B 0
11 *99:10 *275:A 2.28499e-05
12 *272:A *99:8 5.52302e-05
13 *272:B *99:8 7.43705e-05
14 *272:B *99:10 5.33005e-05
15 *10:15 *99:8 6.87574e-05
16 *10:32 *280:A 0.00016799
17 *61:12 *280:A 4.46186e-06
*RES
1 *272:Y *99:8 11.4964 
2 *99:8 *99:10 0.535714 
3 *99:10 *280:A 21.4964 
4 *99:10 *274:B 9.3 
5 *99:8 *273:B 9.3 
*END

*D_NET *100 0.000753808
*CONN
*I *275:A I *D sky130_fd_sc_hd__nand2_1
*I *273:Y O *D sky130_fd_sc_hd__nand2_1
*CAP
1 *275:A 9.27319e-05
2 *273:Y 9.27319e-05
3 *275:A *275:B 0.000117787
4 *230:B *275:A 0.000305118
5 *272:B *275:A 1.21289e-05
6 *10:15 *275:A 5.52302e-05
7 *99:8 *275:A 5.52302e-05
8 *99:10 *275:A 2.28499e-05
*RES
1 *273:Y *275:A 22.3321 
*END

*D_NET *101 0.00026242
*CONN
*I *275:B I *D sky130_fd_sc_hd__nand2_1
*I *274:Y O *D sky130_fd_sc_hd__nand2_1
*CAP
1 *275:B 4.18187e-05
2 *274:Y 4.18187e-05
3 *272:B *275:B 6.09963e-05
4 *275:A *275:B 0.000117787
5 *99:8 *275:B 0
*RES
1 *274:Y *275:B 19.975 
*END

*D_NET *102 0.0020602
*CONN
*I *277:A I *D sky130_fd_sc_hd__nand2_1
*I *276:A I *D sky130_fd_sc_hd__nand2_2
*I *275:Y O *D sky130_fd_sc_hd__nand2_1
*CAP
1 *277:A 0.00026883
2 *276:A 8.59284e-05
3 *275:Y 0.000215728
4 *102:12 0.000570487
5 *276:A *280:B 9.60875e-05
6 *276:A *103:8 3.4855e-05
7 *277:A *277:B 0.000133355
8 *277:A *279:A 5.65955e-05
9 *277:A *280:B 4.13496e-05
10 *277:A *103:8 0.000142856
11 *102:12 *280:B 0.000316184
12 *276:B *276:A 1.17091e-05
13 *276:B *277:A 7.15905e-06
14 *280:A *102:12 0
15 *9:45 *277:A 7.90803e-05
16 *9:45 *102:12 0
*RES
1 *275:Y *102:12 22.6393 
2 *102:12 *276:A 11.0857 
3 *102:12 *277:A 24.0143 
*END

*D_NET *103 0.00175656
*CONN
*I *280:B I *D sky130_fd_sc_hd__nand2_1
*I *278:B I *D sky130_fd_sc_hd__nand2_1
*I *277:B I *D sky130_fd_sc_hd__nand2_1
*I *276:Y O *D sky130_fd_sc_hd__nand2_2
*CAP
1 *280:B 0.000160127
2 *278:B 0.000229145
3 *277:B 3.95925e-05
4 *276:Y 0
5 *103:8 0.000319859
6 *103:4 0.000211249
7 *230:A *278:B 2.38651e-06
8 *276:A *280:B 9.60875e-05
9 *276:A *103:8 3.4855e-05
10 *276:B *277:B 2.95138e-05
11 *276:B *278:B 0
12 *277:A *277:B 0.000133355
13 *277:A *280:B 4.13496e-05
14 *277:A *103:8 0.000142856
15 *102:12 *280:B 0.000316184
*RES
1 *276:Y *103:4 9.3 
2 *103:4 *103:8 1.78571 
3 *103:8 *277:B 10.675 
4 *103:8 *278:B 21.8 
5 *103:4 *280:B 13.5321 
*END

*D_NET *104 0.000388372
*CONN
*I *279:A I *D sky130_fd_sc_hd__nand2_1
*I *277:Y O *D sky130_fd_sc_hd__nand2_1
*CAP
1 *279:A 9.66006e-05
2 *277:Y 9.66006e-05
3 *276:B *279:A 0.000138576
4 *277:A *279:A 5.65955e-05
*RES
1 *277:Y *279:A 20.7964 
*END

*D_NET *105 0.000390333
*CONN
*I *279:B I *D sky130_fd_sc_hd__nand2_1
*I *278:Y O *D sky130_fd_sc_hd__nand2_1
*CAP
1 *279:B 0.000140554
2 *278:Y 0.000140554
3 *276:B *279:B 7.83587e-05
4 *278:A *279:B 3.08664e-05
*RES
1 *278:Y *279:B 29.7786 
*END

*D_NET *106 0.00150184
*CONN
*I *292:A I *D sky130_fd_sc_hd__nand2_1
*I *291:A I *D sky130_fd_sc_hd__nand2_1
*I *229:A I *D sky130_fd_sc_hd__nand2_1
*I *279:Y O *D sky130_fd_sc_hd__nand2_1
*CAP
1 *292:A 9.6856e-05
2 *291:A 0
3 *229:A 7.02561e-05
4 *279:Y 0.000202506
5 *106:25 0.000230735
6 *106:12 0.000406641
7 *292:A *117:8 5.63465e-05
8 *291:B *106:25 2.6304e-05
9 *5:35 *229:A 0.000185248
10 *5:35 *106:12 0.000226946
*RES
1 *279:Y *106:12 22.425 
2 *106:12 *229:A 11.0679 
3 *106:12 *106:25 11.25 
4 *106:25 *291:A 9.3 
5 *106:25 *292:A 11.5143 
*END

*D_NET *107 0.000945842
*CONN
*I *281:B I *D sky130_fd_sc_hd__nand2_2
*I *283:A I *D sky130_fd_sc_hd__nand2_1
*I *280:Y O *D sky130_fd_sc_hd__nand2_1
*CAP
1 *281:B 0.000125006
2 *283:A 9.44266e-05
3 *280:Y 9.38832e-05
4 *107:6 0.000313316
5 *280:A *107:6 9.90367e-05
6 *10:32 *283:A 0.000200404
7 *69:8 *281:B 1.97695e-05
*RES
1 *280:Y *107:6 11.0679 
2 *107:6 *283:A 20.8536 
3 *107:6 *281:B 11.4964 
*END

*D_NET *108 0.00132375
*CONN
*I *285:A I *D sky130_fd_sc_hd__inv_1
*I *282:B I *D sky130_fd_sc_hd__nand2_1
*I *283:B I *D sky130_fd_sc_hd__nand2_1
*I *281:Y O *D sky130_fd_sc_hd__nand2_2
*CAP
1 *285:A 0.000175502
2 *282:B 0
3 *283:B 0.000139466
4 *281:Y 0.000175636
5 *108:10 0.000139466
6 *108:8 0.000351138
7 *283:B *284:A 5.78374e-05
8 *283:B *284:B 4.13389e-05
9 *285:A *112:12 1.03764e-05
10 *241:A *108:8 3.34295e-05
11 *282:A *283:B 0.000115509
12 *282:A *108:8 8.40501e-05
*RES
1 *281:Y *108:8 16.9607 
2 *108:8 *108:10 4.5 
3 *108:10 *283:B 12.7464 
4 *108:10 *282:B 9.3 
5 *108:8 *285:A 16.6973 
*END

*D_NET *109 0.000260906
*CONN
*I *284:A I *D sky130_fd_sc_hd__nand2_2
*I *282:Y O *D sky130_fd_sc_hd__nand2_1
*CAP
1 *284:A 8.81458e-05
2 *282:Y 8.81458e-05
3 *284:A *284:B 1.19813e-05
4 *282:A *284:A 1.4796e-05
5 *283:B *284:A 5.78374e-05
*RES
1 *282:Y *284:A 20.3857 
*END

*D_NET *110 0.000194954
*CONN
*I *284:B I *D sky130_fd_sc_hd__nand2_2
*I *283:Y O *D sky130_fd_sc_hd__nand2_1
*CAP
1 *284:B 7.08168e-05
2 *283:Y 7.08168e-05
3 *283:B *284:B 4.13389e-05
4 *284:A *284:B 1.19813e-05
*RES
1 *283:Y *284:B 19.975 
*END

*D_NET *111 0.00181233
*CONN
*I *301:A I *D sky130_fd_sc_hd__nand2_2
*I *302:A I *D sky130_fd_sc_hd__nand2_1
*I *284:Y O *D sky130_fd_sc_hd__nand2_2
*CAP
1 *301:A 0
2 *302:A 4.04819e-05
3 *284:Y 0.000591109
4 *111:18 0.000631591
5 *302:A *127:6 4.34677e-05
6 *302:A *127:8 1.32293e-05
7 *111:18 *310:A 3.49456e-06
8 *247:A *111:18 0.000110285
9 *249:A *111:18 0.000151996
10 *282:A *111:18 5.54817e-06
11 *301:B *111:18 1.02301e-05
12 *303:A *302:A 7.62237e-05
13 *303:A *111:18 1.4796e-05
14 *10:32 *111:18 6.464e-05
15 *75:6 *111:18 1.47872e-05
16 *77:12 *111:18 4.04485e-05
*RES
1 *284:Y *111:18 29.6571 
2 *111:18 *302:A 10.6571 
3 *111:18 *301:A 9.3 
*END

*D_NET *112 0.000505785
*CONN
*I *311:A I *D sky130_fd_sc_hd__nand2_1
*I *312:A I *D sky130_fd_sc_hd__nand2_1
*I *285:Y O *D sky130_fd_sc_hd__inv_1
*CAP
1 *311:A 1.62089e-05
2 *312:A 0
3 *285:Y 0.000181369
4 *112:12 0.000197578
5 *311:A *136:6 5.50052e-05
6 *311:A *136:12 1.24368e-05
7 *112:12 *319:A 4.27842e-06
8 *285:A *112:12 1.03764e-05
9 *311:B *311:A 2.85321e-05
*RES
1 *285:Y *112:12 20.5768 
2 *112:12 *312:A 9.3 
3 *112:12 *311:A 9.83571 
*END

*D_NET *113 0.0012333
*CONN
*I *290:A I *D sky130_fd_sc_hd__inv_1
*I *287:B I *D sky130_fd_sc_hd__nand2_1
*I *288:B I *D sky130_fd_sc_hd__nand2_1
*I *286:Y O *D sky130_fd_sc_hd__nand2_1
*CAP
1 *290:A 0.00024236
2 *287:B 1.39048e-05
3 *288:B 8.81461e-05
4 *286:Y 0
5 *113:8 0.000211115
6 *113:4 0.000351423
7 *288:B *289:B 1.16543e-05
8 *290:A *297:A 1.37554e-05
9 *242:A *290:A 3.71362e-05
10 *287:A *113:8 5.49995e-05
11 *288:A *287:B 1.00733e-05
12 *288:A *288:B 3.61573e-05
13 *288:A *113:8 6.29219e-05
14 *7:11 *290:A 0
15 *7:26 *290:A 9.96487e-05
*RES
1 *286:Y *113:4 9.3 
2 *113:4 *113:8 2.19643 
3 *113:8 *288:B 11.0857 
4 *113:8 *287:B 9.72857 
5 *113:4 *290:A 22.9562 
*END

*D_NET *114 0.000407325
*CONN
*I *289:A I *D sky130_fd_sc_hd__nand2_1
*I *287:Y O *D sky130_fd_sc_hd__nand2_1
*CAP
1 *289:A 9.74722e-05
2 *287:Y 9.74722e-05
3 *289:A *289:B 7.66665e-05
4 *288:A *289:A 2.85234e-05
5 *7:26 *289:A 2.97838e-05
6 *97:12 *289:A 7.74068e-05
*RES
1 *287:Y *289:A 30.0821 
*END

*D_NET *115 0.00044125
*CONN
*I *289:B I *D sky130_fd_sc_hd__nand2_1
*I *288:Y O *D sky130_fd_sc_hd__nand2_1
*CAP
1 *289:B 0.000162203
2 *288:Y 0.000162203
3 *288:A *289:B 2.85234e-05
4 *288:B *289:B 1.16543e-05
5 *289:A *289:B 7.66665e-05
*RES
1 *288:Y *289:B 30.4929 
*END

*D_NET *116 0.00125756
*CONN
*I *226:B I *D sky130_fd_sc_hd__nand2_1
*I *295:B I *D sky130_fd_sc_hd__nand2_1
*I *297:A I *D sky130_fd_sc_hd__nand2_1
*I *290:Y O *D sky130_fd_sc_hd__inv_1
*CAP
1 *226:B 0
2 *295:B 8.73926e-05
3 *297:A 0.000183365
4 *290:Y 0
5 *116:23 0.000303753
6 *116:4 0.000399726
7 *295:B *120:14 7.26481e-05
8 *116:23 *120:14 9.84673e-05
9 *250:B *297:A 4.26814e-05
10 *252:B *295:B 5.57728e-05
11 *290:A *297:A 1.37554e-05
*RES
1 *290:Y *116:4 9.3 
2 *116:4 *297:A 21.0946 
3 *116:4 *116:23 3.65179 
4 *116:23 *295:B 20.55 
5 *116:23 *226:B 9.3 
*END

*D_NET *117 0.000696976
*CONN
*I *292:B I *D sky130_fd_sc_hd__nand2_1
*I *300:A I *D sky130_fd_sc_hd__nand2_1
*I *291:Y O *D sky130_fd_sc_hd__nand2_1
*CAP
1 *292:B 0
2 *300:A 0.000136053
3 *291:Y 7.37251e-05
4 *117:8 0.000209778
5 *300:A *294:B 4.87841e-05
6 *117:8 *294:A 2.11336e-05
7 *291:B *300:A 3.67279e-06
8 *291:B *117:8 0.000141935
9 *292:A *117:8 5.63465e-05
10 *293:B *300:A 5.54817e-06
*RES
1 *291:Y *117:8 11.4964 
2 *117:8 *300:A 21.1571 
3 *117:8 *292:B 9.3 
*END

*D_NET *118 0.000722914
*CONN
*I *294:A I *D sky130_fd_sc_hd__nand2_1
*I *292:Y O *D sky130_fd_sc_hd__nand2_1
*CAP
1 *294:A 0.000237809
2 *292:Y 0.000237809
3 *294:A *294:B 7.70015e-05
4 *245:A *294:A 6.05161e-06
5 *252:B *294:A 4.6205e-05
6 *291:B *294:A 9.45048e-06
7 *8:9 *294:A 4.40661e-05
8 *73:6 *294:A 1.0484e-05
9 *73:15 *294:A 3.29028e-05
10 *117:8 *294:A 2.11336e-05
*RES
1 *292:Y *294:A 32.4393 
*END

*D_NET *119 0.000266063
*CONN
*I *294:B I *D sky130_fd_sc_hd__nand2_1
*I *293:Y O *D sky130_fd_sc_hd__nand2_1
*CAP
1 *294:B 7.01387e-05
2 *293:Y 7.01387e-05
3 *294:A *294:B 7.70015e-05
4 *300:A *294:B 4.87841e-05
*RES
1 *293:Y *294:B 29.5464 
*END

*D_NET *120 0.00104681
*CONN
*I *226:A I *D sky130_fd_sc_hd__nand2_1
*I *295:A I *D sky130_fd_sc_hd__nand2_1
*I *296:A I *D sky130_fd_sc_hd__nand2_1
*I *294:Y O *D sky130_fd_sc_hd__nand2_1
*CAP
1 *226:A 2.13113e-05
2 *295:A 0
3 *296:A 1.42517e-05
4 *294:Y 9.62405e-05
5 *120:14 0.000219232
6 *120:6 0.000322532
7 *296:A *121:8 2.85234e-05
8 *250:B *120:14 0
9 *295:B *120:14 7.26481e-05
10 *300:B *120:6 8.74903e-05
11 *300:B *120:14 3.11088e-05
12 *6:30 *296:A 5.49995e-05
13 *116:23 *120:14 9.84673e-05
*RES
1 *294:Y *120:6 11.0679 
2 *120:6 *120:14 12.7143 
3 *120:14 *296:A 9.83571 
4 *120:14 *295:A 9.3 
5 *120:6 *226:A 9.72857 
*END

*D_NET *121 0.0010166
*CONN
*I *296:B I *D sky130_fd_sc_hd__nand2_1
*I *297:B I *D sky130_fd_sc_hd__nand2_1
*I *295:Y O *D sky130_fd_sc_hd__nand2_1
*CAP
1 *296:B 3.60551e-05
2 *297:B 0.000103764
3 *295:Y 0.000169841
4 *121:8 0.00030966
5 *296:B *299:A 7.64135e-05
6 *296:B *299:B 3.5407e-05
7 *297:B *299:B 5.44984e-05
8 *121:8 *299:A 0.000110395
9 *296:A *121:8 2.85234e-05
10 *6:30 *296:B 6.20656e-05
11 *6:30 *297:B 2.6968e-05
12 *6:30 *121:8 3.01245e-06
*RES
1 *295:Y *121:8 11.9071 
2 *121:8 *297:B 11.4964 
3 *121:8 *296:B 11.4071 
*END

*D_NET *122 0.000255091
*CONN
*I *299:A I *D sky130_fd_sc_hd__nand2_1
*I *296:Y O *D sky130_fd_sc_hd__nand2_1
*CAP
1 *299:A 2.8314e-05
2 *296:Y 2.8314e-05
3 *296:B *299:A 7.64135e-05
4 *6:30 *299:A 1.16543e-05
5 *121:8 *299:A 0.000110395
*RES
1 *296:Y *299:A 19.975 
*END

*D_NET *123 0.000215433
*CONN
*I *299:B I *D sky130_fd_sc_hd__nand2_1
*I *297:Y O *D sky130_fd_sc_hd__nand2_1
*CAP
1 *299:B 3.26161e-05
2 *297:Y 3.26161e-05
3 *296:B *299:B 3.5407e-05
4 *297:B *299:B 5.44984e-05
5 *6:30 *299:B 6.02956e-05
*RES
1 *297:Y *299:B 19.975 
*END

*D_NET *124 0.00019491
*CONN
*I *309:A I *D sky130_fd_sc_hd__inv_1
*I *298:Y O *D sky130_fd_sc_hd__nand2_1
*CAP
1 *309:A 9.74548e-05
2 *298:Y 9.74548e-05
*RES
1 *298:Y *309:A 20.2563 
*END

*D_NET *125 0.00079762
*CONN
*I *188:A I *D sky130_fd_sc_hd__nand2_1
*I *187:A I *D sky130_fd_sc_hd__nand2_1
*I *299:Y O *D sky130_fd_sc_hd__nand2_1
*CAP
1 *188:A 8.39315e-05
2 *187:A 0
3 *299:Y 0.000231008
4 *125:10 0.000314939
5 *187:B *125:10 7.83462e-05
6 *188:B *188:A 5.7661e-06
7 *189:B *125:10 0
8 *190:A *188:A 0
9 *191:A *188:A 3.18676e-05
10 *199:A *125:10 0
11 *251:A *125:10 0
12 *20:6 *188:A 5.17614e-05
*RES
1 *299:Y *125:10 22.675 
2 *125:10 *187:A 9.3 
3 *125:10 *188:A 11.5143 
*END

*D_NET *126 0.000876788
*CONN
*I *305:B I *D sky130_fd_sc_hd__nand2_2
*I *307:A I *D sky130_fd_sc_hd__nand2_1
*I *300:Y O *D sky130_fd_sc_hd__nand2_1
*CAP
1 *305:B 9.87651e-05
2 *307:A 0
3 *300:Y 9.67518e-05
4 *126:10 0.000195517
5 *305:B *307:B 5.6647e-05
6 *305:B *131:10 0.000100628
7 *252:A *305:B 0
8 *6:43 *305:B 0.00032848
*RES
1 *300:Y *126:10 19.9429 
2 *126:10 *307:A 9.3 
3 *126:10 *305:B 13.1571 
*END

*D_NET *127 0.0011773
*CONN
*I *310:A I *D sky130_fd_sc_hd__nand2_1
*I *302:B I *D sky130_fd_sc_hd__nand2_1
*I *303:B I *D sky130_fd_sc_hd__nand2_1
*I *301:Y O *D sky130_fd_sc_hd__nand2_2
*CAP
1 *310:A 0.000228862
2 *302:B 1.1792e-05
3 *303:B 9.73379e-05
4 *301:Y 1.90135e-05
5 *127:8 0.000148045
6 *127:6 0.000286791
7 *310:A *304:A 0.000151613
8 *254:B *310:A 0.000111735
9 *302:A *127:6 4.34677e-05
10 *302:A *127:8 1.32293e-05
11 *303:A *302:B 1.02132e-05
12 *303:A *303:B 2.46851e-05
13 *303:A *127:8 2.70262e-05
14 *111:18 *310:A 3.49456e-06
*RES
1 *301:Y *127:6 9.83571 
2 *127:6 *127:8 0.946429 
3 *127:8 *303:B 11.0857 
4 *127:8 *302:B 9.72857 
5 *127:6 *310:A 23.6393 
*END

*D_NET *128 0.000314509
*CONN
*I *304:A I *D sky130_fd_sc_hd__nand2_2
*I *302:Y O *D sky130_fd_sc_hd__nand2_1
*CAP
1 *304:A 5.79593e-05
2 *302:Y 5.79593e-05
3 *304:A *304:B 4.69774e-05
4 *310:A *304:A 0.000151613
*RES
1 *302:Y *304:A 29.5464 
*END

*D_NET *129 0.000339355
*CONN
*I *304:B I *D sky130_fd_sc_hd__nand2_2
*I *303:Y O *D sky130_fd_sc_hd__nand2_1
*CAP
1 *304:B 0.000118712
2 *303:Y 0.000118712
3 *304:B *130:10 5.49544e-05
4 *304:A *304:B 4.69774e-05
*RES
1 *303:Y *304:B 30.0821 
*END

*D_NET *130 0.00113507
*CONN
*I *305:A I *D sky130_fd_sc_hd__nand2_2
*I *306:A I *D sky130_fd_sc_hd__nand2_1
*I *304:Y O *D sky130_fd_sc_hd__nand2_2
*CAP
1 *305:A 0
2 *306:A 0.000162914
3 *304:Y 0.000377145
4 *130:10 0.000540059
5 *304:B *130:10 5.49544e-05
*RES
1 *304:Y *130:10 19.5679 
2 *130:10 *306:A 15.5679 
3 *130:10 *305:A 13.8 
*END

*D_NET *131 0.000879576
*CONN
*I *310:B I *D sky130_fd_sc_hd__nand2_1
*I *306:B I *D sky130_fd_sc_hd__nand2_1
*I *307:B I *D sky130_fd_sc_hd__nand2_1
*I *305:Y O *D sky130_fd_sc_hd__nand2_2
*CAP
1 *310:B 8.34895e-05
2 *306:B 0
3 *307:B 1.66962e-05
4 *305:Y 0
5 *131:10 0.000207041
6 *131:4 0.000273835
7 *305:B *307:B 5.6647e-05
8 *305:B *131:10 0.000100628
9 *6:43 *310:B 0.000101982
10 *6:43 *131:10 3.9257e-05
*RES
1 *305:Y *131:4 9.3 
2 *131:4 *131:10 3.85714 
3 *131:10 *307:B 9.83571 
4 *131:10 *306:B 9.3 
5 *131:4 *310:B 11.0679 
*END

*D_NET *132 0.000982949
*CONN
*I *308:A I *D sky130_fd_sc_hd__nand2_1
*I *306:Y O *D sky130_fd_sc_hd__nand2_1
*CAP
1 *308:A 0.000376259
2 *306:Y 0.000376259
3 *255:A *308:A 0
4 *6:43 *308:A 0.000230432
*RES
1 *306:Y *308:A 33.4929 
*END

*D_NET *133 0.000455869
*CONN
*I *308:B I *D sky130_fd_sc_hd__nand2_1
*I *307:Y O *D sky130_fd_sc_hd__nand2_1
*CAP
1 *308:B 0.000177593
2 *307:Y 0.000177593
3 *253:A *308:B 0
4 *6:43 *308:B 0.000100684
*RES
1 *307:Y *308:B 30.4929 
*END

*D_NET *134 0.000795354
*CONN
*I *193:A I *D sky130_fd_sc_hd__nand2_1
*I *192:A I *D sky130_fd_sc_hd__nand2_1
*I *308:Y O *D sky130_fd_sc_hd__nand2_1
*CAP
1 *193:A 8.17686e-05
2 *192:A 0
3 *308:Y 0.000196839
4 *134:12 0.000278607
5 *192:B *193:A 6.78317e-05
6 *193:B *193:A 1.97695e-05
7 *210:A *134:12 0
8 *210:B *193:A 0
9 *24:6 *193:A 8.76257e-05
10 *24:10 *193:A 6.29133e-05
11 *81:12 *134:12 0
*RES
1 *308:Y *134:12 20.8893 
2 *134:12 *192:A 9.3 
3 *134:12 *193:A 11.925 
*END

*D_NET *135 0.00124534
*CONN
*I *315:B I *D sky130_fd_sc_hd__nand2_1
*I *317:A I *D sky130_fd_sc_hd__nand2_1
*I *310:Y O *D sky130_fd_sc_hd__nand2_1
*CAP
1 *315:B 8.07255e-05
2 *317:A 0
3 *310:Y 0.000208032
4 *135:8 0.000288758
5 *315:B *316:A 4.68028e-05
6 *315:B *317:B 0.000100165
7 *315:B *140:8 2.74737e-05
8 *254:A *315:B 0
9 *254:B *135:8 5.49995e-05
10 *256:A *315:B 0.000335802
11 *256:A *135:8 6.83371e-05
12 *6:43 *135:8 3.42426e-05
*RES
1 *310:Y *135:8 13.1393 
2 *135:8 *317:A 9.3 
3 *135:8 *315:B 13.1571 
*END

*D_NET *136 0.00146003
*CONN
*I *313:B I *D sky130_fd_sc_hd__nand2_1
*I *312:B I *D sky130_fd_sc_hd__nand2_1
*I *319:A I *D sky130_fd_sc_hd__nand2_1
*I *311:Y O *D sky130_fd_sc_hd__nand2_1
*CAP
1 *313:B 0.000199313
2 *312:B 0
3 *319:A 0.000209348
4 *311:Y 3.71462e-05
5 *136:12 0.000241298
6 *136:6 0.00026841
7 *313:B *314:A 1.62025e-05
8 *313:B *139:20 0.000107252
9 *319:A *144:10 3.46801e-05
10 *136:12 *314:A 6.0469e-05
11 *311:A *136:6 5.50052e-05
12 *311:A *136:12 1.24368e-05
13 *311:B *313:B 6.93704e-06
14 *311:B *136:6 1.62025e-05
15 *311:B *136:12 1.83428e-05
16 *313:A *313:B 0.000172714
17 *112:12 *319:A 4.27842e-06
*RES
1 *311:Y *136:6 10.2464 
2 *136:6 *136:12 1.5 
3 *136:12 *319:A 21.4964 
4 *136:12 *312:B 9.3 
5 *136:6 *313:B 13.8714 
*END

*D_NET *137 0.000273601
*CONN
*I *314:A I *D sky130_fd_sc_hd__nand2_1
*I *312:Y O *D sky130_fd_sc_hd__nand2_1
*CAP
1 *314:A 3.21434e-05
2 *312:Y 3.21434e-05
3 *311:B *314:A 0.000132642
4 *313:B *314:A 1.62025e-05
5 *136:12 *314:A 6.0469e-05
*RES
1 *312:Y *314:A 19.975 
*END

*D_NET *138 0.000270629
*CONN
*I *314:B I *D sky130_fd_sc_hd__nand2_1
*I *313:Y O *D sky130_fd_sc_hd__nand2_1
*CAP
1 *314:B 5.15309e-05
2 *313:Y 5.15309e-05
3 *314:B *139:20 5.33005e-05
4 *311:B *314:B 3.50746e-05
5 *313:A *314:B 7.91924e-05
*RES
1 *313:Y *314:B 19.975 
*END

*D_NET *139 0.00153081
*CONN
*I *315:A I *D sky130_fd_sc_hd__nand2_1
*I *316:A I *D sky130_fd_sc_hd__nand2_1
*I *314:Y O *D sky130_fd_sc_hd__nand2_1
*CAP
1 *315:A 0
2 *316:A 4.82858e-05
3 *314:Y 0.000410802
4 *139:20 0.000459087
5 *316:A *319:B 1.24368e-05
6 *316:A *140:8 0.000160668
7 *256:A *316:A 5.00248e-05
8 *256:B *139:20 0.000157096
9 *313:B *139:20 0.000107252
10 *314:B *139:20 5.33005e-05
11 *315:B *316:A 4.68028e-05
12 *77:12 *139:20 2.50593e-05
*RES
1 *314:Y *139:20 33.3 
2 *139:20 *316:A 11.5143 
3 *139:20 *315:A 9.3 
*END

*D_NET *140 0.00110867
*CONN
*I *319:B I *D sky130_fd_sc_hd__nand2_1
*I *316:B I *D sky130_fd_sc_hd__nand2_1
*I *317:B I *D sky130_fd_sc_hd__nand2_1
*I *315:Y O *D sky130_fd_sc_hd__nand2_1
*CAP
1 *319:B 0.000180223
2 *316:B 0
3 *317:B 3.16557e-05
4 *315:Y 0
5 *140:8 0.000214595
6 *140:4 0.000363163
7 *256:A *319:B 1.82906e-05
8 *315:B *317:B 0.000100165
9 *315:B *140:8 2.74737e-05
10 *316:A *319:B 1.24368e-05
11 *316:A *140:8 0.000160668
*RES
1 *315:Y *140:4 9.3 
2 *140:4 *140:8 2.91071 
3 *140:8 *317:B 10.2464 
4 *140:8 *316:B 9.3 
5 *140:4 *319:B 11.8 
*END

*D_NET *141 0.000573022
*CONN
*I *318:A I *D sky130_fd_sc_hd__nand2_1
*I *316:Y O *D sky130_fd_sc_hd__nand2_1
*CAP
1 *318:A 0.000173327
2 *316:Y 0.000173327
3 *318:A *318:B 8.15939e-05
4 *256:A *318:A 0.000144773
5 *257:A *318:A 0
*RES
1 *316:Y *318:A 30.9036 
*END

*D_NET *142 0.000378466
*CONN
*I *318:B I *D sky130_fd_sc_hd__nand2_1
*I *317:Y O *D sky130_fd_sc_hd__nand2_1
*CAP
1 *318:B 0.000119862
2 *317:Y 0.000119862
3 *255:A *318:B 0
4 *256:A *318:B 5.71472e-05
5 *318:A *318:B 8.15939e-05
*RES
1 *317:Y *318:B 30.0821 
*END

*D_NET *143 0.000827526
*CONN
*I *202:A I *D sky130_fd_sc_hd__nand2_1
*I *203:A I *D sky130_fd_sc_hd__nand2_1
*I *318:Y O *D sky130_fd_sc_hd__nand2_1
*CAP
1 *202:A 9.90132e-05
2 *203:A 0
3 *318:Y 0.000262202
4 *143:12 0.000361215
5 *204:B *202:A 2.44318e-05
6 *211:A *202:A 5.52238e-05
7 *211:A *143:12 9.25014e-06
8 *218:B *143:12 0
9 *33:19 *202:A 1.61893e-05
*RES
1 *318:Y *143:12 21.7107 
2 *143:12 *203:A 9.3 
3 *143:12 *202:A 11.5143 
*END

*D_NET *144 0.00116652
*CONN
*I *213:A I *D sky130_fd_sc_hd__nand2_1
*I *212:A I *D sky130_fd_sc_hd__nand2_1
*I *319:Y O *D sky130_fd_sc_hd__nand2_1
*CAP
1 *213:A 0.000137673
2 *212:A 8.61686e-05
3 *319:Y 0.00032718
4 *144:10 0.000551021
5 *214:A *213:A 0
6 *221:B *213:A 4.1331e-06
7 *257:A *144:10 0
8 *319:A *144:10 3.46801e-05
9 *42:10 *213:A 2.56601e-05
*RES
1 *319:Y *144:10 18.3357 
2 *144:10 *212:A 15.1571 
3 *144:10 *213:A 16.05 
*END
