*SPEF "ieee 1481-1999"
*DESIGN "u_xor2a21o"
*DATE "15:03:22 Sunday September 06, 2026"
*VENDOR "The OpenROAD Project"
*PROGRAM "OpenROAD"
*VERSION "dcf36133a369abc8f3c5e5738cd4d82e4903c0e0"
*DESIGN_FLOW "NAME_SCOPE LOCAL" "PIN_CAP NONE"
*DIVIDER /
*DELIMITER :
*BUS_DELIMITER []
*T_UNIT 1 NS
*C_UNIT 1 PF
*R_UNIT 1 OHM
*L_UNIT 1 HENRY

*NAME_MAP
*3 a[0]
*4 a[1]
*5 a[2]
*6 a[3]
*7 b[0]
*8 b[1]
*9 b[2]
*10 b[3]
*11 p[0]
*12 p[1]
*13 p[2]
*14 p[3]
*15 p[4]
*16 p[5]
*17 p[6]
*18 p[7]
*19 n10
*20 n11
*21 n12
*22 n13
*23 n14
*24 n15
*25 n16
*26 n17
*27 n18
*28 n19
*29 n20
*30 n21
*31 n22
*32 n23
*33 n24
*34 n25
*35 n26
*36 n27
*37 n28
*38 n29
*39 n30
*40 n31
*41 n32
*42 n33
*43 n34
*44 n35
*45 n36
*46 n37
*47 n38
*48 n39
*49 n41
*50 n42
*51 n43
*52 n44
*53 n45
*54 n46
*55 n47
*56 n48
*57 n49
*58 n50
*59 n51
*60 n53
*61 n54
*62 n55
*63 n56
*64 n57
*65 n58
*66 n59
*67 n60
*68 n61
*69 n62
*70 n63
*71 n64
*72 n65
*73 n67
*74 n68
*75 n69
*76 n71
*77 n72
*78 n73
*79 n75
*80 n76
*81 n77
*82 n8
*83 PHY_EDGE_ROW_0_Left_12
*84 PHY_EDGE_ROW_0_Right_0
*85 PHY_EDGE_ROW_10_Left_22
*86 PHY_EDGE_ROW_10_Right_10
*87 PHY_EDGE_ROW_11_Left_23
*88 PHY_EDGE_ROW_11_Right_11
*89 PHY_EDGE_ROW_1_Left_13
*90 PHY_EDGE_ROW_1_Right_1
*91 PHY_EDGE_ROW_2_Left_14
*92 PHY_EDGE_ROW_2_Right_2
*93 PHY_EDGE_ROW_3_Left_15
*94 PHY_EDGE_ROW_3_Right_3
*95 PHY_EDGE_ROW_4_Left_16
*96 PHY_EDGE_ROW_4_Right_4
*97 PHY_EDGE_ROW_5_Left_17
*98 PHY_EDGE_ROW_5_Right_5
*99 PHY_EDGE_ROW_6_Left_18
*100 PHY_EDGE_ROW_6_Right_6
*101 PHY_EDGE_ROW_7_Left_19
*102 PHY_EDGE_ROW_7_Right_7
*103 PHY_EDGE_ROW_8_Left_20
*104 PHY_EDGE_ROW_8_Right_8
*105 PHY_EDGE_ROW_9_Left_21
*106 PHY_EDGE_ROW_9_Right_9
*107 TAP_TAPCELL_ROW_0_24
*108 TAP_TAPCELL_ROW_0_25
*109 TAP_TAPCELL_ROW_10_35
*110 TAP_TAPCELL_ROW_11_36
*111 TAP_TAPCELL_ROW_11_37
*112 TAP_TAPCELL_ROW_1_26
*113 TAP_TAPCELL_ROW_2_27
*114 TAP_TAPCELL_ROW_3_28
*115 TAP_TAPCELL_ROW_4_29
*116 TAP_TAPCELL_ROW_5_30
*117 TAP_TAPCELL_ROW_6_31
*118 TAP_TAPCELL_ROW_7_32
*119 TAP_TAPCELL_ROW_8_33
*120 TAP_TAPCELL_ROW_9_34
*121 g0
*122 g1
*123 g10
*124 g11
*125 g12
*126 g13
*127 g14
*128 g15
*129 g16
*130 g17
*131 g18
*132 g19
*133 g2
*134 g20
*135 g21
*136 g22
*137 g23
*138 g24
*139 g25
*140 g26
*141 g27
*142 g28
*143 g29
*144 g3
*145 g30
*146 g31
*147 g32
*148 g33
*149 g34
*150 g35
*151 g36
*152 g37
*153 g38
*154 g39
*155 g4
*156 g40
*157 g41
*158 g42
*159 g43
*160 g44
*161 g45
*162 g46
*163 g47
*164 g48
*165 g49
*166 g5
*167 g50
*168 g51
*169 g52
*170 g53
*171 g54
*172 g55
*173 g56
*174 g57
*175 g58
*176 g59
*177 g6
*178 g60
*179 g61
*180 g62
*181 g63
*182 g64
*183 g65
*184 g66
*185 g67
*186 g68
*187 g69
*188 g7
*189 g70
*190 g71
*191 g8
*192 g9

*PORTS
a[0] I
a[1] I
a[2] I
a[3] I
b[0] I
b[1] I
b[2] I
b[3] I
p[0] O
p[1] O
p[2] O
p[3] O
p[4] O
p[5] O
p[6] O
p[7] O

*D_NET *3 0.00518629
*CONN
*P a[0] I
*I *177:A I *D sky130_fd_sc_hd__nand2_1
*I *133:A I *D sky130_fd_sc_hd__nand2_1
*I *121:A I *D sky130_fd_sc_hd__nand2_1
*I *155:A I *D sky130_fd_sc_hd__nand2_1
*CAP
1 a[0] 0.000350568
2 *177:A 0
3 *133:A 6.72617e-05
4 *121:A 0.000107487
5 *155:A 2.23854e-05
6 *3:26 0.000927023
7 *3:15 0.00158339
8 *3:9 0.0011593
9 *121:A *133:B 5.38886e-05
10 *121:A *7:37 5.80706e-06
11 *121:A *52:14 0
12 *133:A *144:A 3.99614e-06
13 *133:A *148:B 1.22546e-05
14 *133:A *20:6 2.51343e-06
15 *3:9 *127:A 0
16 *3:9 *177:B 8.93923e-05
17 *3:9 *4:7 0.00046187
18 *3:9 *5:7 0
19 *3:15 *155:B 5.52302e-05
20 *3:26 *124:A 1.37411e-05
21 *3:26 *192:A 1.37743e-05
22 *3:26 *26:6 0.000249439
23 *3:26 *28:12 6.96284e-06
*RES
1 a[0] *3:9 6.13874 
2 *3:9 *3:15 17.8571 
3 *3:15 *155:A 9.72857 
4 *3:15 *3:26 12.0536 
5 *3:26 *121:A 20.675 
6 *3:26 *133:A 10.5679 
7 *3:9 *177:A 13.8 
*END

*D_NET *4 0.00479423
*CONN
*P a[1] I
*I *127:A I *D sky130_fd_sc_hd__nand2_1
*I *123:A I *D sky130_fd_sc_hd__nand2_1
*I *191:A I *D sky130_fd_sc_hd__nand2_1
*I *125:A I *D sky130_fd_sc_hd__nand2_1
*CAP
1 a[1] 0.000440785
2 *127:A 0.000262828
3 *123:A 0
4 *191:A 0.000220599
5 *125:A 0
6 *4:24 0.000820476
7 *4:11 0.000634728
8 *4:7 0.000738464
9 *127:A *125:B 0
10 *127:A *177:B 0
11 *191:A *123:B 0.000346762
12 *191:A *191:B 5.7661e-06
13 *4:24 *125:B 0.000352644
14 *4:24 *126:A 6.45074e-05
15 *4:24 *153:A 2.36784e-05
16 *4:24 *153:B 8.07313e-05
17 *4:24 *154:A 4.40835e-05
18 *4:24 *154:B 3.57191e-05
19 *4:24 *157:B1 0.000213018
20 *4:24 *24:8 4.75679e-05
21 *3:9 *127:A 0
22 *3:9 *4:7 0.00046187
*RES
1 a[1] *4:7 5.08007 
2 *4:7 *4:11 4.77679 
3 *4:11 *125:A 9.3 
4 *4:11 *4:24 13.4286 
5 *4:24 *191:A 14.3893 
6 *4:24 *123:A 9.3 
7 *4:7 *127:A 17.6661 
*END

*D_NET *5 0.00528409
*CONN
*P a[2] I
*I *136:A I *D sky130_fd_sc_hd__nand2_1
*I *131:A I *D sky130_fd_sc_hd__nand2_1
*I *129:A I *D sky130_fd_sc_hd__nand2_1
*I *134:A I *D sky130_fd_sc_hd__nand2_1
*CAP
1 a[2] 0.000410841
2 *136:A 0.000131298
3 *131:A 0
4 *129:A 0.000133288
5 *134:A 0.000110543
6 *5:28 0.00074959
7 *5:13 0.0011007
8 *5:7 0.00091599
9 *129:A *130:A 1.19813e-05
10 *129:A *131:B 5.33005e-05
11 *129:A *61:10 1.24368e-05
12 *134:A *159:B 1.87331e-05
13 *134:A *58:8 0.0001871
14 *136:A *10:9 5.54817e-06
15 *136:A *10:11 0.000102498
16 *5:7 *10:7 0
17 *5:13 *128:A 0.000117961
18 *5:13 *158:A 7.15503e-05
19 *5:13 *159:B 1.35465e-05
20 *5:13 *10:11 6.97592e-05
21 *5:13 *32:6 0.000252302
22 *5:28 *162:A 0.000172687
23 *5:28 *163:A 0.000141885
24 *5:28 *163:B 4.84714e-05
25 *5:28 *165:B1 3.80459e-05
26 *5:28 *168:B 3.11088e-05
27 *5:28 *170:B1 4.55532e-05
28 *5:28 *58:8 0.000314907
29 *5:28 *61:10 2.24718e-05
30 *3:9 *5:7 0
*RES
1 a[2] *5:7 4.64767 
2 *5:7 *5:13 12.0804 
3 *5:13 *134:A 12.2107 
4 *5:13 *5:28 12.4821 
5 *5:28 *129:A 11.925 
6 *5:28 *131:A 9.3 
7 *5:7 *136:A 16.5589 
*END

*D_NET *6 0.00495536
*CONN
*P a[3] I
*I *145:A I *D sky130_fd_sc_hd__nand2_1
*I *138:A I *D sky130_fd_sc_hd__nand2_1
*I *140:A I *D sky130_fd_sc_hd__nand2_1
*I *142:A I *D sky130_fd_sc_hd__nand2_1
*CAP
1 a[3] 0.000367607
2 *145:A 2.13113e-05
3 *138:A 0.000177884
4 *140:A 1.59835e-05
5 *142:A 2.13113e-05
6 *6:28 0.000588196
7 *6:19 0.00127569
8 *6:13 0.00124897
9 *138:A *139:A 1.19813e-05
10 *138:A *140:B 0.000141935
11 *6:13 p[7] 0
12 *6:13 *145:B 2.02339e-05
13 *6:13 *9:7 0.000373777
14 *6:19 *173:A 0.000228876
15 *6:19 *174:A2 1.35465e-05
16 *6:19 *174:B1 0.000123932
17 *6:28 *169:A 0.000272061
18 *6:28 *169:B 5.20669e-05
*RES
1 a[3] *6:13 11.2797 
2 *6:13 *6:19 11.25 
3 *6:19 *142:A 9.72857 
4 *6:19 *6:28 6.69643 
5 *6:28 *140:A 9.72857 
6 *6:28 *138:A 12.7286 
7 *6:13 *145:A 9.72857 
*END

*D_NET *7 0.00419141
*CONN
*P b[0] I
*I *191:B I *D sky130_fd_sc_hd__nand2_1
*I *121:B I *D sky130_fd_sc_hd__nand2_1
*I *138:B I *D sky130_fd_sc_hd__nand2_1
*I *129:B I *D sky130_fd_sc_hd__nand2_1
*CAP
1 b[0] 0.000394466
2 *191:B 0.000155691
3 *121:B 0
4 *138:B 0.000451271
5 *129:B 0
6 *7:37 0.000324899
7 *7:11 0.000766708
8 *7:5 0.00087911
9 *138:B *140:B 3.62626e-06
10 *191:B *122:A 3.18676e-05
11 *191:B *123:B 9.7049e-06
12 *191:B *8:22 0.000358971
13 *7:5 p[2] 0.000448584
14 *7:5 *8:7 0
15 *7:11 *140:B 2.53112e-06
16 *7:11 *161:B 0
17 *7:11 *8:37 2.95466e-05
18 *7:37 *122:A 5.62613e-05
19 *7:37 *133:B 2.21972e-05
20 *7:37 *160:A 0.000137985
21 *7:37 *161:B 7.27157e-05
22 *7:37 *8:22 3.36969e-05
23 *7:37 *8:37 0
24 *7:37 *52:14 0
25 *121:A *7:37 5.80706e-06
26 *191:A *191:B 5.7661e-06
*RES
1 b[0] *7:5 1.54787 
2 *7:5 *7:11 5.0769 
3 *7:11 *129:B 13.8 
4 *7:11 *138:B 21.5679 
5 *7:5 *7:37 11.8296 
6 *7:37 *121:B 9.3 
7 *7:37 *191:B 13.5679 
*END

*D_NET *8 0.00522921
*CONN
*P b[1] I
*I *140:B I *D sky130_fd_sc_hd__nand2_1
*I *131:B I *D sky130_fd_sc_hd__nand2_1
*I *123:B I *D sky130_fd_sc_hd__nand2_1
*I *133:B I *D sky130_fd_sc_hd__nand2_1
*CAP
1 b[1] 0.000367186
2 *140:B 0.000383458
3 *131:B 2.76911e-05
4 *123:B 0.000217975
5 *133:B 0.000135212
6 *8:37 0.000601493
7 *8:22 0.00072732
8 *8:7 0.000821399
9 *133:B *122:A 4.38265e-05
10 *133:B *147:A 1.19309e-05
11 *133:B *52:14 0
12 *140:B *164:A 6.93626e-06
13 *140:B *164:B 0.000104887
14 *140:B *60:14 8.80814e-05
15 *8:7 p[0] 0.000258025
16 *8:7 p[1] 0
17 *8:7 p[2] 9.52541e-05
18 *8:22 *122:A 5.77969e-05
19 *8:37 *132:A 3.98272e-05
20 *8:37 *161:B 0
21 *8:37 *52:14 5.33882e-05
22 *8:37 *60:14 0.00013136
23 *121:A *133:B 5.38886e-05
24 *129:A *131:B 5.33005e-05
25 *138:A *140:B 0.000141935
26 *138:B *140:B 3.62626e-06
27 *191:A *123:B 0.000346762
28 *191:B *123:B 9.7049e-06
29 *191:B *8:22 0.000358971
30 *7:5 *8:7 0
31 *7:11 *140:B 2.53112e-06
32 *7:11 *8:37 2.95466e-05
33 *7:37 *133:B 2.21972e-05
34 *7:37 *8:22 3.36969e-05
35 *7:37 *8:37 0
*RES
1 b[1] *8:7 4.8858 
2 *8:7 *133:B 16.8089 
3 *8:7 *8:22 9.3125 
4 *8:22 *123:B 13.9786 
5 *8:22 *8:37 8.875 
6 *8:37 *131:B 14.3357 
7 *8:37 *140:B 22.2643 
*END

*D_NET *9 0.0068911
*CONN
*P b[2] I
*I *142:B I *D sky130_fd_sc_hd__nand2_1
*I *134:B I *D sky130_fd_sc_hd__nand2_1
*I *125:B I *D sky130_fd_sc_hd__nand2_1
*I *155:B I *D sky130_fd_sc_hd__nand2_1
*CAP
1 b[2] 0.000994677
2 *142:B 0.000150367
3 *134:B 0
4 *125:B 0.000707873
5 *155:B 0.00026382
6 *9:13 0.00119636
7 *9:11 0.000473793
8 *9:7 0.00139417
9 *125:B *126:A 2.54632e-05
10 *125:B *156:A 9.71197e-05
11 *125:B *24:8 2.44318e-05
12 *125:B *57:12 1.71774e-05
13 *142:B *65:14 0
14 *155:B *53:14 0
15 *155:B *54:10 7.8327e-05
16 *9:7 *10:7 0.000410063
17 *9:11 *135:A 6.44649e-05
18 *9:11 *167:A 0.000176941
19 *9:11 *168:B 1.34741e-05
20 *9:13 *157:B1 0
21 *9:13 *167:A 1.00887e-05
22 *9:13 *53:14 0
23 *9:13 *54:10 1.08359e-05
24 *127:A *125:B 0
25 *3:15 *155:B 5.52302e-05
26 *4:24 *125:B 0.000352644
27 *6:13 *9:7 0.000373777
*RES
1 b[2] *9:7 6.37727 
2 *9:7 *9:11 5.66964 
3 *9:11 *9:13 3.46429 
4 *9:13 *155:B 18.7107 
5 *9:13 *125:B 32.7464 
6 *9:11 *134:B 13.8 
7 *9:7 *142:B 15.8982 
*END

*D_NET *10 0.00270125
*CONN
*P b[3] I
*I *145:B I *D sky130_fd_sc_hd__nand2_1
*I *136:B I *D sky130_fd_sc_hd__nand2_1
*I *127:B I *D sky130_fd_sc_hd__nand2_1
*I *177:B I *D sky130_fd_sc_hd__nand2_1
*CAP
1 b[3] 0.000265944
2 *145:B 0.000187916
3 *136:B 0
4 *127:B 3.98048e-05
5 *177:B 0.000157567
6 *10:11 0.000413539
7 *10:9 0.000317623
8 *10:7 0.000555316
9 *145:B *40:12 0
10 *177:B *188:A 1.83828e-05
11 *10:9 *40:12 0
12 *10:11 *128:A 4.7659e-05
13 *127:A *177:B 0
14 *136:A *10:9 5.54817e-06
15 *136:A *10:11 0.000102498
16 *3:9 *177:B 8.93923e-05
17 *5:7 *10:7 0
18 *5:13 *10:11 6.97592e-05
19 *6:13 *145:B 2.02339e-05
20 *9:7 *10:7 0.000410063
*RES
1 b[3] *10:7 4.5756 
2 *10:7 *10:9 1.79464 
3 *10:9 *10:11 4.98214 
4 *10:11 *177:B 16.7107 
5 *10:11 *127:B 14.3357 
6 *10:9 *136:B 13.8 
7 *10:7 *145:B 17.1125 
*END

*D_NET *11 0.00123828
*CONN
*P p[0] O
*I *122:Y O *D sky130_fd_sc_hd__inv_1
*CAP
1 p[0] 0.000361113
2 *122:Y 0.000361113
3 p[0] p[2] 0.000258025
4 p[0] *122:A 0
5 *8:7 p[0] 0.000258025
*RES
1 *122:Y p[0] 21.7859 
*END

*D_NET *12 0.00101962
*CONN
*P p[1] O
*I *147:X O *D sky130_fd_sc_hd__xor2_1
*CAP
1 p[1] 0.000509809
2 *147:X 0.000509809
3 p[1] *147:B 0
4 *8:7 p[1] 0
*RES
1 *147:X p[1] 20.2642 
*END

*D_NET *13 0.00124977
*CONN
*P p[2] O
*I *160:X O *D sky130_fd_sc_hd__xor2_1
*CAP
1 p[2] 0.000223955
2 *160:X 0.000223955
3 p[2] *160:A 0
4 p[0] p[2] 0.000258025
5 *7:5 p[2] 0.000448584
6 *8:7 p[2] 9.52541e-05
*RES
1 *160:X p[2] 19.8886 
*END

*D_NET *14 0.000864803
*CONN
*P p[3] O
*I *175:X O *D sky130_fd_sc_hd__xor2_1
*CAP
1 p[3] 0.000411241
2 *175:X 0.000411241
3 p[3] *175:B 4.23215e-05
*RES
1 *175:X p[3] 19.8165 
*END

*D_NET *15 0.0014136
*CONN
*P p[4] O
*I *180:X O *D sky130_fd_sc_hd__xor2_1
*CAP
1 p[4] 0.000690867
2 *180:X 0.000690867
3 p[4] *179:B 0
4 p[4] *180:A 3.18676e-05
5 p[4] *181:B1 0
*RES
1 *180:X p[4] 27.0143 
*END

*D_NET *16 0.00149823
*CONN
*P p[5] O
*I *184:X O *D sky130_fd_sc_hd__xor2_1
*CAP
1 p[5] 0.000749114
2 *184:X 0.000749114
*RES
1 *184:X p[5] 27.425 
*END

*D_NET *17 0.0013961
*CONN
*P p[6] O
*I *189:X O *D sky130_fd_sc_hd__xor2_1
*CAP
1 p[6] 0.000698051
2 *189:X 0.000698051
*RES
1 *189:X p[6] 27.0143 
*END

*D_NET *18 0.00142866
*CONN
*P p[7] O
*I *190:X O *D sky130_fd_sc_hd__a21o_1
*CAP
1 p[7] 0.00066076
2 *190:X 0.00066076
3 p[7] *146:A 7.18982e-05
4 p[7] *190:B1 0
5 p[7] *48:12 3.52408e-05
6 *6:13 p[7] 0
*RES
1 *190:X p[7] 24.044 
*END

*D_NET *19 0.000274377
*CONN
*I *144:A I *D sky130_fd_sc_hd__inv_1
*I *133:Y O *D sky130_fd_sc_hd__nand2_1
*CAP
1 *144:A 7.86022e-05
2 *133:Y 7.86022e-05
3 *144:A *148:B 0
4 *144:A *20:6 0.000113176
5 *133:A *144:A 3.99614e-06
*RES
1 *133:Y *144:A 20.6223 
*END

*D_NET *20 0.000984913
*CONN
*I *147:B I *D sky130_fd_sc_hd__xor2_1
*I *148:B I *D sky130_fd_sc_hd__and2_1
*I *144:Y O *D sky130_fd_sc_hd__inv_1
*CAP
1 *147:B 9.39294e-05
2 *148:B 0.000146928
3 *144:Y 0.000106051
4 *20:6 0.000346908
5 *147:B *147:A 0.000126439
6 *147:B *49:8 0
7 *148:B *26:6 3.67142e-05
8 p[1] *147:B 0
9 *133:A *148:B 1.22546e-05
10 *133:A *20:6 2.51343e-06
11 *144:A *148:B 0
12 *144:A *20:6 0.000113176
*RES
1 *144:Y *20:6 10.8625 
2 *20:6 *148:B 11.3893 
3 *20:6 *147:B 20.2464 
*END

*D_NET *21 0.000228187
*CONN
*I *166:A I *D sky130_fd_sc_hd__inv_1
*I *155:Y O *D sky130_fd_sc_hd__nand2_1
*CAP
1 *166:A 0.000114093
2 *155:Y 0.000114093
3 *166:A *53:14 0
*RES
1 *155:Y *166:A 29.4795 
*END

*D_NET *22 0.000848411
*CONN
*I *149:B I *D sky130_fd_sc_hd__xor2_1
*I *150:B I *D sky130_fd_sc_hd__and2_1
*I *166:Y O *D sky130_fd_sc_hd__inv_1
*CAP
1 *149:B 0.000157026
2 *150:B 1.83384e-05
3 *166:Y 0.000142585
4 *22:8 0.00031795
5 *149:B *150:A 0.000157539
6 *149:B *151:A 1.17091e-05
7 *149:B *152:B1 1.13883e-05
8 *22:8 *150:A 3.18747e-05
*RES
1 *166:Y *22:8 11.2911 
2 *22:8 *150:B 9.72857 
3 *22:8 *149:B 12.6214 
*END

*D_NET *23 0.000205683
*CONN
*I *188:A I *D sky130_fd_sc_hd__inv_1
*I *177:Y O *D sky130_fd_sc_hd__nand2_1
*CAP
1 *188:A 9.36502e-05
2 *177:Y 9.36502e-05
3 *188:A *126:A 0
4 *177:B *188:A 1.83828e-05
*RES
1 *177:Y *188:A 20.2563 
*END

*D_NET *24 0.0010887
*CONN
*I *153:B I *D sky130_fd_sc_hd__xor2_1
*I *154:B I *D sky130_fd_sc_hd__and2_1
*I *188:Y O *D sky130_fd_sc_hd__inv_1
*CAP
1 *153:B 2.18641e-05
2 *154:B 2.13863e-05
3 *188:Y 0.000170325
4 *24:8 0.000213576
5 *153:B *153:A 7.32955e-05
6 *154:B *126:A 0
7 *154:B *153:A 0
8 *24:8 *126:A 0.000110255
9 *24:8 *153:A 0.000210492
10 *24:8 *154:A 7.90536e-05
11 *125:B *24:8 2.44318e-05
12 *4:24 *153:B 8.07313e-05
13 *4:24 *154:B 3.57191e-05
14 *4:24 *24:8 4.75679e-05
*RES
1 *188:Y *24:8 14.1661 
2 *24:8 *154:B 10.2554 
3 *24:8 *153:B 10.6571 
*END

*D_NET *25 0.00030572
*CONN
*I *192:A I *D sky130_fd_sc_hd__inv_1
*I *191:Y O *D sky130_fd_sc_hd__nand2_1
*CAP
1 *192:A 0.0001068
2 *191:Y 0.0001068
3 *192:A *52:14 7.83462e-05
4 *3:26 *192:A 1.37743e-05
*RES
1 *191:Y *192:A 29.8277 
*END

*D_NET *26 0.000988867
*CONN
*I *148:A I *D sky130_fd_sc_hd__and2_1
*I *147:A I *D sky130_fd_sc_hd__xor2_1
*I *192:Y O *D sky130_fd_sc_hd__inv_1
*CAP
1 *148:A 0
2 *147:A 0.000198359
3 *192:Y 8.38135e-05
4 *26:6 0.000282172
5 *147:A *49:8 0
6 *147:A *52:14 0
7 *133:B *147:A 1.19309e-05
8 *147:B *147:A 0.000126439
9 *148:B *26:6 3.67142e-05
10 *3:26 *26:6 0.000249439
*RES
1 *192:Y *26:6 11.6839 
2 *26:6 *147:A 21.8 
3 *26:6 *148:A 9.3 
*END

*D_NET *27 0.000280551
*CONN
*I *124:A I *D sky130_fd_sc_hd__inv_1
*I *123:Y O *D sky130_fd_sc_hd__nand2_1
*CAP
1 *124:A 0.000133405
2 *123:Y 0.000133405
3 *124:A *53:14 0
4 *3:26 *124:A 1.37411e-05
*RES
1 *123:Y *124:A 29.8277 
*END

*D_NET *28 0.000848813
*CONN
*I *149:A I *D sky130_fd_sc_hd__xor2_1
*I *150:A I *D sky130_fd_sc_hd__and2_1
*I *124:Y O *D sky130_fd_sc_hd__inv_1
*CAP
1 *149:A 0
2 *150:A 0.000136155
3 *124:Y 0.000119287
4 *28:12 0.000255442
5 *150:A *152:B1 7.50128e-05
6 *28:12 *53:14 6.65398e-05
7 *149:B *150:A 0.000157539
8 *3:26 *28:12 6.96284e-06
9 *22:8 *150:A 3.18747e-05
*RES
1 *124:Y *28:12 20.2732 
2 *28:12 *150:A 12.7286 
3 *28:12 *149:A 9.3 
*END

*D_NET *29 0.000273946
*CONN
*I *126:A I *D sky130_fd_sc_hd__inv_1
*I *125:Y O *D sky130_fd_sc_hd__nand2_1
*CAP
1 *126:A 3.68602e-05
2 *125:Y 3.68602e-05
3 *125:B *126:A 2.54632e-05
4 *154:B *126:A 0
5 *188:A *126:A 0
6 *4:24 *126:A 6.45074e-05
7 *24:8 *126:A 0.000110255
*RES
1 *125:Y *126:A 20.2563 
*END

*D_NET *30 0.00103719
*CONN
*I *154:A I *D sky130_fd_sc_hd__and2_1
*I *153:A I *D sky130_fd_sc_hd__xor2_1
*I *126:Y O *D sky130_fd_sc_hd__inv_1
*CAP
1 *154:A 1.06116e-05
2 *153:A 0.00029268
3 *126:Y 0.000303292
4 *153:B *153:A 7.32955e-05
5 *154:B *153:A 0
6 *4:24 *153:A 2.36784e-05
7 *4:24 *154:A 4.40835e-05
8 *24:8 *153:A 0.000210492
9 *24:8 *154:A 7.90536e-05
*RES
1 *126:Y *153:A 23.2518 
2 *126:Y *154:A 19.3411 
*END

*D_NET *31 0.000437113
*CONN
*I *128:A I *D sky130_fd_sc_hd__inv_1
*I *127:Y O *D sky130_fd_sc_hd__nand2_1
*CAP
1 *128:A 0.000135747
2 *127:Y 0.000135747
3 *5:13 *128:A 0.000117961
4 *10:11 *128:A 4.7659e-05
*RES
1 *127:Y *128:A 30.6491 
*END

*D_NET *32 0.000727662
*CONN
*I *158:A I *D sky130_fd_sc_hd__xor2_1
*I *159:A I *D sky130_fd_sc_hd__and2_1
*I *128:Y O *D sky130_fd_sc_hd__inv_1
*CAP
1 *158:A 3.92062e-05
2 *159:A 0
3 *128:Y 4.80979e-05
4 *32:6 8.73041e-05
5 *158:A *159:B 0.000149096
6 *32:6 *159:B 4.77002e-05
7 *32:6 *59:12 3.24049e-05
8 *5:13 *158:A 7.15503e-05
9 *5:13 *32:6 0.000252302
*RES
1 *128:Y *32:6 11.6839 
2 *32:6 *159:A 9.3 
3 *32:6 *158:A 11.0857 
*END

*D_NET *33 0.00023248
*CONN
*I *130:A I *D sky130_fd_sc_hd__inv_1
*I *129:Y O *D sky130_fd_sc_hd__nand2_1
*CAP
1 *130:A 0.000110249
2 *129:Y 0.000110249
3 *129:A *130:A 1.19813e-05
*RES
1 *129:Y *130:A 20.667 
*END

*D_NET *34 0.000491
*CONN
*I *160:B I *D sky130_fd_sc_hd__xor2_1
*I *161:B I *D sky130_fd_sc_hd__and2_1
*I *130:Y O *D sky130_fd_sc_hd__inv_1
*CAP
1 *160:B 5.81875e-05
2 *161:B 0.000116636
3 *130:Y 2.49659e-05
4 *34:6 0.00019979
5 *161:B *160:A 1.87051e-05
6 *7:11 *161:B 0
7 *7:37 *161:B 7.27157e-05
8 *8:37 *161:B 0
*RES
1 *130:Y *34:6 9.63036 
2 *34:6 *161:B 20.8536 
3 *34:6 *160:B 10.2464 
*END

*D_NET *35 0.000569495
*CONN
*I *132:A I *D sky130_fd_sc_hd__inv_1
*I *131:Y O *D sky130_fd_sc_hd__nand2_1
*CAP
1 *132:A 0.000219909
2 *131:Y 0.000219909
3 *132:A *36:12 1.09136e-05
4 *132:A *60:14 7.89362e-05
5 *8:37 *132:A 3.98272e-05
*RES
1 *131:Y *132:A 31.8813 
*END

*D_NET *36 0.00100697
*CONN
*I *163:B I *D sky130_fd_sc_hd__and2_1
*I *162:B I *D sky130_fd_sc_hd__xor2_1
*I *132:Y O *D sky130_fd_sc_hd__inv_1
*CAP
1 *163:B 0.000117976
2 *162:B 0
3 *132:Y 0.000180965
4 *36:12 0.00029894
5 *163:B *162:A 0.00013442
6 *163:B *163:A 2.85234e-05
7 *163:B *165:B1 0.000186765
8 *132:A *36:12 1.09136e-05
9 *5:28 *163:B 4.84714e-05
*RES
1 *132:Y *36:12 20.6839 
2 *36:12 *162:B 9.3 
3 *36:12 *163:B 13.05 
*END

*D_NET *37 0.000249701
*CONN
*I *135:A I *D sky130_fd_sc_hd__inv_1
*I *134:Y O *D sky130_fd_sc_hd__nand2_1
*CAP
1 *135:A 9.26183e-05
2 *134:Y 9.26183e-05
3 *9:11 *135:A 6.44649e-05
*RES
1 *134:Y *135:A 29.4795 
*END

*D_NET *38 0.000761441
*CONN
*I *167:B I *D sky130_fd_sc_hd__xor2_1
*I *168:B I *D sky130_fd_sc_hd__and2_1
*I *135:Y O *D sky130_fd_sc_hd__inv_1
*CAP
1 *167:B 0
2 *168:B 0.000127822
3 *135:Y 0.000130002
4 *38:8 0.000257824
5 *168:B *167:A 0.000175274
6 *38:8 *167:A 2.59355e-05
7 *5:28 *168:B 3.11088e-05
8 *9:11 *168:B 1.34741e-05
*RES
1 *135:Y *38:8 11.2911 
2 *38:8 *168:B 21.3893 
3 *38:8 *167:B 9.3 
*END

*D_NET *39 0.000254238
*CONN
*I *137:A I *D sky130_fd_sc_hd__inv_1
*I *136:Y O *D sky130_fd_sc_hd__nand2_1
*CAP
1 *137:A 0.000121571
2 *136:Y 0.000121571
3 *137:A *40:12 1.10952e-05
*RES
1 *136:Y *137:A 20.667 
*END

*D_NET *40 0.000748891
*CONN
*I *171:B I *D sky130_fd_sc_hd__xor2_1
*I *172:B I *D sky130_fd_sc_hd__and2_1
*I *137:Y O *D sky130_fd_sc_hd__inv_1
*CAP
1 *171:B 8.46705e-05
2 *172:B 0
3 *137:Y 0.000186487
4 *40:12 0.000271157
5 *171:B *172:A 0.000195482
6 *40:12 *59:12 0
7 *137:A *40:12 1.10952e-05
8 *145:B *40:12 0
9 *10:9 *40:12 0
*RES
1 *137:Y *40:12 20.9875 
2 *40:12 *172:B 9.3 
3 *40:12 *171:B 11.4964 
*END

*D_NET *41 0.00020579
*CONN
*I *139:A I *D sky130_fd_sc_hd__inv_1
*I *138:Y O *D sky130_fd_sc_hd__nand2_1
*CAP
1 *139:A 8.13933e-05
2 *138:Y 8.13933e-05
3 *139:A *73:12 3.10223e-05
4 *138:A *139:A 1.19813e-05
*RES
1 *138:Y *139:A 20.2563 
*END

*D_NET *42 0.000716604
*CONN
*I *175:B I *D sky130_fd_sc_hd__xor2_1
*I *176:B I *D sky130_fd_sc_hd__and2_1
*I *139:Y O *D sky130_fd_sc_hd__inv_1
*CAP
1 *175:B 0.000129844
2 *176:B 2.18506e-05
3 *139:Y 7.44305e-05
4 *42:6 0.000226125
5 *175:B *175:A 0.000177948
6 *42:6 *73:12 4.40835e-05
7 p[3] *175:B 4.23215e-05
*RES
1 *139:Y *42:6 10.8625 
2 *42:6 *176:B 9.72857 
3 *42:6 *175:B 21.4964 
*END

*D_NET *43 0.000307842
*CONN
*I *141:A I *D sky130_fd_sc_hd__inv_1
*I *140:Y O *D sky130_fd_sc_hd__nand2_1
*CAP
1 *141:A 9.88032e-05
2 *140:Y 9.88032e-05
3 *141:A *44:10 6.05161e-06
4 *141:A *67:8 8.06427e-05
5 *141:A *73:12 0
6 *141:A *76:6 2.3541e-05
*RES
1 *140:Y *141:A 29.783 
*END

*D_NET *44 0.000714549
*CONN
*I *179:B I *D sky130_fd_sc_hd__and2_1
*I *178:B I *D sky130_fd_sc_hd__xor2_1
*I *141:Y O *D sky130_fd_sc_hd__inv_1
*CAP
1 *179:B 0.000144506
2 *178:B 0
3 *141:Y 0.000118804
4 *44:10 0.00026331
5 *179:B *179:A 8.98897e-05
6 *179:B *181:B1 0
7 *44:10 *179:A 1.76135e-05
8 *44:10 *181:B1 0
9 *44:10 *67:8 6.74911e-05
10 *44:10 *76:6 6.8824e-06
11 p[4] *179:B 0
12 *141:A *44:10 6.05161e-06
*RES
1 *141:Y *44:10 16.0768 
2 *44:10 *178:B 13.8 
3 *44:10 *179:B 16.8893 
*END

*D_NET *45 0.000351698
*CONN
*I *143:A I *D sky130_fd_sc_hd__inv_1
*I *142:Y O *D sky130_fd_sc_hd__nand2_1
*CAP
1 *143:A 0.000137672
2 *142:Y 0.000137672
3 *143:A *184:B 0
4 *143:A *185:B1 4.46186e-06
5 *143:A *71:10 0
6 *143:A *79:8 7.18918e-05
*RES
1 *142:Y *143:A 30.2384 
*END

*D_NET *46 0.000736187
*CONN
*I *182:B I *D sky130_fd_sc_hd__xor2_1
*I *183:B I *D sky130_fd_sc_hd__and2_1
*I *143:Y O *D sky130_fd_sc_hd__inv_1
*CAP
1 *182:B 4.12559e-05
2 *183:B 8.89532e-05
3 *143:Y 0.000125073
4 *46:12 0.000255282
5 *182:B *182:A 4.72917e-05
6 *183:B *182:A 5.03772e-05
7 *183:B *183:A 3.93247e-05
8 *46:12 *185:A1 0
9 *46:12 *189:B 0
10 *46:12 *71:10 5.33882e-05
11 *46:12 *79:8 3.52408e-05
*RES
1 *143:Y *46:12 20.5768 
2 *46:12 *183:B 11.0857 
3 *46:12 *182:B 10.2464 
*END

*D_NET *47 0.000355132
*CONN
*I *146:A I *D sky130_fd_sc_hd__inv_1
*I *145:Y O *D sky130_fd_sc_hd__nand2_1
*CAP
1 *146:A 0.000141617
2 *145:Y 0.000141617
3 *146:A *72:12 0
4 p[7] *146:A 7.18982e-05
*RES
1 *145:Y *146:A 30.2384 
*END

*D_NET *48 0.00064438
*CONN
*I *186:B I *D sky130_fd_sc_hd__xor2_1
*I *187:B I *D sky130_fd_sc_hd__and2_1
*I *146:Y O *D sky130_fd_sc_hd__inv_1
*CAP
1 *186:B 4.12559e-05
2 *187:B 6.40545e-05
3 *146:Y 0.000143735
4 *48:12 0.000249045
5 *186:B *187:A 4.72917e-05
6 *187:B *187:A 6.37566e-05
7 *48:12 *190:A1 0
8 *48:12 *72:12 0
9 p[7] *48:12 3.52408e-05
*RES
1 *146:Y *48:12 20.5768 
2 *48:12 *187:B 10.675 
3 *48:12 *186:B 10.2464 
*END

*D_NET *49 0.00134309
*CONN
*I *151:B I *D sky130_fd_sc_hd__xor2_1
*I *152:A2 I *D sky130_fd_sc_hd__a21o_1
*I *148:X O *D sky130_fd_sc_hd__and2_1
*CAP
1 *151:B 0.000115031
2 *152:A2 0.000393631
3 *148:X 7.42637e-05
4 *49:8 0.000582926
5 *152:A2 *52:14 3.34295e-05
6 *49:8 *52:14 0.000143804
7 *147:A *49:8 0
8 *147:B *49:8 0
*RES
1 *148:X *49:8 15.7464 
2 *49:8 *152:A2 20.5857 
3 *49:8 *151:B 15.5679 
*END

*D_NET *50 0.000684047
*CONN
*I *151:A I *D sky130_fd_sc_hd__xor2_1
*I *152:A1 I *D sky130_fd_sc_hd__a21o_1
*I *149:X O *D sky130_fd_sc_hd__xor2_1
*CAP
1 *151:A 0.000174297
2 *152:A1 0.000124119
3 *149:X 0
4 *50:4 0.000298416
5 *152:A1 *152:B1 7.55063e-05
6 *152:A1 *53:14 0
7 *149:B *151:A 1.17091e-05
*RES
1 *149:X *50:4 9.3 
2 *50:4 *152:A1 20.8536 
3 *50:4 *151:A 12.3179 
*END

*D_NET *51 0.00069001
*CONN
*I *152:B1 I *D sky130_fd_sc_hd__a21o_1
*I *150:X O *D sky130_fd_sc_hd__and2_1
*CAP
1 *152:B1 0.000264051
2 *150:X 0.000264051
3 *149:B *152:B1 1.13883e-05
4 *150:A *152:B1 7.50128e-05
5 *152:A1 *152:B1 7.55063e-05
*RES
1 *150:X *152:B1 31.725 
*END

*D_NET *52 0.00195653
*CONN
*I *160:A I *D sky130_fd_sc_hd__xor2_1
*I *161:A I *D sky130_fd_sc_hd__and2_1
*I *151:X O *D sky130_fd_sc_hd__xor2_1
*CAP
1 *160:A 0.000189316
2 *161:A 0
3 *151:X 0.00053122
4 *52:14 0.000720536
5 *160:A *122:A 9.25014e-06
6 *52:14 *60:14 4.0552e-05
7 p[2] *160:A 0
8 *121:A *52:14 0
9 *133:B *52:14 0
10 *147:A *52:14 0
11 *152:A2 *52:14 3.34295e-05
12 *161:B *160:A 1.87051e-05
13 *192:A *52:14 7.83462e-05
14 *7:37 *160:A 0.000137985
15 *7:37 *52:14 0
16 *8:37 *52:14 5.33882e-05
17 *49:8 *52:14 0.000143804
*RES
1 *151:X *52:14 28.7286 
2 *52:14 *161:A 9.3 
3 *52:14 *160:A 22.1036 
*END

*D_NET *53 0.00208643
*CONN
*I *156:B I *D sky130_fd_sc_hd__xor2_1
*I *157:A2 I *D sky130_fd_sc_hd__a21o_1
*I *152:X O *D sky130_fd_sc_hd__a21o_1
*CAP
1 *156:B 0
2 *157:A2 0.000212236
3 *152:X 0.000688105
4 *53:14 0.000900341
5 *157:A2 *156:A 0.000219213
6 *124:A *53:14 0
7 *152:A1 *53:14 0
8 *155:B *53:14 0
9 *166:A *53:14 0
10 *9:13 *53:14 0
11 *28:12 *53:14 6.65398e-05
*RES
1 *152:X *53:14 29.0143 
2 *53:14 *157:A2 13.9607 
3 *53:14 *156:B 9.3 
*END

*D_NET *54 0.00107865
*CONN
*I *156:A I *D sky130_fd_sc_hd__xor2_1
*I *157:A1 I *D sky130_fd_sc_hd__a21o_1
*I *153:X O *D sky130_fd_sc_hd__xor2_1
*CAP
1 *156:A 0.000215701
2 *157:A1 0
3 *153:X 9.58155e-05
4 *54:10 0.000311517
5 *54:10 *157:B1 5.01213e-05
6 *125:B *156:A 9.71197e-05
7 *155:B *54:10 7.8327e-05
8 *157:A2 *156:A 0.000219213
9 *9:13 *54:10 1.08359e-05
*RES
1 *153:X *54:10 20.55 
2 *54:10 *157:A1 9.3 
3 *54:10 *156:A 13.9607 
*END

*D_NET *55 0.000723381
*CONN
*I *157:B1 I *D sky130_fd_sc_hd__a21o_1
*I *154:X O *D sky130_fd_sc_hd__and2_1
*CAP
1 *157:B1 0.000230121
2 *154:X 0.000230121
3 *4:24 *157:B1 0.000213018
4 *9:13 *157:B1 0
5 *54:10 *157:B1 5.01213e-05
*RES
1 *154:X *157:B1 31.4214 
*END

*D_NET *56 0.000874592
*CONN
*I *162:A I *D sky130_fd_sc_hd__xor2_1
*I *163:A I *D sky130_fd_sc_hd__and2_1
*I *156:X O *D sky130_fd_sc_hd__xor2_1
*CAP
1 *162:A 4.79647e-05
2 *163:A 3.34737e-05
3 *156:X 0.000106617
4 *56:10 0.000188056
5 *163:A *170:B1 2.0964e-05
6 *163:B *162:A 0.00013442
7 *163:B *163:A 2.85234e-05
8 *5:28 *162:A 0.000172687
9 *5:28 *163:A 0.000141885
*RES
1 *156:X *56:10 19.9429 
2 *56:10 *163:A 10.6571 
3 *56:10 *162:A 11.4964 
*END

*D_NET *57 0.00102886
*CONN
*I *159:B I *D sky130_fd_sc_hd__and2_1
*I *158:B I *D sky130_fd_sc_hd__xor2_1
*I *157:X O *D sky130_fd_sc_hd__a21o_1
*CAP
1 *159:B 0.000160714
2 *158:B 0
3 *157:X 0.000223974
4 *57:12 0.000384688
5 *159:B *59:12 1.32293e-05
6 *125:B *57:12 1.71774e-05
7 *134:A *159:B 1.87331e-05
8 *158:A *159:B 0.000149096
9 *5:13 *159:B 1.35465e-05
10 *32:6 *159:B 4.77002e-05
*RES
1 *157:X *57:12 21.3 
2 *57:12 *158:B 9.3 
3 *57:12 *159:B 13.05 
*END

*D_NET *58 0.00129658
*CONN
*I *168:A I *D sky130_fd_sc_hd__and2_1
*I *167:A I *D sky130_fd_sc_hd__xor2_1
*I *158:X O *D sky130_fd_sc_hd__xor2_1
*CAP
1 *168:A 0
2 *167:A 0.00011047
3 *158:X 9.26998e-05
4 *58:8 0.000203169
5 *134:A *58:8 0.0001871
6 *168:B *167:A 0.000175274
7 *5:28 *58:8 0.000314907
8 *9:11 *167:A 0.000176941
9 *9:13 *167:A 1.00887e-05
10 *38:8 *167:A 2.59355e-05
*RES
1 *158:X *58:8 12.7286 
2 *58:8 *167:A 21.4964 
3 *58:8 *168:A 9.3 
*END

*D_NET *59 0.00125177
*CONN
*I *172:A I *D sky130_fd_sc_hd__and2_1
*I *171:A I *D sky130_fd_sc_hd__xor2_1
*I *159:X O *D sky130_fd_sc_hd__and2_1
*CAP
1 *172:A 0.000174636
2 *171:A 0
3 *159:X 0.000330691
4 *59:12 0.000505327
5 *59:12 *69:10 0
6 *159:B *59:12 1.32293e-05
7 *171:B *172:A 0.000195482
8 *32:6 *59:12 3.24049e-05
9 *40:12 *59:12 0
*RES
1 *159:X *59:12 23.6214 
2 *59:12 *171:A 9.3 
3 *59:12 *172:A 12.7464 
*END

*D_NET *60 0.00232317
*CONN
*I *164:B I *D sky130_fd_sc_hd__xor2_1
*I *165:A2 I *D sky130_fd_sc_hd__a21o_1
*I *161:X O *D sky130_fd_sc_hd__and2_1
*CAP
1 *164:B 0.0002036
2 *165:A2 0
3 *161:X 0.000351392
4 *60:14 0.000554992
5 *164:B *164:A 0.000545439
6 *60:14 *164:A 1.00887e-05
7 *60:14 *61:10 0.000213839
8 *132:A *60:14 7.89362e-05
9 *140:B *164:B 0.000104887
10 *140:B *60:14 8.80814e-05
11 *8:37 *60:14 0.00013136
12 *52:14 *60:14 4.0552e-05
*RES
1 *161:X *60:14 21.1214 
2 *60:14 *165:A2 13.8 
3 *60:14 *164:B 19.7643 
*END

*D_NET *61 0.00176604
*CONN
*I *164:A I *D sky130_fd_sc_hd__xor2_1
*I *165:A1 I *D sky130_fd_sc_hd__a21o_1
*I *162:X O *D sky130_fd_sc_hd__xor2_1
*CAP
1 *164:A 0.000309791
2 *165:A1 0
3 *162:X 0.000135353
4 *61:10 0.000445144
5 *61:10 *165:B1 6.45442e-05
6 *129:A *61:10 1.24368e-05
7 *140:B *164:A 6.93626e-06
8 *164:B *164:A 0.000545439
9 *5:28 *61:10 2.24718e-05
10 *60:14 *164:A 1.00887e-05
11 *60:14 *61:10 0.000213839
*RES
1 *162:X *61:10 17.1929 
2 *61:10 *165:A1 13.8 
3 *61:10 *164:A 20.8893 
*END

*D_NET *62 0.000796399
*CONN
*I *165:B1 I *D sky130_fd_sc_hd__a21o_1
*I *163:X O *D sky130_fd_sc_hd__and2_1
*CAP
1 *165:B1 0.000253522
2 *163:X 0.000253522
3 *163:B *165:B1 0.000186765
4 *5:28 *165:B1 3.80459e-05
5 *61:10 *165:B1 6.45442e-05
*RES
1 *163:X *165:B1 31.8321 
*END

*D_NET *63 0.000701594
*CONN
*I *175:A I *D sky130_fd_sc_hd__xor2_1
*I *176:A I *D sky130_fd_sc_hd__and2_1
*I *164:X O *D sky130_fd_sc_hd__xor2_1
*CAP
1 *175:A 0.000118404
2 *176:A 0
3 *164:X 0.000143419
4 *63:8 0.000261823
5 *175:A *73:12 0
6 *175:B *175:A 0.000177948
*RES
1 *164:X *63:8 16.3536 
2 *63:8 *176:A 13.8 
3 *63:8 *175:A 16.6571 
*END

*D_NET *64 0.00117329
*CONN
*I *169:B I *D sky130_fd_sc_hd__xor2_1
*I *170:A2 I *D sky130_fd_sc_hd__a21o_1
*I *165:X O *D sky130_fd_sc_hd__a21o_1
*CAP
1 *169:B 0.000202313
2 *170:A2 0.000189537
3 *165:X 0.000115162
4 *64:8 0.000507012
5 *170:A2 *170:B1 5.49489e-05
6 *170:A2 *65:14 5.2254e-05
7 *6:28 *169:B 5.20669e-05
*RES
1 *165:X *64:8 15.7464 
2 *64:8 *170:A2 17.2107 
3 *64:8 *169:B 17.3 
*END

*D_NET *65 0.00163126
*CONN
*I *170:A1 I *D sky130_fd_sc_hd__a21o_1
*I *169:A I *D sky130_fd_sc_hd__xor2_1
*I *167:X O *D sky130_fd_sc_hd__xor2_1
*CAP
1 *170:A1 0
2 *169:A 0.000198454
3 *167:X 0.000384677
4 *65:14 0.000583131
5 *65:14 *170:B1 0.000140686
6 *142:B *65:14 0
7 *170:A2 *65:14 5.2254e-05
8 *6:28 *169:A 0.000272061
*RES
1 *167:X *65:14 23.9786 
2 *65:14 *169:A 22.5321 
3 *65:14 *170:A1 9.3 
*END

*D_NET *66 0.00125204
*CONN
*I *170:B1 I *D sky130_fd_sc_hd__a21o_1
*I *168:X O *D sky130_fd_sc_hd__and2_1
*CAP
1 *170:B1 0.000494942
2 *168:X 0.000494942
3 *163:A *170:B1 2.0964e-05
4 *170:A2 *170:B1 5.49489e-05
5 *5:28 *170:B1 4.55532e-05
6 *65:14 *170:B1 0.000140686
*RES
1 *168:X *170:B1 36.0464 
*END

*D_NET *67 0.00108744
*CONN
*I *179:A I *D sky130_fd_sc_hd__and2_1
*I *178:A I *D sky130_fd_sc_hd__xor2_1
*I *169:X O *D sky130_fd_sc_hd__xor2_1
*CAP
1 *179:A 0.000141375
2 *178:A 9.44279e-05
3 *169:X 0.000180099
4 *67:8 0.000415902
5 *179:A *184:B 0
6 *67:8 *181:B1 0
7 *67:8 *184:B 0
8 *141:A *67:8 8.06427e-05
9 *179:B *179:A 8.98897e-05
10 *44:10 *179:A 1.76135e-05
11 *44:10 *67:8 6.74911e-05
*RES
1 *169:X *67:8 17.8714 
2 *67:8 *178:A 15.1571 
3 *67:8 *179:A 16.8893 
*END

*D_NET *68 0.00128261
*CONN
*I *173:B I *D sky130_fd_sc_hd__xor2_1
*I *174:A2 I *D sky130_fd_sc_hd__a21o_1
*I *170:X O *D sky130_fd_sc_hd__a21o_1
*CAP
1 *173:B 0
2 *174:A2 0.000117382
3 *170:X 0.00046582
4 *68:12 0.000583202
5 *174:A2 *173:A 0.000102659
6 *6:19 *174:A2 1.35465e-05
*RES
1 *170:X *68:12 24.0679 
2 *68:12 *174:A2 11.9071 
3 *68:12 *173:B 9.3 
*END

*D_NET *69 0.000741456
*CONN
*I *173:A I *D sky130_fd_sc_hd__xor2_1
*I *174:A1 I *D sky130_fd_sc_hd__a21o_1
*I *171:X O *D sky130_fd_sc_hd__xor2_1
*CAP
1 *173:A 6.68571e-05
2 *174:A1 0
3 *171:X 0.000138103
4 *69:10 0.000204961
5 *174:A2 *173:A 0.000102659
6 *6:19 *173:A 0.000228876
7 *59:12 *69:10 0
*RES
1 *171:X *69:10 20.55 
2 *69:10 *174:A1 9.3 
3 *69:10 *173:A 11.9071 
*END

*D_NET *70 0.000494391
*CONN
*I *174:B1 I *D sky130_fd_sc_hd__a21o_1
*I *172:X O *D sky130_fd_sc_hd__and2_1
*CAP
1 *174:B1 0.000185229
2 *172:X 0.000185229
3 *6:19 *174:B1 0.000123932
*RES
1 *172:X *174:B1 31.4214 
*END

*D_NET *71 0.00108223
*CONN
*I *182:A I *D sky130_fd_sc_hd__xor2_1
*I *183:A I *D sky130_fd_sc_hd__and2_1
*I *173:X O *D sky130_fd_sc_hd__xor2_1
*CAP
1 *182:A 7.62749e-05
2 *183:A 7.75375e-05
3 *173:X 0.00019929
4 *71:10 0.000353102
5 *182:A *184:A 0
6 *182:A *185:B1 0.000185643
7 *71:10 *185:B1 0
8 *71:10 *189:B 0
9 *143:A *71:10 0
10 *182:B *182:A 4.72917e-05
11 *183:B *182:A 5.03772e-05
12 *183:B *183:A 3.93247e-05
13 *46:12 *71:10 5.33882e-05
*RES
1 *173:X *71:10 22.0679 
2 *71:10 *183:A 10.675 
3 *71:10 *182:A 11.9071 
*END

*D_NET *72 0.00130539
*CONN
*I *186:A I *D sky130_fd_sc_hd__xor2_1
*I *187:A I *D sky130_fd_sc_hd__and2_1
*I *174:X O *D sky130_fd_sc_hd__a21o_1
*CAP
1 *186:A 0
2 *187:A 0.000133203
3 *174:X 0.000241442
4 *72:12 0.000374645
5 *187:A *189:A 0
6 *187:A *190:B1 0.000142856
7 *72:12 *189:B 0
8 *72:12 *190:A1 0.000128154
9 *72:12 *190:B1 0.000174044
10 *146:A *72:12 0
11 *186:B *187:A 4.72917e-05
12 *187:B *187:A 6.37566e-05
13 *48:12 *72:12 0
*RES
1 *174:X *72:12 23.7286 
2 *72:12 *187:A 12.7464 
3 *72:12 *186:A 9.3 
*END

*D_NET *73 0.00113018
*CONN
*I *180:B I *D sky130_fd_sc_hd__xor2_1
*I *181:A2 I *D sky130_fd_sc_hd__a21o_1
*I *176:X O *D sky130_fd_sc_hd__and2_1
*CAP
1 *180:B 0.000247861
2 *181:A2 0
3 *176:X 0.000277609
4 *73:12 0.00052547
5 *180:B *181:A1 0
6 *180:B *181:B1 0
7 *73:12 *181:B1 4.1331e-06
8 *139:A *73:12 3.10223e-05
9 *141:A *73:12 0
10 *175:A *73:12 0
11 *42:6 *73:12 4.40835e-05
*RES
1 *176:X *73:12 22.425 
2 *73:12 *181:A2 9.3 
3 *73:12 *180:B 22.2107 
*END

*D_NET *74 0.000650553
*CONN
*I *180:A I *D sky130_fd_sc_hd__xor2_1
*I *181:A1 I *D sky130_fd_sc_hd__a21o_1
*I *178:X O *D sky130_fd_sc_hd__xor2_1
*CAP
1 *180:A 0.000149664
2 *181:A1 8.04404e-05
3 *178:X 3.72884e-05
4 *74:6 0.000267393
5 *181:A1 *181:B1 8.39e-05
6 p[4] *180:A 3.18676e-05
7 *180:B *181:A1 0
*RES
1 *178:X *74:6 9.83571 
2 *74:6 *181:A1 20.2464 
3 *74:6 *180:A 12.0321 
*END

*D_NET *75 0.000599913
*CONN
*I *181:B1 I *D sky130_fd_sc_hd__a21o_1
*I *179:X O *D sky130_fd_sc_hd__and2_1
*CAP
1 *181:B1 0.00025594
2 *179:X 0.00025594
3 p[4] *181:B1 0
4 *179:B *181:B1 0
5 *180:B *181:B1 0
6 *181:A1 *181:B1 8.39e-05
7 *44:10 *181:B1 0
8 *67:8 *181:B1 0
9 *73:12 *181:B1 4.1331e-06
*RES
1 *179:X *181:B1 32.2071 
*END

*D_NET *76 0.00118797
*CONN
*I *184:B I *D sky130_fd_sc_hd__xor2_1
*I *185:A2 I *D sky130_fd_sc_hd__a21o_1
*I *181:X O *D sky130_fd_sc_hd__a21o_1
*CAP
1 *184:B 0.000163115
2 *185:A2 0.000129423
3 *181:X 0.000283811
4 *76:6 0.000576349
5 *185:A2 *185:A1 4.85049e-06
6 *141:A *76:6 2.3541e-05
7 *143:A *184:B 0
8 *179:A *184:B 0
9 *44:10 *76:6 6.8824e-06
10 *67:8 *184:B 0
*RES
1 *181:X *76:6 13.9429 
2 *76:6 *185:A2 11.4964 
3 *76:6 *184:B 21.1571 
*END

*D_NET *77 0.000598015
*CONN
*I *185:A1 I *D sky130_fd_sc_hd__a21o_1
*I *184:A I *D sky130_fd_sc_hd__xor2_1
*I *182:X O *D sky130_fd_sc_hd__xor2_1
*CAP
1 *185:A1 0.000177192
2 *184:A 0.000108575
3 *182:X 0
4 *77:4 0.000285767
5 *185:A1 *185:B1 2.16315e-05
6 *182:A *184:A 0
7 *185:A2 *185:A1 4.85049e-06
8 *46:12 *185:A1 0
*RES
1 *182:X *77:4 9.3 
2 *77:4 *184:A 11.0857 
3 *77:4 *185:A1 20.7821 
*END

*D_NET *78 0.000723972
*CONN
*I *185:B1 I *D sky130_fd_sc_hd__a21o_1
*I *183:X O *D sky130_fd_sc_hd__and2_1
*CAP
1 *185:B1 0.000256118
2 *183:X 0.000256118
3 *143:A *185:B1 4.46186e-06
4 *182:A *185:B1 0.000185643
5 *185:A1 *185:B1 2.16315e-05
6 *71:10 *185:B1 0
*RES
1 *183:X *185:B1 31.4214 
*END

*D_NET *79 0.00125819
*CONN
*I *189:B I *D sky130_fd_sc_hd__xor2_1
*I *190:A2 I *D sky130_fd_sc_hd__a21o_1
*I *185:X O *D sky130_fd_sc_hd__a21o_1
*CAP
1 *189:B 0.000128437
2 *190:A2 0.000112557
3 *185:X 0.000334533
4 *79:8 0.000575527
5 *189:B *190:A1 0
6 *143:A *79:8 7.18918e-05
7 *46:12 *189:B 0
8 *46:12 *79:8 3.52408e-05
9 *71:10 *189:B 0
10 *72:12 *189:B 0
*RES
1 *185:X *79:8 14.7821 
2 *79:8 *190:A2 11.0857 
3 *79:8 *189:B 20.55 
*END

*D_NET *80 0.000547238
*CONN
*I *190:A1 I *D sky130_fd_sc_hd__a21o_1
*I *189:A I *D sky130_fd_sc_hd__xor2_1
*I *186:X O *D sky130_fd_sc_hd__xor2_1
*CAP
1 *190:A1 0.000101006
2 *189:A 0.000108536
3 *186:X 0
4 *80:4 0.000209542
5 *187:A *189:A 0
6 *189:B *190:A1 0
7 *48:12 *190:A1 0
8 *72:12 *190:A1 0.000128154
*RES
1 *186:X *80:4 9.3 
2 *80:4 *189:A 11.0857 
3 *80:4 *190:A1 20.2464 
*END

*D_NET *81 0.000770127
*CONN
*I *190:B1 I *D sky130_fd_sc_hd__a21o_1
*I *187:X O *D sky130_fd_sc_hd__and2_1
*CAP
1 *190:B1 0.000226613
2 *187:X 0.000226613
3 p[7] *190:B1 0
4 *187:A *190:B1 0.000142856
5 *72:12 *190:B1 0.000174044
*RES
1 *187:X *190:B1 31.4214 
*END

*D_NET *82 0.000629489
*CONN
*I *122:A I *D sky130_fd_sc_hd__inv_1
*I *121:Y O *D sky130_fd_sc_hd__nand2_1
*CAP
1 *122:A 0.000215243
2 *121:Y 0.000215243
3 p[0] *122:A 0
4 *133:B *122:A 4.38265e-05
5 *160:A *122:A 9.25014e-06
6 *191:B *122:A 3.18676e-05
7 *7:37 *122:A 5.62613e-05
8 *8:22 *122:A 5.77969e-05
*RES
1 *121:Y *122:A 31.792 
*END
