*SPEF "ieee 1481-1999"
*DESIGN "dadda_xa"
*DATE "16:12:19 Sunday September 06, 2026"
*VENDOR "The OpenROAD Project"
*PROGRAM "OpenROAD"
*VERSION "dcf36133a369abc8f3c5e5738cd4d82e4903c0e0"
*DESIGN_FLOW "NAME_SCOPE LOCAL" "PIN_CAP NONE"
*DIVIDER /
*DELIMITER :
*BUS_DELIMITER []
*T_UNIT 1 NS
*C_UNIT 1 PF
*R_UNIT 1 OHM
*L_UNIT 1 HENRY

*NAME_MAP
*3 a[0]
*4 a[1]
*5 a[2]
*6 a[3]
*7 b[0]
*8 b[1]
*9 b[2]
*10 b[3]
*11 p[0]
*12 p[1]
*13 p[2]
*14 p[3]
*15 p[4]
*16 p[5]
*17 p[6]
*18 p[7]
*19 n10
*20 n11
*21 n12
*22 n13
*23 n14
*24 n15
*25 n16
*26 n17
*27 n18
*28 n19
*29 n20
*30 n21
*31 n22
*32 n23
*33 n24
*34 n25
*35 n26
*36 n27
*37 n28
*38 n29
*39 n30
*40 n31
*41 n32
*42 n33
*43 n34
*44 n35
*45 n36
*46 n37
*47 n38
*48 n39
*49 n40
*50 n41
*51 n43
*52 n44
*53 n45
*54 n47
*55 n48
*56 n49
*57 n51
*58 n52
*59 n53
*60 n55
*61 n56
*62 n57
*63 n59
*64 n60
*65 n61
*66 n9
*67 PHY_EDGE_ROW_0_Left_11
*68 PHY_EDGE_ROW_0_Right_0
*69 PHY_EDGE_ROW_10_Left_21
*70 PHY_EDGE_ROW_10_Right_10
*71 PHY_EDGE_ROW_1_Left_12
*72 PHY_EDGE_ROW_1_Right_1
*73 PHY_EDGE_ROW_2_Left_13
*74 PHY_EDGE_ROW_2_Right_2
*75 PHY_EDGE_ROW_3_Left_14
*76 PHY_EDGE_ROW_3_Right_3
*77 PHY_EDGE_ROW_4_Left_15
*78 PHY_EDGE_ROW_4_Right_4
*79 PHY_EDGE_ROW_5_Left_16
*80 PHY_EDGE_ROW_5_Right_5
*81 PHY_EDGE_ROW_6_Left_17
*82 PHY_EDGE_ROW_6_Right_6
*83 PHY_EDGE_ROW_7_Left_18
*84 PHY_EDGE_ROW_7_Right_7
*85 PHY_EDGE_ROW_8_Left_19
*86 PHY_EDGE_ROW_8_Right_8
*87 PHY_EDGE_ROW_9_Left_20
*88 PHY_EDGE_ROW_9_Right_9
*89 TAP_TAPCELL_ROW_0_22
*90 TAP_TAPCELL_ROW_0_23
*91 TAP_TAPCELL_ROW_10_33
*92 TAP_TAPCELL_ROW_10_34
*93 TAP_TAPCELL_ROW_1_24
*94 TAP_TAPCELL_ROW_2_25
*95 TAP_TAPCELL_ROW_3_26
*96 TAP_TAPCELL_ROW_4_27
*97 TAP_TAPCELL_ROW_5_28
*98 TAP_TAPCELL_ROW_6_29
*99 TAP_TAPCELL_ROW_7_30
*100 TAP_TAPCELL_ROW_8_31
*101 TAP_TAPCELL_ROW_9_32
*102 g0
*103 g1
*104 g10
*105 g11
*106 g12
*107 g13
*108 g14
*109 g15
*110 g16
*111 g17
*112 g18
*113 g19
*114 g2
*115 g20
*116 g21
*117 g22
*118 g23
*119 g24
*120 g25
*121 g26
*122 g27
*123 g28
*124 g29
*125 g3
*126 g30
*127 g31
*128 g32
*129 g33
*130 g34
*131 g35
*132 g36
*133 g37
*134 g38
*135 g39
*136 g4
*137 g40
*138 g41
*139 g42
*140 g43
*141 g44
*142 g45
*143 g46
*144 g47
*145 g48
*146 g49
*147 g5
*148 g50
*149 g51
*150 g52
*151 g53
*152 g54
*153 g55
*154 g6
*155 g7
*156 g8
*157 g9

*PORTS
a[0] I
a[1] I
a[2] I
a[3] I
b[0] I
b[1] I
b[2] I
b[3] I
p[0] O
p[1] O
p[2] O
p[3] O
p[4] O
p[5] O
p[6] O
p[7] O

*D_NET *3 0.00264382
*CONN
*P a[0] I
*I *125:A I *D sky130_fd_sc_hd__and2_1
*I *114:A I *D sky130_fd_sc_hd__and2_1
*I *102:A I *D sky130_fd_sc_hd__and2_1
*I *103:A I *D sky130_fd_sc_hd__and2_1
*CAP
1 a[0] 0.000174909
2 *125:A 0.000145579
3 *114:A 0.000104552
4 *102:A 0
5 *103:A 0.000177086
6 *3:22 0.000104552
7 *3:20 0.000288352
8 *3:7 0.000494768
9 *103:A *103:B 6.68882e-05
10 *103:A *156:B 5.52302e-05
11 *103:A *7:22 0
12 *103:A *7:37 0
13 *114:A *106:B 6.87574e-05
14 *114:A *8:26 9.71197e-05
15 *125:A *4:11 0
16 *125:A *4:29 0
17 *125:A *8:9 4.65158e-06
18 *125:A *9:13 2.03875e-05
19 *3:7 p[0] 0.000222517
20 *3:7 *5:7 5.12608e-05
21 *3:7 *7:7 0.000375849
22 *3:7 *8:9 0.000129078
23 *3:20 *103:B 5.60783e-05
24 *3:20 *7:37 0
25 *3:20 *8:9 6.20091e-06
*RES
1 a[0] *3:7 4.71973 
2 *3:7 *103:A 17.0411 
3 *3:7 *3:20 2.40179 
4 *3:20 *3:22 4.5 
5 *3:22 *102:A 9.3 
6 *3:22 *114:A 11.4786 
7 *3:20 *125:A 16.05 
*END

*D_NET *4 0.00396303
*CONN
*P a[1] I
*I *154:A I *D sky130_fd_sc_hd__and2_1
*I *155:A I *D sky130_fd_sc_hd__and2_1
*I *147:A I *D sky130_fd_sc_hd__and2_1
*I *136:A I *D sky130_fd_sc_hd__and2_1
*CAP
1 a[1] 0.000318585
2 *154:A 0.000159625
3 *155:A 0
4 *147:A 0.000205368
5 *136:A 6.67996e-05
6 *4:29 0.000213964
7 *4:11 0.000472146
8 *4:7 0.000572903
9 *136:A *136:B 9.80173e-05
10 *147:A *19:16 0.000273269
11 *147:A *21:10 5.33334e-05
12 *154:A *110:A 0
13 *154:A *5:24 0
14 *154:A *9:13 0
15 *154:A *10:15 0
16 *154:A *20:18 0.000272731
17 *154:A *24:10 9.80173e-05
18 *4:7 *5:7 0
19 *4:7 *8:9 0.000561299
20 *4:7 *9:7 0.00040176
21 *4:7 *10:7 2.21137e-05
22 *4:11 *103:B 9.01334e-05
23 *4:11 *114:B 5.68907e-05
24 *4:11 *5:20 0
25 *4:11 *8:9 1.83776e-05
26 *4:11 *19:16 0
27 *4:29 *114:B 7.69776e-06
28 *4:29 *5:24 0
29 *125:A *4:11 0
30 *125:A *4:29 0
*RES
1 a[1] *4:7 5.08007 
2 *4:7 *4:11 8.41964 
3 *4:11 *136:A 10.6571 
4 *4:11 *147:A 13.9607 
5 *4:7 *4:29 0.883929 
6 *4:29 *155:A 13.8 
7 *4:29 *154:A 17.55 
*END

*D_NET *5 0.0050579
*CONN
*P a[2] I
*I *157:A I *D sky130_fd_sc_hd__and2_1
*I *104:A I *D sky130_fd_sc_hd__and2_1
*I *105:A I *D sky130_fd_sc_hd__and2_1
*I *156:A I *D sky130_fd_sc_hd__and2_1
*CAP
1 a[2] 0.000667016
2 *157:A 9.63564e-05
3 *104:A 0.000163051
4 *105:A 0.000336731
5 *156:A 5.36587e-05
6 *5:24 0.000882281
7 *5:20 0.000703076
8 *5:7 0.000944896
9 *104:A *6:38 6.90757e-05
10 *156:A *130:B 2.83284e-06
11 *156:A *156:B 0.000274294
12 *156:A *21:10 5.7836e-06
13 *156:A *51:6 0.000276211
14 *157:A *147:B 0
15 *5:7 *7:7 0.000385854
16 *5:7 *8:9 0
17 *5:20 *103:B 0
18 *5:20 *147:B 0
19 *5:20 *19:16 6.75007e-05
20 *5:20 *21:10 3.22831e-05
21 *5:24 *107:B 0
22 *5:24 *114:B 4.57352e-05
23 *5:24 *147:B 0
24 *154:A *5:24 0
25 *3:7 *5:7 5.12608e-05
26 *4:7 *5:7 0
27 *4:11 *5:20 0
28 *4:29 *5:24 0
*RES
1 a[2] *5:7 5.51247 
2 *5:7 *156:A 16.6661 
3 *5:7 *5:20 4.375 
4 *5:20 *5:24 5.66964 
5 *5:24 *105:A 19.2643 
6 *5:24 *104:A 17.0143 
7 *5:20 *157:A 15.0232 
*END

*D_NET *6 0.0042349
*CONN
*P a[3] I
*I *108:A I *D sky130_fd_sc_hd__and2_1
*I *107:A I *D sky130_fd_sc_hd__and2_1
*I *106:A I *D sky130_fd_sc_hd__and2_1
*I *109:A I *D sky130_fd_sc_hd__and2_1
*CAP
1 a[3] 0.000305691
2 *108:A 1.23221e-05
3 *107:A 2.31022e-05
4 *106:A 0.000210397
5 *109:A 4.64012e-05
6 *6:38 0.000746218
7 *6:13 0.000725624
8 *6:9 0.000484516
9 *106:A *107:B 0.000358833
10 *106:A *118:A 0
11 *106:A *147:B 9.25014e-06
12 *106:A *24:10 6.93626e-06
13 *106:A *26:14 3.34672e-05
14 *107:A *107:B 4.25684e-05
15 *108:A *109:B 3.29297e-05
16 *108:A *9:39 4.90023e-05
17 *108:A *28:8 8.91963e-06
18 *109:A *28:8 2.72055e-05
19 *6:9 *109:B 0.00011258
20 *6:9 *9:39 0.000114109
21 *6:9 *10:7 0.000409694
22 *6:13 *109:B 0.000181114
23 *6:13 *9:39 1.21258e-05
24 *6:38 *104:B 5.48901e-05
25 *6:38 *107:B 5.33005e-05
26 *6:38 *109:B 9.84729e-05
27 *6:38 *24:10 6.15739e-06
28 *104:A *6:38 6.90757e-05
*RES
1 a[3] *6:9 6.06667 
2 *6:9 *6:13 6.67857 
3 *6:13 *109:A 19.0321 
4 *6:13 *6:38 17.3036 
5 *6:38 *106:A 23.2821 
6 *6:38 *107:A 9.83571 
7 *6:9 *108:A 14.5321 
*END

*D_NET *7 0.00554993
*CONN
*P b[0] I
*I *102:B I *D sky130_fd_sc_hd__and2_1
*I *106:B I *D sky130_fd_sc_hd__and2_1
*I *136:B I *D sky130_fd_sc_hd__and2_1
*I *156:B I *D sky130_fd_sc_hd__and2_1
*CAP
1 b[0] 0.000105517
2 *102:B 0
3 *106:B 0.000529591
4 *136:B 0.000203642
5 *156:B 0.000659561
6 *7:37 0.000784088
7 *7:22 0.000512009
8 *7:7 0.000818949
9 *106:B *8:26 0.000473143
10 *106:B *8:35 4.58976e-05
11 *106:B *26:14 3.80385e-05
12 *156:B *51:6 7.32955e-05
13 *156:B *66:6 2.89016e-05
14 *7:37 p[0] 1.92905e-05
15 *103:A *156:B 5.52302e-05
16 *103:A *7:22 0
17 *103:A *7:37 0
18 *114:A *106:B 6.87574e-05
19 *136:A *136:B 9.80173e-05
20 *156:A *156:B 0.000274294
21 *3:7 *7:7 0.000375849
22 *3:20 *7:37 0
23 *5:7 *7:7 0.000385854
*RES
1 b[0] *7:7 4.43147 
2 *7:7 *156:B 24.9875 
3 *7:7 *7:22 0.883929 
4 *7:22 *136:B 17.2107 
5 *7:22 *7:37 8.71429 
6 *7:37 *106:B 19.5143 
7 *7:37 *102:B 9.3 
*END

*D_NET *8 0.0047818
*CONN
*P b[1] I
*I *107:B I *D sky130_fd_sc_hd__and2_1
*I *147:B I *D sky130_fd_sc_hd__and2_1
*I *157:B I *D sky130_fd_sc_hd__and2_1
*I *103:B I *D sky130_fd_sc_hd__and2_1
*CAP
1 b[1] 0.000303014
2 *107:B 0.000301353
3 *147:B 0.000183764
4 *157:B 0
5 *103:B 0.000207723
6 *8:35 0.000525805
7 *8:26 0.000244035
8 *8:9 0.000714086
9 *103:B *21:10 0
10 *107:B *24:10 6.45442e-05
11 *8:9 p[0] 0.0002186
12 *8:35 *26:14 6.05161e-06
13 *103:A *103:B 6.68882e-05
14 *106:A *107:B 0.000358833
15 *106:A *147:B 9.25014e-06
16 *106:B *8:26 0.000473143
17 *106:B *8:35 4.58976e-05
18 *107:A *107:B 4.25684e-05
19 *114:A *8:26 9.71197e-05
20 *125:A *8:9 4.65158e-06
21 *157:A *147:B 0
22 *3:7 *8:9 0.000129078
23 *3:20 *103:B 5.60783e-05
24 *3:20 *8:9 6.20091e-06
25 *4:7 *8:9 0.000561299
26 *4:11 *103:B 9.01334e-05
27 *4:11 *8:9 1.83776e-05
28 *5:7 *8:9 0
29 *5:20 *103:B 0
30 *5:20 *147:B 0
31 *5:24 *107:B 0
32 *5:24 *147:B 0
33 *6:38 *107:B 5.33005e-05
*RES
1 b[1] *8:9 5.51629 
2 *8:9 *103:B 18.4786 
3 *8:9 *8:26 10.1071 
4 *8:26 *157:B 9.3 
5 *8:26 *8:35 5.44643 
6 *8:35 *147:B 16.6571 
7 *8:35 *107:B 20.675 
*END

*D_NET *9 0.00464145
*CONN
*P b[2] I
*I *104:B I *D sky130_fd_sc_hd__and2_1
*I *108:B I *D sky130_fd_sc_hd__and2_1
*I *154:B I *D sky130_fd_sc_hd__and2_1
*I *114:B I *D sky130_fd_sc_hd__and2_1
*CAP
1 b[2] 0.000116448
2 *104:B 0.000260858
3 *108:B 2.68188e-05
4 *154:B 0.000219135
5 *114:B 6.39529e-05
6 *9:39 0.000563763
7 *9:13 0.00066127
8 *9:7 0.000770717
9 *104:B *109:B 7.53531e-05
10 *104:B *31:10 5.66971e-05
11 *104:B *32:10 0.000100165
12 *108:B *109:B 4.35058e-05
13 *154:B *155:B 1.24368e-05
14 *154:B *20:18 0.000124205
15 *154:B *23:8 0
16 *9:7 *10:7 0.000409159
17 *9:13 *155:B 0.000227532
18 *9:13 *10:15 5.71991e-05
19 *9:39 *109:B 9.86249e-07
20 *9:39 *10:15 4.80423e-05
21 *9:39 *10:33 4.06107e-05
22 *108:A *9:39 4.90023e-05
23 *125:A *9:13 2.03875e-05
24 *154:A *9:13 0
25 *4:7 *9:7 0.00040176
26 *4:11 *114:B 5.68907e-05
27 *4:29 *114:B 7.69776e-06
28 *5:24 *114:B 4.57352e-05
29 *6:9 *9:39 0.000114109
30 *6:13 *9:39 1.21258e-05
31 *6:38 *104:B 5.48901e-05
*RES
1 b[2] *9:7 4.50353 
2 *9:7 *9:13 9.91964 
3 *9:13 *114:B 19.9429 
4 *9:13 *154:B 12.6214 
5 *9:7 *9:39 10.2768 
6 *9:39 *108:B 10.1571 
7 *9:39 *104:B 15.1036 
*END

*D_NET *10 0.00316641
*CONN
*P b[3] I
*I *109:B I *D sky130_fd_sc_hd__and2_1
*I *105:B I *D sky130_fd_sc_hd__and2_1
*I *125:B I *D sky130_fd_sc_hd__and2_1
*I *155:B I *D sky130_fd_sc_hd__and2_1
*CAP
1 b[3] 0.000167605
2 *109:B 0.000158161
3 *105:B 0
4 *125:B 0
5 *155:B 9.01871e-05
6 *10:33 0.000210525
7 *10:15 0.000255267
8 *10:7 0.000385049
9 *109:B *28:8 4.79773e-05
10 *155:B *20:18 7.99039e-05
11 *104:B *109:B 7.53531e-05
12 *108:A *109:B 3.29297e-05
13 *108:B *109:B 4.35058e-05
14 *154:A *10:15 0
15 *154:B *155:B 1.24368e-05
16 *4:7 *10:7 2.21137e-05
17 *6:9 *109:B 0.00011258
18 *6:9 *10:7 0.000409694
19 *6:13 *109:B 0.000181114
20 *6:38 *109:B 9.84729e-05
21 *9:7 *10:7 0.000409159
22 *9:13 *155:B 0.000227532
23 *9:13 *10:15 5.71991e-05
24 *9:39 *109:B 9.86249e-07
25 *9:39 *10:15 4.80423e-05
26 *9:39 *10:33 4.06107e-05
*RES
1 b[3] *10:7 4.64767 
2 *10:7 *10:15 7.77679 
3 *10:15 *155:B 12.3357 
4 *10:15 *125:B 9.3 
5 *10:7 *10:33 1.1875 
6 *10:33 *105:B 13.8 
7 *10:33 *109:B 18.7643 
*END

*D_NET *11 0.00104907
*CONN
*P p[0] O
*I *102:X O *D sky130_fd_sc_hd__and2_1
*CAP
1 p[0] 0.000294331
2 *102:X 0.000294331
3 *3:7 p[0] 0.000222517
4 *7:37 p[0] 1.92905e-05
5 *8:9 p[0] 0.0002186
*RES
1 *102:X p[0] 21.0759 
*END

*D_NET *12 0.00124178
*CONN
*P p[1] O
*I *130:X O *D sky130_fd_sc_hd__xor2_1
*CAP
1 p[1] 0.000608712
2 *130:X 0.000608712
3 p[1] *130:A 1.41029e-05
4 p[1] *130:B 1.02504e-05
*RES
1 *130:X p[1] 25.7643 
*END

*D_NET *13 0.00110495
*CONN
*P p[2] O
*I *134:X O *D sky130_fd_sc_hd__xor2_1
*CAP
1 p[2] 0.000550734
2 *134:X 0.000550734
3 p[2] *134:B 3.4846e-06
*RES
1 *134:X p[2] 24.8179 
*END

*D_NET *14 0.000746478
*CONN
*P p[3] O
*I *139:X O *D sky130_fd_sc_hd__xor2_1
*CAP
1 p[3] 0.000373239
2 *139:X 0.000373239
*RES
1 *139:X p[3] 18.6273 
*END

*D_NET *15 0.000860464
*CONN
*P p[4] O
*I *143:X O *D sky130_fd_sc_hd__xor2_1
*CAP
1 p[4] 0.000430232
2 *143:X 0.000430232
3 p[4] p[5] 0
*RES
1 *143:X p[4] 19.2345 
*END

*D_NET *16 0.00127143
*CONN
*P p[5] O
*I *148:X O *D sky130_fd_sc_hd__xor2_1
*CAP
1 p[5] 0.000635715
2 *148:X 0.000635715
3 p[4] p[5] 0
*RES
1 *148:X p[5] 19.7236 
*END

*D_NET *17 0.00162434
*CONN
*P p[6] O
*I *152:X O *D sky130_fd_sc_hd__xor2_1
*CAP
1 p[6] 0.000812169
2 *152:X 0.000812169
*RES
1 *152:X p[6] 29.0411 
*END

*D_NET *18 0.00204704
*CONN
*P p[7] O
*I *153:X O *D sky130_fd_sc_hd__a21o_1
*CAP
1 p[7] 0.000768371
2 *153:X 0.000768371
3 p[7] *128:A 0.000202128
4 p[7] *128:B 0.000177941
5 p[7] *152:B 0
6 p[7] *153:A1 0
7 p[7] *153:B1 6.16744e-05
8 p[7] *64:12 6.8551e-05
*RES
1 *153:X p[7] 31.2554 
*END

*D_NET *19 0.00248309
*CONN
*I *116:A I *D sky130_fd_sc_hd__and2_1
*I *115:A I *D sky130_fd_sc_hd__xor2_1
*I *114:X O *D sky130_fd_sc_hd__and2_1
*CAP
1 *116:A 8.64463e-05
2 *115:A 0
3 *114:X 0.000536602
4 *19:16 0.000623048
5 *116:A *116:B 0.000228508
6 *19:16 *116:B 4.3537e-05
7 *19:16 *22:6 0.000624177
8 *147:A *19:16 0.000273269
9 *4:11 *19:16 0
10 *5:20 *19:16 6.75007e-05
*RES
1 *114:X *19:16 30.8893 
2 *19:16 *115:A 9.3 
3 *19:16 *116:A 11.4786 
*END

*D_NET *20 0.00173001
*CONN
*I *110:A I *D sky130_fd_sc_hd__xor2_1
*I *111:A I *D sky130_fd_sc_hd__and2_1
*I *125:X O *D sky130_fd_sc_hd__and2_1
*CAP
1 *110:A 0.00017754
2 *111:A 0
3 *125:X 0.000182936
4 *20:18 0.000360476
5 *110:A *110:B 0.000162366
6 *110:A *117:A 1.56e-05
7 *110:A *23:8 2.24195e-05
8 *110:A *34:14 0.000185643
9 *20:18 *23:8 5.33334e-05
10 *20:18 *24:10 9.28602e-05
11 *154:A *110:A 0
12 *154:A *20:18 0.000272731
13 *154:B *20:18 0.000124205
14 *155:B *20:18 7.99039e-05
*RES
1 *125:X *20:18 16.1214 
2 *20:18 *111:A 9.3 
3 *20:18 *110:A 13.8714 
*END

*D_NET *21 0.000847459
*CONN
*I *131:B I *D sky130_fd_sc_hd__and2_1
*I *130:B I *D sky130_fd_sc_hd__xor2_1
*I *136:X O *D sky130_fd_sc_hd__and2_1
*CAP
1 *131:B 0
2 *130:B 0.000128756
3 *136:X 0.000156669
4 *21:10 0.000285424
5 *130:B *130:A 0.000172127
6 p[1] *130:B 1.02504e-05
7 *103:B *21:10 0
8 *147:A *21:10 5.33334e-05
9 *156:A *130:B 2.83284e-06
10 *156:A *21:10 5.7836e-06
11 *5:20 *21:10 3.22831e-05
*RES
1 *136:X *21:10 16.3893 
2 *21:10 *130:B 17.0143 
3 *21:10 *131:B 13.8 
*END

*D_NET *22 0.0017269
*CONN
*I *116:B I *D sky130_fd_sc_hd__and2_1
*I *115:B I *D sky130_fd_sc_hd__xor2_1
*I *147:X O *D sky130_fd_sc_hd__and2_1
*CAP
1 *116:B 0.000165312
2 *115:B 0
3 *147:X 0.000222554
4 *22:6 0.000387866
5 *116:B *37:10 5.49489e-05
6 *116:A *116:B 0.000228508
7 *19:16 *116:B 4.3537e-05
8 *19:16 *22:6 0.000624177
*RES
1 *147:X *22:6 15.175 
2 *22:6 *115:B 9.3 
3 *22:6 *116:B 13.1393 
*END

*D_NET *23 0.000784949
*CONN
*I *110:B I *D sky130_fd_sc_hd__xor2_1
*I *111:B I *D sky130_fd_sc_hd__and2_1
*I *154:X O *D sky130_fd_sc_hd__and2_1
*CAP
1 *110:B 7.15797e-05
2 *111:B 0
3 *154:X 0.000125151
4 *23:8 0.000196731
5 *110:B *117:A 1.24368e-05
6 *110:B *26:14 0.000140933
7 *110:A *110:B 0.000162366
8 *110:A *23:8 2.24195e-05
9 *154:B *23:8 0
10 *20:18 *23:8 5.33334e-05
*RES
1 *154:X *23:8 11.4964 
2 *23:8 *111:B 9.3 
3 *23:8 *110:B 11.9071 
*END

*D_NET *24 0.00162322
*CONN
*I *113:A I *D sky130_fd_sc_hd__and2_1
*I *112:A I *D sky130_fd_sc_hd__xor2_1
*I *155:X O *D sky130_fd_sc_hd__and2_1
*CAP
1 *113:A 0.000172615
2 *112:A 0
3 *155:X 0.000394528
4 *24:10 0.000567142
5 *113:A *113:B 0.000173614
6 *113:A *36:12 4.68059e-05
7 *106:A *24:10 6.93626e-06
8 *107:B *24:10 6.45442e-05
9 *154:A *24:10 9.80173e-05
10 *6:38 *24:10 6.15739e-06
11 *20:18 *24:10 9.28602e-05
*RES
1 *155:X *24:10 20.4607 
2 *24:10 *112:A 13.8 
3 *24:10 *113:A 17.7107 
*END

*D_NET *25 0.000594187
*CONN
*I *132:A I *D sky130_fd_sc_hd__xor2_1
*I *133:A I *D sky130_fd_sc_hd__and2_1
*I *156:X O *D sky130_fd_sc_hd__and2_1
*CAP
1 *132:A 2.32277e-05
2 *133:A 0.000114521
3 *156:X 4.05809e-05
4 *25:6 0.00017833
5 *132:A *51:6 4.27935e-05
6 *133:A *133:B 9.56968e-05
7 *25:6 *51:6 9.90367e-05
*RES
1 *156:X *25:6 10.2464 
2 *25:6 *133:A 20.8536 
3 *25:6 *132:A 9.83571 
*END

*D_NET *26 0.00291943
*CONN
*I *117:A I *D sky130_fd_sc_hd__xor2_1
*I *118:A I *D sky130_fd_sc_hd__and2_1
*I *157:X O *D sky130_fd_sc_hd__and2_1
*CAP
1 *117:A 0.000242179
2 *118:A 0.000251006
3 *157:X 0.000278022
4 *26:14 0.000771207
5 *117:A *117:B 0.000369743
6 *117:A *33:12 1.59373e-05
7 *117:A *34:14 7.48301e-06
8 *118:A *118:B 0.000395097
9 *118:A *122:B 5.65955e-05
10 *118:A *29:10 1.52978e-05
11 *118:A *30:6 0.000185203
12 *118:A *34:14 8.51331e-05
13 *26:14 *29:10 0
14 *106:A *118:A 0
15 *106:A *26:14 3.34672e-05
16 *106:B *26:14 3.80385e-05
17 *110:A *117:A 1.56e-05
18 *110:B *117:A 1.24368e-05
19 *110:B *26:14 0.000140933
20 *8:35 *26:14 6.05161e-06
*RES
1 *157:X *26:14 22.7643 
2 *26:14 *118:A 24.9786 
3 *26:14 *117:A 14.3714 
*END

*D_NET *27 0.000498431
*CONN
*I *112:B I *D sky130_fd_sc_hd__xor2_1
*I *113:B I *D sky130_fd_sc_hd__and2_1
*I *104:X O *D sky130_fd_sc_hd__and2_1
*CAP
1 *112:B 0
2 *113:B 0.00010494
3 *104:X 5.74688e-05
4 *27:6 0.000162409
5 *113:A *113:B 0.000173614
*RES
1 *104:X *27:6 10.2464 
2 *27:6 *113:B 20.8536 
3 *27:6 *112:B 9.3 
*END

*D_NET *28 0.000912914
*CONN
*I *126:A I *D sky130_fd_sc_hd__xor2_1
*I *127:A I *D sky130_fd_sc_hd__and2_1
*I *105:X O *D sky130_fd_sc_hd__and2_1
*CAP
1 *126:A 0.000140637
2 *127:A 0
3 *105:X 0.000187985
4 *28:8 0.000328622
5 *126:A *126:B 8.5865e-05
6 *126:A *31:10 1.90223e-05
7 *28:8 *31:10 6.66813e-05
8 *108:A *28:8 8.91963e-06
9 *109:A *28:8 2.72055e-05
10 *109:B *28:8 4.79773e-05
*RES
1 *105:X *28:8 17.8714 
2 *28:8 *127:A 13.8 
3 *28:8 *126:A 16.8893 
*END

*D_NET *29 0.00235887
*CONN
*I *118:B I *D sky130_fd_sc_hd__and2_1
*I *117:B I *D sky130_fd_sc_hd__xor2_1
*I *106:X O *D sky130_fd_sc_hd__and2_1
*CAP
1 *118:B 0.000362016
2 *117:B 8.43745e-05
3 *106:X 0.000256778
4 *29:10 0.000703168
5 *117:B *33:12 0.00012706
6 *117:B *34:14 4.53378e-05
7 *117:A *117:B 0.000369743
8 *118:A *118:B 0.000395097
9 *118:A *29:10 1.52978e-05
10 *26:14 *29:10 0
*RES
1 *106:X *29:10 17.2107 
2 *29:10 *117:B 17.6393 
3 *29:10 *118:B 20.6036 
*END

*D_NET *30 0.000761204
*CONN
*I *122:A I *D sky130_fd_sc_hd__and2_1
*I *121:A I *D sky130_fd_sc_hd__xor2_1
*I *107:X O *D sky130_fd_sc_hd__and2_1
*CAP
1 *122:A 0
2 *121:A 0.000133066
3 *107:X 9.75628e-05
4 *30:6 0.000230629
5 *121:A *121:B 8.6332e-05
6 *121:A *35:10 2.84109e-05
7 *118:A *30:6 0.000185203
*RES
1 *107:X *30:6 11.4786 
2 *30:6 *121:A 21.0857 
3 *30:6 *122:A 9.3 
*END

*D_NET *31 0.000697619
*CONN
*I *126:B I *D sky130_fd_sc_hd__xor2_1
*I *127:B I *D sky130_fd_sc_hd__and2_1
*I *108:X O *D sky130_fd_sc_hd__and2_1
*CAP
1 *126:B 8.24614e-05
2 *127:B 0
3 *108:X 0.000118875
4 *31:10 0.000201336
5 *126:B *129:B1 6.66813e-05
6 *126:B *32:10 0
7 *104:B *31:10 5.66971e-05
8 *126:A *126:B 8.5865e-05
9 *126:A *31:10 1.90223e-05
10 *28:8 *31:10 6.66813e-05
*RES
1 *108:X *31:10 16.2821 
2 *31:10 *127:B 13.8 
3 *31:10 *126:B 16.3536 
*END

*D_NET *32 0.00131241
*CONN
*I *151:A I *D sky130_fd_sc_hd__and2_1
*I *150:A I *D sky130_fd_sc_hd__xor2_1
*I *109:X O *D sky130_fd_sc_hd__and2_1
*CAP
1 *151:A 9.8997e-05
2 *150:A 0
3 *109:X 0.00040633
4 *32:10 0.000505327
5 *151:A *151:B 7.57869e-05
6 *151:A *64:12 0
7 *32:10 *128:B 0
8 *32:10 *151:B 1.76135e-05
9 *32:10 *36:12 4.0698e-05
10 *32:10 *50:8 6.74911e-05
11 *32:10 *64:12 0
12 *104:B *32:10 0.000100165
13 *126:B *32:10 0
*RES
1 *109:X *32:10 21.55 
2 *32:10 *150:A 13.8 
3 *32:10 *151:A 16.05 
*END

*D_NET *33 0.00221641
*CONN
*I *137:A I *D sky130_fd_sc_hd__xor2_1
*I *138:A I *D sky130_fd_sc_hd__and2_1
*I *110:X O *D sky130_fd_sc_hd__xor2_1
*CAP
1 *137:A 0.000232464
2 *138:A 0
3 *110:X 0.000467171
4 *33:12 0.000699634
5 *137:A *137:B 0.000237962
6 *137:A *140:B1 9.99644e-06
7 *33:12 *119:A 4.87953e-05
8 *33:12 *119:B 7.49332e-05
9 *33:12 *34:14 0.000143652
10 *33:12 *38:10 4.1331e-06
11 *33:12 *39:8 4.58194e-05
12 *33:12 *41:10 0.000108848
13 *33:12 *42:12 0
14 *33:12 *57:8 0
15 *117:A *33:12 1.59373e-05
16 *117:B *33:12 0.00012706
*RES
1 *110:X *33:12 27.8536 
2 *33:12 *138:A 9.3 
3 *33:12 *137:A 13.5679 
*END

*D_NET *34 0.00194682
*CONN
*I *121:B I *D sky130_fd_sc_hd__xor2_1
*I *122:B I *D sky130_fd_sc_hd__and2_1
*I *111:X O *D sky130_fd_sc_hd__and2_1
*CAP
1 *121:B 8.85652e-05
2 *122:B 2.31491e-05
3 *111:X 0.000503601
4 *34:14 0.000615315
5 *121:B *124:B1 7.76132e-05
6 *34:14 *124:B1 2.84026e-05
7 *110:A *34:14 0.000185643
8 *117:A *34:14 7.48301e-06
9 *117:B *34:14 4.53378e-05
10 *118:A *122:B 5.65955e-05
11 *118:A *34:14 8.51331e-05
12 *121:A *121:B 8.6332e-05
13 *33:12 *34:14 0.000143652
*RES
1 *111:X *34:14 25.8357 
2 *34:14 *122:B 9.83571 
3 *34:14 *121:B 20.8536 
*END

*D_NET *35 0.00161096
*CONN
*I *124:A2 I *D sky130_fd_sc_hd__a21o_1
*I *123:B I *D sky130_fd_sc_hd__xor2_1
*I *112:X O *D sky130_fd_sc_hd__xor2_1
*CAP
1 *124:A2 3.08678e-05
2 *123:B 0.000113243
3 *112:X 0.000490535
4 *35:10 0.000634646
5 *123:B *123:A 0.000151947
6 *124:A2 *43:10 4.66056e-05
7 *35:10 *124:B1 1.12669e-05
8 *35:10 *43:10 0.000103437
9 *121:A *35:10 2.84109e-05
*RES
1 *112:X *35:10 21.7286 
2 *35:10 *123:B 15.9964 
3 *35:10 *124:A2 14.5321 
*END

*D_NET *36 0.00126096
*CONN
*I *128:B I *D sky130_fd_sc_hd__xor2_1
*I *129:A2 I *D sky130_fd_sc_hd__a21o_1
*I *113:X O *D sky130_fd_sc_hd__and2_1
*CAP
1 *128:B 0.000193415
2 *129:A2 0
3 *113:X 0.000224722
4 *36:12 0.000418137
5 *128:B *128:A 0.000153434
6 *128:B *64:12 5.80706e-06
7 p[7] *128:B 0.000177941
8 *113:A *36:12 4.68059e-05
9 *32:10 *128:B 0
10 *32:10 *36:12 4.0698e-05
*RES
1 *113:X *36:12 21.7107 
2 *36:12 *129:A2 9.3 
3 *36:12 *128:B 22.7464 
*END

*D_NET *37 0.00105158
*CONN
*I *135:A2 I *D sky130_fd_sc_hd__a21o_1
*I *134:B I *D sky130_fd_sc_hd__xor2_1
*I *115:X O *D sky130_fd_sc_hd__xor2_1
*CAP
1 *135:A2 4.77024e-05
2 *134:B 0.000111365
3 *115:X 0.000214049
4 *37:10 0.000373117
5 *134:B *134:A 0.000172085
6 *135:A2 *134:A 5.49489e-05
7 *135:A2 *54:8 1.98839e-05
8 p[2] *134:B 3.4846e-06
9 *116:B *37:10 5.49489e-05
*RES
1 *115:X *37:10 17.1929 
2 *37:10 *134:B 16.3536 
3 *37:10 *135:A2 14.7464 
*END

*D_NET *38 0.000697658
*CONN
*I *119:B I *D sky130_fd_sc_hd__xor2_1
*I *120:A2 I *D sky130_fd_sc_hd__a21o_1
*I *116:X O *D sky130_fd_sc_hd__and2_1
*CAP
1 *119:B 6.45053e-05
2 *120:A2 0
3 *116:X 0.000154132
4 *38:10 0.000218637
5 *119:B *120:A1 0.000128154
6 *119:B *42:12 3.55503e-05
7 *38:10 *42:12 1.76135e-05
8 *38:10 *57:8 0
9 *33:12 *119:B 7.49332e-05
10 *33:12 *38:10 4.1331e-06
*RES
1 *116:X *38:10 16.2821 
2 *38:10 *120:A2 13.8 
3 *38:10 *119:B 16.3536 
*END

*D_NET *39 0.000684869
*CONN
*I *119:A I *D sky130_fd_sc_hd__xor2_1
*I *120:A1 I *D sky130_fd_sc_hd__a21o_1
*I *117:X O *D sky130_fd_sc_hd__xor2_1
*CAP
1 *119:A 4.85085e-05
2 *120:A1 3.62853e-05
3 *117:X 8.21799e-05
4 *39:8 0.000166974
5 *120:A1 *42:12 0.000128154
6 *119:B *120:A1 0.000128154
7 *33:12 *119:A 4.87953e-05
8 *33:12 *39:8 4.58194e-05
*RES
1 *117:X *39:8 10.675 
2 *39:8 *120:A1 19.9429 
3 *39:8 *119:A 10.2464 
*END

*D_NET *40 0.000849171
*CONN
*I *120:B1 I *D sky130_fd_sc_hd__a21o_1
*I *118:X O *D sky130_fd_sc_hd__and2_1
*CAP
1 *120:B1 0.000268942
2 *118:X 0.000268942
3 *120:B1 *42:12 0.000311286
*RES
1 *118:X *120:B1 32.6179 
*END

*D_NET *41 0.00078019
*CONN
*I *137:B I *D sky130_fd_sc_hd__xor2_1
*I *138:B I *D sky130_fd_sc_hd__and2_1
*I *119:X O *D sky130_fd_sc_hd__xor2_1
*CAP
1 *137:B 8.29906e-05
2 *138:B 0
3 *119:X 0.000107542
4 *41:10 0.000190532
5 *137:B *140:B1 5.23142e-05
6 *41:10 *57:8 0
7 *137:A *137:B 0.000237962
8 *33:12 *41:10 0.000108848
*RES
1 *119:X *41:10 20.8536 
2 *41:10 *138:B 9.3 
3 *41:10 *137:B 11.9071 
*END

*D_NET *42 0.00186284
*CONN
*I *142:A I *D sky130_fd_sc_hd__and2_1
*I *141:A I *D sky130_fd_sc_hd__xor2_1
*I *120:X O *D sky130_fd_sc_hd__a21o_1
*CAP
1 *142:A 0
2 *141:A 0.000168511
3 *120:X 0.000412898
4 *42:12 0.000581409
5 *141:A *141:B 0.00019733
6 *42:12 *45:10 1.00887e-05
7 *119:B *42:12 3.55503e-05
8 *120:A1 *42:12 0.000128154
9 *120:B1 *42:12 0.000311286
10 *33:12 *42:12 0
11 *38:10 *42:12 1.76135e-05
*RES
1 *120:X *42:12 27.0679 
2 *42:12 *141:A 12.7464 
3 *42:12 *142:A 9.3 
*END

*D_NET *43 0.000806009
*CONN
*I *124:A1 I *D sky130_fd_sc_hd__a21o_1
*I *123:A I *D sky130_fd_sc_hd__xor2_1
*I *121:X O *D sky130_fd_sc_hd__xor2_1
*CAP
1 *124:A1 0
2 *123:A 0.000115606
3 *121:X 6.10172e-05
4 *43:10 0.000176623
5 *43:10 *124:B1 0.000150773
6 *123:B *123:A 0.000151947
7 *124:A2 *43:10 4.66056e-05
8 *35:10 *43:10 0.000103437
*RES
1 *121:X *43:10 20.2464 
2 *43:10 *123:A 11.925 
3 *43:10 *124:A1 9.3 
*END

*D_NET *44 0.000810582
*CONN
*I *124:B1 I *D sky130_fd_sc_hd__a21o_1
*I *122:X O *D sky130_fd_sc_hd__and2_1
*CAP
1 *124:B1 0.000257062
2 *122:X 0.000257062
3 *124:B1 *46:10 2.84026e-05
4 *121:B *124:B1 7.76132e-05
5 *34:14 *124:B1 2.84026e-05
6 *35:10 *124:B1 1.12669e-05
7 *43:10 *124:B1 0.000150773
*RES
1 *122:X *124:B1 33.0464 
*END

*D_NET *45 0.000603016
*CONN
*I *141:B I *D sky130_fd_sc_hd__xor2_1
*I *142:B I *D sky130_fd_sc_hd__and2_1
*I *123:X O *D sky130_fd_sc_hd__xor2_1
*CAP
1 *141:B 8.09259e-05
2 *142:B 0
3 *123:X 9.70059e-05
4 *45:10 0.000177932
5 *45:10 *144:B1 3.9733e-05
6 *141:A *141:B 0.00019733
7 *42:12 *45:10 1.00887e-05
*RES
1 *123:X *45:10 20.2464 
2 *45:10 *142:B 9.3 
3 *45:10 *141:B 11.4964 
*END

*D_NET *46 0.00142363
*CONN
*I *146:B I *D sky130_fd_sc_hd__and2_1
*I *145:B I *D sky130_fd_sc_hd__xor2_1
*I *124:X O *D sky130_fd_sc_hd__a21o_1
*CAP
1 *146:B 0.000101349
2 *145:B 4.92707e-05
3 *124:X 0.000348851
4 *46:10 0.000499471
5 *145:B *145:A 0.00010898
6 *145:B *149:B1 0.000142157
7 *145:B *61:8 3.41517e-06
8 *146:B *145:A 0.000141729
9 *46:10 *149:B1 0
10 *124:B1 *46:10 2.84026e-05
*RES
1 *124:X *46:10 18.925 
2 *46:10 *145:B 15.5857 
3 *46:10 *146:B 15.8893 
*END

*D_NET *47 0.00144965
*CONN
*I *128:A I *D sky130_fd_sc_hd__xor2_1
*I *129:A1 I *D sky130_fd_sc_hd__a21o_1
*I *126:X O *D sky130_fd_sc_hd__xor2_1
*CAP
1 *128:A 0.000220023
2 *129:A1 0
3 *126:X 0.000141468
4 *47:8 0.000361491
5 *128:A *153:B1 0.000229167
6 *47:8 *129:B1 0.000141935
7 p[7] *128:A 0.000202128
8 *128:B *128:A 0.000153434
*RES
1 *126:X *47:8 12.2107 
2 *47:8 *129:A1 9.3 
3 *47:8 *128:A 24.05 
*END

*D_NET *48 0.000520636
*CONN
*I *129:B1 I *D sky130_fd_sc_hd__a21o_1
*I *127:X O *D sky130_fd_sc_hd__and2_1
*CAP
1 *129:B1 0.00015601
2 *127:X 0.00015601
3 *126:B *129:B1 6.66813e-05
4 *47:8 *129:B1 0.000141935
*RES
1 *127:X *129:B1 31.0107 
*END

*D_NET *49 0.000884339
*CONN
*I *145:A I *D sky130_fd_sc_hd__xor2_1
*I *146:A I *D sky130_fd_sc_hd__and2_1
*I *128:X O *D sky130_fd_sc_hd__xor2_1
*CAP
1 *145:A 0.000143333
2 *146:A 0
3 *128:X 0.000162397
4 *49:6 0.00030573
5 *145:A *149:B1 2.21701e-05
6 *145:B *145:A 0.00010898
7 *146:B *145:A 0.000141729
*RES
1 *128:X *49:6 11.8893 
2 *49:6 *146:A 9.3 
3 *49:6 *145:A 12.7286 
*END

*D_NET *50 0.000826434
*CONN
*I *151:B I *D sky130_fd_sc_hd__and2_1
*I *150:B I *D sky130_fd_sc_hd__xor2_1
*I *129:X O *D sky130_fd_sc_hd__a21o_1
*CAP
1 *151:B 0.000222131
2 *150:B 3.72704e-05
3 *129:X 7.33697e-05
4 *50:8 0.000332771
5 *151:A *151:B 7.57869e-05
6 *32:10 *151:B 1.76135e-05
7 *32:10 *50:8 6.74911e-05
*RES
1 *129:X *50:8 15.4429 
2 *50:8 *150:B 14.3357 
3 *50:8 *151:B 17.8357 
*END

*D_NET *51 0.00135528
*CONN
*I *132:B I *D sky130_fd_sc_hd__xor2_1
*I *133:B I *D sky130_fd_sc_hd__and2_1
*I *131:X O *D sky130_fd_sc_hd__and2_1
*CAP
1 *132:B 0
2 *133:B 0.000108077
3 *131:X 0.000276044
4 *51:6 0.000384121
5 *133:B *135:B1 0
6 *132:A *51:6 4.27935e-05
7 *133:A *133:B 9.56968e-05
8 *156:A *51:6 0.000276211
9 *156:B *51:6 7.32955e-05
10 *25:6 *51:6 9.90367e-05
*RES
1 *131:X *51:6 15.5857 
2 *51:6 *133:B 20.8536 
3 *51:6 *132:B 9.3 
*END

*D_NET *52 0.00119007
*CONN
*I *134:A I *D sky130_fd_sc_hd__xor2_1
*I *135:A1 I *D sky130_fd_sc_hd__a21o_1
*I *132:X O *D sky130_fd_sc_hd__xor2_1
*CAP
1 *134:A 0.000143169
2 *135:A1 2.22847e-05
3 *132:X 0.000181026
4 *52:6 0.000346479
5 *134:A *54:8 8.51331e-05
6 *52:6 *54:8 0.000184944
7 *134:B *134:A 0.000172085
8 *135:A2 *134:A 5.49489e-05
*RES
1 *132:X *52:6 12.7107 
2 *52:6 *135:A1 9.72857 
3 *52:6 *134:A 21.8 
*END

*D_NET *53 0.000783955
*CONN
*I *135:B1 I *D sky130_fd_sc_hd__a21o_1
*I *133:X O *D sky130_fd_sc_hd__and2_1
*CAP
1 *135:B1 0.000391978
2 *133:X 0.000391978
3 *133:B *135:B1 0
*RES
1 *133:X *135:B1 32.5464 
*END

*D_NET *54 0.00195633
*CONN
*I *140:A2 I *D sky130_fd_sc_hd__a21o_1
*I *139:B I *D sky130_fd_sc_hd__xor2_1
*I *135:X O *D sky130_fd_sc_hd__a21o_1
*CAP
1 *140:A2 0.000159691
2 *139:B 0
3 *135:X 0.000578541
4 *54:8 0.000738232
5 *140:A2 *139:A 0.000179656
6 *140:A2 *55:10 1.02504e-05
7 *134:A *54:8 8.51331e-05
8 *135:A2 *54:8 1.98839e-05
9 *52:6 *54:8 0.000184944
*RES
1 *135:X *54:8 18.8893 
2 *54:8 *139:B 9.3 
3 *54:8 *140:A2 21.8 
*END

*D_NET *55 0.000760865
*CONN
*I *140:A1 I *D sky130_fd_sc_hd__a21o_1
*I *139:A I *D sky130_fd_sc_hd__xor2_1
*I *137:X O *D sky130_fd_sc_hd__xor2_1
*CAP
1 *140:A1 0
2 *139:A 7.90801e-05
3 *137:X 0.000165607
4 *55:10 0.000244687
5 *139:A *140:B1 5.80706e-06
6 *55:10 *140:B1 7.57773e-05
7 *140:A2 *139:A 0.000179656
8 *140:A2 *55:10 1.02504e-05
*RES
1 *137:X *55:10 16.6929 
2 *55:10 *139:A 16.05 
3 *55:10 *140:A1 13.8 
*END

*D_NET *56 0.000598356
*CONN
*I *140:B1 I *D sky130_fd_sc_hd__a21o_1
*I *138:X O *D sky130_fd_sc_hd__and2_1
*CAP
1 *140:B1 0.000207593
2 *138:X 0.000207593
3 *140:B1 *57:8 3.92757e-05
4 *137:A *140:B1 9.99644e-06
5 *137:B *140:B1 5.23142e-05
6 *139:A *140:B1 5.80706e-06
7 *55:10 *140:B1 7.57773e-05
*RES
1 *138:X *140:B1 31.3143 
*END

*D_NET *57 0.00174611
*CONN
*I *144:A2 I *D sky130_fd_sc_hd__a21o_1
*I *143:B I *D sky130_fd_sc_hd__xor2_1
*I *140:X O *D sky130_fd_sc_hd__a21o_1
*CAP
1 *144:A2 0.000177735
2 *143:B 5.54113e-05
3 *140:X 0.000524463
4 *57:8 0.000757609
5 *143:B *143:A 0.000141941
6 *144:A2 *144:A1 4.96701e-05
7 *140:B1 *57:8 3.92757e-05
8 *33:12 *57:8 0
9 *38:10 *57:8 0
10 *41:10 *57:8 0
*RES
1 *140:X *57:8 23.0321 
2 *57:8 *143:B 15.1571 
3 *57:8 *144:A2 17.3 
*END

*D_NET *58 0.000776332
*CONN
*I *144:A1 I *D sky130_fd_sc_hd__a21o_1
*I *143:A I *D sky130_fd_sc_hd__xor2_1
*I *141:X O *D sky130_fd_sc_hd__xor2_1
*CAP
1 *144:A1 0.000167691
2 *143:A 0.00012467
3 *141:X 0.000292361
4 *143:B *143:A 0.000141941
5 *144:A2 *144:A1 4.96701e-05
*RES
1 *141:X *143:A 21.2071 
2 *141:X *144:A1 30.4929 
*END

*D_NET *59 0.000421281
*CONN
*I *144:B1 I *D sky130_fd_sc_hd__a21o_1
*I *142:X O *D sky130_fd_sc_hd__and2_1
*CAP
1 *144:B1 0.000190774
2 *142:X 0.000190774
3 *45:10 *144:B1 3.9733e-05
*RES
1 *142:X *144:B1 30.9036 
*END

*D_NET *60 0.000784775
*CONN
*I *148:B I *D sky130_fd_sc_hd__xor2_1
*I *149:A2 I *D sky130_fd_sc_hd__a21o_1
*I *144:X O *D sky130_fd_sc_hd__a21o_1
*CAP
1 *148:B 0.000182915
2 *149:A2 0.000108117
3 *144:X 9.4689e-05
4 *60:8 0.000385721
5 *148:B *148:A 1.33343e-05
*RES
1 *144:X *60:8 15.4429 
2 *60:8 *149:A2 15.5679 
3 *60:8 *148:B 17.0143 
*END

*D_NET *61 0.000778461
*CONN
*I *148:A I *D sky130_fd_sc_hd__xor2_1
*I *149:A1 I *D sky130_fd_sc_hd__a21o_1
*I *145:X O *D sky130_fd_sc_hd__xor2_1
*CAP
1 *148:A 0.00012896
2 *149:A1 0.000155997
3 *145:X 5.81449e-05
4 *61:8 0.000343103
5 *149:A1 *149:B1 7.55063e-05
6 *145:B *61:8 3.41517e-06
7 *148:B *148:A 1.33343e-05
*RES
1 *145:X *61:8 10.2643 
2 *61:8 *149:A1 21.1571 
3 *61:8 *148:A 11.4786 
*END

*D_NET *62 0.000820884
*CONN
*I *149:B1 I *D sky130_fd_sc_hd__a21o_1
*I *146:X O *D sky130_fd_sc_hd__and2_1
*CAP
1 *149:B1 0.000290525
2 *146:X 0.000290525
3 *145:A *149:B1 2.21701e-05
4 *145:B *149:B1 0.000142157
5 *149:A1 *149:B1 7.55063e-05
6 *46:10 *149:B1 0
*RES
1 *146:X *149:B1 32.1357 
*END

*D_NET *63 0.00133288
*CONN
*I *152:B I *D sky130_fd_sc_hd__xor2_1
*I *153:A2 I *D sky130_fd_sc_hd__a21o_1
*I *149:X O *D sky130_fd_sc_hd__a21o_1
*CAP
1 *152:B 0.00029638
2 *153:A2 0.00012938
3 *149:X 0.000240679
4 *63:6 0.000666438
5 *152:B *153:A1 0
6 p[7] *152:B 0
*RES
1 *149:X *63:6 13.1214 
2 *63:6 *153:A2 11.4786 
3 *63:6 *152:B 23.5857 
*END

*D_NET *64 0.00160576
*CONN
*I *152:A I *D sky130_fd_sc_hd__xor2_1
*I *153:A1 I *D sky130_fd_sc_hd__a21o_1
*I *150:X O *D sky130_fd_sc_hd__xor2_1
*CAP
1 *152:A 0.000129912
2 *153:A1 0.000210224
3 *150:X 0.000272276
4 *64:12 0.000612412
5 *153:A1 *153:B1 0.000187441
6 *64:12 *153:B1 0.000119135
7 p[7] *153:A1 0
8 p[7] *64:12 6.8551e-05
9 *128:B *64:12 5.80706e-06
10 *151:A *64:12 0
11 *152:B *153:A1 0
12 *32:10 *64:12 0
*RES
1 *150:X *64:12 23.8536 
2 *64:12 *153:A1 23.2821 
3 *64:12 *152:A 11.4786 
*END

*D_NET *65 0.00121002
*CONN
*I *153:B1 I *D sky130_fd_sc_hd__a21o_1
*I *151:X O *D sky130_fd_sc_hd__and2_1
*CAP
1 *153:B1 0.000306303
2 *151:X 0.000306303
3 p[7] *153:B1 6.16744e-05
4 *128:A *153:B1 0.000229167
5 *153:A1 *153:B1 0.000187441
6 *64:12 *153:B1 0.000119135
*RES
1 *151:X *153:B1 34.5643 
*END

*D_NET *66 0.000463047
*CONN
*I *131:A I *D sky130_fd_sc_hd__and2_1
*I *130:A I *D sky130_fd_sc_hd__xor2_1
*I *103:X O *D sky130_fd_sc_hd__and2_1
*CAP
1 *131:A 0
2 *130:A 9.6302e-05
3 *103:X 2.76557e-05
4 *66:6 0.000123958
5 p[1] *130:A 1.41029e-05
6 *130:B *130:A 0.000172127
7 *156:B *66:6 2.89016e-05
*RES
1 *103:X *66:6 9.83571 
2 *66:6 *130:A 20.8536 
3 *66:6 *131:A 9.3 
*END
