*SPEF "ieee 1481-1999"
*DESIGN "sd10_canon"
*DATE "17:07:23 Sunday September 06, 2026"
*VENDOR "The OpenROAD Project"
*PROGRAM "OpenROAD"
*VERSION "dcf36133a369abc8f3c5e5738cd4d82e4903c0e0"
*DESIGN_FLOW "NAME_SCOPE LOCAL" "PIN_CAP NONE"
*DIVIDER /
*DELIMITER :
*BUS_DELIMITER []
*T_UNIT 1 NS
*C_UNIT 1 PF
*R_UNIT 1 OHM
*L_UNIT 1 HENRY

*NAME_MAP
*3 xN[0]
*4 xN[1]
*5 xN[2]
*6 xN[3]
*7 xN[4]
*8 xN[5]
*9 xN[6]
*10 xN[7]
*11 xN[8]
*12 xN[9]
*13 xP[0]
*14 xP[1]
*15 xP[2]
*16 xP[3]
*17 xP[4]
*18 xP[5]
*19 xP[6]
*20 xP[7]
*21 xP[8]
*22 xP[9]
*23 yN[0]
*24 yN[1]
*25 yN[2]
*26 yN[3]
*27 yN[4]
*28 yN[5]
*29 yN[6]
*30 yN[7]
*31 yN[8]
*32 yN[9]
*33 yP[0]
*34 yP[1]
*35 yP[2]
*36 yP[3]
*37 yP[4]
*38 yP[5]
*39 yP[6]
*40 yP[7]
*41 yP[8]
*42 yP[9]
*43 zN[0]
*44 zN[10]
*45 zN[11]
*46 zN[12]
*47 zN[13]
*48 zN[14]
*49 zN[15]
*50 zN[16]
*51 zN[17]
*52 zN[18]
*53 zN[19]
*54 zN[1]
*55 zN[20]
*56 zN[21]
*57 zN[2]
*58 zN[3]
*59 zN[4]
*60 zN[5]
*61 zN[6]
*62 zN[7]
*63 zN[8]
*64 zN[9]
*65 zP[0]
*66 zP[10]
*67 zP[11]
*68 zP[12]
*69 zP[13]
*70 zP[14]
*71 zP[15]
*72 zP[16]
*73 zP[17]
*74 zP[18]
*75 zP[19]
*76 zP[1]
*77 zP[20]
*78 zP[21]
*79 zP[2]
*80 zP[3]
*81 zP[4]
*82 zP[5]
*83 zP[6]
*84 zP[7]
*85 zP[8]
*86 zP[9]
*87 n100
*88 n1000
*89 n1001
*90 n1002
*91 n1003
*92 n1004
*93 n1005
*94 n1006
*95 n1007
*96 n1008
*97 n1009
*98 n101
*99 n1010
*100 n1011
*101 n1012
*102 n1013
*103 n1014
*104 n1015
*105 n1016
*106 n1017
*107 n1018
*108 n1019
*109 n102
*110 n1020
*111 n1021
*112 n1022
*113 n1023
*114 n1024
*115 n1025
*116 n1026
*117 n1027
*118 n1028
*119 n1029
*120 n103
*121 n1030
*122 n1031
*123 n1032
*124 n1033
*125 n1034
*126 n1035
*127 n1036
*128 n1037
*129 n1038
*130 n1039
*131 n104
*132 n1040
*133 n1041
*134 n1042
*135 n1043
*136 n1044
*137 n1045
*138 n1046
*139 n1047
*140 n1048
*141 n1049
*142 n105
*143 n1050
*144 n1051
*145 n1052
*146 n1053
*147 n1054
*148 n1055
*149 n1056
*150 n1057
*151 n1058
*152 n1059
*153 n106
*154 n1060
*155 n1061
*156 n1062
*157 n1063
*158 n1064
*159 n1065
*160 n1066
*161 n1067
*162 n1068
*163 n1069
*164 n107
*165 n1070
*166 n1071
*167 n1072
*168 n1073
*169 n1074
*170 n1075
*171 n1076
*172 n1077
*173 n1078
*174 n1079
*175 n108
*176 n1080
*177 n1081
*178 n1082
*179 n1083
*180 n1084
*181 n1085
*182 n1086
*183 n1087
*184 n1088
*185 n1089
*186 n109
*187 n1090
*188 n1091
*189 n1092
*190 n1093
*191 n1094
*192 n1095
*193 n1096
*194 n1097
*195 n1098
*196 n1099
*197 n110
*198 n1100
*199 n1101
*200 n1102
*201 n1103
*202 n1104
*203 n1105
*204 n1106
*205 n1107
*206 n1108
*207 n1109
*208 n111
*209 n1110
*210 n1111
*211 n1112
*212 n1113
*213 n1114
*214 n1115
*215 n1116
*216 n1117
*217 n1118
*218 n1119
*219 n112
*220 n1120
*221 n1121
*222 n1122
*223 n1123
*224 n1124
*225 n1125
*226 n1126
*227 n1127
*228 n1128
*229 n1129
*230 n113
*231 n1130
*232 n1131
*233 n1132
*234 n1133
*235 n1134
*236 n1135
*237 n1136
*238 n1137
*239 n1138
*240 n1139
*241 n114
*242 n1140
*243 n1141
*244 n1142
*245 n1143
*246 n1144
*247 n1145
*248 n1146
*249 n1147
*250 n1148
*251 n1149
*252 n115
*253 n1150
*254 n1151
*255 n1152
*256 n1153
*257 n1154
*258 n1155
*259 n1156
*260 n1157
*261 n1158
*262 n1159
*263 n116
*264 n1160
*265 n1161
*266 n1162
*267 n1163
*268 n1164
*269 n1165
*270 n1166
*271 n1167
*272 n1168
*273 n1169
*274 n117
*275 n1170
*276 n1171
*277 n1172
*278 n1173
*279 n1174
*280 n1175
*281 n1176
*282 n1177
*283 n1178
*284 n1179
*285 n118
*286 n1180
*287 n1182
*288 n1184
*289 n1185
*290 n1186
*291 n1187
*292 n1188
*293 n119
*294 n1190
*295 n1192
*296 n1193
*297 n1194
*298 n1195
*299 n1196
*300 n1197
*301 n1198
*302 n1199
*303 n120
*304 n1200
*305 n1201
*306 n1202
*307 n1203
*308 n1204
*309 n1206
*310 n1208
*311 n1209
*312 n121
*313 n1210
*314 n1211
*315 n1212
*316 n1213
*317 n1214
*318 n1215
*319 n1216
*320 n1217
*321 n1218
*322 n1219
*323 n122
*324 n1220
*325 n1222
*326 n1224
*327 n1225
*328 n1226
*329 n1227
*330 n1228
*331 n1229
*332 n123
*333 n1230
*334 n1231
*335 n1232
*336 n1233
*337 n1234
*338 n1235
*339 n1236
*340 n1238
*341 n124
*342 n1240
*343 n1241
*344 n1242
*345 n1243
*346 n1244
*347 n1245
*348 n1246
*349 n1247
*350 n1248
*351 n1249
*352 n125
*353 n1250
*354 n1251
*355 n1252
*356 n1254
*357 n1256
*358 n1257
*359 n1258
*360 n1259
*361 n126
*362 n1260
*363 n1261
*364 n1262
*365 n1263
*366 n1264
*367 n1265
*368 n1266
*369 n1267
*370 n1268
*371 n127
*372 n1270
*373 n1272
*374 n1273
*375 n1274
*376 n1275
*377 n1276
*378 n1277
*379 n1278
*380 n1279
*381 n128
*382 n1280
*383 n1281
*384 n1282
*385 n1283
*386 n1284
*387 n1286
*388 n1288
*389 n1289
*390 n129
*391 n1290
*392 n1291
*393 n1292
*394 n1293
*395 n1294
*396 n1295
*397 n1296
*398 n1297
*399 n1298
*400 n1299
*401 n130
*402 n1300
*403 n1302
*404 n1304
*405 n1305
*406 n1306
*407 n1307
*408 n1308
*409 n1309
*410 n131
*411 n1310
*412 n1311
*413 n1312
*414 n1313
*415 n1314
*416 n1315
*417 n1316
*418 n1318
*419 n132
*420 n1320
*421 n1321
*422 n1322
*423 n1323
*424 n1324
*425 n1325
*426 n1326
*427 n1327
*428 n1328
*429 n1329
*430 n133
*431 n1330
*432 n1331
*433 n1332
*434 n1334
*435 n1336
*436 n1337
*437 n1338
*438 n1339
*439 n134
*440 n1340
*441 n1341
*442 n1342
*443 n1343
*444 n1344
*445 n1345
*446 n1346
*447 n1347
*448 n1348
*449 n135
*450 n1350
*451 n1352
*452 n1353
*453 n1354
*454 n1355
*455 n1356
*456 n1357
*457 n1358
*458 n1359
*459 n136
*460 n1360
*461 n1361
*462 n1362
*463 n1363
*464 n1364
*465 n1366
*466 n1368
*467 n1369
*468 n137
*469 n1370
*470 n1371
*471 n1372
*472 n1373
*473 n1374
*474 n1375
*475 n1376
*476 n1377
*477 n1378
*478 n1379
*479 n138
*480 n1380
*481 n1382
*482 n1384
*483 n1385
*484 n1386
*485 n1387
*486 n1388
*487 n1389
*488 n139
*489 n1390
*490 n1391
*491 n1392
*492 n1393
*493 n1394
*494 n1395
*495 n1396
*496 n1398
*497 n140
*498 n1400
*499 n1401
*500 n1402
*501 n1403
*502 n1404
*503 n1405
*504 n1406
*505 n1407
*506 n1408
*507 n1409
*508 n141
*509 n1410
*510 n1411
*511 n1412
*512 n1414
*513 n1416
*514 n1417
*515 n1418
*516 n1419
*517 n142
*518 n1420
*519 n1421
*520 n1422
*521 n1423
*522 n1424
*523 n1425
*524 n1426
*525 n1427
*526 n1428
*527 n143
*528 n1430
*529 n1432
*530 n1433
*531 n1434
*532 n1435
*533 n1436
*534 n1437
*535 n1438
*536 n1439
*537 n144
*538 n1440
*539 n1441
*540 n1442
*541 n1443
*542 n1444
*543 n1446
*544 n1448
*545 n1449
*546 n145
*547 n1450
*548 n1451
*549 n1452
*550 n1453
*551 n1454
*552 n1455
*553 n1456
*554 n1457
*555 n1458
*556 n1459
*557 n146
*558 n1460
*559 n1462
*560 n1464
*561 n1465
*562 n1466
*563 n1467
*564 n1468
*565 n147
*566 n1470
*567 n148
*568 n149
*569 n150
*570 n151
*571 n152
*572 n153
*573 n154
*574 n155
*575 n156
*576 n157
*577 n158
*578 n159
*579 n160
*580 n161
*581 n162
*582 n163
*583 n164
*584 n165
*585 n166
*586 n167
*587 n168
*588 n169
*589 n170
*590 n171
*591 n172
*592 n173
*593 n174
*594 n175
*595 n176
*596 n177
*597 n178
*598 n179
*599 n180
*600 n181
*601 n182
*602 n183
*603 n184
*604 n185
*605 n186
*606 n187
*607 n188
*608 n189
*609 n190
*610 n191
*611 n192
*612 n193
*613 n194
*614 n195
*615 n196
*616 n197
*617 n198
*618 n199
*619 n200
*620 n201
*621 n202
*622 n203
*623 n204
*624 n205
*625 n206
*626 n207
*627 n208
*628 n209
*629 n210
*630 n211
*631 n212
*632 n213
*633 n214
*634 n215
*635 n216
*636 n217
*637 n218
*638 n219
*639 n220
*640 n221
*641 n222
*642 n223
*643 n224
*644 n225
*645 n226
*646 n227
*647 n228
*648 n229
*649 n230
*650 n231
*651 n232
*652 n233
*653 n234
*654 n235
*655 n236
*656 n237
*657 n238
*658 n239
*659 n240
*660 n241
*661 n242
*662 n243
*663 n244
*664 n245
*665 n246
*666 n247
*667 n248
*668 n249
*669 n250
*670 n251
*671 n252
*672 n253
*673 n254
*674 n255
*675 n256
*676 n257
*677 n258
*678 n259
*679 n260
*680 n261
*681 n262
*682 n263
*683 n264
*684 n265
*685 n266
*686 n267
*687 n268
*688 n269
*689 n270
*690 n271
*691 n272
*692 n273
*693 n274
*694 n275
*695 n276
*696 n277
*697 n278
*698 n279
*699 n280
*700 n281
*701 n282
*702 n283
*703 n284
*704 n285
*705 n286
*706 n287
*707 n288
*708 n289
*709 n290
*710 n291
*711 n292
*712 n293
*713 n294
*714 n295
*715 n296
*716 n297
*717 n298
*718 n299
*719 n300
*720 n301
*721 n302
*722 n303
*723 n304
*724 n305
*725 n306
*726 n307
*727 n308
*728 n309
*729 n310
*730 n311
*731 n312
*732 n313
*733 n314
*734 n315
*735 n316
*736 n317
*737 n318
*738 n319
*739 n320
*740 n321
*741 n322
*742 n323
*743 n324
*744 n325
*745 n326
*746 n327
*747 n328
*748 n329
*749 n330
*750 n331
*751 n332
*752 n333
*753 n334
*754 n335
*755 n336
*756 n337
*757 n338
*758 n339
*759 n340
*760 n341
*761 n342
*762 n343
*763 n344
*764 n345
*765 n346
*766 n347
*767 n348
*768 n349
*769 n350
*770 n351
*771 n352
*772 n353
*773 n354
*774 n355
*775 n356
*776 n357
*777 n358
*778 n359
*779 n360
*780 n361
*781 n362
*782 n363
*783 n364
*784 n365
*785 n366
*786 n367
*787 n368
*788 n369
*789 n370
*790 n371
*791 n372
*792 n373
*793 n374
*794 n375
*795 n376
*796 n377
*797 n378
*798 n379
*799 n380
*800 n381
*801 n382
*802 n383
*803 n384
*804 n385
*805 n386
*806 n387
*807 n388
*808 n389
*809 n390
*810 n391
*811 n392
*812 n393
*813 n394
*814 n395
*815 n396
*816 n397
*817 n398
*818 n399
*819 n40
*820 n400
*821 n401
*822 n402
*823 n403
*824 n404
*825 n405
*826 n406
*827 n407
*828 n408
*829 n409
*830 n41
*831 n410
*832 n411
*833 n412
*834 n413
*835 n414
*836 n415
*837 n416
*838 n417
*839 n418
*840 n419
*841 n42
*842 n420
*843 n421
*844 n422
*845 n423
*846 n424
*847 n425
*848 n426
*849 n427
*850 n428
*851 n429
*852 n43
*853 n430
*854 n431
*855 n432
*856 n433
*857 n434
*858 n435
*859 n436
*860 n437
*861 n438
*862 n439
*863 n44
*864 n440
*865 n441
*866 n442
*867 n443
*868 n444
*869 n445
*870 n446
*871 n447
*872 n448
*873 n449
*874 n45
*875 n450
*876 n451
*877 n452
*878 n453
*879 n454
*880 n455
*881 n456
*882 n457
*883 n458
*884 n459
*885 n46
*886 n460
*887 n461
*888 n462
*889 n463
*890 n464
*891 n465
*892 n466
*893 n467
*894 n468
*895 n469
*896 n47
*897 n470
*898 n471
*899 n472
*900 n473
*901 n474
*902 n475
*903 n476
*904 n477
*905 n478
*906 n479
*907 n48
*908 n480
*909 n481
*910 n482
*911 n483
*912 n484
*913 n485
*914 n486
*915 n487
*916 n488
*917 n489
*918 n49
*919 n490
*920 n491
*921 n492
*922 n493
*923 n494
*924 n495
*925 n496
*926 n497
*927 n498
*928 n499
*929 n50
*930 n500
*931 n501
*932 n502
*933 n503
*934 n504
*935 n505
*936 n506
*937 n507
*938 n508
*939 n509
*940 n51
*941 n510
*942 n511
*943 n512
*944 n513
*945 n514
*946 n515
*947 n516
*948 n517
*949 n518
*950 n519
*951 n52
*952 n520
*953 n521
*954 n522
*955 n523
*956 n524
*957 n525
*958 n526
*959 n527
*960 n528
*961 n529
*962 n53
*963 n530
*964 n531
*965 n532
*966 n533
*967 n534
*968 n535
*969 n536
*970 n537
*971 n538
*972 n539
*973 n54
*974 n540
*975 n541
*976 n542
*977 n543
*978 n544
*979 n545
*980 n546
*981 n547
*982 n548
*983 n549
*984 n55
*985 n550
*986 n551
*987 n552
*988 n553
*989 n554
*990 n555
*991 n556
*992 n557
*993 n558
*994 n559
*995 n56
*996 n560
*997 n561
*998 n562
*999 n563
*1000 n564
*1001 n565
*1002 n566
*1003 n567
*1004 n568
*1005 n569
*1006 n57
*1007 n570
*1008 n571
*1009 n572
*1010 n573
*1011 n574
*1012 n575
*1013 n576
*1014 n577
*1015 n578
*1016 n579
*1017 n58
*1018 n580
*1019 n581
*1020 n582
*1021 n583
*1022 n584
*1023 n585
*1024 n586
*1025 n587
*1026 n588
*1027 n589
*1028 n59
*1029 n590
*1030 n591
*1031 n592
*1032 n593
*1033 n594
*1034 n595
*1035 n596
*1036 n597
*1037 n598
*1038 n599
*1039 n60
*1040 n600
*1041 n601
*1042 n602
*1043 n603
*1044 n604
*1045 n605
*1046 n606
*1047 n607
*1048 n608
*1049 n609
*1050 n61
*1051 n610
*1052 n611
*1053 n612
*1054 n613
*1055 n614
*1056 n615
*1057 n616
*1058 n617
*1059 n618
*1060 n619
*1061 n62
*1062 n620
*1063 n621
*1064 n622
*1065 n623
*1066 n624
*1067 n625
*1068 n626
*1069 n627
*1070 n628
*1071 n629
*1072 n63
*1073 n630
*1074 n631
*1075 n632
*1076 n633
*1077 n634
*1078 n635
*1079 n636
*1080 n637
*1081 n638
*1082 n639
*1083 n64
*1084 n640
*1085 n641
*1086 n642
*1087 n643
*1088 n644
*1089 n645
*1090 n646
*1091 n647
*1092 n648
*1093 n649
*1094 n65
*1095 n650
*1096 n651
*1097 n652
*1098 n653
*1099 n654
*1100 n655
*1101 n656
*1102 n657
*1103 n658
*1104 n659
*1105 n66
*1106 n660
*1107 n661
*1108 n662
*1109 n663
*1110 n664
*1111 n665
*1112 n666
*1113 n667
*1114 n668
*1115 n669
*1116 n67
*1117 n670
*1118 n671
*1119 n672
*1120 n673
*1121 n674
*1122 n675
*1123 n676
*1124 n677
*1125 n678
*1126 n679
*1127 n68
*1128 n680
*1129 n681
*1130 n682
*1131 n683
*1132 n684
*1133 n685
*1134 n686
*1135 n687
*1136 n688
*1137 n689
*1138 n69
*1139 n690
*1140 n691
*1141 n692
*1142 n693
*1143 n694
*1144 n695
*1145 n696
*1146 n697
*1147 n698
*1148 n699
*1149 n70
*1150 n700
*1151 n701
*1152 n702
*1153 n703
*1154 n704
*1155 n705
*1156 n706
*1157 n707
*1158 n708
*1159 n709
*1160 n71
*1161 n710
*1162 n711
*1163 n712
*1164 n713
*1165 n714
*1166 n715
*1167 n716
*1168 n717
*1169 n718
*1170 n719
*1171 n72
*1172 n720
*1173 n721
*1174 n722
*1175 n723
*1176 n724
*1177 n725
*1178 n726
*1179 n727
*1180 n728
*1181 n729
*1182 n73
*1183 n730
*1184 n731
*1185 n732
*1186 n733
*1187 n734
*1188 n735
*1189 n736
*1190 n737
*1191 n738
*1192 n739
*1193 n74
*1194 n740
*1195 n741
*1196 n742
*1197 n743
*1198 n744
*1199 n745
*1200 n746
*1201 n747
*1202 n748
*1203 n749
*1204 n75
*1205 n750
*1206 n751
*1207 n752
*1208 n753
*1209 n754
*1210 n755
*1211 n756
*1212 n757
*1213 n758
*1214 n759
*1215 n76
*1216 n760
*1217 n761
*1218 n762
*1219 n763
*1220 n764
*1221 n765
*1222 n766
*1223 n767
*1224 n768
*1225 n769
*1226 n77
*1227 n770
*1228 n771
*1229 n772
*1230 n773
*1231 n774
*1232 n775
*1233 n776
*1234 n777
*1235 n778
*1236 n779
*1237 n78
*1238 n780
*1239 n781
*1240 n782
*1241 n783
*1242 n784
*1243 n785
*1244 n786
*1245 n787
*1246 n788
*1247 n789
*1248 n79
*1249 n790
*1250 n791
*1251 n792
*1252 n793
*1253 n794
*1254 n795
*1255 n796
*1256 n797
*1257 n798
*1258 n799
*1259 n80
*1260 n800
*1261 n801
*1262 n802
*1263 n803
*1264 n804
*1265 n805
*1266 n806
*1267 n807
*1268 n808
*1269 n809
*1270 n81
*1271 n810
*1272 n811
*1273 n812
*1274 n813
*1275 n814
*1276 n815
*1277 n816
*1278 n817
*1279 n818
*1280 n819
*1281 n82
*1282 n820
*1283 n821
*1284 n822
*1285 n823
*1286 n824
*1287 n825
*1288 n826
*1289 n827
*1290 n828
*1291 n829
*1292 n83
*1293 n830
*1294 n831
*1295 n832
*1296 n833
*1297 n834
*1298 n835
*1299 n836
*1300 n837
*1301 n838
*1302 n839
*1303 n84
*1304 n840
*1305 n841
*1306 n842
*1307 n843
*1308 n844
*1309 n845
*1310 n846
*1311 n847
*1312 n848
*1313 n849
*1314 n85
*1315 n850
*1316 n851
*1317 n852
*1318 n853
*1319 n854
*1320 n855
*1321 n856
*1322 n857
*1323 n858
*1324 n859
*1325 n86
*1326 n860
*1327 n861
*1328 n862
*1329 n863
*1330 n864
*1331 n865
*1332 n866
*1333 n867
*1334 n868
*1335 n869
*1336 n87
*1337 n870
*1338 n871
*1339 n872
*1340 n873
*1341 n874
*1342 n875
*1343 n876
*1344 n877
*1345 n878
*1346 n879
*1347 n88
*1348 n880
*1349 n881
*1350 n882
*1351 n883
*1352 n884
*1353 n885
*1354 n886
*1355 n887
*1356 n888
*1357 n889
*1358 n89
*1359 n890
*1360 n891
*1361 n892
*1362 n893
*1363 n894
*1364 n895
*1365 n896
*1366 n897
*1367 n898
*1368 n899
*1369 n90
*1370 n900
*1371 n901
*1372 n902
*1373 n903
*1374 n904
*1375 n905
*1376 n906
*1377 n907
*1378 n908
*1379 n909
*1380 n91
*1381 n910
*1382 n911
*1383 n912
*1384 n913
*1385 n914
*1386 n915
*1387 n916
*1388 n917
*1389 n918
*1390 n919
*1391 n92
*1392 n920
*1393 n921
*1394 n922
*1395 n923
*1396 n924
*1397 n925
*1398 n926
*1399 n927
*1400 n928
*1401 n929
*1402 n93
*1403 n930
*1404 n931
*1405 n932
*1406 n933
*1407 n934
*1408 n935
*1409 n936
*1410 n937
*1411 n938
*1412 n939
*1413 n94
*1414 n940
*1415 n941
*1416 n942
*1417 n943
*1418 n944
*1419 n945
*1420 n946
*1421 n947
*1422 n948
*1423 n949
*1424 n95
*1425 n950
*1426 n951
*1427 n952
*1428 n953
*1429 n954
*1430 n955
*1431 n956
*1432 n957
*1433 n958
*1434 n959
*1435 n96
*1436 n960
*1437 n961
*1438 n962
*1439 n963
*1440 n964
*1441 n965
*1442 n966
*1443 n967
*1444 n968
*1445 n969
*1446 n97
*1447 n970
*1448 n971
*1449 n972
*1450 n973
*1451 n974
*1452 n975
*1453 n976
*1454 n977
*1455 n978
*1456 n979
*1457 n98
*1458 n980
*1459 n981
*1460 n982
*1461 n983
*1462 n984
*1463 n985
*1464 n986
*1465 n987
*1466 n988
*1467 n989
*1468 n99
*1469 n990
*1470 n991
*1471 n992
*1472 n993
*1473 n994
*1474 n995
*1475 n996
*1476 n997
*1477 n998
*1478 n999
*1479 PHY_EDGE_ROW_0_Left_57
*1480 PHY_EDGE_ROW_0_Right_0
*1481 PHY_EDGE_ROW_10_Left_67
*1482 PHY_EDGE_ROW_10_Right_10
*1483 PHY_EDGE_ROW_11_Left_68
*1484 PHY_EDGE_ROW_11_Right_11
*1485 PHY_EDGE_ROW_12_Left_69
*1486 PHY_EDGE_ROW_12_Right_12
*1487 PHY_EDGE_ROW_13_Left_70
*1488 PHY_EDGE_ROW_13_Right_13
*1489 PHY_EDGE_ROW_14_Left_71
*1490 PHY_EDGE_ROW_14_Right_14
*1491 PHY_EDGE_ROW_15_Left_72
*1492 PHY_EDGE_ROW_15_Right_15
*1493 PHY_EDGE_ROW_16_Left_73
*1494 PHY_EDGE_ROW_16_Right_16
*1495 PHY_EDGE_ROW_17_Left_74
*1496 PHY_EDGE_ROW_17_Right_17
*1497 PHY_EDGE_ROW_18_Left_75
*1498 PHY_EDGE_ROW_18_Right_18
*1499 PHY_EDGE_ROW_19_Left_76
*1500 PHY_EDGE_ROW_19_Right_19
*1501 PHY_EDGE_ROW_1_Left_58
*1502 PHY_EDGE_ROW_1_Right_1
*1503 PHY_EDGE_ROW_20_Left_77
*1504 PHY_EDGE_ROW_20_Right_20
*1505 PHY_EDGE_ROW_21_Left_78
*1506 PHY_EDGE_ROW_21_Right_21
*1507 PHY_EDGE_ROW_22_Left_79
*1508 PHY_EDGE_ROW_22_Right_22
*1509 PHY_EDGE_ROW_23_Left_80
*1510 PHY_EDGE_ROW_23_Right_23
*1511 PHY_EDGE_ROW_24_Left_81
*1512 PHY_EDGE_ROW_24_Right_24
*1513 PHY_EDGE_ROW_25_Left_82
*1514 PHY_EDGE_ROW_25_Right_25
*1515 PHY_EDGE_ROW_26_Left_83
*1516 PHY_EDGE_ROW_26_Right_26
*1517 PHY_EDGE_ROW_27_Left_84
*1518 PHY_EDGE_ROW_27_Right_27
*1519 PHY_EDGE_ROW_28_Left_85
*1520 PHY_EDGE_ROW_28_Right_28
*1521 PHY_EDGE_ROW_29_Left_86
*1522 PHY_EDGE_ROW_29_Right_29
*1523 PHY_EDGE_ROW_2_Left_59
*1524 PHY_EDGE_ROW_2_Right_2
*1525 PHY_EDGE_ROW_30_Left_87
*1526 PHY_EDGE_ROW_30_Right_30
*1527 PHY_EDGE_ROW_31_Left_88
*1528 PHY_EDGE_ROW_31_Right_31
*1529 PHY_EDGE_ROW_32_Left_89
*1530 PHY_EDGE_ROW_32_Right_32
*1531 PHY_EDGE_ROW_33_Left_90
*1532 PHY_EDGE_ROW_33_Right_33
*1533 PHY_EDGE_ROW_34_Left_91
*1534 PHY_EDGE_ROW_34_Right_34
*1535 PHY_EDGE_ROW_35_Left_92
*1536 PHY_EDGE_ROW_35_Right_35
*1537 PHY_EDGE_ROW_36_Left_93
*1538 PHY_EDGE_ROW_36_Right_36
*1539 PHY_EDGE_ROW_37_Left_94
*1540 PHY_EDGE_ROW_37_Right_37
*1541 PHY_EDGE_ROW_38_Left_95
*1542 PHY_EDGE_ROW_38_Right_38
*1543 PHY_EDGE_ROW_39_Left_96
*1544 PHY_EDGE_ROW_39_Right_39
*1545 PHY_EDGE_ROW_3_Left_60
*1546 PHY_EDGE_ROW_3_Right_3
*1547 PHY_EDGE_ROW_40_Left_97
*1548 PHY_EDGE_ROW_40_Right_40
*1549 PHY_EDGE_ROW_41_Left_98
*1550 PHY_EDGE_ROW_41_Right_41
*1551 PHY_EDGE_ROW_42_Left_99
*1552 PHY_EDGE_ROW_42_Right_42
*1553 PHY_EDGE_ROW_43_Left_100
*1554 PHY_EDGE_ROW_43_Right_43
*1555 PHY_EDGE_ROW_44_Left_101
*1556 PHY_EDGE_ROW_44_Right_44
*1557 PHY_EDGE_ROW_45_Left_102
*1558 PHY_EDGE_ROW_45_Right_45
*1559 PHY_EDGE_ROW_46_Left_103
*1560 PHY_EDGE_ROW_46_Right_46
*1561 PHY_EDGE_ROW_47_Left_104
*1562 PHY_EDGE_ROW_47_Right_47
*1563 PHY_EDGE_ROW_48_Left_105
*1564 PHY_EDGE_ROW_48_Right_48
*1565 PHY_EDGE_ROW_49_Left_106
*1566 PHY_EDGE_ROW_49_Right_49
*1567 PHY_EDGE_ROW_4_Left_61
*1568 PHY_EDGE_ROW_4_Right_4
*1569 PHY_EDGE_ROW_50_Left_107
*1570 PHY_EDGE_ROW_50_Right_50
*1571 PHY_EDGE_ROW_51_Left_108
*1572 PHY_EDGE_ROW_51_Right_51
*1573 PHY_EDGE_ROW_52_Left_109
*1574 PHY_EDGE_ROW_52_Right_52
*1575 PHY_EDGE_ROW_53_Left_110
*1576 PHY_EDGE_ROW_53_Right_53
*1577 PHY_EDGE_ROW_54_Left_111
*1578 PHY_EDGE_ROW_54_Right_54
*1579 PHY_EDGE_ROW_55_Left_112
*1580 PHY_EDGE_ROW_55_Right_55
*1581 PHY_EDGE_ROW_56_Left_113
*1582 PHY_EDGE_ROW_56_Right_56
*1583 PHY_EDGE_ROW_5_Left_62
*1584 PHY_EDGE_ROW_5_Right_5
*1585 PHY_EDGE_ROW_6_Left_63
*1586 PHY_EDGE_ROW_6_Right_6
*1587 PHY_EDGE_ROW_7_Left_64
*1588 PHY_EDGE_ROW_7_Right_7
*1589 PHY_EDGE_ROW_8_Left_65
*1590 PHY_EDGE_ROW_8_Right_8
*1591 PHY_EDGE_ROW_9_Left_66
*1592 PHY_EDGE_ROW_9_Right_9
*1593 TAP_TAPCELL_ROW_0_114
*1594 TAP_TAPCELL_ROW_0_115
*1595 TAP_TAPCELL_ROW_0_116
*1596 TAP_TAPCELL_ROW_0_117
*1597 TAP_TAPCELL_ROW_0_118
*1598 TAP_TAPCELL_ROW_0_119
*1599 TAP_TAPCELL_ROW_0_120
*1600 TAP_TAPCELL_ROW_0_121
*1601 TAP_TAPCELL_ROW_0_122
*1602 TAP_TAPCELL_ROW_0_123
*1603 TAP_TAPCELL_ROW_0_124
*1604 TAP_TAPCELL_ROW_0_125
*1605 TAP_TAPCELL_ROW_10_180
*1606 TAP_TAPCELL_ROW_10_181
*1607 TAP_TAPCELL_ROW_10_182
*1608 TAP_TAPCELL_ROW_10_183
*1609 TAP_TAPCELL_ROW_10_184
*1610 TAP_TAPCELL_ROW_10_185
*1611 TAP_TAPCELL_ROW_11_186
*1612 TAP_TAPCELL_ROW_11_187
*1613 TAP_TAPCELL_ROW_11_188
*1614 TAP_TAPCELL_ROW_11_189
*1615 TAP_TAPCELL_ROW_11_190
*1616 TAP_TAPCELL_ROW_11_191
*1617 TAP_TAPCELL_ROW_12_192
*1618 TAP_TAPCELL_ROW_12_193
*1619 TAP_TAPCELL_ROW_12_194
*1620 TAP_TAPCELL_ROW_12_195
*1621 TAP_TAPCELL_ROW_12_196
*1622 TAP_TAPCELL_ROW_12_197
*1623 TAP_TAPCELL_ROW_13_198
*1624 TAP_TAPCELL_ROW_13_199
*1625 TAP_TAPCELL_ROW_13_200
*1626 TAP_TAPCELL_ROW_13_201
*1627 TAP_TAPCELL_ROW_13_202
*1628 TAP_TAPCELL_ROW_13_203
*1629 TAP_TAPCELL_ROW_14_204
*1630 TAP_TAPCELL_ROW_14_205
*1631 TAP_TAPCELL_ROW_14_206
*1632 TAP_TAPCELL_ROW_14_207
*1633 TAP_TAPCELL_ROW_14_208
*1634 TAP_TAPCELL_ROW_14_209
*1635 TAP_TAPCELL_ROW_15_210
*1636 TAP_TAPCELL_ROW_15_211
*1637 TAP_TAPCELL_ROW_15_212
*1638 TAP_TAPCELL_ROW_15_213
*1639 TAP_TAPCELL_ROW_15_214
*1640 TAP_TAPCELL_ROW_15_215
*1641 TAP_TAPCELL_ROW_16_216
*1642 TAP_TAPCELL_ROW_16_217
*1643 TAP_TAPCELL_ROW_16_218
*1644 TAP_TAPCELL_ROW_16_219
*1645 TAP_TAPCELL_ROW_16_220
*1646 TAP_TAPCELL_ROW_16_221
*1647 TAP_TAPCELL_ROW_17_222
*1648 TAP_TAPCELL_ROW_17_223
*1649 TAP_TAPCELL_ROW_17_224
*1650 TAP_TAPCELL_ROW_17_225
*1651 TAP_TAPCELL_ROW_17_226
*1652 TAP_TAPCELL_ROW_17_227
*1653 TAP_TAPCELL_ROW_18_228
*1654 TAP_TAPCELL_ROW_18_229
*1655 TAP_TAPCELL_ROW_18_230
*1656 TAP_TAPCELL_ROW_18_231
*1657 TAP_TAPCELL_ROW_18_232
*1658 TAP_TAPCELL_ROW_18_233
*1659 TAP_TAPCELL_ROW_19_234
*1660 TAP_TAPCELL_ROW_19_235
*1661 TAP_TAPCELL_ROW_19_236
*1662 TAP_TAPCELL_ROW_19_237
*1663 TAP_TAPCELL_ROW_19_238
*1664 TAP_TAPCELL_ROW_19_239
*1665 TAP_TAPCELL_ROW_1_126
*1666 TAP_TAPCELL_ROW_1_127
*1667 TAP_TAPCELL_ROW_1_128
*1668 TAP_TAPCELL_ROW_1_129
*1669 TAP_TAPCELL_ROW_1_130
*1670 TAP_TAPCELL_ROW_1_131
*1671 TAP_TAPCELL_ROW_20_240
*1672 TAP_TAPCELL_ROW_20_241
*1673 TAP_TAPCELL_ROW_20_242
*1674 TAP_TAPCELL_ROW_20_243
*1675 TAP_TAPCELL_ROW_20_244
*1676 TAP_TAPCELL_ROW_20_245
*1677 TAP_TAPCELL_ROW_21_246
*1678 TAP_TAPCELL_ROW_21_247
*1679 TAP_TAPCELL_ROW_21_248
*1680 TAP_TAPCELL_ROW_21_249
*1681 TAP_TAPCELL_ROW_21_250
*1682 TAP_TAPCELL_ROW_21_251
*1683 TAP_TAPCELL_ROW_22_252
*1684 TAP_TAPCELL_ROW_22_253
*1685 TAP_TAPCELL_ROW_22_254
*1686 TAP_TAPCELL_ROW_22_255
*1687 TAP_TAPCELL_ROW_22_256
*1688 TAP_TAPCELL_ROW_22_257
*1689 TAP_TAPCELL_ROW_23_258
*1690 TAP_TAPCELL_ROW_23_259
*1691 TAP_TAPCELL_ROW_23_260
*1692 TAP_TAPCELL_ROW_23_261
*1693 TAP_TAPCELL_ROW_23_262
*1694 TAP_TAPCELL_ROW_23_263
*1695 TAP_TAPCELL_ROW_24_264
*1696 TAP_TAPCELL_ROW_24_265
*1697 TAP_TAPCELL_ROW_24_266
*1698 TAP_TAPCELL_ROW_24_267
*1699 TAP_TAPCELL_ROW_24_268
*1700 TAP_TAPCELL_ROW_24_269
*1701 TAP_TAPCELL_ROW_25_270
*1702 TAP_TAPCELL_ROW_25_271
*1703 TAP_TAPCELL_ROW_25_272
*1704 TAP_TAPCELL_ROW_25_273
*1705 TAP_TAPCELL_ROW_25_274
*1706 TAP_TAPCELL_ROW_25_275
*1707 TAP_TAPCELL_ROW_26_276
*1708 TAP_TAPCELL_ROW_26_277
*1709 TAP_TAPCELL_ROW_26_278
*1710 TAP_TAPCELL_ROW_26_279
*1711 TAP_TAPCELL_ROW_26_280
*1712 TAP_TAPCELL_ROW_26_281
*1713 TAP_TAPCELL_ROW_27_282
*1714 TAP_TAPCELL_ROW_27_283
*1715 TAP_TAPCELL_ROW_27_284
*1716 TAP_TAPCELL_ROW_27_285
*1717 TAP_TAPCELL_ROW_27_286
*1718 TAP_TAPCELL_ROW_27_287
*1719 TAP_TAPCELL_ROW_28_288
*1720 TAP_TAPCELL_ROW_28_289
*1721 TAP_TAPCELL_ROW_28_290
*1722 TAP_TAPCELL_ROW_28_291
*1723 TAP_TAPCELL_ROW_28_292
*1724 TAP_TAPCELL_ROW_28_293
*1725 TAP_TAPCELL_ROW_29_294
*1726 TAP_TAPCELL_ROW_29_295
*1727 TAP_TAPCELL_ROW_29_296
*1728 TAP_TAPCELL_ROW_29_297
*1729 TAP_TAPCELL_ROW_29_298
*1730 TAP_TAPCELL_ROW_29_299
*1731 TAP_TAPCELL_ROW_2_132
*1732 TAP_TAPCELL_ROW_2_133
*1733 TAP_TAPCELL_ROW_2_134
*1734 TAP_TAPCELL_ROW_2_135
*1735 TAP_TAPCELL_ROW_2_136
*1736 TAP_TAPCELL_ROW_2_137
*1737 TAP_TAPCELL_ROW_30_300
*1738 TAP_TAPCELL_ROW_30_301
*1739 TAP_TAPCELL_ROW_30_302
*1740 TAP_TAPCELL_ROW_30_303
*1741 TAP_TAPCELL_ROW_30_304
*1742 TAP_TAPCELL_ROW_30_305
*1743 TAP_TAPCELL_ROW_31_306
*1744 TAP_TAPCELL_ROW_31_307
*1745 TAP_TAPCELL_ROW_31_308
*1746 TAP_TAPCELL_ROW_31_309
*1747 TAP_TAPCELL_ROW_31_310
*1748 TAP_TAPCELL_ROW_31_311
*1749 TAP_TAPCELL_ROW_32_312
*1750 TAP_TAPCELL_ROW_32_313
*1751 TAP_TAPCELL_ROW_32_314
*1752 TAP_TAPCELL_ROW_32_315
*1753 TAP_TAPCELL_ROW_32_316
*1754 TAP_TAPCELL_ROW_32_317
*1755 TAP_TAPCELL_ROW_33_318
*1756 TAP_TAPCELL_ROW_33_319
*1757 TAP_TAPCELL_ROW_33_320
*1758 TAP_TAPCELL_ROW_33_321
*1759 TAP_TAPCELL_ROW_33_322
*1760 TAP_TAPCELL_ROW_33_323
*1761 TAP_TAPCELL_ROW_34_324
*1762 TAP_TAPCELL_ROW_34_325
*1763 TAP_TAPCELL_ROW_34_326
*1764 TAP_TAPCELL_ROW_34_327
*1765 TAP_TAPCELL_ROW_34_328
*1766 TAP_TAPCELL_ROW_34_329
*1767 TAP_TAPCELL_ROW_35_330
*1768 TAP_TAPCELL_ROW_35_331
*1769 TAP_TAPCELL_ROW_35_332
*1770 TAP_TAPCELL_ROW_35_333
*1771 TAP_TAPCELL_ROW_35_334
*1772 TAP_TAPCELL_ROW_35_335
*1773 TAP_TAPCELL_ROW_36_336
*1774 TAP_TAPCELL_ROW_36_337
*1775 TAP_TAPCELL_ROW_36_338
*1776 TAP_TAPCELL_ROW_36_339
*1777 TAP_TAPCELL_ROW_36_340
*1778 TAP_TAPCELL_ROW_36_341
*1779 TAP_TAPCELL_ROW_37_342
*1780 TAP_TAPCELL_ROW_37_343
*1781 TAP_TAPCELL_ROW_37_344
*1782 TAP_TAPCELL_ROW_37_345
*1783 TAP_TAPCELL_ROW_37_346
*1784 TAP_TAPCELL_ROW_37_347
*1785 TAP_TAPCELL_ROW_38_348
*1786 TAP_TAPCELL_ROW_38_349
*1787 TAP_TAPCELL_ROW_38_350
*1788 TAP_TAPCELL_ROW_38_351
*1789 TAP_TAPCELL_ROW_38_352
*1790 TAP_TAPCELL_ROW_38_353
*1791 TAP_TAPCELL_ROW_39_354
*1792 TAP_TAPCELL_ROW_39_355
*1793 TAP_TAPCELL_ROW_39_356
*1794 TAP_TAPCELL_ROW_39_357
*1795 TAP_TAPCELL_ROW_39_358
*1796 TAP_TAPCELL_ROW_39_359
*1797 TAP_TAPCELL_ROW_3_138
*1798 TAP_TAPCELL_ROW_3_139
*1799 TAP_TAPCELL_ROW_3_140
*1800 TAP_TAPCELL_ROW_3_141
*1801 TAP_TAPCELL_ROW_3_142
*1802 TAP_TAPCELL_ROW_3_143
*1803 TAP_TAPCELL_ROW_40_360
*1804 TAP_TAPCELL_ROW_40_361
*1805 TAP_TAPCELL_ROW_40_362
*1806 TAP_TAPCELL_ROW_40_363
*1807 TAP_TAPCELL_ROW_40_364
*1808 TAP_TAPCELL_ROW_40_365
*1809 TAP_TAPCELL_ROW_41_366
*1810 TAP_TAPCELL_ROW_41_367
*1811 TAP_TAPCELL_ROW_41_368
*1812 TAP_TAPCELL_ROW_41_369
*1813 TAP_TAPCELL_ROW_41_370
*1814 TAP_TAPCELL_ROW_41_371
*1815 TAP_TAPCELL_ROW_42_372
*1816 TAP_TAPCELL_ROW_42_373
*1817 TAP_TAPCELL_ROW_42_374
*1818 TAP_TAPCELL_ROW_42_375
*1819 TAP_TAPCELL_ROW_42_376
*1820 TAP_TAPCELL_ROW_42_377
*1821 TAP_TAPCELL_ROW_43_378
*1822 TAP_TAPCELL_ROW_43_379
*1823 TAP_TAPCELL_ROW_43_380
*1824 TAP_TAPCELL_ROW_43_381
*1825 TAP_TAPCELL_ROW_43_382
*1826 TAP_TAPCELL_ROW_43_383
*1827 TAP_TAPCELL_ROW_44_384
*1828 TAP_TAPCELL_ROW_44_385
*1829 TAP_TAPCELL_ROW_44_386
*1830 TAP_TAPCELL_ROW_44_387
*1831 TAP_TAPCELL_ROW_44_388
*1832 TAP_TAPCELL_ROW_44_389
*1833 TAP_TAPCELL_ROW_45_390
*1834 TAP_TAPCELL_ROW_45_391
*1835 TAP_TAPCELL_ROW_45_392
*1836 TAP_TAPCELL_ROW_45_393
*1837 TAP_TAPCELL_ROW_45_394
*1838 TAP_TAPCELL_ROW_45_395
*1839 TAP_TAPCELL_ROW_46_396
*1840 TAP_TAPCELL_ROW_46_397
*1841 TAP_TAPCELL_ROW_46_398
*1842 TAP_TAPCELL_ROW_46_399
*1843 TAP_TAPCELL_ROW_46_400
*1844 TAP_TAPCELL_ROW_46_401
*1845 TAP_TAPCELL_ROW_47_402
*1846 TAP_TAPCELL_ROW_47_403
*1847 TAP_TAPCELL_ROW_47_404
*1848 TAP_TAPCELL_ROW_47_405
*1849 TAP_TAPCELL_ROW_47_406
*1850 TAP_TAPCELL_ROW_47_407
*1851 TAP_TAPCELL_ROW_48_408
*1852 TAP_TAPCELL_ROW_48_409
*1853 TAP_TAPCELL_ROW_48_410
*1854 TAP_TAPCELL_ROW_48_411
*1855 TAP_TAPCELL_ROW_48_412
*1856 TAP_TAPCELL_ROW_48_413
*1857 TAP_TAPCELL_ROW_49_414
*1858 TAP_TAPCELL_ROW_49_415
*1859 TAP_TAPCELL_ROW_49_416
*1860 TAP_TAPCELL_ROW_49_417
*1861 TAP_TAPCELL_ROW_49_418
*1862 TAP_TAPCELL_ROW_49_419
*1863 TAP_TAPCELL_ROW_4_144
*1864 TAP_TAPCELL_ROW_4_145
*1865 TAP_TAPCELL_ROW_4_146
*1866 TAP_TAPCELL_ROW_4_147
*1867 TAP_TAPCELL_ROW_4_148
*1868 TAP_TAPCELL_ROW_4_149
*1869 TAP_TAPCELL_ROW_50_420
*1870 TAP_TAPCELL_ROW_50_421
*1871 TAP_TAPCELL_ROW_50_422
*1872 TAP_TAPCELL_ROW_50_423
*1873 TAP_TAPCELL_ROW_50_424
*1874 TAP_TAPCELL_ROW_50_425
*1875 TAP_TAPCELL_ROW_51_426
*1876 TAP_TAPCELL_ROW_51_427
*1877 TAP_TAPCELL_ROW_51_428
*1878 TAP_TAPCELL_ROW_51_429
*1879 TAP_TAPCELL_ROW_51_430
*1880 TAP_TAPCELL_ROW_51_431
*1881 TAP_TAPCELL_ROW_52_432
*1882 TAP_TAPCELL_ROW_52_433
*1883 TAP_TAPCELL_ROW_52_434
*1884 TAP_TAPCELL_ROW_52_435
*1885 TAP_TAPCELL_ROW_52_436
*1886 TAP_TAPCELL_ROW_52_437
*1887 TAP_TAPCELL_ROW_53_438
*1888 TAP_TAPCELL_ROW_53_439
*1889 TAP_TAPCELL_ROW_53_440
*1890 TAP_TAPCELL_ROW_53_441
*1891 TAP_TAPCELL_ROW_53_442
*1892 TAP_TAPCELL_ROW_53_443
*1893 TAP_TAPCELL_ROW_54_444
*1894 TAP_TAPCELL_ROW_54_445
*1895 TAP_TAPCELL_ROW_54_446
*1896 TAP_TAPCELL_ROW_54_447
*1897 TAP_TAPCELL_ROW_54_448
*1898 TAP_TAPCELL_ROW_54_449
*1899 TAP_TAPCELL_ROW_55_450
*1900 TAP_TAPCELL_ROW_55_451
*1901 TAP_TAPCELL_ROW_55_452
*1902 TAP_TAPCELL_ROW_55_453
*1903 TAP_TAPCELL_ROW_55_454
*1904 TAP_TAPCELL_ROW_55_455
*1905 TAP_TAPCELL_ROW_56_456
*1906 TAP_TAPCELL_ROW_56_457
*1907 TAP_TAPCELL_ROW_56_458
*1908 TAP_TAPCELL_ROW_56_459
*1909 TAP_TAPCELL_ROW_56_460
*1910 TAP_TAPCELL_ROW_56_461
*1911 TAP_TAPCELL_ROW_56_462
*1912 TAP_TAPCELL_ROW_56_463
*1913 TAP_TAPCELL_ROW_56_464
*1914 TAP_TAPCELL_ROW_56_465
*1915 TAP_TAPCELL_ROW_56_466
*1916 TAP_TAPCELL_ROW_56_467
*1917 TAP_TAPCELL_ROW_5_150
*1918 TAP_TAPCELL_ROW_5_151
*1919 TAP_TAPCELL_ROW_5_152
*1920 TAP_TAPCELL_ROW_5_153
*1921 TAP_TAPCELL_ROW_5_154
*1922 TAP_TAPCELL_ROW_5_155
*1923 TAP_TAPCELL_ROW_6_156
*1924 TAP_TAPCELL_ROW_6_157
*1925 TAP_TAPCELL_ROW_6_158
*1926 TAP_TAPCELL_ROW_6_159
*1927 TAP_TAPCELL_ROW_6_160
*1928 TAP_TAPCELL_ROW_6_161
*1929 TAP_TAPCELL_ROW_7_162
*1930 TAP_TAPCELL_ROW_7_163
*1931 TAP_TAPCELL_ROW_7_164
*1932 TAP_TAPCELL_ROW_7_165
*1933 TAP_TAPCELL_ROW_7_166
*1934 TAP_TAPCELL_ROW_7_167
*1935 TAP_TAPCELL_ROW_8_168
*1936 TAP_TAPCELL_ROW_8_169
*1937 TAP_TAPCELL_ROW_8_170
*1938 TAP_TAPCELL_ROW_8_171
*1939 TAP_TAPCELL_ROW_8_172
*1940 TAP_TAPCELL_ROW_8_173
*1941 TAP_TAPCELL_ROW_9_174
*1942 TAP_TAPCELL_ROW_9_175
*1943 TAP_TAPCELL_ROW_9_176
*1944 TAP_TAPCELL_ROW_9_177
*1945 TAP_TAPCELL_ROW_9_178
*1946 TAP_TAPCELL_ROW_9_179
*1947 g0
*1948 g1
*1949 g10
*1950 g100
*1951 g1000
*1952 g1001
*1953 g1002
*1954 g1003
*1955 g1004
*1956 g1005
*1957 g1006
*1958 g1007
*1959 g1008
*1960 g1009
*1961 g101
*1962 g1010
*1963 g1011
*1964 g1012
*1965 g1013
*1966 g1014
*1967 g1015
*1968 g1016
*1969 g1017
*1970 g1018
*1971 g1019
*1972 g102
*1973 g1020
*1974 g1021
*1975 g1022
*1976 g1023
*1977 g1024
*1978 g1025
*1979 g1026
*1980 g1027
*1981 g1028
*1982 g1029
*1983 g103
*1984 g1030
*1985 g1031
*1986 g1032
*1987 g1033
*1988 g1034
*1989 g1035
*1990 g1036
*1991 g1037
*1992 g1038
*1993 g1039
*1994 g104
*1995 g1040
*1996 g1041
*1997 g1042
*1998 g1043
*1999 g1044
*2000 g1045
*2001 g1046
*2002 g1047
*2003 g1048
*2004 g1049
*2005 g105
*2006 g1050
*2007 g1051
*2008 g1052
*2009 g1053
*2010 g1054
*2011 g1055
*2012 g1056
*2013 g1057
*2014 g1058
*2015 g1059
*2016 g106
*2017 g1060
*2018 g1061
*2019 g1062
*2020 g1063
*2021 g1064
*2022 g1065
*2023 g1066
*2024 g1067
*2025 g1068
*2026 g1069
*2027 g107
*2028 g1070
*2029 g1071
*2030 g1072
*2031 g1073
*2032 g1074
*2033 g1075
*2034 g1076
*2035 g1077
*2036 g1078
*2037 g1079
*2038 g108
*2039 g1080
*2040 g1081
*2041 g1082
*2042 g1083
*2043 g1084
*2044 g1085
*2045 g1086
*2046 g1087
*2047 g1088
*2048 g1089
*2049 g109
*2050 g1090
*2051 g1091
*2052 g1092
*2053 g1093
*2054 g1094
*2055 g1095
*2056 g1096
*2057 g1097
*2058 g1098
*2059 g1099
*2060 g11
*2061 g110
*2062 g1100
*2063 g1101
*2064 g1102
*2065 g1103
*2066 g1104
*2067 g1105
*2068 g1106
*2069 g1107
*2070 g1108
*2071 g1109
*2072 g111
*2073 g1110
*2074 g1111
*2075 g1112
*2076 g1113
*2077 g1114
*2078 g1115
*2079 g1116
*2080 g1117
*2081 g1118
*2082 g1119
*2083 g112
*2084 g1120
*2085 g1121
*2086 g1122
*2087 g1123
*2088 g1124
*2089 g1125
*2090 g1126
*2091 g1127
*2092 g1128
*2093 g1129
*2094 g113
*2095 g1130
*2096 g1131
*2097 g1132
*2098 g1133
*2099 g1134
*2100 g1135
*2101 g1136
*2102 g1137
*2103 g1138
*2104 g1139
*2105 g114
*2106 g1140
*2107 g1141
*2108 g1142
*2109 g1143
*2110 g1144
*2111 g1145
*2112 g1146
*2113 g1147
*2114 g1148
*2115 g1149
*2116 g115
*2117 g1150
*2118 g1151
*2119 g1152
*2120 g1153
*2121 g1154
*2122 g1155
*2123 g1156
*2124 g1157
*2125 g1158
*2126 g1159
*2127 g116
*2128 g1160
*2129 g1161
*2130 g1162
*2131 g1163
*2132 g1164
*2133 g1165
*2134 g1166
*2135 g1167
*2136 g1168
*2137 g1169
*2138 g117
*2139 g1170
*2140 g1171
*2141 g1172
*2142 g1173
*2143 g1174
*2144 g1175
*2145 g1176
*2146 g1177
*2147 g1178
*2148 g1179
*2149 g118
*2150 g1180
*2151 g1181
*2152 g1182
*2153 g1183
*2154 g1184
*2155 g1185
*2156 g1186
*2157 g1187
*2158 g1188
*2159 g1189
*2160 g119
*2161 g1190
*2162 g1191
*2163 g1192
*2164 g1193
*2165 g1194
*2166 g1195
*2167 g1196
*2168 g1197
*2169 g1198
*2170 g1199
*2171 g12
*2172 g120
*2173 g1200
*2174 g1201
*2175 g1202
*2176 g1203
*2177 g1204
*2178 g1205
*2179 g1206
*2180 g1207
*2181 g1208
*2182 g1209
*2183 g121
*2184 g1210
*2185 g1211
*2186 g1212
*2187 g1213
*2188 g1214
*2189 g1215
*2190 g1216
*2191 g1217
*2192 g1218
*2193 g1219
*2194 g122
*2195 g1220
*2196 g1221
*2197 g1222
*2198 g1223
*2199 g1224
*2200 g1225
*2201 g1226
*2202 g1227
*2203 g1228
*2204 g1229
*2205 g123
*2206 g1230
*2207 g1231
*2208 g1232
*2209 g1233
*2210 g1234
*2211 g1235
*2212 g1236
*2213 g1237
*2214 g1238
*2215 g1239
*2216 g124
*2217 g1240
*2218 g1241
*2219 g1242
*2220 g1243
*2221 g1244
*2222 g1245
*2223 g1246
*2224 g1247
*2225 g1248
*2226 g1249
*2227 g125
*2228 g1250
*2229 g1251
*2230 g1252
*2231 g1253
*2232 g1254
*2233 g1255
*2234 g1256
*2235 g1257
*2236 g1258
*2237 g1259
*2238 g126
*2239 g1260
*2240 g1261
*2241 g1262
*2242 g1263
*2243 g1264
*2244 g1265
*2245 g1266
*2246 g1267
*2247 g1268
*2248 g1269
*2249 g127
*2250 g1270
*2251 g1271
*2252 g1272
*2253 g1273
*2254 g1274
*2255 g1275
*2256 g1276
*2257 g1277
*2258 g1278
*2259 g1279
*2260 g128
*2261 g1280
*2262 g1281
*2263 g1282
*2264 g1283
*2265 g1284
*2266 g1285
*2267 g1286
*2268 g1287
*2269 g1288
*2270 g1289
*2271 g129
*2272 g1290
*2273 g1291
*2274 g1292
*2275 g1293
*2276 g1294
*2277 g1295
*2278 g1296
*2279 g1297
*2280 g1298
*2281 g1299
*2282 g13
*2283 g130
*2284 g1300
*2285 g1301
*2286 g1302
*2287 g1303
*2288 g1304
*2289 g1305
*2290 g1306
*2291 g1307
*2292 g1308
*2293 g1309
*2294 g131
*2295 g1310
*2296 g1311
*2297 g1312
*2298 g1313
*2299 g1314
*2300 g1315
*2301 g1316
*2302 g1317
*2303 g1318
*2304 g1319
*2305 g132
*2306 g1320
*2307 g1321
*2308 g1322
*2309 g1323
*2310 g1324
*2311 g1325
*2312 g1326
*2313 g1327
*2314 g1328
*2315 g1329
*2316 g133
*2317 g1330
*2318 g1331
*2319 g1332
*2320 g1333
*2321 g1334
*2322 g1335
*2323 g1336
*2324 g1337
*2325 g1338
*2326 g1339
*2327 g134
*2328 g1340
*2329 g1341
*2330 g1342
*2331 g1343
*2332 g1344
*2333 g1345
*2334 g1346
*2335 g1347
*2336 g1348
*2337 g1349
*2338 g135
*2339 g1350
*2340 g1351
*2341 g1352
*2342 g1353
*2343 g1354
*2344 g1355
*2345 g1356
*2346 g1357
*2347 g1358
*2348 g1359
*2349 g136
*2350 g1360
*2351 g1361
*2352 g1362
*2353 g1363
*2354 g1364
*2355 g1365
*2356 g1366
*2357 g1367
*2358 g1368
*2359 g1369
*2360 g137
*2361 g1370
*2362 g1371
*2363 g1372
*2364 g1373
*2365 g1374
*2366 g1375
*2367 g1376
*2368 g1377
*2369 g1378
*2370 g1379
*2371 g138
*2372 g1380
*2373 g1381
*2374 g1382
*2375 g1383
*2376 g1384
*2377 g1385
*2378 g1386
*2379 g1387
*2380 g1388
*2381 g1389
*2382 g139
*2383 g1390
*2384 g1391
*2385 g1392
*2386 g1393
*2387 g1394
*2388 g1395
*2389 g1396
*2390 g1397
*2391 g1398
*2392 g1399
*2393 g14
*2394 g140
*2395 g1400
*2396 g1401
*2397 g1402
*2398 g1403
*2399 g1404
*2400 g1405
*2401 g1406
*2402 g1407
*2403 g1408
*2404 g1409
*2405 g141
*2406 g1410
*2407 g1411
*2408 g1412
*2409 g1413
*2410 g1414
*2411 g1415
*2412 g1416
*2413 g1417
*2414 g1418
*2415 g1419
*2416 g142
*2417 g1420
*2418 g1421
*2419 g1422
*2420 g1423
*2421 g1424
*2422 g1425
*2423 g1426
*2424 g1427
*2425 g1428
*2426 g1429
*2427 g143
*2428 g1430
*2429 g1431
*2430 g144
*2431 g145
*2432 g146
*2433 g147
*2434 g148
*2435 g149
*2436 g15
*2437 g150
*2438 g151
*2439 g152
*2440 g153
*2441 g154
*2442 g155
*2443 g156
*2444 g157
*2445 g158
*2446 g159
*2447 g16
*2448 g160
*2449 g161
*2450 g162
*2451 g163
*2452 g164
*2453 g165
*2454 g166
*2455 g167
*2456 g168
*2457 g169
*2458 g17
*2459 g170
*2460 g171
*2461 g172
*2462 g173
*2463 g174
*2464 g175
*2465 g176
*2466 g177
*2467 g178
*2468 g179
*2469 g18
*2470 g180
*2471 g181
*2472 g182
*2473 g183
*2474 g184
*2475 g185
*2476 g186
*2477 g187
*2478 g188
*2479 g189
*2480 g19
*2481 g190
*2482 g191
*2483 g192
*2484 g193
*2485 g194
*2486 g195
*2487 g196
*2488 g197
*2489 g198
*2490 g199
*2491 g2
*2492 g20
*2493 g200
*2494 g201
*2495 g202
*2496 g203
*2497 g204
*2498 g205
*2499 g206
*2500 g207
*2501 g208
*2502 g209
*2503 g21
*2504 g210
*2505 g211
*2506 g212
*2507 g213
*2508 g214
*2509 g215
*2510 g216
*2511 g217
*2512 g218
*2513 g219
*2514 g22
*2515 g220
*2516 g221
*2517 g222
*2518 g223
*2519 g224
*2520 g225
*2521 g226
*2522 g227
*2523 g228
*2524 g229
*2525 g23
*2526 g230
*2527 g231
*2528 g232
*2529 g233
*2530 g234
*2531 g235
*2532 g236
*2533 g237
*2534 g238
*2535 g239
*2536 g24
*2537 g240
*2538 g241
*2539 g242
*2540 g243
*2541 g244
*2542 g245
*2543 g246
*2544 g247
*2545 g248
*2546 g249
*2547 g25
*2548 g250
*2549 g251
*2550 g252
*2551 g253
*2552 g254
*2553 g255
*2554 g256
*2555 g257
*2556 g258
*2557 g259
*2558 g26
*2559 g260
*2560 g261
*2561 g262
*2562 g263
*2563 g264
*2564 g265
*2565 g266
*2566 g267
*2567 g268
*2568 g269
*2569 g27
*2570 g270
*2571 g271
*2572 g272
*2573 g273
*2574 g274
*2575 g275
*2576 g276
*2577 g277
*2578 g278
*2579 g279
*2580 g28
*2581 g280
*2582 g281
*2583 g282
*2584 g283
*2585 g284
*2586 g285
*2587 g286
*2588 g287
*2589 g288
*2590 g289
*2591 g29
*2592 g290
*2593 g291
*2594 g292
*2595 g293
*2596 g294
*2597 g295
*2598 g296
*2599 g297
*2600 g298
*2601 g299
*2602 g3
*2603 g30
*2604 g300
*2605 g301
*2606 g302
*2607 g303
*2608 g304
*2609 g305
*2610 g306
*2611 g307
*2612 g308
*2613 g309
*2614 g31
*2615 g310
*2616 g311
*2617 g312
*2618 g313
*2619 g314
*2620 g315
*2621 g316
*2622 g317
*2623 g318
*2624 g319
*2625 g32
*2626 g320
*2627 g321
*2628 g322
*2629 g323
*2630 g324
*2631 g325
*2632 g326
*2633 g327
*2634 g328
*2635 g329
*2636 g33
*2637 g330
*2638 g331
*2639 g332
*2640 g333
*2641 g334
*2642 g335
*2643 g336
*2644 g337
*2645 g338
*2646 g339
*2647 g34
*2648 g340
*2649 g341
*2650 g342
*2651 g343
*2652 g344
*2653 g345
*2654 g346
*2655 g347
*2656 g348
*2657 g349
*2658 g35
*2659 g350
*2660 g351
*2661 g352
*2662 g353
*2663 g354
*2664 g355
*2665 g356
*2666 g357
*2667 g358
*2668 g359
*2669 g36
*2670 g360
*2671 g361
*2672 g362
*2673 g363
*2674 g364
*2675 g365
*2676 g366
*2677 g367
*2678 g368
*2679 g369
*2680 g37
*2681 g370
*2682 g371
*2683 g372
*2684 g373
*2685 g374
*2686 g375
*2687 g376
*2688 g377
*2689 g378
*2690 g379
*2691 g38
*2692 g380
*2693 g381
*2694 g382
*2695 g383
*2696 g384
*2697 g385
*2698 g386
*2699 g387
*2700 g388
*2701 g389
*2702 g39
*2703 g390
*2704 g391
*2705 g392
*2706 g393
*2707 g394
*2708 g395
*2709 g396
*2710 g397
*2711 g398
*2712 g399
*2713 g4
*2714 g40
*2715 g400
*2716 g401
*2717 g402
*2718 g403
*2719 g404
*2720 g405
*2721 g406
*2722 g407
*2723 g408
*2724 g409
*2725 g41
*2726 g410
*2727 g411
*2728 g412
*2729 g413
*2730 g414
*2731 g415
*2732 g416
*2733 g417
*2734 g418
*2735 g419
*2736 g42
*2737 g420
*2738 g421
*2739 g422
*2740 g423
*2741 g424
*2742 g425
*2743 g426
*2744 g427
*2745 g428
*2746 g429
*2747 g43
*2748 g430
*2749 g431
*2750 g432
*2751 g433
*2752 g434
*2753 g435
*2754 g436
*2755 g437
*2756 g438
*2757 g439
*2758 g44
*2759 g440
*2760 g441
*2761 g442
*2762 g443
*2763 g444
*2764 g445
*2765 g446
*2766 g447
*2767 g448
*2768 g449
*2769 g45
*2770 g450
*2771 g451
*2772 g452
*2773 g453
*2774 g454
*2775 g455
*2776 g456
*2777 g457
*2778 g458
*2779 g459
*2780 g46
*2781 g460
*2782 g461
*2783 g462
*2784 g463
*2785 g464
*2786 g465
*2787 g466
*2788 g467
*2789 g468
*2790 g469
*2791 g47
*2792 g470
*2793 g471
*2794 g472
*2795 g473
*2796 g474
*2797 g475
*2798 g476
*2799 g477
*2800 g478
*2801 g479
*2802 g48
*2803 g480
*2804 g481
*2805 g482
*2806 g483
*2807 g484
*2808 g485
*2809 g486
*2810 g487
*2811 g488
*2812 g489
*2813 g49
*2814 g490
*2815 g491
*2816 g492
*2817 g493
*2818 g494
*2819 g495
*2820 g496
*2821 g497
*2822 g498
*2823 g499
*2824 g5
*2825 g50
*2826 g500
*2827 g501
*2828 g502
*2829 g503
*2830 g504
*2831 g505
*2832 g506
*2833 g507
*2834 g508
*2835 g509
*2836 g51
*2837 g510
*2838 g511
*2839 g512
*2840 g513
*2841 g514
*2842 g515
*2843 g516
*2844 g517
*2845 g518
*2846 g519
*2847 g52
*2848 g520
*2849 g521
*2850 g522
*2851 g523
*2852 g524
*2853 g525
*2854 g526
*2855 g527
*2856 g528
*2857 g529
*2858 g53
*2859 g530
*2860 g531
*2861 g532
*2862 g533
*2863 g534
*2864 g535
*2865 g536
*2866 g537
*2867 g538
*2868 g539
*2869 g54
*2870 g540
*2871 g541
*2872 g542
*2873 g543
*2874 g544
*2875 g545
*2876 g546
*2877 g547
*2878 g548
*2879 g549
*2880 g55
*2881 g550
*2882 g551
*2883 g552
*2884 g553
*2885 g554
*2886 g555
*2887 g556
*2888 g557
*2889 g558
*2890 g559
*2891 g56
*2892 g560
*2893 g561
*2894 g562
*2895 g563
*2896 g564
*2897 g565
*2898 g566
*2899 g567
*2900 g568
*2901 g569
*2902 g57
*2903 g570
*2904 g571
*2905 g572
*2906 g573
*2907 g574
*2908 g575
*2909 g576
*2910 g577
*2911 g578
*2912 g579
*2913 g58
*2914 g580
*2915 g581
*2916 g582
*2917 g583
*2918 g584
*2919 g585
*2920 g586
*2921 g587
*2922 g588
*2923 g589
*2924 g59
*2925 g590
*2926 g591
*2927 g592
*2928 g593
*2929 g594
*2930 g595
*2931 g596
*2932 g597
*2933 g598
*2934 g599
*2935 g6
*2936 g60
*2937 g600
*2938 g601
*2939 g602
*2940 g603
*2941 g604
*2942 g605
*2943 g606
*2944 g607
*2945 g608
*2946 g609
*2947 g61
*2948 g610
*2949 g611
*2950 g612
*2951 g613
*2952 g614
*2953 g615
*2954 g616
*2955 g617
*2956 g618
*2957 g619
*2958 g62
*2959 g620
*2960 g621
*2961 g622
*2962 g623
*2963 g624
*2964 g625
*2965 g626
*2966 g627
*2967 g628
*2968 g629
*2969 g63
*2970 g630
*2971 g631
*2972 g632
*2973 g633
*2974 g634
*2975 g635
*2976 g636
*2977 g637
*2978 g638
*2979 g639
*2980 g64
*2981 g640
*2982 g641
*2983 g642
*2984 g643
*2985 g644
*2986 g645
*2987 g646
*2988 g647
*2989 g648
*2990 g649
*2991 g65
*2992 g650
*2993 g651
*2994 g652
*2995 g653
*2996 g654
*2997 g655
*2998 g656
*2999 g657
*3000 g658
*3001 g659
*3002 g66
*3003 g660
*3004 g661
*3005 g662
*3006 g663
*3007 g664
*3008 g665
*3009 g666
*3010 g667
*3011 g668
*3012 g669
*3013 g67
*3014 g670
*3015 g671
*3016 g672
*3017 g673
*3018 g674
*3019 g675
*3020 g676
*3021 g677
*3022 g678
*3023 g679
*3024 g68
*3025 g680
*3026 g681
*3027 g682
*3028 g683
*3029 g684
*3030 g685
*3031 g686
*3032 g687
*3033 g688
*3034 g689
*3035 g69
*3036 g690
*3037 g691
*3038 g692
*3039 g693
*3040 g694
*3041 g695
*3042 g696
*3043 g697
*3044 g698
*3045 g699
*3046 g7
*3047 g70
*3048 g700
*3049 g701
*3050 g702
*3051 g703
*3052 g704
*3053 g705
*3054 g706
*3055 g707
*3056 g708
*3057 g709
*3058 g71
*3059 g710
*3060 g711
*3061 g712
*3062 g713
*3063 g714
*3064 g715
*3065 g716
*3066 g717
*3067 g718
*3068 g719
*3069 g72
*3070 g720
*3071 g721
*3072 g722
*3073 g723
*3074 g724
*3075 g725
*3076 g726
*3077 g727
*3078 g728
*3079 g729
*3080 g73
*3081 g730
*3082 g731
*3083 g732
*3084 g733
*3085 g734
*3086 g735
*3087 g736
*3088 g737
*3089 g738
*3090 g739
*3091 g74
*3092 g740
*3093 g741
*3094 g742
*3095 g743
*3096 g744
*3097 g745
*3098 g746
*3099 g747
*3100 g748
*3101 g749
*3102 g75
*3103 g750
*3104 g751
*3105 g752
*3106 g753
*3107 g754
*3108 g755
*3109 g756
*3110 g757
*3111 g758
*3112 g759
*3113 g76
*3114 g760
*3115 g761
*3116 g762
*3117 g763
*3118 g764
*3119 g765
*3120 g766
*3121 g767
*3122 g768
*3123 g769
*3124 g77
*3125 g770
*3126 g771
*3127 g772
*3128 g773
*3129 g774
*3130 g775
*3131 g776
*3132 g777
*3133 g778
*3134 g779
*3135 g78
*3136 g780
*3137 g781
*3138 g782
*3139 g783
*3140 g784
*3141 g785
*3142 g786
*3143 g787
*3144 g788
*3145 g789
*3146 g79
*3147 g790
*3148 g791
*3149 g792
*3150 g793
*3151 g794
*3152 g795
*3153 g796
*3154 g797
*3155 g798
*3156 g799
*3157 g8
*3158 g80
*3159 g800
*3160 g801
*3161 g802
*3162 g803
*3163 g804
*3164 g805
*3165 g806
*3166 g807
*3167 g808
*3168 g809
*3169 g81
*3170 g810
*3171 g811
*3172 g812
*3173 g813
*3174 g814
*3175 g815
*3176 g816
*3177 g817
*3178 g818
*3179 g819
*3180 g82
*3181 g820
*3182 g821
*3183 g822
*3184 g823
*3185 g824
*3186 g825
*3187 g826
*3188 g827
*3189 g828
*3190 g829
*3191 g83
*3192 g830
*3193 g831
*3194 g832
*3195 g833
*3196 g834
*3197 g835
*3198 g836
*3199 g837
*3200 g838
*3201 g839
*3202 g84
*3203 g840
*3204 g841
*3205 g842
*3206 g843
*3207 g844
*3208 g845
*3209 g846
*3210 g847
*3211 g848
*3212 g849
*3213 g85
*3214 g850
*3215 g851
*3216 g852
*3217 g853
*3218 g854
*3219 g855
*3220 g856
*3221 g857
*3222 g858
*3223 g859
*3224 g86
*3225 g860
*3226 g861
*3227 g862
*3228 g863
*3229 g864
*3230 g865
*3231 g866
*3232 g867
*3233 g868
*3234 g869
*3235 g87
*3236 g870
*3237 g871
*3238 g872
*3239 g873
*3240 g874
*3241 g875
*3242 g876
*3243 g877
*3244 g878
*3245 g879
*3246 g88
*3247 g880
*3248 g881
*3249 g882
*3250 g883
*3251 g884
*3252 g885
*3253 g886
*3254 g887
*3255 g888
*3256 g889
*3257 g89
*3258 g890
*3259 g891
*3260 g892
*3261 g893
*3262 g894
*3263 g895
*3264 g896
*3265 g897
*3266 g898
*3267 g899
*3268 g9
*3269 g90
*3270 g900
*3271 g901
*3272 g902
*3273 g903
*3274 g904
*3275 g905
*3276 g906
*3277 g907
*3278 g908
*3279 g909
*3280 g91
*3281 g910
*3282 g911
*3283 g912
*3284 g913
*3285 g914
*3286 g915
*3287 g916
*3288 g917
*3289 g918
*3290 g919
*3291 g92
*3292 g920
*3293 g921
*3294 g922
*3295 g923
*3296 g924
*3297 g925
*3298 g926
*3299 g927
*3300 g928
*3301 g929
*3302 g93
*3303 g930
*3304 g931
*3305 g932
*3306 g933
*3307 g934
*3308 g935
*3309 g936
*3310 g937
*3311 g938
*3312 g939
*3313 g94
*3314 g940
*3315 g941
*3316 g942
*3317 g943
*3318 g944
*3319 g945
*3320 g946
*3321 g947
*3322 g948
*3323 g949
*3324 g95
*3325 g950
*3326 g951
*3327 g952
*3328 g953
*3329 g954
*3330 g955
*3331 g956
*3332 g957
*3333 g958
*3334 g959
*3335 g96
*3336 g960
*3337 g961
*3338 g962
*3339 g963
*3340 g964
*3341 g965
*3342 g966
*3343 g967
*3344 g968
*3345 g969
*3346 g97
*3347 g970
*3348 g971
*3349 g972
*3350 g973
*3351 g974
*3352 g975
*3353 g976
*3354 g977
*3355 g978
*3356 g979
*3357 g98
*3358 g980
*3359 g981
*3360 g982
*3361 g983
*3362 g984
*3363 g985
*3364 g986
*3365 g987
*3366 g988
*3367 g989
*3368 g99
*3369 g990
*3370 g991
*3371 g992
*3372 g993
*3373 g994
*3374 g995
*3375 g996
*3376 g997
*3377 g998
*3378 g999
*3379 tc0
*3380 tc1
*3381 tc2
*3382 tc3

*PORTS
xN[0] I
xN[1] I
xN[2] I
xN[3] I
xN[4] I
xN[5] I
xN[6] I
xN[7] I
xN[8] I
xN[9] I
xP[0] I
xP[1] I
xP[2] I
xP[3] I
xP[4] I
xP[5] I
xP[6] I
xP[7] I
xP[8] I
xP[9] I
yN[0] I
yN[1] I
yN[2] I
yN[3] I
yN[4] I
yN[5] I
yN[6] I
yN[7] I
yN[8] I
yN[9] I
yP[0] I
yP[1] I
yP[2] I
yP[3] I
yP[4] I
yP[5] I
yP[6] I
yP[7] I
yP[8] I
yP[9] I
zN[0] O
zN[10] O
zN[11] O
zN[12] O
zN[13] O
zN[14] O
zN[15] O
zN[16] O
zN[17] O
zN[18] O
zN[19] O
zN[1] O
zN[20] O
zN[21] O
zN[2] O
zN[3] O
zN[4] O
zN[5] O
zN[6] O
zN[7] O
zN[8] O
zN[9] O
zP[0] O
zP[10] O
zP[11] O
zP[12] O
zP[13] O
zP[14] O
zP[15] O
zP[16] O
zP[17] O
zP[18] O
zP[19] O
zP[1] O
zP[20] O
zP[21] O
zP[2] O
zP[3] O
zP[4] O
zP[5] O
zP[6] O
zP[7] O
zP[8] O
zP[9] O

*D_NET *3 0.0307714
*CONN
*P xN[0] I
*I *2880:A I *D sky130_fd_sc_hd__and2_1
*I *2747:A I *D sky130_fd_sc_hd__and2_1
*I *2769:A I *D sky130_fd_sc_hd__and2_1
*I *2680:A I *D sky130_fd_sc_hd__and2_1
*I *2614:A I *D sky130_fd_sc_hd__and2_1
*I *2547:A I *D sky130_fd_sc_hd__and2_1
*I *2702:A I *D sky130_fd_sc_hd__and2_1
*I *2813:A I *D sky130_fd_sc_hd__and2_1
*I *2902:A I *D sky130_fd_sc_hd__and2_1
*I *2836:A I *D sky130_fd_sc_hd__and2_1
*I *2636:A I *D sky130_fd_sc_hd__and2_1
*I *2569:A I *D sky130_fd_sc_hd__and2_1
*I *2503:A I *D sky130_fd_sc_hd__and2_1
*I *1948:A I *D sky130_fd_sc_hd__and2_1
*I *2602:A I *D sky130_fd_sc_hd__and2_1
*I *3268:A I *D sky130_fd_sc_hd__and2_1
*I *3046:A I *D sky130_fd_sc_hd__and2_1
*I *2436:A I *D sky130_fd_sc_hd__and2_1
*I *2282:A I *D sky130_fd_sc_hd__and2_1
*I *2480:A I *D sky130_fd_sc_hd__and2_1
*CAP
1 xN[0] 0.000410034
2 *2880:A 0.000168296
3 *2747:A 0.000174021
4 *2769:A 0
5 *2680:A 9.27006e-05
6 *2614:A 2.76349e-05
7 *2547:A 0.000264189
8 *2702:A 0.000340298
9 *2813:A 9.08141e-05
10 *2902:A 0
11 *2836:A 0
12 *2636:A 9.58795e-05
13 *2569:A 0.000416678
14 *2503:A 6.66518e-05
15 *1948:A 0.000297411
16 *2602:A 0
17 *3268:A 1.16062e-05
18 *3046:A 3.05543e-05
19 *2436:A 0
20 *2282:A 0.000214664
21 *2480:A 0.000298123
22 *3:206 0.000409148
23 *3:204 0.000712725
24 *3:196 0.000575237
25 *3:179 0.000603822
26 *3:175 0.000844554
27 *3:158 0.000643869
28 *3:151 0.000593843
29 *3:142 0.000520333
30 *3:140 0.000786928
31 *3:125 0.000959165
32 *3:72 0.000587914
33 *3:61 0.000381797
34 *3:48 0.00050948
35 *3:39 0.000506189
36 *3:37 0.000173602
37 *3:35 0.000947598
38 *3:22 0.00142284
39 *3:5 0.00114076
40 *1948:A *2491:B 0.000316065
41 *1948:A *13:70 6.58195e-05
42 *1948:A *33:90 8.89385e-05
43 *2282:A *2152:A 6.12123e-05
44 *2282:A *3170:A 2.89114e-05
45 *2282:A *4:17 0.000591919
46 *2480:A *2158:B 2.44318e-05
47 *2480:A *5:209 4.13496e-05
48 *2480:A *14:25 0.00026353
49 *2480:A *26:11 0.000201566
50 *2480:A *1318:6 0.00026546
51 *2480:A *1321:18 0.000365544
52 *2503:A *2338:B 0.000135028
53 *2503:A *76:12 6.42095e-05
54 *2547:A *2536:A 0
55 *2547:A *2625:B 2.8266e-06
56 *2547:A *27:197 1.02504e-05
57 *2547:A *27:218 4.56437e-05
58 *2547:A *36:316 4.75521e-05
59 *2547:A *1462:12 0
60 *2569:A *2503:B 0.000148196
61 *2569:A *3158:B 0
62 *2569:A *18:15 0
63 *2569:A *18:17 1.40306e-05
64 *2614:A *1463:10 2.89114e-05
65 *2636:A *15:150 0.000434806
66 *2636:A *24:270 0.000434806
67 *2680:A *26:71 9.46929e-05
68 *2702:A *2691:A 0.000102056
69 *2702:A *2691:B 0
70 *2702:A *2725:B 0.000188586
71 *2702:A *13:191 2.15339e-05
72 *2702:A *29:129 2.97829e-05
73 *2702:A *33:277 0
74 *2747:A *2736:A 0.000307343
75 *2813:A *2924:B 6.65302e-05
76 *2813:A *4:221 9.34004e-05
77 *2813:A *5:109 0
78 *2880:A *2793:B 1.02504e-05
79 *2880:A *30:104 0.000194299
80 *2880:A *32:207 0.00022266
81 *2880:A *41:124 0.000190162
82 *3046:A *24:220 1.24368e-05
83 *3046:A *76:12 1.98839e-05
84 *3268:A *4:46 5.52302e-05
85 *3268:A *34:47 5.52302e-05
86 *3:5 zP[1] 0.000609592
87 *3:5 zP[4] 0.000828385
88 *3:5 *25:25 7.2084e-05
89 *3:22 zP[1] 2.15047e-05
90 *3:22 *3170:A 0.000197186
91 *3:22 *3173:A1 9.80173e-05
92 *3:22 *4:17 0.000178847
93 *3:22 *4:117 0.000343598
94 *3:22 *14:25 8.62635e-05
95 *3:22 *25:25 7.69776e-06
96 *3:22 *337:12 1.85539e-05
97 *3:22 *1318:6 9.46929e-05
98 *3:35 *1977:A 5.86879e-05
99 *3:35 *2492:B 6.47912e-05
100 *3:35 *2503:B 9.25014e-06
101 *3:35 *2525:B 0.000102545
102 *3:35 *13:13 0.000143625
103 *3:35 *13:24 0.00109247
104 *3:35 *13:99 9.40167e-05
105 *3:35 *18:15 0
106 *3:35 *34:32 0
107 *3:39 *2338:B 0.000297938
108 *3:39 *76:12 0.000573169
109 *3:48 *2338:B 9.41642e-05
110 *3:48 *24:220 4.27935e-05
111 *3:48 *24:235 5.52238e-05
112 *3:48 *76:12 0.000403497
113 *3:61 *24:235 7.8327e-05
114 *3:61 *34:40 0.00015234
115 *3:72 *2958:A 7.92975e-05
116 *3:72 *13:70 0.000139793
117 *3:72 *14:295 0.000103993
118 *3:72 *23:93 0
119 *3:72 *24:235 9.55514e-05
120 *3:72 *33:90 4.46186e-06
121 *3:72 *34:40 2.31791e-05
122 *3:125 *2042:B1 6.48957e-05
123 *3:125 *2472:A 0.000554394
124 *3:125 *2503:B 0.000177227
125 *3:125 *25:74 0
126 *3:140 *2005:B 5.6677e-05
127 *3:140 *2027:B 5.03624e-05
128 *3:140 *2042:B1 5.85228e-05
129 *3:140 *2472:A 0.000389868
130 *3:140 *2473:B 0
131 *3:140 *2475:A 6.74911e-05
132 *3:140 *2793:B 0.000173097
133 *3:140 *14:220 0
134 *3:140 *14:237 0
135 *3:140 *25:74 0
136 *3:140 *30:104 0.00034008
137 *3:140 *30:106 5.71242e-05
138 *3:140 *30:120 2.06178e-05
139 *3:151 *2825:B 0.000137437
140 *3:151 *2869:B 0.000184745
141 *3:151 *2902:B 0.000178847
142 *3:158 *2902:B 8.36572e-05
143 *3:175 *2924:B 3.18676e-05
144 *3:179 *2016:B 0.000149911
145 *3:179 *13:191 0.000379178
146 *3:179 *33:277 0
147 *3:196 *13:210 0.000269428
148 *3:196 *30:131 0.000310292
149 *3:204 *2625:B 2.66026e-05
150 *3:204 *2769:B 8.6229e-06
151 *3:204 *13:214 0
152 *3:204 *13:218 0
153 *3:204 *23:304 0
154 *3:206 *2427:A 0
155 *3:206 *2625:B 7.04631e-05
156 *3:206 *1462:12 0
*RES
1 xN[0] *3:5 15.2679 
2 *3:5 *2480:A 21.7464 
3 *3:5 *3:22 15.1071 
4 *3:22 *2282:A 15.4964 
5 *3:22 *3:35 23.4464 
6 *3:35 *3:37 4.5 
7 *3:37 *3:39 5.46429 
8 *3:39 *2436:A 9.3 
9 *3:39 *3:48 8.76786 
10 *3:48 *3046:A 9.83571 
11 *3:48 *3:61 6.875 
12 *3:61 *3268:A 14.3357 
13 *3:61 *3:72 7.41071 
14 *3:72 *2602:A 13.8 
15 *3:72 *1948:A 20.3 
16 *3:37 *2503:A 11.0857 
17 *3:35 *2569:A 17.1393 
18 *2569:A *3:125 20.9071 
19 *3:125 *2636:A 18.0321 
20 *3:125 *3:140 15.3571 
21 *3:140 *3:142 4.5 
22 *3:142 *2836:A 9.3 
23 *3:142 *3:151 9.17857 
24 *3:151 *2902:A 9.3 
25 *3:151 *3:158 1.35714 
26 *3:158 *2813:A 20.55 
27 *3:158 *3:175 8.07143 
28 *3:175 *3:179 9.48214 
29 *3:179 *2702:A 19.175 
30 *3:179 *3:196 7.5 
31 *3:196 *3:204 12.5714 
32 *3:204 *3:206 2.55357 
33 *3:206 *2547:A 18.7821 
34 *3:206 *2614:A 14.3357 
35 *3:204 *2680:A 15.5679 
36 *3:196 *2769:A 9.3 
37 *3:175 *2747:A 12.7107 
38 *3:140 *2880:A 18.5321 
*END

*D_NET *4 0.0426207
*CONN
*P xN[1] I
*I *3146:A I *D sky130_fd_sc_hd__and2_1
*I *3368:A I *D sky130_fd_sc_hd__and2_1
*I *3346:A I *D sky130_fd_sc_hd__and2_1
*I *1983:A I *D sky130_fd_sc_hd__and2_1
*I *2072:A I *D sky130_fd_sc_hd__and2_1
*I *2049:A I *D sky130_fd_sc_hd__and2_1
*I *2116:A I *D sky130_fd_sc_hd__and2_1
*I *2138:A I *D sky130_fd_sc_hd__and2_1
*I *2005:A I *D sky130_fd_sc_hd__and2_1
*I *3235:A I *D sky130_fd_sc_hd__and2_1
*I *3302:A I *D sky130_fd_sc_hd__and2_1
*I *3280:A I *D sky130_fd_sc_hd__and2_1
*I *3213:A I *D sky130_fd_sc_hd__and2_1
*I *3080:A I *D sky130_fd_sc_hd__and2_1
*I *3102:A I *D sky130_fd_sc_hd__and2_1
*I *3169:A I *D sky130_fd_sc_hd__and2_1
*I *3035:A I *D sky130_fd_sc_hd__and2_1
*I *2969:A I *D sky130_fd_sc_hd__and2_1
*I *2947:A I *D sky130_fd_sc_hd__and2_1
*I *3013:A I *D sky130_fd_sc_hd__and2_1
*CAP
1 xN[1] 0.000494799
2 *3146:A 0
3 *3368:A 8.85221e-05
4 *3346:A 0.000251358
5 *1983:A 1.49752e-05
6 *2072:A 0
7 *2049:A 0
8 *2116:A 0.000106967
9 *2138:A 0.000155478
10 *2005:A 0.000456864
11 *3235:A 0.000117633
12 *3302:A 3.21553e-05
13 *3280:A 2.17614e-05
14 *3213:A 1.55603e-05
15 *3080:A 0.000414782
16 *3102:A 3.29696e-05
17 *3169:A 0.00102888
18 *3035:A 0
19 *2969:A 0.000375613
20 *2947:A 0.000489972
21 *3013:A 0.000451331
22 *4:244 0.000383934
23 *4:223 0.000476124
24 *4:221 0.000448896
25 *4:199 0.000971664
26 *4:189 0.000939161
27 *4:181 0.000780267
28 *4:171 0.00119425
29 *4:160 0.000462991
30 *4:149 0.000595338
31 *4:138 0.00114871
32 *4:130 0.00102006
33 *4:117 0.00189351
34 *4:46 0.00133409
35 *4:40 0.000468504
36 *4:38 0.00160769
37 *4:30 0.00121767
38 *4:17 0.00168537
39 *4:11 0.00234617
40 *1983:A *30:120 4.08637e-05
41 *1983:A *1397:16 5.33005e-05
42 *2005:A *2005:B 9.90367e-05
43 *2116:A *32:199 9.60875e-05
44 *2116:A *41:112 4.51611e-05
45 *2138:A *15:212 0.000385525
46 *2138:A *24:291 0.000201387
47 *2947:A *2947:B 5.70158e-05
48 *2947:A *2980:B 0.000356857
49 *2947:A *23:80 0.000295137
50 *2947:A *33:63 0.000154124
51 *2947:A *929:10 2.78509e-05
52 *2969:A *2113:B 1.67953e-05
53 *2969:A *2969:B 0.000200273
54 *2969:A *2991:A 0.000150618
55 *2969:A *2991:B 0.000150618
56 *2969:A *23:80 0.000197782
57 *2969:A *23:93 9.71197e-05
58 *2969:A *33:63 0.00013652
59 *2969:A *33:82 2.16719e-05
60 *3013:A *2152:A 7.67916e-05
61 *3013:A *2447:B 6.05161e-06
62 *3013:A *3013:B 0.00018372
63 *3013:A *3047:A 5.52238e-05
64 *3013:A *302:12 0.000169383
65 *3080:A *2514:A 0
66 *3080:A *3113:B 0.000150625
67 *3080:A *14:25 0
68 *3080:A *14:42 0
69 *3080:A *17:11 0
70 *3080:A *36:22 0
71 *3080:A *263:10 0
72 *3080:A *1061:14 6.74911e-05
73 *3080:A *1253:12 0.000100823
74 *3169:A *2037:B 2.95726e-05
75 *3169:A *2327:B 7.95313e-05
76 *3169:A *2591:B 0
77 *3169:A *2935:B 1.76039e-05
78 *3169:A *3058:A 7.16452e-05
79 *3169:A *3157:B 5.52302e-05
80 *3169:A *13:57 2.42662e-05
81 *3169:A *24:235 0.00014209
82 *3169:A *25:70 7.53317e-05
83 *3169:A *34:70 6.07232e-05
84 *3169:A *36:339 5.7661e-06
85 *3169:A *208:6 1.74352e-05
86 *3169:A *1006:6 0.000112985
87 *3213:A *27:197 1.92905e-05
88 *3213:A *1127:12 5.52302e-05
89 *3235:A *2271:A 0
90 *3235:A *24:291 0
91 *3235:A *34:89 5.03694e-05
92 *3235:A *38:313 0
93 *3280:A *2603:B 9.71197e-05
94 *3280:A *28:184 9.71197e-05
95 *3302:A *39:245 9.71197e-05
96 *3302:A *1259:14 5.52238e-05
97 *3346:A *1972:A 0.000225616
98 *3346:A *2747:B 0
99 *3346:A *8:100 7.88588e-05
100 *3346:A *29:159 2.28598e-05
101 *3368:A *1336:6 0.00014183
102 *4:11 *2471:B 6.74751e-05
103 *4:11 *5:11 0.000307166
104 *4:11 *6:252 2.89071e-05
105 *4:11 *6:269 7.84915e-05
106 *4:11 *15:13 0.000419758
107 *4:11 *16:19 6.10679e-05
108 *4:11 *34:13 0.000536426
109 *4:17 *2152:A 7.02194e-05
110 *4:17 *2447:B 2.89114e-05
111 *4:30 *2171:B 2.01525e-05
112 *4:30 *2447:B 0.000142725
113 *4:30 *25:42 2.49484e-05
114 *4:30 *35:288 0.000475274
115 *4:30 *317:10 0.000116363
116 *4:30 *321:10 0
117 *4:38 *1949:B 0.000103253
118 *4:38 *2131:A1 1.62025e-05
119 *4:38 *2131:B1 0.000141935
120 *4:38 *2935:B 0.000135578
121 *4:38 *24:220 0.000127457
122 *4:38 *24:235 0.000197991
123 *4:38 *217:10 0
124 *4:46 *2060:B 1.72894e-05
125 *4:46 *34:47 6.12335e-05
126 *4:117 *2161:A 1.58711e-05
127 *4:117 *2161:B 5.88686e-05
128 *4:117 *2162:A1 1.39726e-05
129 *4:117 *3172:A 0.000174461
130 *4:117 *3173:A2 4.58194e-05
131 *4:117 *14:147 0
132 *4:117 *34:136 0.000476709
133 *4:117 *333:12 2.89016e-05
134 *4:117 *334:12 3.38171e-05
135 *4:130 *2176:B 3.79779e-05
136 *4:130 *3146:B 6.05139e-05
137 *4:130 *14:42 0
138 *4:130 *36:22 0
139 *4:130 *1253:12 0.000236806
140 *4:138 *1987:B1 0
141 *4:138 *2050:A 0.000148376
142 *4:138 *2051:B1 1.25366e-05
143 *4:138 *14:42 8.9598e-05
144 *4:138 *14:54 0.000441015
145 *4:138 *23:144 0.00060819
146 *4:138 *36:316 0
147 *4:138 *165:12 0
148 *4:138 *167:10 4.72266e-05
149 *4:138 *323:12 5.66971e-05
150 *4:138 *1127:12 0.000585937
151 *4:149 *2536:A 0
152 *4:149 *2580:A 3.47737e-05
153 *4:149 *2647:A 0.000103253
154 *4:149 *2647:B 5.10822e-05
155 *4:149 *3017:A 0
156 *4:149 *8:38 7.57869e-05
157 *4:149 *36:316 0
158 *4:149 *37:151 0
159 *4:160 *2680:B 0
160 *4:160 *2714:B 3.79467e-05
161 *4:160 *8:38 8.91726e-05
162 *4:160 *8:100 0.000114838
163 *4:160 *13:218 0
164 *4:171 *2680:B 0
165 *4:171 *8:100 0.000195132
166 *4:171 *29:159 0
167 *4:181 *5:109 1.97086e-05
168 *4:181 *33:277 4.04292e-05
169 *4:181 *1396:16 0.00117491
170 *4:189 *3251:A 3.49887e-05
171 *4:189 *3252:A2 9.90367e-05
172 *4:189 *30:120 0.00027344
173 *4:189 *1394:8 9.90431e-05
174 *4:189 *1397:16 0.000526773
175 *4:199 *3252:B1 0.000265377
176 *4:199 *15:195 0
177 *4:199 *24:291 9.99811e-05
178 *4:199 *34:89 5.29648e-05
179 *4:199 *620:10 0
180 *4:221 *2127:B 4.22135e-06
181 *4:221 *2813:B 0.000545939
182 *4:221 *2924:B 0
183 *4:221 *24:291 0.0010896
184 *4:223 *14:260 6.42095e-05
185 *4:223 *41:153 7.32173e-05
186 *4:244 *2038:A 9.90431e-05
187 *4:244 *2083:A 0.000139913
188 *4:244 *2083:B 7.96236e-05
189 *4:244 *14:260 0.000649011
190 *4:244 *41:112 3.80647e-05
191 *4:244 *41:153 8.33883e-05
192 *2282:A *4:17 0.000591919
193 *2813:A *4:221 9.34004e-05
194 *3268:A *4:46 5.52302e-05
195 *3:22 *4:17 0.000178847
196 *3:22 *4:117 0.000343598
*RES
1 xN[1] *4:11 21.6429 
2 *4:11 *4:17 9.60714 
3 *4:17 *3013:A 18.4607 
4 *4:17 *4:30 23.3929 
5 *4:30 *4:38 17.5 
6 *4:38 *4:40 4.5 
7 *4:40 *4:46 11.625 
8 *4:46 *2947:A 23.6036 
9 *4:46 *2969:A 23.5321 
10 *4:40 *3035:A 9.3 
11 *4:38 *3169:A 28.5143 
12 *4:30 *3102:A 9.83571 
13 *4:11 *4:117 34.4286 
14 *4:117 *3080:A 20.9071 
15 *4:117 *4:130 9.78571 
16 *4:130 *4:138 26.2143 
17 *4:138 *3213:A 14.3357 
18 *4:138 *4:149 7.41071 
19 *4:149 *3280:A 14.7464 
20 *4:149 *4:160 4.98214 
21 *4:160 *3302:A 14.7464 
22 *4:160 *4:171 4.83036 
23 *4:171 *4:181 13.749 
24 *4:181 *4:189 10.9286 
25 *4:189 *4:199 15.2857 
26 *4:199 *3235:A 16.05 
27 *4:199 *2005:A 20.9071 
28 *4:189 *4:221 18.5893 
29 *4:221 *4:223 1.35714 
30 *4:223 *2138:A 23.2821 
31 *4:223 *4:244 8.92857 
32 *4:244 *2116:A 11.4786 
33 *4:244 *2049:A 9.3 
34 *4:221 *2072:A 9.3 
35 *4:181 *1983:A 9.83571 
36 *4:171 *3346:A 19.0946 
37 *4:171 *3368:A 15.5679 
38 *4:130 *3146:A 9.3 
*END

*D_NET *5 0.05435
*CONN
*P xN[2] I
*I *2440:A I *D sky130_fd_sc_hd__and2_1
*I *2438:A I *D sky130_fd_sc_hd__and2_1
*I *2433:A I *D sky130_fd_sc_hd__and2_1
*I *2431:A I *D sky130_fd_sc_hd__and2_1
*I *2382:A I *D sky130_fd_sc_hd__and2_1
*I *2316:A I *D sky130_fd_sc_hd__and2_1
*I *2405:A I *D sky130_fd_sc_hd__and2_1
*I *2457:A I *D sky130_fd_sc_hd__and2_1
*I *2453:A I *D sky130_fd_sc_hd__and2_1
*I *2451:A I *D sky130_fd_sc_hd__and2_1
*I *2466:A I *D sky130_fd_sc_hd__and2_1
*I *2464:A I *D sky130_fd_sc_hd__and2_1
*I *2460:A I *D sky130_fd_sc_hd__and2_1
*I *2444:A I *D sky130_fd_sc_hd__and2_1
*I *2271:A I *D sky130_fd_sc_hd__and2_1
*I *2446:A I *D sky130_fd_sc_hd__and2_1
*I *2338:A I *D sky130_fd_sc_hd__and2_1
*I *2249:A I *D sky130_fd_sc_hd__and2_1
*I *2205:A I *D sky130_fd_sc_hd__and2_1
*I *2183:A I *D sky130_fd_sc_hd__and2_1
*CAP
1 xN[2] 0.000477985
2 *2440:A 0
3 *2438:A 0.000710046
4 *2433:A 0
5 *2431:A 1.40355e-05
6 *2382:A 0.00165338
7 *2316:A 0.000114809
8 *2405:A 0
9 *2457:A 0.000760449
10 *2453:A 0.000500424
11 *2451:A 0.000345879
12 *2466:A 2.23854e-05
13 *2464:A 0.000170405
14 *2460:A 0.000279057
15 *2444:A 0.000430886
16 *2271:A 0.00129943
17 *2446:A 1.16062e-05
18 *2338:A 2.57978e-05
19 *2249:A 8.29269e-05
20 *2205:A 0.000531823
21 *2183:A 0.000114038
22 *5:274 0.00102576
23 *5:263 0.00051845
24 *5:252 0.00085221
25 *5:209 0.00198772
26 *5:147 0.000682001
27 *5:145 0.00121284
28 *5:139 0.00104605
29 *5:128 0.00102798
30 *5:122 0.00155548
31 *5:109 0.0017195
32 *5:105 0.0014647
33 *5:81 0.00160641
34 *5:77 0.000893376
35 *5:62 0.00130317
36 *5:58 0.00208765
37 *5:21 0.00173945
38 *5:13 0.00137266
39 *5:11 0.000837363
40 *2183:A *2183:B 0
41 *2183:A *583:10 5.92181e-05
42 *2205:A *2120:B 0.000126416
43 *2205:A *2124:A 9.21958e-05
44 *2205:A *23:36 0
45 *2205:A *296:10 3.01673e-05
46 *2205:A *583:10 0.000129741
47 *2249:A *2151:A 0
48 *2249:A *2153:B 0.000106894
49 *2271:A *24:291 3.69697e-05
50 *2271:A *34:70 2.65105e-05
51 *2271:A *34:81 0.00138387
52 *2271:A *34:117 0.000313241
53 *2271:A *38:313 0
54 *2316:A *25:134 2.8266e-06
55 *2316:A *25:151 5.0725e-05
56 *2316:A *35:22 3.18676e-05
57 *2316:A *36:22 0
58 *2338:A *2569:B 0.000142856
59 *2338:A *36:339 7.77751e-05
60 *2382:A *2184:A 5.02276e-05
61 *2382:A *2537:A 0
62 *2382:A *3176:A 0.000122591
63 *2382:A *3177:A2 2.28598e-05
64 *2382:A *15:32 0
65 *2382:A *26:38 0.000249013
66 *2382:A *35:45 0
67 *2382:A *350:10 4.6845e-05
68 *2382:A *1162:12 0
69 *2382:A *1254:6 5.52302e-05
70 *2382:A *1257:6 0.000119193
71 *2382:A *1319:8 9.90367e-05
72 *2382:A *1321:18 5.91367e-05
73 *2431:A *2430:B 2.89114e-05
74 *2431:A *15:47 5.52302e-05
75 *2438:A *2944:B 0
76 *2438:A *2946:A1 0.000201127
77 *2438:A *2946:B1 0.000318316
78 *2438:A *15:60 0
79 *2438:A *28:164 0.000175251
80 *2438:A *28:172 0.00010096
81 *2438:A *38:165 0
82 *2438:A *38:171 0.000184745
83 *2438:A *1093:18 4.13496e-05
84 *2444:A *2094:A 6.05161e-06
85 *2446:A *2472:B 5.52302e-05
86 *2446:A *3235:B 5.52302e-05
87 *2451:A *1132:24 0.000202306
88 *2453:A *2453:B 5.62995e-05
89 *2453:A *2455:B 1.72894e-05
90 *2453:A *3283:B 1.21258e-05
91 *2453:A *3284:A 3.23206e-05
92 *2453:A *3286:B1 5.95522e-05
93 *2457:A *2127:A 5.03772e-05
94 *2457:A *2138:B 6.86792e-05
95 *2457:A *2665:A 0.000481562
96 *2457:A *31:151 0.000225609
97 *2457:A *42:114 0.000351609
98 *2457:A *42:120 6.05161e-06
99 *2460:A *41:192 5.33433e-05
100 *2460:A *41:203 0.000236814
101 *2464:A *2463:A 6.57815e-05
102 *2464:A *2463:B 5.52302e-05
103 *2464:A *2464:B 1.04232e-05
104 *2464:A *2465:A 2.28598e-05
105 *2464:A *2465:B 4.51526e-05
106 *2464:A *2466:B 0.000183726
107 *2464:A *32:273 2.27416e-05
108 *2466:A *2465:B 0
109 *5:11 *7:13 0.000267884
110 *5:11 *13:13 1.18064e-05
111 *5:11 *15:13 0.000496601
112 *5:11 *16:19 0.000315992
113 *5:13 *23:15 0.000816349
114 *5:13 *25:25 0.000829024
115 *5:21 *2171:B 4.90543e-05
116 *5:21 *2183:B 6.02982e-05
117 *5:21 *23:15 0.000864095
118 *5:21 *25:25 2.83129e-05
119 *5:58 *23:13 0.000530292
120 *5:58 *23:15 8.68261e-05
121 *5:58 *23:128 0.000164928
122 *5:58 *25:25 0.000743782
123 *5:62 zP[1] 0.00152
124 *5:62 *2044:B 0
125 *5:62 *2046:A1 5.36422e-05
126 *5:62 *2338:B 0
127 *5:62 *2478:B 0
128 *5:62 *2569:B 6.19181e-05
129 *5:62 *3172:A 0
130 *5:62 *3173:A2 0
131 *5:62 *3173:B1 2.92236e-05
132 *5:62 *3315:B 7.17696e-05
133 *5:62 *18:25 0
134 *5:62 *224:8 0.000150476
135 *5:62 *332:10 1.91418e-05
136 *5:62 *1458:8 0
137 *5:77 *2478:B 0
138 *5:77 *2558:B 0.000140933
139 *5:77 *18:25 0
140 *5:77 *27:218 0
141 *5:81 *2478:B 1.17968e-05
142 *5:81 *3224:B 0.000166276
143 *5:81 *3257:A 0.000150618
144 *5:81 *3257:B 5.01117e-05
145 *5:81 *24:291 0.000175636
146 *5:81 *27:218 3.17148e-05
147 *5:81 *38:313 0
148 *5:105 *2558:B 5.33005e-05
149 *5:105 *8:38 4.87953e-05
150 *5:109 *2449:B 0
151 *5:109 *2702:B 0.000114121
152 *5:109 *2802:A 0
153 *5:109 *2802:B 0.00019049
154 *5:109 *2924:B 0
155 *5:109 *3237:A 0
156 *5:109 *15:184 0
157 *5:109 *23:281 0.0005527
158 *5:109 *23:304 5.41794e-05
159 *5:109 *33:277 0.000629693
160 *5:109 *620:10 0
161 *5:109 *1396:16 9.60337e-06
162 *5:109 *1460:12 0.000150618
163 *5:122 *2127:A 0
164 *5:122 *2160:A 0
165 *5:122 *3237:A 0
166 *5:122 *33:277 2.65075e-05
167 *5:122 *572:10 6.65398e-05
168 *5:122 *578:8 0
169 *5:122 *1382:14 7.92879e-05
170 *5:128 *2878:B 0.000419613
171 *5:128 *2879:B 5.41797e-05
172 *5:128 *578:8 0
173 *5:128 *1382:14 0.000130188
174 *5:139 *3284:A 0.000271345
175 *5:139 *41:203 2.89114e-05
176 *5:145 *41:203 0
177 *5:145 *1030:12 5.41794e-05
178 *5:145 *1132:12 0.000264574
179 *5:147 *2465:A 0.000120509
180 *5:147 *2465:B 3.48705e-05
181 *5:147 *2466:B 8.27532e-05
182 *5:147 *2527:A 5.62995e-05
183 *5:147 *2529:B 1.72894e-05
184 *5:209 *2514:B 1.58163e-05
185 *5:209 *3108:A 0.000128496
186 *5:209 *3108:B 4.43256e-05
187 *5:209 *7:13 8.99513e-05
188 *5:209 *23:128 0.000627797
189 *5:209 *25:25 0.000296171
190 *5:209 *26:11 3.30352e-05
191 *5:209 *33:127 4.22202e-05
192 *5:209 *35:271 4.12535e-05
193 *5:209 *1061:14 5.52302e-05
194 *5:209 *1254:6 0.00014285
195 *5:209 *1321:18 0.000784958
196 *5:252 *6:46 0
197 *5:252 *7:34 1.62025e-05
198 *5:252 *15:47 0.000695348
199 *5:252 *15:51 1.52978e-05
200 *5:252 *16:97 0
201 *5:252 *26:61 0.000265438
202 *5:252 *36:39 0.000220907
203 *5:252 *36:58 0.000315806
204 *5:252 *37:143 9.25014e-06
205 *5:252 *1088:10 4.97121e-06
206 *5:252 *1165:8 0.000166731
207 *5:263 *15:51 0.00020305
208 *5:263 *15:60 9.97648e-05
209 *5:263 *37:135 0.000505321
210 *5:263 *37:143 4.73656e-05
211 *5:274 *15:60 0.000309358
212 *5:274 *1385:10 0
213 *2480:A *5:209 4.13496e-05
214 *2813:A *5:109 0
215 *3235:A *2271:A 0
216 *4:11 *5:11 0.000307166
217 *4:181 *5:109 1.97086e-05
*RES
1 xN[2] *5:11 19.2939 
2 *5:11 *5:13 1.3442 
3 *5:13 *5:21 6.5402 
4 *5:21 *2183:A 15.8982 
5 *5:21 *2205:A 25.3982 
6 *5:13 *2249:A 18.7011 
7 *5:11 *5:58 1.20007 
8 *5:58 *5:62 28.5796 
9 *5:62 *2338:A 15.1571 
10 *5:62 *5:77 8.41071 
11 *5:77 *5:81 11.9107 
12 *5:81 *2446:A 14.3357 
13 *5:81 *2271:A 32.9429 
14 *5:77 *5:105 6.28571 
15 *5:105 *5:109 31.9464 
16 *5:109 *2444:A 20.1036 
17 *5:109 *5:122 4.67857 
18 *5:122 *5:128 16.6964 
19 *5:128 *2460:A 14.7821 
20 *5:128 *5:139 3.41071 
21 *5:139 *5:145 16.4107 
22 *5:145 *5:147 8.75 
23 *5:147 *2464:A 13.55 
24 *5:147 *2466:A 9.72857 
25 *5:145 *2451:A 15.6036 
26 *5:139 *2453:A 17.6571 
27 *5:122 *2457:A 29.5321 
28 *5:105 *2405:A 9.3 
29 *5:58 *5:209 23.0463 
30 *5:209 *2316:A 20.7821 
31 *5:209 *2382:A 37.5679 
32 *2382:A *5:252 30.4071 
33 *5:252 *2431:A 14.3357 
34 *5:252 *5:263 7.41071 
35 *5:263 *2433:A 13.8 
36 *5:263 *5:274 11.9107 
37 *5:274 *2438:A 33.3179 
38 *5:274 *2440:A 9.3 
*END

*D_NET *6 0.0509721
*CONN
*P xN[3] I
*I *2479:A I *D sky130_fd_sc_hd__and2_1
*I *2473:A I *D sky130_fd_sc_hd__and2_1
*I *2471:A I *D sky130_fd_sc_hd__and2_1
*I *2486:A I *D sky130_fd_sc_hd__and2_1
*I *2484:A I *D sky130_fd_sc_hd__and2_1
*I *2490:A I *D sky130_fd_sc_hd__and2_1
*I *2494:A I *D sky130_fd_sc_hd__and2_1
*I *2500:A I *D sky130_fd_sc_hd__and2_1
*I *2498:A I *D sky130_fd_sc_hd__and2_1
*I *2520:A I *D sky130_fd_sc_hd__and2_1
*I *2518:A I *D sky130_fd_sc_hd__and2_1
*I *2527:A I *D sky130_fd_sc_hd__and2_1
*I *2524:A I *D sky130_fd_sc_hd__and2_1
*I *2531:A I *D sky130_fd_sc_hd__and2_1
*I *2533:A I *D sky130_fd_sc_hd__and2_1
*I *2511:A I *D sky130_fd_sc_hd__and2_1
*I *2513:A I *D sky130_fd_sc_hd__and2_1
*I *2505:A I *D sky130_fd_sc_hd__and2_1
*I *2507:A I *D sky130_fd_sc_hd__and2_1
*I *2477:A I *D sky130_fd_sc_hd__and2_1
*CAP
1 xN[3] 0.000167157
2 *2479:A 0.00019829
3 *2473:A 0.000592903
4 *2471:A 8.00825e-05
5 *2486:A 0
6 *2484:A 0.000139095
7 *2490:A 0
8 *2494:A 0
9 *2500:A 0.00011673
10 *2498:A 0.000563283
11 *2520:A 0.000151577
12 *2518:A 0
13 *2527:A 0.000220499
14 *2524:A 3.93479e-05
15 *2531:A 1.86463e-05
16 *2533:A 0.000166214
17 *2511:A 0.000415525
18 *2513:A 0
19 *2505:A 0
20 *2507:A 4.52671e-05
21 *2477:A 3.84348e-05
22 *6:269 0.00172171
23 *6:252 0.00141219
24 *6:134 0.000858341
25 *6:130 0.00121328
26 *6:128 0.00146149
27 *6:122 0.000740539
28 *6:120 0.000277033
29 *6:107 0.00120087
30 *6:98 0.00132822
31 *6:85 0.0018191
32 *6:77 0.00188135
33 *6:66 0.000571308
34 *6:60 0.00103905
35 *6:46 0.00103499
36 *6:38 0.00096619
37 *6:32 0.000772937
38 *6:28 0.00101226
39 *6:13 0.0033898
40 *6:5 0.00304693
41 *2471:A *24:190 5.43733e-05
42 *2473:A *2472:B 0.000181742
43 *2473:A *2475:A 2.89016e-05
44 *2473:A *3191:A 0.000147474
45 *2473:A *3315:A 2.28159e-05
46 *2473:A *13:116 0.0005952
47 *2473:A *13:127 0.000383288
48 *2473:A *13:138 0.000223599
49 *2473:A *18:25 0.000775378
50 *2473:A *34:81 0.000659763
51 *2473:A *1458:8 9.24491e-05
52 *2479:A *2338:B 0.000107991
53 *2479:A *3315:A 5.62995e-05
54 *2479:A *76:12 0.000474126
55 *2479:A *1459:6 0.000149489
56 *2484:A *24:44 0.000172173
57 *2484:A *25:161 6.87582e-05
58 *2484:A *35:56 9.7497e-05
59 *2498:A *2497:A 0.000437762
60 *2498:A *2752:B 0.000154993
61 *2498:A *3351:A 1.19402e-05
62 *2498:A *3351:B 0
63 *2498:A *16:159 0
64 *2498:A *16:167 0.000272371
65 *2498:A *27:160 4.6234e-05
66 *2498:A *38:148 0
67 *2498:A *103:12 8.00806e-05
68 *2498:A *104:10 0
69 *2498:A *1103:10 0.000100009
70 *2500:A *2439:B 1.33343e-05
71 *2500:A *2442:A 6.71755e-05
72 *2500:A *2499:A 0.000358977
73 *2500:A *2500:B 0.000346541
74 *2500:A *37:121 9.41642e-05
75 *2507:A *2509:B 6.05161e-06
76 *2507:A *17:146 9.76491e-05
77 *2507:A *28:229 8.43535e-06
78 *2507:A *38:148 0.00010096
79 *2507:A *38:159 4.18895e-05
80 *2511:A *2510:A 0.000137983
81 *2511:A *16:212 0.000548949
82 *2511:A *16:214 9.71197e-05
83 *2520:A *2518:B 4.46186e-06
84 *2520:A *40:238 0
85 *2520:A *1384:10 0
86 *2520:A *1431:8 0
87 *2524:A *16:228 6.29133e-05
88 *2527:A *2468:A 0.000154762
89 *2527:A *2523:B 0
90 *2527:A *16:222 3.90513e-05
91 *2527:A *31:218 0
92 *2527:A *638:12 7.83587e-05
93 *2531:A *25:74 2.49484e-05
94 *2531:A *206:14 5.59013e-05
95 *2533:A *25:74 6.97972e-05
96 *2533:A *206:14 0.000126439
97 *6:5 *16:11 0.000422064
98 *6:5 *23:11 0.000419758
99 *6:13 *24:19 0.0023371
100 *6:28 *2481:B 5.16759e-05
101 *6:28 *2541:B 7.64532e-05
102 *6:28 *3112:A1 0.000218019
103 *6:28 *3112:B1 0.000335208
104 *6:28 *15:32 0
105 *6:28 *24:38 0
106 *6:28 *354:6 0.000188942
107 *6:28 *703:8 5.84075e-05
108 *6:28 *1165:8 0
109 *6:28 *1255:12 0.000148903
110 *6:32 *24:44 0.000522748
111 *6:32 *35:45 5.33005e-05
112 *6:32 *35:56 0.0002321
113 *6:32 *354:6 8.43535e-06
114 *6:38 *2488:A 7.09043e-05
115 *6:38 *2490:B 9.25014e-06
116 *6:38 *2495:B 3.79467e-05
117 *6:38 *2551:B 0
118 *6:38 *7:68 0
119 *6:38 *26:61 0.000203594
120 *6:38 *656:12 0.00012249
121 *6:38 *661:8 0
122 *6:46 *2431:B 0
123 *6:46 *15:51 0
124 *6:46 *15:60 0
125 *6:46 *16:97 5.59013e-05
126 *6:46 *16:116 0.00054415
127 *6:46 *27:178 0
128 *6:46 *1264:10 0.000307349
129 *6:60 *2435:A 9.90367e-05
130 *6:60 *15:60 0.0004024
131 *6:60 *16:116 3.15439e-05
132 *6:60 *27:172 0.00014285
133 *6:60 *37:121 5.06365e-05
134 *6:60 *37:127 0.000838689
135 *6:66 *2437:A 0.000384462
136 *6:66 *2439:B 0.000172845
137 *6:66 *15:60 3.34366e-05
138 *6:66 *38:159 0.000355965
139 *6:66 *38:165 0.000417177
140 *6:77 *2439:B 1.19402e-05
141 *6:77 *16:159 0
142 *6:77 *28:164 0
143 *6:77 *28:229 1.46624e-05
144 *6:77 *38:148 0
145 *6:77 *38:159 2.24646e-05
146 *6:85 *2444:B 0.000126629
147 *6:85 *1100:10 0
148 *6:98 *2444:B 0
149 *6:98 *2505:B 6.97972e-05
150 *6:98 *2875:A 0
151 *6:98 *3050:B 0
152 *6:98 *3053:B1 5.26091e-05
153 *6:98 *39:216 0
154 *6:98 *1023:16 9.59532e-06
155 *6:98 *1100:10 0
156 *6:98 *1199:14 9.32849e-05
157 *6:107 *2444:B 0
158 *6:107 *2452:B 0.000122632
159 *6:107 *2453:B 0
160 *6:107 *2455:B 5.24274e-05
161 *6:107 *2516:B 0
162 *6:107 *3285:A 0
163 *6:107 *3286:B1 0
164 *6:107 *30:212 5.97719e-05
165 *6:107 *30:221 8.66324e-05
166 *6:107 *39:174 0
167 *6:107 *39:216 0
168 *6:107 *1427:8 0
169 *6:120 *2518:B 8.98897e-05
170 *6:120 *30:221 2.84494e-05
171 *6:128 *2523:B 0.000178847
172 *6:128 *3287:A 0.000393688
173 *6:128 *638:12 0.000113151
174 *6:130 *2523:B 0.000405727
175 *6:130 *16:222 2.42662e-05
176 *6:130 *16:228 7.65689e-05
177 *6:134 *2530:B 4.27935e-05
178 *6:134 *2535:B 0.000135028
179 *6:134 *16:228 0.000229697
180 *6:134 *42:60 0.00022266
181 *6:252 *2471:B 3.34295e-05
182 *6:252 *2474:A 3.69697e-05
183 *6:252 *3171:A 9.41642e-05
184 *6:252 *14:9 4.46134e-05
185 *6:252 *16:11 5.36048e-05
186 *6:252 *23:11 8.89188e-05
187 *6:252 *24:190 0.000194007
188 *6:252 *33:30 0.000148911
189 *6:269 *1978:B 0.000177948
190 *6:269 *2044:A 2.68029e-05
191 *6:269 *2141:B 2.82057e-05
192 *6:269 *2157:A 0.000169095
193 *6:269 *2164:A 0.000321759
194 *6:269 *2338:B 4.53889e-05
195 *6:269 *2471:B 3.40456e-05
196 *6:269 *13:116 5.01117e-05
197 *6:269 *14:9 4.35537e-05
198 *6:269 *14:147 0.000105649
199 *6:269 *14:196 9.91086e-05
200 *6:269 *16:19 0
201 *6:269 *76:12 0.000139913
202 *6:269 *318:10 4.79282e-05
203 *6:269 *1317:12 0.000176089
204 *6:269 *1458:8 0
205 *4:11 *6:252 2.89071e-05
206 *4:11 *6:269 7.84915e-05
207 *5:147 *2527:A 5.62995e-05
208 *5:252 *6:46 0
*RES
1 xN[3] *6:5 9.19643 
2 *6:5 *6:13 42.3929 
3 *6:13 *2477:A 14.3357 
4 *6:13 *6:28 22.6071 
5 *6:28 *6:32 5.48214 
6 *6:32 *6:38 19.1429 
7 *6:38 *6:46 19.7143 
8 *6:46 *6:60 25.5357 
9 *6:60 *6:66 15.6964 
10 *6:66 *2507:A 15.5679 
11 *6:66 *6:77 3.16071 
12 *6:77 *6:85 26.2679 
13 *6:85 *2505:A 13.8 
14 *6:85 *6:98 12.9286 
15 *6:98 *2513:A 13.8 
16 *6:98 *6:107 11.9643 
17 *6:107 *2511:A 21.7464 
18 *6:107 *6:120 2.85714 
19 *6:120 *6:122 4.5 
20 *6:122 *6:128 11.25 
21 *6:128 *6:130 7.10714 
22 *6:130 *6:134 13.25 
23 *6:134 *2533:A 17.2107 
24 *6:134 *2531:A 14.5321 
25 *6:130 *2524:A 10.5679 
26 *6:128 *2527:A 23.3179 
27 *6:122 *2518:A 9.3 
28 *6:120 *2520:A 16.3536 
29 *6:77 *2498:A 36.425 
30 *6:60 *2500:A 14.3536 
31 *6:46 *2494:A 9.3 
32 *6:38 *2490:A 9.3 
33 *6:32 *2484:A 22.0143 
34 *6:28 *2486:A 9.3 
35 *6:5 *6:252 16.8036 
36 *6:252 *2471:A 15.175 
37 *6:252 *6:269 26.9286 
38 *6:269 *2473:A 39.8893 
39 *6:269 *2479:A 16.0143 
*END

*D_NET *7 0.0497854
*CONN
*P xN[4] I
*I *2579:A I *D sky130_fd_sc_hd__and2_1
*I *2586:A I *D sky130_fd_sc_hd__and2_1
*I *2584:A I *D sky130_fd_sc_hd__and2_1
*I *2593:A I *D sky130_fd_sc_hd__and2_1
*I *2590:A I *D sky130_fd_sc_hd__and2_1
*I *2597:A I *D sky130_fd_sc_hd__and2_1
*I *2599:A I *D sky130_fd_sc_hd__and2_1
*I *2540:A I *D sky130_fd_sc_hd__and2_1
*I *2546:A I *D sky130_fd_sc_hd__and2_1
*I *2553:A I *D sky130_fd_sc_hd__and2_1
*I *2560:A I *D sky130_fd_sc_hd__and2_1
*I *2557:A I *D sky130_fd_sc_hd__and2_1
*I *2566:A I *D sky130_fd_sc_hd__and2_1
*I *2577:A I *D sky130_fd_sc_hd__and2_1
*I *2571:A I *D sky130_fd_sc_hd__and2_1
*I *2573:A I *D sky130_fd_sc_hd__and2_1
*I *2564:A I *D sky130_fd_sc_hd__and2_1
*I *2551:A I *D sky130_fd_sc_hd__and2_1
*I *2544:A I *D sky130_fd_sc_hd__and2_1
*I *2538:A I *D sky130_fd_sc_hd__and2_1
*CAP
1 xN[4] 0.00177755
2 *2579:A 0
3 *2586:A 0
4 *2584:A 0
5 *2593:A 0
6 *2590:A 0
7 *2597:A 0
8 *2599:A 0.000779637
9 *2540:A 0.00016705
10 *2546:A 5.00753e-05
11 *2553:A 0
12 *2560:A 0
13 *2557:A 0.000375037
14 *2566:A 0
15 *2577:A 0.000375247
16 *2571:A 0.000460906
17 *2573:A 2.3671e-05
18 *2564:A 6.64361e-05
19 *2551:A 0
20 *2544:A 0.000293813
21 *2538:A 0.000102872
22 *7:247 0.00120202
23 *7:237 0.0008198
24 *7:225 0.00156451
25 *7:215 0.00139955
26 *7:213 0.000740964
27 *7:197 0.000824773
28 *7:124 0.000754439
29 *7:111 0.00130725
30 *7:96 0.00123126
31 *7:94 0.000690218
32 *7:84 0.00127043
33 *7:78 0.000813449
34 *7:68 0.00165293
35 *7:51 0.00129891
36 *7:40 0.00110959
37 *7:34 0.00098364
38 *7:19 0.00197532
39 *7:13 0.0035608
40 *2538:A *15:32 6.13812e-05
41 *2540:A *33:249 8.3321e-05
42 *2544:A *2483:B 0.000192997
43 *2544:A *2544:B 2.04626e-05
44 *2544:A *35:75 0.000113331
45 *2544:A *353:10 0.000173914
46 *2546:A *2546:B 5.50052e-05
47 *2546:A *2549:A 5.50052e-05
48 *2546:A *17:57 4.9209e-05
49 *2557:A *2497:A 2.97863e-05
50 *2557:A *17:138 9.33978e-07
51 *2557:A *17:146 1.34703e-05
52 *2557:A *18:320 0.000533176
53 *2557:A *27:160 0
54 *2557:A *1398:12 0
55 *2564:A *2564:B 0.000276211
56 *2564:A *1099:8 0.000359997
57 *2571:A *2571:B 0.000139907
58 *2571:A *28:133 0.000266479
59 *2573:A *1132:24 5.52302e-05
60 *2577:A *2577:B 1.02504e-05
61 *2577:A *17:178 5.57056e-05
62 *2577:A *29:241 0.000177234
63 *2599:A *1971:B1 0
64 *2599:A *2023:A 0
65 *2599:A *2095:A 3.90513e-05
66 *2599:A *2095:B 0.000153047
67 *2599:A *2596:B 0
68 *2599:A *2597:B 1.04232e-05
69 *2599:A *2598:A 0
70 *2599:A *32:163 4.42013e-05
71 *2599:A *32:174 7.03295e-05
72 *2599:A *42:51 0.000186662
73 *2599:A *149:12 8.16036e-05
74 *2599:A *211:12 0
75 *2599:A *275:12 0.000106488
76 *7:13 zN[2] 0
77 *7:13 *2159:B 0.000108872
78 *7:13 *8:21 0
79 *7:13 *18:15 0
80 *7:13 *24:19 0
81 *7:13 *33:127 0.000101802
82 *7:13 *33:249 5.13026e-05
83 *7:13 *35:5 0.000552679
84 *7:13 *35:271 0.000383664
85 *7:13 *36:9 0.000392276
86 *7:13 *327:12 0.000157925
87 *7:13 *330:10 0.00017309
88 *7:13 *337:12 0
89 *7:19 *17:17 0.0018121
90 *7:19 *354:6 2.81855e-05
91 *7:34 *15:32 0.000107855
92 *7:34 *15:47 0.000359279
93 *7:34 *17:40 0.000485381
94 *7:34 *17:57 2.83425e-05
95 *7:34 *26:61 1.51881e-05
96 *7:40 *2549:A 0.000566231
97 *7:40 *17:57 1.97617e-05
98 *7:40 *232:14 0.000119969
99 *7:51 *35:75 0.000231681
100 *7:68 *1991:A1 5.24274e-05
101 *7:68 *1991:B1 0
102 *7:68 *2495:A 0
103 *7:68 *2551:B 0
104 *7:68 *2553:B 5.33334e-05
105 *7:68 *3023:A 0.00017309
106 *7:68 *3023:B 1.08359e-05
107 *7:68 *3026:A2 0
108 *7:68 *3026:B1 0
109 *7:68 *3121:B1 6.26559e-05
110 *7:68 *3326:A1 5.7599e-05
111 *7:68 *17:103 0
112 *7:68 *26:65 0
113 *7:68 *26:121 8.359e-05
114 *7:68 *27:172 0
115 *7:68 *35:75 3.67279e-06
116 *7:68 *169:10 3.67452e-05
117 *7:68 *661:8 0.000163999
118 *7:68 *715:8 0
119 *7:68 *1386:10 2.95641e-05
120 *7:78 *2442:A 0
121 *7:78 *3244:B 0
122 *7:78 *27:162 8.56716e-05
123 *7:78 *27:172 0.000562389
124 *7:78 *36:100 0.000183726
125 *7:78 *37:115 0
126 *7:78 *1092:14 0.000181803
127 *7:78 *1386:10 3.4879e-05
128 *7:84 *2562:B 5.80217e-05
129 *7:84 *2565:A 4.03318e-05
130 *7:84 *18:320 0
131 *7:84 *27:160 9.88136e-05
132 *7:84 *27:162 0.000206326
133 *7:84 *36:117 0
134 *7:84 *1398:12 8.15095e-05
135 *7:94 *2564:B 0.000108613
136 *7:94 *2566:B 0.0001399
137 *7:94 *3253:A 5.33433e-05
138 *7:94 *3254:A 0.000100969
139 *7:94 *3256:B1 0
140 *7:94 *17:146 2.22803e-05
141 *7:94 *37:111 8.6432e-05
142 *7:94 *674:6 5.03772e-05
143 *7:94 *1099:8 0.000353079
144 *7:94 *1398:12 2.79421e-05
145 *7:96 *2564:B 0.000760416
146 *7:96 *1099:8 0.000791214
147 *7:111 *2567:B 0
148 *7:111 *2632:A 0.000382424
149 *7:111 *2633:B 0
150 *7:111 *2635:A 0.00010326
151 *7:111 *2635:B 0.000151185
152 *7:111 *2954:B 0.000197269
153 *7:111 *2955:A 7.79781e-06
154 *7:111 *2957:B1 0.0003096
155 *7:111 *17:167 0.000194889
156 *7:111 *17:178 0.000117144
157 *7:111 *28:146 0.000401131
158 *7:111 *28:152 0.000100735
159 *7:111 *28:164 0
160 *7:111 *29:247 0.000426522
161 *7:111 *37:227 0
162 *7:111 *38:148 0
163 *7:111 *727:10 0.000128154
164 *7:124 *2515:B 0.000102545
165 *7:124 *2577:B 0
166 *7:124 *17:178 0.000254615
167 *7:124 *29:241 0.000203777
168 *7:124 *29:247 9.74684e-05
169 *7:197 *2582:B 5.33334e-05
170 *7:197 *39:129 5.52302e-05
171 *7:197 *39:136 0.00018372
172 *7:197 *39:144 0.000221608
173 *7:213 *2578:B 8.08022e-05
174 *7:213 *2885:B 0.000185643
175 *7:213 *3289:A 6.1079e-05
176 *7:213 *3289:B 0
177 *7:213 *39:129 0.000388146
178 *7:213 *746:8 0
179 *7:213 *1431:8 0
180 *7:213 *1433:10 5.52238e-05
181 *7:215 *2584:B 5.52302e-05
182 *7:215 *2587:B 3.18676e-05
183 *7:215 *2885:B 0.000753293
184 *7:215 *745:12 1.92905e-05
185 *7:225 *2593:B 1.02504e-05
186 *7:225 *2655:B 5.71472e-05
187 *7:225 *2885:B 0.000228815
188 *7:225 *3303:A 0.000186669
189 *7:225 *8:139 7.3237e-05
190 *7:225 *29:198 5.84171e-05
191 *7:225 *40:185 2.95641e-05
192 *7:225 *40:198 0.000134529
193 *7:225 *206:14 0.000117196
194 *7:225 *806:6 6.7569e-05
195 *7:237 *2592:B 0.000652858
196 *7:237 *2593:B 0.000177948
197 *7:237 *31:266 5.52302e-05
198 *7:237 *206:14 0.000177948
199 *7:237 *275:12 2.61337e-05
200 *7:237 *751:12 9.90367e-05
201 *7:237 *757:16 0
202 *7:247 *2600:B 0
203 *7:247 *2650:A 0
204 *7:247 *2663:A 0
205 *7:247 *2905:B 0
206 *7:247 *31:266 0.000272371
207 *7:247 *32:163 5.52302e-05
208 *7:247 *42:51 2.44318e-05
209 *7:247 *275:12 0
210 *7:247 *757:16 4.57445e-05
211 *5:11 *7:13 0.000267884
212 *5:209 *7:13 8.99513e-05
213 *5:252 *7:34 1.62025e-05
214 *6:38 *7:68 0
*RES
1 xN[4] *7:13 47.4821 
2 *7:13 *7:19 30.8929 
3 *7:19 *2538:A 15.4429 
4 *7:19 *7:34 12.8214 
5 *7:34 *7:40 14.0893 
6 *7:40 *2544:A 20.6036 
7 *7:40 *7:51 3.16071 
8 *7:51 *2551:A 13.8 
9 *7:51 *7:68 26.7857 
10 *7:68 *7:78 21.25 
11 *7:78 *7:84 17.3214 
12 *7:84 *7:94 20.2143 
13 *7:94 *7:96 7.51786 
14 *7:96 *2564:A 12.7107 
15 *7:96 *7:111 34.4286 
16 *7:111 *2573:A 14.3357 
17 *7:111 *7:124 7.94643 
18 *7:124 *2571:A 21.7286 
19 *7:124 *2577:A 16.05 
20 *7:94 *2566:A 9.3 
21 *7:84 *2557:A 26.4607 
22 *7:78 *2560:A 9.3 
23 *7:68 *2553:A 9.3 
24 *7:34 *2546:A 11.0857 
25 *7:13 *2540:A 17.4964 
26 *2577:A *7:197 15.9964 
27 *7:197 *7:213 20.5536 
28 *7:213 *7:215 7.10714 
29 *7:215 *7:225 21.8036 
30 *7:225 *7:237 23.1786 
31 *7:237 *7:247 17.1071 
32 *7:247 *2599:A 34.6393 
33 *7:247 *2597:A 9.3 
34 *7:237 *2590:A 9.3 
35 *7:225 *2593:A 13.8 
36 *7:215 *2584:A 9.3 
37 *7:213 *2586:A 9.3 
38 *7:197 *2579:A 9.3 
*END

*D_NET *8 0.0691645
*CONN
*P xN[5] I
*I *2624:A I *D sky130_fd_sc_hd__and2_1
*I *2627:A I *D sky130_fd_sc_hd__and2_1
*I *2618:A I *D sky130_fd_sc_hd__and2_1
*I *2631:A I *D sky130_fd_sc_hd__and2_1
*I *2638:A I *D sky130_fd_sc_hd__and2_1
*I *2640:A I *D sky130_fd_sc_hd__and2_1
*I *2646:A I *D sky130_fd_sc_hd__and2_1
*I *2644:A I *D sky130_fd_sc_hd__and2_1
*I *2653:A I *D sky130_fd_sc_hd__and2_1
*I *2660:A I *D sky130_fd_sc_hd__and2_1
*I *2651:A I *D sky130_fd_sc_hd__and2_1
*I *2657:A I *D sky130_fd_sc_hd__and2_1
*I *2664:A I *D sky130_fd_sc_hd__and2_1
*I *2666:A I *D sky130_fd_sc_hd__and2_1
*I *2633:A I *D sky130_fd_sc_hd__and2_1
*I *2620:A I *D sky130_fd_sc_hd__and2_1
*I *2613:A I *D sky130_fd_sc_hd__and2_1
*I *2611:A I *D sky130_fd_sc_hd__and2_1
*I *2605:A I *D sky130_fd_sc_hd__and2_1
*I *2607:A I *D sky130_fd_sc_hd__and2_1
*CAP
1 xN[5] 0.00140237
2 *2624:A 0
3 *2627:A 0
4 *2618:A 0.000526425
5 *2631:A 0.000713067
6 *2638:A 0
7 *2640:A 0
8 *2646:A 0.000191859
9 *2644:A 0
10 *2653:A 0
11 *2660:A 0.000115161
12 *2651:A 0.000229957
13 *2657:A 0
14 *2664:A 0
15 *2666:A 0.000170807
16 *2633:A 4.57542e-05
17 *2620:A 5.34673e-05
18 *2613:A 0
19 *2611:A 0
20 *2605:A 0.000550034
21 *2607:A 0
22 *8:280 0.002394
23 *8:262 0.00229479
24 *8:238 0.000953304
25 *8:229 0.000277827
26 *8:216 0.000332556
27 *8:175 0.000461062
28 *8:158 0.000802489
29 *8:143 0.00127855
30 *8:139 0.00166412
31 *8:131 0.00129317
32 *8:123 0.00122531
33 *8:115 0.0025074
34 *8:104 0.00157774
35 *8:100 0.00207856
36 *8:56 0.000846053
37 *8:50 0.000631458
38 *8:42 0.00208845
39 *8:38 0.00467046
40 *8:21 0.00236059
41 *8:15 0.00237095
42 *2605:A *2187:B 0
43 *2605:A *2605:B 0.000319396
44 *2605:A *2611:B 1.0609e-05
45 *2605:A *3020:A 0.000198416
46 *2605:A *3020:B 6.43609e-05
47 *2605:A *354:6 5.50052e-05
48 *2605:A *709:8 3.79336e-05
49 *2618:A *2629:A 0
50 *2618:A *2629:B 5.52302e-05
51 *2618:A *17:134 0
52 *2618:A *17:138 6.57032e-05
53 *2618:A *25:213 5.80706e-06
54 *2618:A *25:222 0.000186416
55 *2618:A *36:132 0.000118948
56 *2618:A *782:12 1.74352e-05
57 *2620:A *2620:B 2.59355e-05
58 *2631:A *2750:A 9.47456e-05
59 *2631:A *2762:B 0.000104974
60 *2631:A *3282:B1 9.34004e-05
61 *2631:A *20:244 8.53432e-05
62 *2631:A *35:206 0.000343836
63 *2631:A *38:113 9.90367e-05
64 *2631:A *117:14 0.000339316
65 *2631:A *911:6 0.000222666
66 *2631:A *1111:14 0
67 *2633:A *10:110 9.71197e-05
68 *2646:A *35:206 0.000465143
69 *2646:A *38:107 0.000140933
70 *2651:A *29:81 7.33494e-06
71 *2651:A *40:170 0.000393949
72 *2651:A *514:14 0.000177948
73 *2651:A *811:12 0.000128154
74 *2651:A *817:12 4.23086e-05
75 *2660:A *22:235 0.000256985
76 *2660:A *40:45 2.79421e-05
77 *2666:A *9:60 6.30388e-05
78 *2666:A *10:57 0.000215583
79 *2666:A *42:136 1.02504e-05
80 *2666:A *279:8 0.000159217
81 *8:15 *18:11 0.000345863
82 *8:21 *2162:B1 0.000128146
83 *8:21 *13:7 0.000838429
84 *8:21 *17:11 0
85 *8:21 *23:275 0
86 *8:21 *23:281 1.02504e-05
87 *8:21 *26:11 0.00118843
88 *8:21 *26:79 0
89 *8:21 *33:127 0.000709103
90 *8:21 *33:249 0.00062582
91 *8:21 *33:266 0.000727087
92 *8:21 *34:136 0.000655337
93 *8:21 *36:9 6.8646e-06
94 *8:21 *1321:18 1.88048e-05
95 *8:38 *2327:A 0
96 *8:38 *2327:B 0
97 *8:38 *2360:A 0
98 *8:38 *2405:B 0.000141985
99 *8:38 *2647:A 0.000103253
100 *8:38 *2647:B 1.72894e-05
101 *8:38 *14:62 0
102 *8:38 *23:281 0.000335215
103 *8:38 *33:266 2.31791e-05
104 *8:38 *34:117 0
105 *8:38 *36:316 0.000255126
106 *8:38 *38:177 7.60306e-05
107 *8:38 *1259:14 7.67221e-05
108 *8:42 *2493:A 2.89114e-05
109 *8:42 *2620:B 6.57032e-05
110 *8:42 *3323:B 2.89114e-05
111 *8:42 *3326:B1 0.000125057
112 *8:42 *26:67 6.62783e-05
113 *8:42 *26:71 0.000621674
114 *8:42 *26:121 6.22626e-05
115 *8:42 *1470:14 0.000104328
116 *8:50 *2673:A 0.00020212
117 *8:50 *9:222 0.000140375
118 *8:50 *9:224 0.000383747
119 *8:50 *23:172 0.000394476
120 *8:50 *25:169 0.000956798
121 *8:56 *2611:B 1.48252e-05
122 *8:56 *2615:A 4.93118e-06
123 *8:56 *23:172 0.000549222
124 *8:56 *25:169 0.000191127
125 *8:56 *354:6 0.000226274
126 *8:100 *2444:B 7.22614e-05
127 *8:100 *2504:A 7.50601e-05
128 *8:100 *2633:B 0
129 *8:100 *3053:A2 0.000142856
130 *8:100 *3335:A 0.000116183
131 *8:100 *14:91 7.79031e-05
132 *8:100 *16:180 8.13599e-05
133 *8:100 *37:227 0
134 *8:100 *38:171 0.00010965
135 *8:100 *38:177 0.000115082
136 *8:100 *39:231 0
137 *8:100 *39:245 0
138 *8:100 *619:12 0
139 *8:100 *1104:12 0
140 *8:100 *1196:12 0.000148196
141 *8:104 *2633:B 6.5185e-05
142 *8:104 *16:180 0
143 *8:115 *2454:A 0.000148196
144 *8:115 *2516:A 5.5782e-05
145 *8:115 *2633:B 4.46186e-06
146 *8:115 *2645:B 0
147 *8:115 *2705:B 1.76039e-05
148 *8:115 *3260:B 1.87955e-05
149 *8:115 *16:180 0
150 *8:115 *16:195 0.000333155
151 *8:115 *16:212 1.46624e-05
152 *8:115 *17:167 0
153 *8:115 *27:89 0
154 *8:115 *29:220 0
155 *8:115 *39:174 0.000288412
156 *8:115 *625:12 0.000128154
157 *8:115 *680:10 4.57445e-05
158 *8:115 *686:12 0.000174844
159 *8:115 *1198:10 0
160 *8:123 *18:125 0.000268396
161 *8:123 *28:84 0.000791541
162 *8:123 *28:95 0.000746844
163 *8:123 *29:206 9.71197e-05
164 *8:131 *2828:B 5.71472e-05
165 *8:131 *28:84 0.000961599
166 *8:131 *29:198 0.000195562
167 *8:131 *29:206 0.000870549
168 *8:131 *1087:12 0
169 *8:139 *2024:B 0
170 *8:139 *2598:A 0
171 *8:139 *17:283 0
172 *8:139 *17:294 0
173 *8:139 *25:74 0.00212051
174 *8:139 *32:193 0.000604203
175 *8:139 *32:199 0.000439656
176 *8:139 *40:185 0.000307343
177 *8:139 *139:8 0
178 *8:139 *697:14 0
179 *8:143 *22:201 0.000783405
180 *8:143 *22:235 0.000653877
181 *8:143 *40:45 0.000206953
182 *8:143 *147:10 5.71472e-05
183 *8:158 *2376:A 0.000177948
184 *8:158 *2376:B 0.000214342
185 *8:158 *2663:B 1.69115e-05
186 *8:158 *2905:B 0
187 *8:158 *2908:A 0.000154762
188 *8:158 *2908:B 0.000153047
189 *8:158 *9:60 0.0002261
190 *8:158 *29:89 0.000379092
191 *8:158 *42:45 2.56694e-05
192 *8:158 *279:8 0.000334555
193 *8:175 *2663:B 4.1331e-06
194 *8:175 *2667:A 0.000153047
195 *8:175 *2905:B 0
196 *8:175 *29:81 0.000128462
197 *8:175 *29:89 4.53593e-05
198 *8:175 *817:12 7.65511e-05
199 *8:216 *2645:B 0
200 *8:216 *2705:B 8.68569e-05
201 *8:216 *38:107 9.69119e-06
202 *8:229 *35:206 0.000181803
203 *8:229 *38:107 0.000169366
204 *8:238 *2638:B 9.41642e-05
205 *8:238 *35:206 0.00103642
206 *8:238 *38:107 8.46829e-05
207 *8:238 *38:113 0.000450887
208 *8:262 *2632:A 0.000178847
209 *8:262 *2693:B 6.05161e-06
210 *8:262 *3053:A2 4.38128e-05
211 *8:262 *20:80 4.72513e-05
212 *8:280 *2624:B 4.46186e-06
213 *8:280 *2628:B 0
214 *8:280 *18:320 0.000544239
215 *8:280 *26:139 0.00053159
216 *8:280 *26:152 1.04707e-05
217 *8:280 *28:146 0.00018553
218 *8:280 *36:132 4.9071e-05
219 *8:280 *38:142 0
220 *8:280 *1023:16 0
221 *3346:A *8:100 7.88588e-05
222 *4:149 *8:38 7.57869e-05
223 *4:160 *8:38 8.91726e-05
224 *4:160 *8:100 0.000114838
225 *4:171 *8:100 0.000195132
226 *5:105 *8:38 4.87953e-05
227 *7:13 *8:21 0
228 *7:225 *8:139 7.3237e-05
*RES
1 xN[5] *8:15 38.1071 
2 *8:15 *8:21 38.125 
3 *8:21 *2607:A 13.8 
4 *8:21 *8:38 31.5179 
5 *8:38 *8:42 34.1964 
6 *8:42 *8:50 19.5536 
7 *8:50 *8:56 13.7857 
8 *8:56 *2605:A 31.1036 
9 *8:56 *2611:A 9.3 
10 *8:50 *2613:A 13.8 
11 *8:42 *2620:A 10.2643 
12 *8:38 *8:100 37 
13 *8:100 *8:104 6.14286 
14 *8:104 *2633:A 14.7464 
15 *8:104 *8:115 32.3036 
16 *8:115 *8:123 25.6071 
17 *8:123 *8:131 20.7143 
18 *8:131 *8:139 39.1429 
19 *8:139 *8:143 18.1786 
20 *8:143 *2666:A 18.175 
21 *8:143 *8:158 18.0893 
22 *8:158 *2664:A 13.8 
23 *8:158 *8:175 6.30357 
24 *8:175 *2657:A 13.8 
25 *8:175 *2651:A 20.175 
26 *8:139 *2660:A 12.3179 
27 *8:131 *2653:A 9.3 
28 *8:123 *2644:A 9.3 
29 *8:115 *8:216 6.75 
30 *8:216 *2646:A 14.4964 
31 *8:216 *8:229 1.76786 
32 *8:229 *2640:A 9.3 
33 *8:229 *8:238 10.4107 
34 *8:238 *2638:A 9.3 
35 *8:238 *2631:A 36.175 
36 *8:100 *8:262 6.32143 
37 *8:262 *8:280 29.3026 
38 *8:280 *2618:A 28.8714 
39 *8:280 *2627:A 9.3 
40 *8:262 *2624:A 9.3 
*END

*D_NET *9 0.0644597
*CONN
*P xN[6] I
*I *2710:A I *D sky130_fd_sc_hd__and2_1
*I *2697:A I *D sky130_fd_sc_hd__and2_1
*I *2684:A I *D sky130_fd_sc_hd__and2_1
*I *2686:A I *D sky130_fd_sc_hd__and2_1
*I *2693:A I *D sky130_fd_sc_hd__and2_1
*I *2677:A I *D sky130_fd_sc_hd__and2_1
*I *2679:A I *D sky130_fd_sc_hd__and2_1
*I *2671:A I *D sky130_fd_sc_hd__and2_1
*I *2673:A I *D sky130_fd_sc_hd__and2_1
*I *2690:A I *D sky130_fd_sc_hd__and2_1
*I *2699:A I *D sky130_fd_sc_hd__and2_1
*I *2706:A I *D sky130_fd_sc_hd__and2_1
*I *2704:A I *D sky130_fd_sc_hd__and2_1
*I *2720:A I *D sky130_fd_sc_hd__and2_1
*I *2712:A I *D sky130_fd_sc_hd__and2_1
*I *2724:A I *D sky130_fd_sc_hd__and2_1
*I *2731:A I *D sky130_fd_sc_hd__and2_1
*I *2727:A I *D sky130_fd_sc_hd__and2_1
*I *2733:A I *D sky130_fd_sc_hd__and2_1
*I *2718:A I *D sky130_fd_sc_hd__and2_1
*CAP
1 xN[6] 0.00117618
2 *2710:A 0
3 *2697:A 6.54466e-05
4 *2684:A 2.04426e-05
5 *2686:A 0
6 *2693:A 0.000714938
7 *2677:A 0
8 *2679:A 6.20462e-05
9 *2671:A 4.06461e-05
10 *2673:A 0.000144563
11 *2690:A 0
12 *2699:A 0.000135258
13 *2706:A 2.6909e-05
14 *2704:A 0.000500177
15 *2720:A 0.0011862
16 *2712:A 7.59911e-05
17 *2724:A 0
18 *2731:A 0
19 *2727:A 0
20 *2733:A 0
21 *2718:A 0
22 *9:262 0.000714938
23 *9:224 0.000295904
24 *9:222 0.000762142
25 *9:220 0.000943421
26 *9:218 0.000772009
27 *9:216 0.00116487
28 *9:203 0.00271701
29 *9:183 0.00211627
30 *9:168 0.000943731
31 *9:157 0.00152289
32 *9:132 0.00204848
33 *9:115 0.00255532
34 *9:102 0.00197891
35 *9:78 0.00149147
36 *9:60 0.00299932
37 *9:48 0.00186773
38 *9:42 0.0013336
39 *9:29 0.00148288
40 *9:21 0.00201894
41 *9:13 0.00135161
42 *2671:A *2671:B 6.05161e-06
43 *2673:A *23:172 0.000150625
44 *2673:A *23:189 4.80729e-05
45 *2673:A *1173:10 9.31209e-05
46 *2679:A *2679:B 5.52302e-05
47 *2679:A *24:99 1.98839e-05
48 *2679:A *171:10 0.000180777
49 *2684:A *25:258 2.59355e-05
50 *2684:A *189:6 5.33005e-05
51 *2693:A *2685:B 0.000135028
52 *2693:A *2753:B 0.000186445
53 *2693:A *2755:B 0.00010096
54 *2693:A *10:110 0.000381765
55 *2693:A *26:158 0.0011706
56 *2693:A *36:157 0.00122448
57 *2697:A *19:286 0.000102207
58 *2697:A *20:238 1.02936e-05
59 *2697:A *117:14 8.50152e-05
60 *2697:A *190:10 4.66511e-05
61 *2697:A *193:10 5.62995e-05
62 *2699:A *10:192 0
63 *2699:A *1136:18 0
64 *2704:A *2703:A 0
65 *2704:A *2707:B 1.55485e-05
66 *2704:A *38:101 0.000173606
67 *2704:A *1133:10 0
68 *2704:A *1139:12 0
69 *2704:A *1145:10 0
70 *2704:A *1447:10 0
71 *2706:A *19:269 3.18676e-05
72 *2712:A *2772:B 2.12952e-05
73 *2712:A *2883:A 0.000209202
74 *2712:A *20:215 7.61501e-05
75 *2720:A *2467:B 0
76 *2720:A *2720:B 5.52238e-05
77 *2720:A *2823:B 0
78 *2720:A *3304:B1 0.000125724
79 *2720:A *32:258 9.60939e-05
80 *2720:A *32:273 0.000214198
81 *2720:A *39:95 0.000126371
82 *2720:A *698:10 0.000213351
83 *2720:A *1087:12 0
84 *2720:A *1444:10 0.000177227
85 *2720:A *1448:16 0.000676605
86 *2720:A *1455:10 0
87 *9:13 *10:137 0
88 *9:13 *11:7 0.000671964
89 *9:13 *19:11 0.000506429
90 *9:13 *21:7 0
91 *9:13 *22:127 0
92 *9:13 *28:23 0
93 *9:13 *29:52 0.000143375
94 *9:13 *39:46 0.000140088
95 *9:13 *1371:16 1.26352e-05
96 *9:21 *28:23 0
97 *9:21 *29:62 1.90936e-05
98 *9:21 *1371:16 0
99 *9:29 *2721:B 3.18676e-05
100 *9:29 *2778:A 0.000125724
101 *9:29 *2779:B 0
102 *9:29 *3012:B1 0
103 *9:29 *10:137 0.000400258
104 *9:29 *19:222 0
105 *9:29 *20:194 3.45763e-05
106 *9:29 *30:48 5.45307e-05
107 *9:29 *30:60 2.75484e-05
108 *9:29 *1307:10 0
109 *9:29 *1371:16 0
110 *9:29 *1371:18 0
111 *9:42 *2787:A 7.3237e-05
112 *9:42 *3097:A2 9.60875e-05
113 *9:42 *19:11 0
114 *9:42 *19:21 4.52236e-05
115 *9:42 *20:15 0.000106699
116 *9:42 *20:19 0.000383156
117 *9:42 *30:48 0.000109444
118 *9:42 *936:12 0.00034043
119 *9:42 *1242:14 0.00014183
120 *9:48 *19:21 0.000748098
121 *9:48 *20:19 0.00074645
122 *9:48 *32:139 0.000263524
123 *9:48 *524:12 6.86792e-05
124 *9:60 *2908:B 0.000153047
125 *9:60 *3228:B 5.33005e-05
126 *9:60 *10:57 5.41794e-05
127 *9:60 *29:89 0.000343217
128 *9:60 *41:87 5.33005e-05
129 *9:60 *522:8 7.77751e-05
130 *9:60 *524:12 0.000257315
131 *9:60 *525:14 0.000901123
132 *9:60 *1252:6 9.71197e-05
133 *9:78 *2034:B 0.000100018
134 *9:78 *2097:A 7.26935e-05
135 *9:78 *2097:B 0
136 *9:78 *2729:B 5.52302e-05
137 *9:78 *2732:B 1.21289e-05
138 *9:78 *2793:A 2.47093e-05
139 *9:78 *2798:A 0.000259941
140 *9:78 *2912:B 0.000721391
141 *9:78 *2918:A 5.52238e-05
142 *9:78 *2918:B 0.000133464
143 *9:78 *2921:A 9.80173e-05
144 *9:78 *12:157 0.000266479
145 *9:78 *29:108 0.000888361
146 *9:78 *31:85 0
147 *9:78 *31:91 0
148 *9:78 *41:87 4.40249e-05
149 *9:78 *41:104 0.000134882
150 *9:78 *215:8 0
151 *9:78 *277:10 0
152 *9:102 *2709:A 6.08019e-05
153 *9:102 *19:237 0.000437664
154 *9:102 *28:23 0
155 *9:115 *19:237 6.92466e-05
156 *9:115 *19:252 0.000195383
157 *9:132 *18:115 0
158 *9:132 *19:252 0.000353465
159 *9:157 *3074:A 3.37161e-05
160 *9:157 *3074:B 4.27438e-05
161 *9:157 *3075:A1 6.05009e-05
162 *9:157 *3075:B1 0.000202719
163 *9:157 *10:179 2.32625e-05
164 *9:157 *19:269 0.000140819
165 *9:157 *1145:10 0
166 *9:157 *1220:12 2.89114e-05
167 *9:157 *1221:10 9.97552e-05
168 *9:168 *2012:A 1.21258e-05
169 *9:168 *2013:A2 0.000272371
170 *9:168 *2013:B1 0.000122091
171 *9:168 *2705:B 7.77652e-05
172 *9:168 *2706:B 7.32272e-05
173 *9:168 *2708:B 0.000136951
174 *9:168 *19:269 4.16899e-05
175 *9:168 *19:286 0.000363201
176 *9:168 *20:238 0.000955701
177 *9:183 *2013:A2 0.000269422
178 *9:183 *20:238 0.000297849
179 *9:183 *117:14 4.08637e-05
180 *9:203 *27:143 0.000122062
181 *9:203 *37:89 0.000189908
182 *9:203 *117:14 0.00017591
183 *9:203 *190:10 0.000177735
184 *9:203 *1111:14 2.11419e-05
185 *9:216 *2690:B 6.12335e-05
186 *9:216 *2965:A 4.58194e-05
187 *9:216 *2968:B1 0.000154089
188 *9:216 *10:202 0.000114838
189 *9:216 *10:208 0.000495124
190 *9:216 *11:232 0.00030963
191 *9:216 *27:143 0.000130593
192 *9:216 *787:6 5.33334e-05
193 *9:218 *10:208 0.000454292
194 *9:218 *10:214 0.000346639
195 *9:218 *11:232 0.000209584
196 *9:218 *11:234 0.000252853
197 *9:218 *11:240 0.000133308
198 *9:218 *24:108 0.000105262
199 *9:218 *24:119 7.8894e-05
200 *9:218 *35:133 4.49293e-05
201 *9:220 *2806:A 0.000604203
202 *9:220 *24:108 0.000280909
203 *9:220 *35:133 0.000780198
204 *9:222 *2626:A 0.000159252
205 *9:222 *18:264 1.94879e-05
206 *9:222 *24:99 0.000692
207 *9:222 *24:108 1.41029e-05
208 *9:222 *25:169 3.17018e-05
209 *9:222 *25:192 0.000159585
210 *9:222 *35:116 0.000492493
211 *9:222 *35:133 0.000103285
212 *9:224 *23:189 0.000222885
213 *9:224 *24:99 3.17067e-05
214 *9:224 *34:189 3.9718e-05
215 *2666:A *9:60 6.30388e-05
216 *8:50 *2673:A 0.00020212
217 *8:50 *9:222 0.000140375
218 *8:50 *9:224 0.000383747
219 *8:158 *9:60 0.0002261
*RES
1 xN[6] *9:13 13.103 
2 *9:13 *9:21 8.44999 
3 *9:21 *9:29 19.4725 
4 *9:29 *2718:A 9.3 
5 *9:29 *9:42 22.9643 
6 *9:42 *9:48 17.4464 
7 *9:48 *9:60 40.3929 
8 *9:60 *9:78 43.3036 
9 *9:78 *2733:A 9.3 
10 *9:60 *2727:A 9.3 
11 *9:48 *2731:A 9.3 
12 *9:42 *2724:A 13.8 
13 *9:21 *9:102 3.29 
14 *9:102 *2712:A 19.9154 
15 *9:102 *9:115 1.5604 
16 *9:115 *2720:A 44.1654 
17 *9:115 *9:132 5.54693 
18 *9:132 *2704:A 22.1304 
19 *9:132 *9:157 16.2232 
20 *9:157 *2706:A 10.2643 
21 *9:157 *9:168 19.4286 
22 *9:168 *2699:A 20.2464 
23 *9:168 *9:183 7.5 
24 *9:183 *9:203 23.9864 
25 *9:203 *2690:A 9.3 
26 *9:203 *9:216 21.7679 
27 *9:216 *9:218 15 
28 *9:218 *9:220 14.3929 
29 *9:220 *9:222 19.5536 
30 *9:222 *9:224 4.98214 
31 *9:224 *2673:A 18.1214 
32 *9:224 *2671:A 14.3357 
33 *9:222 *2679:A 15.5679 
34 *9:220 *2677:A 13.8 
35 *9:218 *9:262 4.5 
36 *9:262 *2693:A 33.8179 
37 *9:262 *2686:A 9.3 
38 *9:216 *2684:A 14.3357 
39 *9:183 *2697:A 16.3 
40 *9:13 *2710:A 9.3 
*END

*D_NET *10 0.0679947
*CONN
*P xN[7] I
*I *2779:A I *D sky130_fd_sc_hd__and2_1
*I *2771:A I *D sky130_fd_sc_hd__and2_1
*I *2757:A I *D sky130_fd_sc_hd__and2_1
*I *2760:A I *D sky130_fd_sc_hd__and2_1
*I *2751:A I *D sky130_fd_sc_hd__and2_1
*I *2744:A I *D sky130_fd_sc_hd__and2_1
*I *2746:A I *D sky130_fd_sc_hd__and2_1
*I *2738:A I *D sky130_fd_sc_hd__and2_1
*I *2740:A I *D sky130_fd_sc_hd__and2_1
*I *2766:A I *D sky130_fd_sc_hd__and2_1
*I *2764:A I *D sky130_fd_sc_hd__and2_1
*I *2773:A I *D sky130_fd_sc_hd__and2_1
*I *2784:A I *D sky130_fd_sc_hd__and2_1
*I *2790:A I *D sky130_fd_sc_hd__and2_1
*I *2753:A I *D sky130_fd_sc_hd__and2_1
*I *2786:A I *D sky130_fd_sc_hd__and2_1
*I *2793:A I *D sky130_fd_sc_hd__and2_1
*I *2799:A I *D sky130_fd_sc_hd__and2_1
*I *2797:A I *D sky130_fd_sc_hd__and2_1
*I *2777:A I *D sky130_fd_sc_hd__and2_1
*CAP
1 xN[7] 0.000588145
2 *2779:A 0.000128641
3 *2771:A 0.000103575
4 *2757:A 0.00021439
5 *2760:A 0
6 *2751:A 0
7 *2744:A 0.000351765
8 *2746:A 0
9 *2738:A 0
10 *2740:A 8.71825e-05
11 *2766:A 0
12 *2764:A 2.23854e-05
13 *2773:A 0.000124654
14 *2784:A 0.000217293
15 *2790:A 0
16 *2753:A 0
17 *2786:A 0
18 *2793:A 0.00075729
19 *2799:A 0.000140152
20 *2797:A 3.32612e-05
21 *2777:A 0
22 *10:226 0.000936162
23 *10:214 0.000986577
24 *10:208 0.000878429
25 *10:202 0.00165022
26 *10:192 0.00174526
27 *10:188 0.000973796
28 *10:179 0.00223095
29 *10:162 0.00291555
30 *10:145 0.00205175
31 *10:137 0.0014207
32 *10:133 0.00102087
33 *10:110 0.00281896
34 *10:91 0.00378619
35 *10:57 0.00153512
36 *10:51 0.00257854
37 *10:38 0.00118125
38 *10:32 0.000764419
39 *10:26 0.00101735
40 *10:24 0.00107946
41 *10:13 0.000892925
42 *2740:A *19:130 0.000108542
43 *2740:A *23:220 3.34366e-05
44 *2740:A *33:197 1.02504e-05
45 *2740:A *34:200 9.76969e-05
46 *2744:A *2744:B 0.000361547
47 *2744:A *2809:B 2.84494e-05
48 *2744:A *2810:A 3.69047e-06
49 *2744:A *2960:A 5.52302e-05
50 *2744:A *24:136 2.14757e-05
51 *2757:A *2756:A 5.52302e-05
52 *2757:A *36:238 0.000180317
53 *2757:A *190:10 0
54 *2757:A *193:10 0
55 *2757:A *1220:24 0.00040086
56 *2771:A *20:194 7.05867e-05
57 *2771:A *996:10 0
58 *2771:A *1371:16 0
59 *2773:A *2773:B 0.000160741
60 *2773:A *2884:A 7.6644e-05
61 *2773:A *12:251 0.000218734
62 *2773:A *1150:10 1.41029e-05
63 *2779:A *21:114 6.23141e-05
64 *2784:A *30:20 0.000265453
65 *2793:A *2032:A 3.82641e-05
66 *2793:A *2032:B 9.60939e-05
67 *2793:A *2034:A 2.59355e-05
68 *2793:A *2034:B 0.000195562
69 *2793:A *2035:A1 0.000125724
70 *2793:A *2035:A2 2.89114e-05
71 *2793:A *2919:A 8.15561e-05
72 *2793:A *2919:B 0.000128818
73 *2793:A *2921:B 2.89016e-05
74 *2793:A *31:91 4.88546e-05
75 *2793:A *42:140 0
76 *2793:A *213:8 5.33334e-05
77 *2793:A *1069:6 9.31893e-05
78 *2797:A *11:41 2.84398e-05
79 *2797:A *32:11 1.76135e-05
80 *2797:A *32:17 1.76039e-05
81 *2799:A *2032:A 1.24368e-05
82 *2799:A *2799:B 6.71755e-05
83 *10:13 *12:9 0.000404418
84 *10:13 *20:166 0
85 *10:13 *22:22 0
86 *10:13 *27:9 0.000512186
87 *10:13 *29:24 9.71123e-06
88 *10:13 *930:10 0
89 *10:24 *11:23 0.000205341
90 *10:24 *21:9 3.89636e-05
91 *10:24 *21:15 3.48023e-05
92 *10:24 *21:271 3.06366e-05
93 *10:24 *29:24 5.33005e-05
94 *10:24 *29:37 0.000289001
95 *10:26 *11:23 0.000382487
96 *10:26 *21:15 0.000285039
97 *10:26 *30:22 2.24646e-05
98 *10:26 *30:48 0.000125372
99 *10:32 *2794:B 1.92905e-05
100 *10:32 *2846:A 0.000268403
101 *10:32 *2917:B 0.000993401
102 *10:32 *3104:B 2.49484e-05
103 *10:32 *21:15 0.000288444
104 *10:32 *21:19 8.16757e-05
105 *10:32 *21:31 0.000175519
106 *10:32 *30:22 0.000573587
107 *10:32 *31:15 9.41642e-05
108 *10:32 *41:30 7.80714e-06
109 *10:32 *42:45 0.000414762
110 *10:32 *943:8 5.24274e-05
111 *10:38 *2796:A 0.000128146
112 *10:38 *2796:B 0.000369811
113 *10:38 *11:41 8.98994e-05
114 *10:38 *20:21 0.00025263
115 *10:38 *31:15 5.33005e-05
116 *10:38 *32:11 8.63888e-05
117 *10:51 *2386:A 4.4974e-05
118 *10:51 *2797:B 5.52302e-05
119 *10:51 *2800:B 5.52302e-05
120 *10:51 *2861:A 4.88637e-05
121 *10:51 *21:31 0.000227532
122 *10:51 *21:41 3.6392e-05
123 *10:51 *41:87 0.000557639
124 *10:51 *521:12 1.14548e-05
125 *10:51 *1009:10 9.80173e-05
126 *10:57 *2100:B1 0.000322453
127 *10:57 *2395:B 0
128 *10:57 *19:45 0
129 *10:57 *42:136 0.000551679
130 *10:57 *525:14 0.00011159
131 *10:57 *541:18 0.000210385
132 *10:57 *1010:8 0.000290293
133 *10:91 *1965:B 9.71197e-05
134 *10:91 *1966:B 5.52238e-05
135 *10:91 *1967:A2 2.89016e-05
136 *10:91 *1967:B1 2.14757e-05
137 *10:91 *2788:A 1.92789e-05
138 *10:91 *2788:B 3.0807e-05
139 *10:91 *12:157 7.50721e-05
140 *10:91 *41:87 4.08637e-05
141 *10:91 *41:104 0.000155895
142 *10:91 *145:8 0.000227526
143 *10:91 *878:6 0.000354105
144 *10:110 *2633:B 5.52238e-05
145 *10:110 *2635:B 5.33433e-05
146 *10:110 *2870:B 2.44318e-05
147 *10:110 *2875:B 0.000160329
148 *10:110 *2877:B 0.000170692
149 *10:110 *2878:B 0.000553821
150 *10:110 *2881:A 5.52302e-05
151 *10:110 *2881:B 5.33005e-05
152 *10:110 *2940:A 0.000304139
153 *10:110 *12:157 0.000219552
154 *10:110 *33:283 0.000183726
155 *10:110 *1086:6 2.24763e-05
156 *10:110 *1132:12 1.26294e-05
157 *10:133 *2910:A 3.68898e-05
158 *10:133 *2914:A 5.52302e-05
159 *10:133 *3161:A 0.000122591
160 *10:133 *21:114 0.000165055
161 *10:133 *1062:6 0.000264428
162 *10:133 *1304:8 5.33005e-05
163 *10:137 *2715:B 0.00015234
164 *10:137 *20:194 4.6511e-05
165 *10:137 *29:62 0.00014348
166 *10:137 *1371:16 0
167 *10:145 *2715:A 5.49544e-05
168 *10:145 *2715:B 0.000182598
169 *10:145 *2898:B 0.000315165
170 *10:145 *2901:A 0.00014285
171 *10:145 *22:48 0.000362013
172 *10:145 *22:61 0.000359879
173 *10:145 *864:10 0.000185643
174 *10:162 *2716:A 0.000134368
175 *10:162 *2716:B 0.000200501
176 *10:162 *22:61 0.000126566
177 *10:162 *39:76 6.87574e-05
178 *10:162 *39:95 0.000319336
179 *10:162 *138:14 4.85033e-05
180 *10:162 *865:14 5.71472e-05
181 *10:179 *2766:B 2.57472e-05
182 *10:179 *3072:A 3.67257e-05
183 *10:179 *3072:B 9.99644e-06
184 *10:179 *3073:A 7.84126e-05
185 *10:179 *3074:A 4.72818e-05
186 *10:179 *3075:B1 2.13481e-06
187 *10:179 *19:269 0.000993616
188 *10:179 *19:286 0.000525394
189 *10:179 *37:62 2.86754e-05
190 *10:179 *122:8 0.000119706
191 *10:188 *2768:A 0.00014285
192 *10:188 *2768:B 0.000113073
193 *10:188 *21:168 6.09919e-05
194 *10:188 *36:238 0.000499454
195 *10:188 *1220:24 0.00144841
196 *10:192 *2630:A 4.80729e-05
197 *10:192 *2637:A 0.000315894
198 *10:192 *190:10 0.000941179
199 *10:202 *2630:A 8.25098e-05
200 *10:202 *2760:B 0.000234032
201 *10:202 *2821:B 1.72894e-05
202 *10:202 *3282:A2 1.74352e-05
203 *10:202 *11:232 0
204 *10:202 *25:269 5.80706e-06
205 *10:202 *25:282 0.000588504
206 *10:202 *36:220 0.000206248
207 *10:202 *190:10 8.07951e-05
208 *10:202 *970:6 8.71761e-05
209 *10:202 *1426:18 0.000219711
210 *10:208 *2683:A 0
211 *10:208 *24:136 5.83304e-05
212 *10:208 *25:269 0.000253303
213 *10:208 *35:169 0.000121516
214 *10:214 *2745:B 5.33005e-05
215 *10:214 *24:119 3.34366e-05
216 *10:214 *24:136 0.000309773
217 *10:214 *107:16 1.98839e-05
218 *10:226 *2686:B 5.41794e-05
219 *10:226 *2741:B 0.000104974
220 *10:226 *2745:B 8.43535e-06
221 *10:226 *2746:B 6.05161e-06
222 *10:226 *2804:B 0.000498367
223 *10:226 *2808:B 0.000150625
224 *10:226 *19:124 0.000141455
225 *10:226 *19:130 0.000403938
226 *10:226 *21:186 4.90817e-05
227 *10:226 *23:220 0.000923047
228 *10:226 *33:225 0
229 *10:226 *34:213 0.000733837
230 *10:226 *34:230 9.91086e-05
231 *10:226 *35:169 0.000276877
232 *2633:A *10:110 9.71197e-05
233 *2666:A *10:57 0.000215583
234 *2693:A *10:110 0.000381765
235 *2699:A *10:192 0
236 *9:13 *10:137 0
237 *9:29 *10:137 0.000400258
238 *9:60 *10:57 5.41794e-05
239 *9:78 *2793:A 2.47093e-05
240 *9:157 *10:179 2.32625e-05
241 *9:216 *10:202 0.000114838
242 *9:216 *10:208 0.000495124
243 *9:218 *10:208 0.000454292
244 *9:218 *10:214 0.000346639
*RES
1 xN[7] *10:13 16.6017 
2 *10:13 *2777:A 9.3 
3 *10:13 *10:24 11.1786 
4 *10:24 *10:26 7.10714 
5 *10:26 *10:32 27.0536 
6 *10:32 *10:38 11.8393 
7 *10:38 *2797:A 14.5321 
8 *10:38 *10:51 23.1071 
9 *10:51 *10:57 28.5536 
10 *10:57 *2799:A 11.9071 
11 *10:57 *2793:A 33.1214 
12 *10:51 *10:91 17.3214 
13 *10:91 *2786:A 9.3 
14 *10:91 *10:110 44.2857 
15 *10:110 *2753:A 9.3 
16 *10:32 *2790:A 9.3 
17 *10:26 *2784:A 17.6214 
18 *10:24 *10:133 14.4821 
19 *10:133 *10:137 12.8214 
20 *10:137 *10:145 22.4286 
21 *10:145 *2773:A 22.3714 
22 *10:145 *10:162 14.6429 
23 *10:162 *2764:A 9.72857 
24 *10:162 *10:179 35.4286 
25 *10:179 *2766:A 9.3 
26 *10:179 *10:188 14.1071 
27 *10:188 *10:192 16.7679 
28 *10:192 *10:202 30.5893 
29 *10:202 *10:208 13.8393 
30 *10:208 *10:214 9.82143 
31 *10:214 *10:226 32.3571 
32 *10:226 *2740:A 16.6571 
33 *10:226 *2738:A 13.8 
34 *10:214 *2746:A 9.3 
35 *10:208 *2744:A 27.8893 
36 *10:202 *2751:A 13.8 
37 *10:192 *2760:A 13.8 
38 *10:188 *2757:A 24.3714 
39 *10:137 *2771:A 15.7464 
40 *10:133 *2779:A 11.4964 
*END

*D_NET *11 0.0564477
*CONN
*P xN[8] I
*I *2838:A I *D sky130_fd_sc_hd__and2_1
*I *2844:A I *D sky130_fd_sc_hd__and2_1
*I *2831:A I *D sky130_fd_sc_hd__and2_1
*I *2817:A I *D sky130_fd_sc_hd__and2_1
*I *2819:A I *D sky130_fd_sc_hd__and2_1
*I *2810:A I *D sky130_fd_sc_hd__and2_1
*I *2812:A I *D sky130_fd_sc_hd__and2_1
*I *2804:A I *D sky130_fd_sc_hd__and2_1
*I *2806:A I *D sky130_fd_sc_hd__and2_1
*I *2827:A I *D sky130_fd_sc_hd__and2_1
*I *2833:A I *D sky130_fd_sc_hd__and2_1
*I *2823:A I *D sky130_fd_sc_hd__and2_1
*I *2840:A I *D sky130_fd_sc_hd__and2_1
*I *2851:A I *D sky130_fd_sc_hd__and2_1
*I *2846:A I *D sky130_fd_sc_hd__and2_1
*I *2857:A I *D sky130_fd_sc_hd__and2_1
*I *2864:A I *D sky130_fd_sc_hd__and2_1
*I *2860:A I *D sky130_fd_sc_hd__and2_1
*I *2853:A I *D sky130_fd_sc_hd__and2_1
*I *2866:A I *D sky130_fd_sc_hd__and2_1
*CAP
1 xN[8] 0.000329792
2 *2838:A 0.000528264
3 *2844:A 1.56658e-05
4 *2831:A 0.000175666
5 *2817:A 0.000137476
6 *2819:A 0
7 *2810:A 9.8285e-05
8 *2812:A 0.000830847
9 *2804:A 3.94879e-05
10 *2806:A 0.000164237
11 *2827:A 2.37855e-05
12 *2833:A 0
13 *2823:A 2.23854e-05
14 *2840:A 0.000146521
15 *2851:A 0
16 *2846:A 0.000764539
17 *2857:A 6.52224e-05
18 *2864:A 0
19 *2860:A 0
20 *2853:A 0.000859718
21 *2866:A 0
22 *11:240 0.000464086
23 *11:234 0.00121646
24 *11:232 0.00138833
25 *11:222 0.00136101
26 *11:218 0.00232943
27 *11:216 0.00252205
28 *11:199 0.00170582
29 *11:180 0.0017968
30 *11:161 0.00130994
31 *11:144 0.000934112
32 *11:142 0.00147667
33 *11:128 0.00121613
34 *11:72 0.00129876
35 *11:53 0.0010306
36 *11:47 0.00102004
37 *11:41 0.000729341
38 *11:39 0.00149908
39 *11:23 0.00116285
40 *11:9 0.00077748
41 *11:7 0.000931017
42 *2804:A *20:95 4.58194e-05
43 *2804:A *1096:8 3.97677e-05
44 *2806:A *24:108 0.000604203
45 *2812:A *2815:B 5.52238e-05
46 *2812:A *3266:B 0
47 *2812:A *3271:A 3.48705e-05
48 *2812:A *3271:B 0.000353086
49 *2812:A *27:149 0.000128146
50 *2812:A *107:16 5.30237e-05
51 *2812:A *964:6 4.72818e-05
52 *2823:A *2822:B 0
53 *2823:A *2823:B 0
54 *2831:A *2830:A 3.43988e-06
55 *2831:A *2898:B 0.000174805
56 *2831:A *28:44 0.000155033
57 *2831:A *1151:12 0
58 *2838:A *2837:A 0.00012359
59 *2838:A *2838:B 0.000315158
60 *2838:A *2841:A 7.48356e-05
61 *2838:A *2896:B 5.59013e-05
62 *2838:A *37:13 0.000386998
63 *2838:A *930:10 1.46624e-05
64 *2840:A *2842:B 0.000138881
65 *2840:A *28:44 0
66 *2840:A *931:8 0.000308247
67 *2844:A *2843:A 2.14658e-05
68 *2844:A *39:35 5.33005e-05
69 *2846:A *2917:B 0.000174521
70 *2846:A *2920:B 9.78745e-05
71 *2846:A *12:101 0.00052642
72 *2853:A *1976:A2 0.000226507
73 *2853:A *1976:B1 0.000140933
74 *2853:A *2852:A 0.000116438
75 *2853:A *2853:B 5.46298e-05
76 *2853:A *2859:B 5.52238e-05
77 *2853:A *21:62 4.43355e-05
78 *2853:A *31:91 9.34004e-05
79 *2853:A *42:136 0.000176234
80 *2853:A *157:6 0.000351281
81 *2857:A *31:23 0.00010096
82 *11:7 *12:9 0.000532668
83 *11:9 *2837:A 4.68195e-05
84 *11:9 *37:13 4.41146e-05
85 *11:23 *2723:B 0.000256928
86 *11:23 *2837:A 2.42103e-05
87 *11:23 *2917:B 9.25014e-06
88 *11:23 *19:11 0
89 *11:23 *20:19 0
90 *11:23 *21:271 6.19792e-05
91 *11:23 *30:22 0.000587523
92 *11:23 *30:48 0.000116121
93 *11:23 *37:13 0.000709188
94 *11:23 *39:9 0.000136583
95 *11:23 *41:9 8.88838e-05
96 *11:23 *41:11 5.66157e-05
97 *11:23 *41:243 2.59355e-05
98 *11:39 *2381:B 0.000150508
99 *11:39 *2384:B 0.000154762
100 *11:39 *2734:B 0.000103267
101 *11:39 *2789:B 2.69614e-05
102 *11:39 *2796:B 0.000410191
103 *11:39 *31:15 0.00012297
104 *11:39 *31:23 5.41794e-05
105 *11:39 *32:155 5.88016e-05
106 *11:39 *41:11 0.00017516
107 *11:39 *41:30 5.88692e-05
108 *11:39 *42:9 1.18064e-05
109 *11:39 *524:12 0.000129868
110 *11:41 *2796:B 0.000346632
111 *11:41 *21:41 7.80929e-05
112 *11:41 *31:23 0.000728672
113 *11:41 *32:17 0
114 *11:41 *41:40 0
115 *11:47 *2400:A 0.00017309
116 *11:47 *2400:B 0.000125724
117 *11:47 *2863:B 0.000225307
118 *11:47 *21:41 0.000503884
119 *11:47 *21:49 0.000177948
120 *11:47 *32:23 0
121 *11:47 *41:40 0
122 *11:53 zN[0] 0
123 *11:53 *2860:B 0.000253544
124 *11:53 *2863:B 0.000202842
125 *11:53 *2922:A 1.02504e-05
126 *11:53 *2922:B 0.000114938
127 *11:53 *2927:A 7.61932e-05
128 *11:53 *41:55 6.57815e-05
129 *11:72 *2102:B 6.64804e-05
130 *11:72 *2104:B1 3.47641e-06
131 *11:72 *2860:B 0.000382404
132 *11:72 *2866:B 0.000833732
133 *11:72 *22:129 0
134 *11:128 *2843:A 2.89114e-05
135 *11:128 *20:177 2.95726e-05
136 *11:128 *39:35 0.000137983
137 *11:142 *2837:A 5.33072e-05
138 *11:142 *2840:B 1.90303e-05
139 *11:142 *28:9 5.15925e-05
140 *11:142 *38:64 4.05548e-05
141 *11:142 *39:35 0.000357254
142 *11:142 *39:46 0.000711278
143 *11:142 *39:55 6.8529e-05
144 *11:144 *1955:A 0
145 *11:144 *2842:A 1.76039e-05
146 *11:144 *28:44 0.000118871
147 *11:144 *1151:12 0
148 *11:161 *2842:A 6.65398e-05
149 *11:161 *2883:A 0.000181803
150 *11:161 *21:124 0.000357063
151 *11:161 *28:44 7.8327e-05
152 *11:161 *1151:12 0
153 *11:180 *2711:B 0.00051407
154 *11:180 *2822:B 5.52302e-05
155 *11:180 *2823:B 8.06403e-05
156 *11:180 *21:124 2.07382e-05
157 *11:180 *37:34 5.33005e-05
158 *11:180 *206:14 0
159 *11:180 *1146:16 0.000693787
160 *11:199 *2835:B 0.000144773
161 *11:199 *21:138 1.19402e-05
162 *11:199 *21:149 0.00083947
163 *11:199 *27:57 3.80079e-05
164 *11:199 *27:66 0.000564335
165 *11:199 *37:34 6.42592e-05
166 *11:199 *865:14 0
167 *11:199 *1448:16 3.69697e-05
168 *11:216 *2649:B 0
169 *11:216 *2826:B 0.000186662
170 *11:216 *2885:B 0
171 *11:216 *2888:B 0
172 *11:216 *21:149 6.12434e-05
173 *11:216 *1036:12 0.00047357
174 *11:216 *1384:10 0
175 *11:216 *1434:12 0
176 *11:218 *2637:A 0.000290158
177 *11:218 *2637:B 3.18676e-05
178 *11:218 *2649:B 0.000139913
179 *11:218 *3279:B 5.52302e-05
180 *11:218 *3282:B1 1.15172e-05
181 *11:218 *3366:B 1.58163e-05
182 *11:218 *3369:A 0.000144773
183 *11:218 *38:101 8.18667e-05
184 *11:218 *121:12 2.89016e-05
185 *11:218 *800:12 0.00010096
186 *11:218 *1036:12 1.24368e-05
187 *11:218 *1426:18 2.95726e-05
188 *11:222 *2817:B 0
189 *11:222 *3281:B 0
190 *11:222 *25:282 0
191 *11:222 *36:220 0
192 *11:222 *1208:14 0
193 *11:232 *2821:A 6.97972e-05
194 *11:232 *2965:B 0.000150625
195 *11:232 *2966:A 1.08359e-05
196 *11:232 *2968:B1 6.5185e-05
197 *11:232 *3281:B 0
198 *11:232 *25:258 0.000334667
199 *11:232 *25:282 0
200 *11:232 *26:211 0
201 *11:232 *26:228 0
202 *11:232 *36:187 0
203 *11:232 *36:220 0
204 *11:234 *25:258 0.000460151
205 *11:240 *20:95 6.57032e-05
206 *11:240 *25:239 0.000197977
207 *11:240 *25:258 0.000303727
208 *11:240 *35:133 0.000218734
209 *11:240 *1096:8 6.86693e-05
210 *2744:A *2810:A 3.69047e-06
211 *2797:A *11:41 2.84398e-05
212 *9:13 *11:7 0.000671964
213 *9:216 *11:232 0.00030963
214 *9:218 *11:232 0.000209584
215 *9:218 *11:234 0.000252853
216 *9:218 *11:240 0.000133308
217 *9:220 *2806:A 0.000604203
218 *10:24 *11:23 0.000205341
219 *10:26 *11:23 0.000382487
220 *10:32 *2846:A 0.000268403
221 *10:38 *11:41 8.98994e-05
222 *10:202 *11:232 0
*RES
1 xN[8] *11:7 5.29627 
2 *11:7 *11:9 1.49107 
3 *11:9 *11:23 26.2143 
4 *11:23 *11:39 19.875 
5 *11:39 *11:41 9.53571 
6 *11:41 *11:47 12.9286 
7 *11:47 *11:53 17.0357 
8 *11:53 *2866:A 9.3 
9 *11:53 *11:72 20.2857 
10 *11:72 *2853:A 35.8893 
11 *11:72 *2860:A 9.3 
12 *11:47 *2864:A 13.8 
13 *11:41 *2857:A 15.1571 
14 *11:39 *2846:A 27.9071 
15 *11:23 *2851:A 9.3 
16 *11:9 *11:128 5.85714 
17 *11:128 *11:142 32.1607 
18 *11:142 *11:144 3.16071 
19 *11:144 *2840:A 17.3357 
20 *11:144 *11:161 17.25 
21 *11:161 *2823:A 9.72857 
22 *11:161 *11:180 22.6071 
23 *11:180 *2833:A 9.3 
24 *11:180 *11:199 31.7857 
25 *11:199 *2827:A 9.72857 
26 *11:199 *11:216 19.2321 
27 *11:216 *11:218 31.3393 
28 *11:218 *11:222 7.66071 
29 *11:222 *11:232 25.4286 
30 *11:232 *11:234 5.89286 
31 *11:234 *11:240 12.3571 
32 *11:240 *2806:A 26.0143 
33 *11:240 *2804:A 10.2464 
34 *11:234 *2812:A 34.0143 
35 *11:232 *2810:A 15.1571 
36 *11:222 *2819:A 13.8 
37 *11:218 *2817:A 11.4964 
38 *11:142 *2831:A 18.175 
39 *11:128 *2844:A 9.83571 
40 *11:7 *2838:A 26.0946 
*END

*D_NET *12 0.0499941
*CONN
*P xN[9] I
*I *2897:A I *D sky130_fd_sc_hd__and2_1
*I *2890:A I *D sky130_fd_sc_hd__and2_1
*I *2886:A I *D sky130_fd_sc_hd__and2_1
*I *2893:A I *D sky130_fd_sc_hd__and2_1
*I *2884:A I *D sky130_fd_sc_hd__and2_1
*I *2899:A I *D sky130_fd_sc_hd__and2_1
*I *2910:A I *D sky130_fd_sc_hd__and2_1
*I *2917:A I *D sky130_fd_sc_hd__and2_1
*I *2877:A I *D sky130_fd_sc_hd__and2_1
*I *2873:A I *D sky130_fd_sc_hd__and2_1
*I *2871:A I *D sky130_fd_sc_hd__and2_1
*I *2879:A I *D sky130_fd_sc_hd__and2_1
*I *2912:A I *D sky130_fd_sc_hd__and2_1
*I *2906:A I *D sky130_fd_sc_hd__and2_1
*I *2926:A I *D sky130_fd_sc_hd__and2_1
*I *2923:A I *D sky130_fd_sc_hd__and2_1
*I *2919:A I *D sky130_fd_sc_hd__and2_1
*I *2932:A I *D sky130_fd_sc_hd__and2_1
*I *2930:A I *D sky130_fd_sc_hd__and2_1
*I *2904:A I *D sky130_fd_sc_hd__and2_1
*CAP
1 xN[9] 0.000350022
2 *2897:A 0.000186954
3 *2890:A 0
4 *2886:A 0.000447608
5 *2893:A 2.23854e-05
6 *2884:A 0.000402365
7 *2899:A 3.00142e-05
8 *2910:A 0.000334975
9 *2917:A 0
10 *2877:A 0
11 *2873:A 0
12 *2871:A 0.000144854
13 *2879:A 2.23854e-05
14 *2912:A 0.000538175
15 *2906:A 0
16 *2926:A 0
17 *2923:A 0.000189828
18 *2919:A 0.00141201
19 *2932:A 0.000116577
20 *2930:A 5.02459e-05
21 *2904:A 0
22 *12:255 0.000745957
23 *12:251 0.000810941
24 *12:230 0.00125838
25 *12:219 0.00185308
26 *12:178 0.000412537
27 *12:165 0.00084312
28 *12:157 0.00182222
29 *12:124 0.00240397
30 *12:113 0.001124
31 *12:101 0.000621854
32 *12:85 0.000262894
33 *12:42 0.00022029
34 *12:40 0.00163093
35 *12:36 0.00118185
36 *12:30 0.0018947
37 *12:24 0.001458
38 *12:22 0.00179333
39 *12:13 0.000139962
40 *12:9 0.000651784
41 *2871:A *2870:B 1.41706e-05
42 *2871:A *2872:A 0
43 *2871:A *20:80 4.01768e-05
44 *2871:A *33:277 7.50505e-05
45 *2871:A *1133:8 5.33433e-05
46 *2871:A *1133:10 0
47 *2871:A *1382:14 2.00751e-05
48 *2884:A *2772:B 0
49 *2884:A *2773:B 9.5151e-05
50 *2884:A *2883:A 0
51 *2884:A *2884:B 2.8266e-06
52 *2884:A *2887:A 0
53 *2884:A *28:63 3.18676e-05
54 *2884:A *35:220 9.14786e-05
55 *2884:A *1150:10 0.000881661
56 *2886:A *2703:A 0.000352292
57 *2886:A *2885:A 0
58 *2886:A *2892:A 5.52238e-05
59 *2886:A *3074:B 0.000162118
60 *2886:A *19:269 6.57648e-05
61 *2886:A *22:95 0.000259934
62 *2886:A *36:265 0.000166683
63 *2886:A *36:273 5.33433e-05
64 *2886:A *1133:10 0.000177941
65 *2886:A *1221:10 0
66 *2893:A *2892:A 0
67 *2897:A *2897:B 0.00010096
68 *2897:A *27:9 0
69 *2897:A *930:10 0.000100969
70 *2899:A *27:57 3.57366e-05
71 *2910:A *2910:B 5.52238e-05
72 *2910:A *2914:A 0.000136958
73 *2910:A *2914:B 0.000108535
74 *2910:A *21:114 0.000137983
75 *2910:A *1062:6 9.60875e-05
76 *2912:A *2668:A 0
77 *2912:A *2729:A 5.01213e-05
78 *2912:A *2912:B 0
79 *2912:A *31:83 3.34672e-05
80 *2912:A *31:85 0.000195124
81 *2912:A *41:104 4.25622e-05
82 *2912:A *212:6 0.00010096
83 *2919:A *2033:B 2.59355e-05
84 *2919:A *2035:A2 5.33005e-05
85 *2919:A *2035:B1 0.000105163
86 *2919:A *2104:A2 0.000101134
87 *2919:A *2919:B 7.80274e-05
88 *2919:A *2921:B 5.52238e-05
89 *2919:A *2925:B 0.000272371
90 *2919:A *22:153 1.98839e-05
91 *2919:A *216:6 4.20959e-05
92 *2919:A *284:14 7.54696e-05
93 *2919:A *950:8 0.000103296
94 *2919:A *1069:6 0.000183726
95 *2923:A *2923:B 0.00057972
96 *2923:A *31:40 4.22697e-05
97 *2930:A *2925:B 5.52238e-05
98 *2930:A *22:153 4.43256e-05
99 *2930:A *42:173 7.51077e-05
100 *2932:A *42:173 0.000100474
101 *2932:A *536:8 0
102 *2932:A *1379:12 3.28494e-05
103 *12:9 *27:9 0
104 *12:9 *38:19 5.25966e-05
105 *12:9 *930:10 8.18594e-05
106 *12:13 *2837:A 0.000307349
107 *12:13 *28:15 5.33005e-05
108 *12:13 *38:30 0.000435839
109 *12:22 *2838:B 3.17148e-05
110 *12:22 *22:26 1.62539e-05
111 *12:22 *28:9 2.31791e-05
112 *12:22 *28:23 2.04825e-05
113 *12:24 *2848:B 5.71272e-05
114 *12:24 *3160:B 9.22225e-05
115 *12:24 *22:26 7.92879e-05
116 *12:24 *28:9 0.000677387
117 *12:24 *29:37 0.00017309
118 *12:24 *1243:8 3.47641e-06
119 *12:30 *3097:B1 0.000338502
120 *12:30 *21:15 0.000130495
121 *12:30 *22:127 0
122 *12:30 *28:9 0.000182409
123 *12:30 *38:295 0.00130646
124 *12:30 *40:22 0.00021837
125 *12:30 *40:32 0.000492338
126 *12:30 *40:153 0.000138178
127 *12:30 *516:22 1.5942e-05
128 *12:30 *877:10 2.58997e-05
129 *12:30 *1243:8 7.33804e-05
130 *12:30 *1375:10 0
131 *12:36 *2861:B 0
132 *12:36 *2926:B 0.000212131
133 *12:36 *3164:B 4.56437e-05
134 *12:36 *3233:A 0.000223443
135 *12:36 *3234:A1 0.000117388
136 *12:36 *21:31 0
137 *12:36 *31:40 0.00113925
138 *12:36 *40:32 0.000167266
139 *12:36 *41:40 3.06406e-05
140 *12:36 *536:8 0
141 *12:36 *1009:10 0.00010326
142 *12:36 *1311:10 0.000221044
143 *12:36 *1375:10 0
144 *12:40 *2925:B 0
145 *12:40 *2926:B 3.23542e-05
146 *12:40 *2928:A 0
147 *12:40 *536:8 0
148 *12:40 *1379:12 0
149 *12:42 *2925:B 0.000140933
150 *12:85 *31:40 5.69037e-05
151 *12:101 *2917:B 0.00052642
152 *12:113 *2920:B 0
153 *12:113 *3166:A2 4.4873e-05
154 *12:113 *20:38 3.41371e-05
155 *12:113 *1068:8 0.000269801
156 *12:113 *1310:10 6.19181e-05
157 *12:124 *1969:A 9.25014e-06
158 *12:124 *1969:B 1.3142e-05
159 *12:124 *2905:A 9.41642e-05
160 *12:124 *2905:B 0.000301143
161 *12:124 *2908:A 2.89016e-05
162 *12:124 *2908:B 4.87953e-05
163 *12:124 *2912:B 0
164 *12:124 *20:38 2.37485e-05
165 *12:124 *38:307 8.25897e-05
166 *12:124 *41:104 9.69119e-06
167 *12:124 *279:8 0
168 *12:157 *1965:B 3.97677e-05
169 *12:157 *1967:A2 2.89016e-05
170 *12:157 *1967:B1 0.000186669
171 *12:157 *2788:A 5.52238e-05
172 *12:157 *2788:B 9.80173e-05
173 *12:157 *2939:B 2.89114e-05
174 *12:157 *2940:A 3.14078e-05
175 *12:157 *2940:B 7.32272e-05
176 *12:157 *40:45 0
177 *12:157 *40:47 0
178 *12:157 *41:104 0.000140933
179 *12:157 *41:175 0.000103981
180 *12:157 *145:8 4.43256e-05
181 *12:157 *148:10 5.52238e-05
182 *12:157 *878:6 0.000108535
183 *12:157 *1086:6 5.33005e-05
184 *12:165 *22:235 0.000397918
185 *12:165 *31:207 0.000235174
186 *12:165 *38:313 0.000148196
187 *12:165 *42:80 0
188 *12:178 *2870:B 5.26091e-05
189 *12:178 *1382:14 4.8476e-05
190 *12:219 *2903:A 5.03772e-05
191 *12:219 *27:29 6.595e-05
192 *12:219 *27:57 0.000132349
193 *12:219 *28:15 5.52302e-05
194 *12:219 *38:30 3.27016e-05
195 *12:219 *38:34 0.00086893
196 *12:219 *38:49 0.000424269
197 *12:230 *27:57 0.00045814
198 *12:251 *2775:A 4.88637e-05
199 *12:251 *2775:B 0.000189601
200 *12:251 *22:82 0.000911896
201 *12:251 *924:10 5.06983e-05
202 *12:251 *983:10 4.01768e-05
203 *12:251 *1150:10 0.000211198
204 *12:255 *2822:B 2.14757e-05
205 *12:255 *2894:B 3.63775e-05
206 *12:255 *22:82 0.000265447
207 *12:255 *22:95 0.000873967
208 *12:255 *26:264 2.15245e-05
209 *12:255 *36:273 0.000582118
210 *2773:A *2884:A 7.6644e-05
211 *2773:A *12:251 0.000218734
212 *2793:A *2919:A 8.15561e-05
213 *2846:A *12:101 0.00052642
214 *9:78 *12:157 0.000266479
215 *10:13 *12:9 0.000404418
216 *10:91 *12:157 7.50721e-05
217 *10:110 *12:157 0.000219552
218 *10:133 *2910:A 3.68898e-05
219 *11:7 *12:9 0.000532668
*RES
1 xN[9] *12:9 7.03415 
2 *12:9 *12:13 8.73214 
3 *12:13 *2904:A 9.3 
4 *12:13 *12:22 5.23214 
5 *12:22 *12:24 8.92857 
6 *12:24 *12:30 27.8036 
7 *12:30 *12:36 27.1964 
8 *12:36 *12:40 7.35714 
9 *12:40 *12:42 1.35714 
10 *12:42 *2930:A 10.6571 
11 *12:42 *2932:A 20.55 
12 *12:40 *2919:A 33.9964 
13 *12:36 *12:85 5.85714 
14 *12:85 *2923:A 14.3536 
15 *12:85 *2926:A 9.3 
16 *12:30 *12:101 9.55357 
17 *12:101 *12:113 16.9643 
18 *12:113 *2906:A 9.3 
19 *12:113 *12:124 15.9643 
20 *12:124 *2912:A 24.8179 
21 *12:124 *12:157 35.9107 
22 *12:157 *12:165 20.1071 
23 *12:165 *2879:A 9.72857 
24 *12:165 *12:178 9.03571 
25 *12:178 *2871:A 17.3 
26 *12:178 *2873:A 13.8 
27 *12:157 *2877:A 9.3 
28 *12:101 *2917:A 9.3 
29 *12:24 *2910:A 20.4964 
30 *12:22 *12:219 24.75 
31 *12:219 *2899:A 10.0321 
32 *12:219 *12:230 9.14286 
33 *12:230 *2884:A 25.6929 
34 *12:230 *12:251 19.5357 
35 *12:251 *12:255 11.2321 
36 *12:255 *2893:A 9.72857 
37 *12:255 *2886:A 30.1214 
38 *12:251 *2890:A 9.3 
39 *12:9 *2897:A 17.7107 
*END

*D_NET *13 0.0341893
*CONN
*P xP[0] I
*I *2469:A I *D sky130_fd_sc_hd__and2_1
*I *2869:A I *D sky130_fd_sc_hd__and2_1
*I *2736:A I *D sky130_fd_sc_hd__and2_1
*I *2758:A I *D sky130_fd_sc_hd__and2_1
*I *2669:A I *D sky130_fd_sc_hd__and2_1
*I *2603:A I *D sky130_fd_sc_hd__and2_1
*I *2536:A I *D sky130_fd_sc_hd__and2_1
*I *2691:A I *D sky130_fd_sc_hd__and2_1
*I *2802:A I *D sky130_fd_sc_hd__and2_1
*I *2891:A I *D sky130_fd_sc_hd__and2_1
*I *2825:A I *D sky130_fd_sc_hd__and2_1
*I *2625:A I *D sky130_fd_sc_hd__and2_1
*I *2558:A I *D sky130_fd_sc_hd__and2_1
*I *2492:A I *D sky130_fd_sc_hd__and2_1
*I *2393:A I *D sky130_fd_sc_hd__and2_1
*I *2491:A I *D sky130_fd_sc_hd__and2_1
*I *1947:A I *D sky130_fd_sc_hd__and2_1
*I *3157:A I *D sky130_fd_sc_hd__and2_1
*I *2935:A I *D sky130_fd_sc_hd__and2_1
*I *2171:A I *D sky130_fd_sc_hd__and2_1
*CAP
1 xP[0] 0.000193001
2 *2469:A 9.85999e-05
3 *2869:A 0
4 *2736:A 0.000197632
5 *2758:A 0
6 *2669:A 0
7 *2603:A 1.40355e-05
8 *2536:A 0.000277517
9 *2691:A 0.00019724
10 *2802:A 4.13666e-05
11 *2891:A 0
12 *2825:A 0
13 *2625:A 4.26984e-05
14 *2558:A 3.04135e-05
15 *2492:A 3.40678e-05
16 *2393:A 0.000164376
17 *2491:A 7.67729e-05
18 *1947:A 2.52229e-05
19 *3157:A 4.36082e-05
20 *2935:A 0.000134844
21 *2171:A 0.000233198
22 *13:218 0.00051982
23 *13:214 0.000457728
24 *13:210 0.000453636
25 *13:191 0.000608421
26 *13:189 0.000885897
27 *13:172 0.000856796
28 *13:161 0.000628204
29 *13:153 0.000490628
30 *13:138 0.000482572
31 *13:127 0.000469142
32 *13:116 0.000572829
33 *13:99 0.000547204
34 *13:70 0.000289448
35 *13:57 0.00069216
36 *13:43 0.000838841
37 *13:30 0.000968399
38 *13:24 0.0010236
39 *13:13 0.00148856
40 *13:7 0.00123473
41 *1947:A *2491:B 5.52238e-05
42 *2171:A *2447:A 6.57032e-05
43 *2171:A *14:147 0.000653395
44 *2171:A *995:6 0.000393949
45 *2171:A *1313:6 0.000299452
46 *2393:A *2036:A 1.33343e-05
47 *2393:A *2393:B 5.52302e-05
48 *2393:A *2458:A 3.14078e-05
49 *2393:A *18:17 3.69047e-06
50 *2469:A *25:123 0.000428268
51 *2469:A *36:9 0.000396892
52 *2469:A *36:22 3.4855e-05
53 *2491:A *2473:B 4.72917e-05
54 *2491:A *2491:B 9.71197e-05
55 *2492:A *1978:A 1.04232e-05
56 *2536:A *2647:B 0
57 *2536:A *36:316 0.000103275
58 *2558:A *2558:B 5.33005e-05
59 *2603:A *28:184 5.52302e-05
60 *2603:A *1463:10 2.89114e-05
61 *2691:A *23:304 7.43412e-05
62 *2691:A *33:277 0
63 *2736:A *2736:B 0.000230482
64 *2736:A *2747:B 5.52302e-05
65 *2736:A *2780:B 3.18676e-05
66 *2802:A *2924:B 2.19778e-05
67 *2935:A *14:179 0.000318107
68 *2935:A *14:196 1.39726e-05
69 *3157:A *3024:A 5.52238e-05
70 *3157:A *3157:B 2.28598e-05
71 *13:7 *36:9 0.000463093
72 *13:13 *2470:B 5.52302e-05
73 *13:13 *3170:A 6.62418e-05
74 *13:13 *15:13 8.32171e-05
75 *13:13 *15:19 2.42662e-05
76 *13:13 *15:93 9.89536e-05
77 *13:13 *16:19 0.000907378
78 *13:13 *25:25 0.000137983
79 *13:13 *25:123 0.00026353
80 *13:13 *33:9 0.000295938
81 *13:13 *33:127 0.00029965
82 *13:13 *34:13 0
83 *13:13 *34:32 0
84 *13:13 *36:9 9.71197e-05
85 *13:24 *2472:A 0.00013347
86 *13:24 *16:19 0.000840573
87 *13:30 *1978:A 0.000169359
88 *13:30 *3091:B 5.62425e-05
89 *13:30 *3124:A 2.47753e-05
90 *13:30 *14:196 2.44244e-05
91 *13:30 *1072:6 9.90367e-05
92 *13:43 *2338:B 4.73656e-05
93 *13:43 *2458:B 0.00010326
94 *13:43 *35:299 0.000197991
95 *13:43 *217:10 0
96 *13:43 *222:12 6.1684e-05
97 *13:57 *2036:A 1.98839e-05
98 *13:57 *2036:B 0
99 *13:57 *2458:A 2.47724e-05
100 *13:57 *2935:B 1.19309e-05
101 *13:57 *3058:A 9.90367e-05
102 *13:57 *3058:B 0.000102545
103 *13:57 *3157:B 2.44318e-05
104 *13:57 *34:70 3.568e-05
105 *13:57 *217:10 0.000142856
106 *13:70 *24:259 0.000372248
107 *13:70 *34:70 0.000103993
108 *13:99 *1978:A 3.75454e-05
109 *13:99 *2472:A 3.67452e-05
110 *13:99 *2492:B 3.34295e-05
111 *13:99 *14:196 0.000135028
112 *13:116 *1978:A 1.15281e-05
113 *13:116 *2044:A 6.05161e-06
114 *13:116 *2591:B 2.16719e-05
115 *13:116 *14:196 0.000109993
116 *13:116 *14:207 0.000384995
117 *13:116 *1458:8 2.74584e-05
118 *13:127 *14:207 0.000232663
119 *13:127 *14:220 0.000153054
120 *13:138 *2858:B 0.000103253
121 *13:138 *14:220 0.000519257
122 *13:138 *14:237 0.000433934
123 *13:138 *18:25 0.000331328
124 *13:153 *14:237 0.000190162
125 *13:153 *18:25 0.000106542
126 *13:153 *32:207 5.52238e-05
127 *13:153 *32:222 0.000128496
128 *13:161 *32:222 0.000267599
129 *13:172 *2127:B 3.53079e-05
130 *13:172 *2813:B 5.68795e-05
131 *13:172 *2847:B 5.52238e-05
132 *13:172 *2924:A 8.0786e-06
133 *13:172 *32:222 9.41642e-05
134 *13:189 *2847:A 2.47833e-05
135 *13:189 *2847:B 0.000149992
136 *13:189 *2950:A 9.47613e-05
137 *13:189 *23:304 6.5185e-05
138 *13:189 *33:277 0
139 *13:189 *1391:6 3.18676e-05
140 *13:191 *23:304 0.000210296
141 *13:191 *33:277 0
142 *13:210 *2758:B 0.000129515
143 *13:210 *2791:B 9.90367e-05
144 *13:210 *30:131 5.31902e-05
145 *13:214 *2680:B 8.91534e-05
146 *13:214 *29:159 0.000109795
147 *13:218 *2625:B 0.000270243
148 *13:218 *2680:B 9.14882e-05
149 *1948:A *13:70 6.58195e-05
150 *2473:A *13:116 0.0005952
151 *2473:A *13:127 0.000383288
152 *2473:A *13:138 0.000223599
153 *2547:A *2536:A 0
154 *2702:A *2691:A 0.000102056
155 *2702:A *13:191 2.15339e-05
156 *2747:A *2736:A 0.000307343
157 *3169:A *13:57 2.42662e-05
158 *3:35 *13:13 0.000143625
159 *3:35 *13:24 0.00109247
160 *3:35 *13:99 9.40167e-05
161 *3:72 *13:70 0.000139793
162 *3:179 *13:191 0.000379178
163 *3:196 *13:210 0.000269428
164 *3:204 *13:214 0
165 *3:204 *13:218 0
166 *4:149 *2536:A 0
167 *4:160 *13:218 0
168 *5:11 *13:13 1.18064e-05
169 *5:109 *2802:A 0
170 *6:269 *13:116 5.01117e-05
171 *8:21 *13:7 0.000838429
*RES
1 xP[0] *13:7 14.9107 
2 *13:7 *13:13 26.3036 
3 *13:13 *2171:A 22.9607 
4 *13:13 *13:24 14.0893 
5 *13:24 *13:30 12.3393 
6 *13:30 *2935:A 12.7107 
7 *13:30 *13:43 13.6786 
8 *13:43 *13:57 18.4107 
9 *13:57 *3157:A 10.2464 
10 *13:57 *13:70 16.1071 
11 *13:70 *1947:A 9.83571 
12 *13:70 *2491:A 11.0679 
13 *13:43 *2393:A 12.3179 
14 *13:24 *13:99 7.19643 
15 *13:99 *2492:A 10.0321 
16 *13:99 *13:116 15.75 
17 *13:116 *2558:A 14.3357 
18 *13:116 *13:127 4.98214 
19 *13:127 *2625:A 14.3357 
20 *13:127 *13:138 12.2679 
21 *13:138 *2825:A 13.8 
22 *13:138 *13:153 9.35714 
23 *13:153 *13:161 5.41071 
24 *13:161 *2891:A 9.3 
25 *13:161 *13:172 5.08929 
26 *13:172 *2802:A 19.0321 
27 *13:172 *13:189 12.0179 
28 *13:189 *13:191 5.58929 
29 *13:191 *2691:A 17.1036 
30 *13:191 *13:210 9.69643 
31 *13:210 *13:214 9.48214 
32 *13:214 *13:218 5.51786 
33 *13:218 *2536:A 18.7821 
34 *13:218 *2603:A 14.3357 
35 *13:214 *2669:A 13.8 
36 *13:210 *2758:A 9.3 
37 *13:189 *2736:A 18.8536 
38 *13:153 *2869:A 9.3 
39 *13:7 *2469:A 13.9607 
*END

*D_NET *14 0.0452608
*CONN
*P xP[1] I
*I *2958:A I *D sky130_fd_sc_hd__and2_1
*I *3024:A I *D sky130_fd_sc_hd__and2_1
*I *2105:A I *D sky130_fd_sc_hd__and2_1
*I *2061:A I *D sky130_fd_sc_hd__and2_1
*I *2127:A I *D sky130_fd_sc_hd__and2_1
*I *2038:A I *D sky130_fd_sc_hd__and2_1
*I *1994:A I *D sky130_fd_sc_hd__and2_1
*I *3224:A I *D sky130_fd_sc_hd__and2_1
*I *3158:A I *D sky130_fd_sc_hd__and2_1
*I *3091:A I *D sky130_fd_sc_hd__and2_1
*I *2936:A I *D sky130_fd_sc_hd__and2_1
*I *3002:A I *D sky130_fd_sc_hd__and2_1
*I *3135:A I *D sky130_fd_sc_hd__and2_1
*I *3202:A I *D sky130_fd_sc_hd__and2_1
*I *3291:A I *D sky130_fd_sc_hd__and2_1
*I *3357:A I *D sky130_fd_sc_hd__and2_1
*I *3335:A I *D sky130_fd_sc_hd__and2_1
*I *1972:A I *D sky130_fd_sc_hd__and2_1
*I *3269:A I *D sky130_fd_sc_hd__and2_1
*I *3069:A I *D sky130_fd_sc_hd__and2_1
*CAP
1 xP[1] 0.000519938
2 *2958:A 0.000406522
3 *3024:A 0.000102877
4 *2105:A 0.000310875
5 *2061:A 0
6 *2127:A 0.000309649
7 *2038:A 1.85405e-05
8 *1994:A 0.000241378
9 *3224:A 0.00037566
10 *3158:A 0
11 *3091:A 0
12 *2936:A 0.000440219
13 *3002:A 0
14 *3135:A 0
15 *3202:A 0
16 *3291:A 0
17 *3357:A 3.61404e-05
18 *3335:A 7.43147e-05
19 *1972:A 0.000626761
20 *3269:A 2.76349e-05
21 *3069:A 0
22 *14:295 0.000797155
23 *14:260 0.000852833
24 *14:248 0.000883546
25 *14:237 0.000600336
26 *14:220 0.00113027
27 *14:207 0.000996024
28 *14:196 0.00121399
29 *14:179 0.00131249
30 *14:171 0.000746368
31 *14:156 0.000894523
32 *14:147 0.00185061
33 *14:91 0.000879812
34 *14:83 0.000348163
35 *14:77 0.000461435
36 *14:62 0.000847759
37 *14:54 0.00140332
38 *14:42 0.0015341
39 *14:25 0.00194325
40 *14:9 0.00331306
41 *1972:A *29:159 0.000397924
42 *1972:A *40:85 4.43256e-05
43 *1972:A *40:91 0.000528198
44 *1994:A *2027:A 7.32272e-05
45 *1994:A *2918:B 2.27416e-05
46 *2038:A *2083:B 5.71472e-05
47 *2038:A *41:112 2.14757e-05
48 *2105:A *2149:A 4.57098e-05
49 *2105:A *2149:B 5.33005e-05
50 *2105:A *18:25 5.35516e-05
51 *2105:A *31:151 0.00014209
52 *2105:A *577:12 1.58163e-05
53 *2127:A *2061:B 1.89507e-06
54 *2127:A *2127:B 0.000160517
55 *2127:A *2138:B 0
56 *2127:A *2160:A 0.000104974
57 *2127:A *3237:A 0
58 *2127:A *578:8 7.79781e-06
59 *2936:A *2936:B 9.43886e-05
60 *2936:A *2980:A 9.60875e-05
61 *2958:A *2969:B 0.000258192
62 *2958:A *2991:A 5.33005e-05
63 *2958:A *2991:B 0.000139202
64 *2958:A *23:93 9.61553e-05
65 *2958:A *33:63 0
66 *3024:A *3157:B 0.000130393
67 *3224:A *2658:B 0.00010096
68 *3224:A *15:150 1.56e-05
69 *3224:A *24:270 0.000739579
70 *3269:A *1463:10 2.89114e-05
71 *3335:A *39:237 0.000120645
72 *3357:A *1961:B 5.33005e-05
73 *3357:A *1336:6 9.41642e-05
74 *14:9 *2474:A 0
75 *14:9 *3170:B 5.2484e-05
76 *14:9 *16:11 0.000491084
77 *14:9 *33:30 4.12932e-05
78 *14:9 *34:13 0.000554049
79 *14:25 zN[4] 4.46186e-06
80 *14:25 *2167:A 4.43256e-05
81 *14:25 *2514:A 1.88048e-05
82 *14:25 *3170:A 2.89114e-05
83 *14:25 *3173:A1 4.01768e-05
84 *14:25 *35:5 1.76135e-05
85 *14:25 *35:9 0.000605198
86 *14:25 *35:271 6.7953e-05
87 *14:25 *333:12 0.000115935
88 *14:25 *337:12 7.80714e-06
89 *14:25 *1318:6 8.86413e-05
90 *14:42 *2174:B 0.000144934
91 *14:42 *2176:B 0.000146398
92 *14:42 *2514:A 1.00375e-05
93 *14:42 *2514:B 0.000100823
94 *14:42 *3180:B 5.66971e-05
95 *14:42 *17:11 0
96 *14:42 *23:128 0
97 *14:42 *23:144 4.10169e-05
98 *14:42 *26:21 0.000196282
99 *14:42 *345:8 0.000203692
100 *14:42 *1253:12 0.000117054
101 *14:54 *2182:A 0.000195126
102 *14:54 *2182:B 1.25275e-05
103 *14:54 *3017:A 0
104 *14:54 *3180:A 4.77002e-05
105 *14:54 *3180:B 0.000163996
106 *14:54 *3246:B 2.89114e-05
107 *14:54 *23:144 0.000161137
108 *14:54 *323:12 2.12647e-05
109 *14:54 *345:8 9.85599e-06
110 *14:54 *1127:12 0.000376118
111 *14:62 *3017:A 0.000358373
112 *14:62 *3246:B 2.95641e-05
113 *14:62 *3313:A 3.57163e-05
114 *14:62 *28:178 4.46186e-06
115 *14:62 *37:143 0.000101854
116 *14:62 *1259:14 0
117 *14:77 *3235:B 2.89114e-05
118 *14:77 *3291:B 5.33005e-05
119 *14:77 *3324:B 4.43157e-05
120 *14:77 *28:172 3.17148e-05
121 *14:77 *28:178 0.000188563
122 *14:77 *1270:12 0
123 *14:83 *3235:B 0.000313458
124 *14:83 *28:172 2.49484e-05
125 *14:83 *39:237 1.02504e-05
126 *14:83 *39:245 0.000362545
127 *14:91 *39:237 0.000114858
128 *14:91 *39:245 3.34366e-05
129 *14:91 *1336:6 3.97677e-05
130 *14:147 *2194:A 0
131 *14:147 *2447:A 0.000137983
132 *14:147 *3167:A 8.25843e-06
133 *14:147 *3168:B 0.000100625
134 *14:147 *3170:B 3.54937e-05
135 *14:147 *3172:A 0
136 *14:147 *3172:B 1.24368e-05
137 *14:147 *3173:A2 0
138 *14:147 *24:220 6.1684e-05
139 *14:147 *34:40 1.02504e-05
140 *14:147 *995:6 5.7256e-05
141 *14:147 *1312:6 4.0342e-06
142 *14:147 *1313:6 0.000102451
143 *14:147 *1317:12 3.22304e-05
144 *14:156 *2194:A 0
145 *14:156 *33:63 0
146 *14:156 *34:40 0.00081973
147 *14:156 *584:12 4.68007e-05
148 *14:171 *33:63 0
149 *14:171 *34:40 0.00015134
150 *14:179 *1949:A 0.00014183
151 *14:179 *2935:B 5.71472e-05
152 *14:179 *929:10 4.58194e-05
153 *14:196 *1978:A 5.74499e-06
154 *14:196 *2164:A 0.000315187
155 *14:196 *2492:B 5.33005e-05
156 *14:196 *2525:A 7.77652e-05
157 *14:196 *2569:B 2.59355e-05
158 *14:196 *2591:B 5.41794e-05
159 *14:196 *3091:B 3.00177e-05
160 *14:196 *3124:A 0.000137983
161 *14:196 *1072:6 2.47724e-05
162 *14:207 *2164:A 1.50181e-05
163 *14:207 *2472:A 0
164 *14:207 *2492:B 4.27935e-05
165 *14:207 *2569:B 2.59355e-05
166 *14:207 *2591:A 0.000145753
167 *14:207 *2591:B 0.000146474
168 *14:220 *2027:B 3.92757e-05
169 *14:220 *2472:A 0
170 *14:237 *2027:B 1.10866e-05
171 *14:237 *2793:B 5.94923e-05
172 *14:237 *2855:B 4.94362e-05
173 *14:237 *18:25 0.000198097
174 *14:237 *30:102 0
175 *14:237 *30:104 0
176 *14:237 *31:151 9.54798e-06
177 *14:237 *31:157 2.11419e-05
178 *14:237 *41:124 0.000150358
179 *14:248 *18:25 1.49749e-05
180 *14:248 *31:151 4.5147e-05
181 *14:260 *2094:B 5.71472e-05
182 *14:260 *2127:B 5.71242e-05
183 *14:260 *2802:B 3.44391e-05
184 *14:260 *41:153 1.65169e-05
185 *14:295 *2060:B 5.33882e-05
186 *14:295 *33:63 0
187 *14:295 *34:40 0.000414769
188 *2171:A *14:147 0.000653395
189 *2457:A *2127:A 5.03772e-05
190 *2480:A *14:25 0.00026353
191 *2935:A *14:179 0.000318107
192 *2935:A *14:196 1.39726e-05
193 *3080:A *14:25 0
194 *3080:A *14:42 0
195 *3157:A *3024:A 5.52238e-05
196 *3346:A *1972:A 0.000225616
197 *3:22 *14:25 8.62635e-05
198 *3:72 *2958:A 7.92975e-05
199 *3:72 *14:295 0.000103993
200 *3:140 *14:220 0
201 *3:140 *14:237 0
202 *4:117 *14:147 0
203 *4:130 *14:42 0
204 *4:138 *14:42 8.9598e-05
205 *4:138 *14:54 0.000441015
206 *4:223 *14:260 6.42095e-05
207 *4:244 *2038:A 9.90431e-05
208 *4:244 *14:260 0.000649011
209 *5:122 *2127:A 0
210 *6:252 *14:9 4.46134e-05
211 *6:269 *14:9 4.35537e-05
212 *6:269 *14:147 0.000105649
213 *6:269 *14:196 9.91086e-05
214 *8:38 *14:62 0
215 *8:100 *3335:A 0.000116183
216 *8:100 *14:91 7.79031e-05
217 *13:30 *14:196 2.44244e-05
218 *13:99 *14:196 0.000135028
219 *13:116 *14:196 0.000109993
220 *13:116 *14:207 0.000384995
221 *13:127 *14:207 0.000232663
222 *13:127 *14:220 0.000153054
223 *13:138 *14:220 0.000519257
224 *13:138 *14:237 0.000433934
225 *13:153 *14:237 0.000190162
*RES
1 xP[1] *14:9 15.625 
2 *14:9 *14:25 36.7321 
3 *14:25 *3069:A 13.8 
4 *14:25 *14:42 19.3214 
5 *14:42 *14:54 30.9464 
6 *14:54 *14:62 14.4107 
7 *14:62 *3269:A 14.3357 
8 *14:62 *14:77 11.1429 
9 *14:77 *14:83 13.6786 
10 *14:83 *14:91 8.42857 
11 *14:91 *1972:A 26.675 
12 *14:91 *3335:A 16.6571 
13 *14:83 *3357:A 10.2464 
14 *14:77 *3291:A 9.3 
15 *14:54 *3202:A 9.3 
16 *14:42 *3135:A 9.3 
17 *14:9 *14:147 32.75 
18 *14:147 *3002:A 13.8 
19 *14:147 *14:156 10.4464 
20 *14:156 *2936:A 21.05 
21 *14:156 *14:171 1.94643 
22 *14:171 *14:179 12.5714 
23 *14:179 *3091:A 9.3 
24 *14:179 *14:196 23.5 
25 *14:196 *3158:A 9.3 
26 *14:196 *14:207 13.0536 
27 *14:207 *3224:A 21.7464 
28 *14:207 *14:220 8.625 
29 *14:220 *1994:A 17.3714 
30 *14:220 *14:237 15.3036 
31 *14:237 *2038:A 14.7464 
32 *14:237 *14:248 0.732143 
33 *14:248 *14:260 23.9286 
34 *14:260 *2127:A 24.8893 
35 *14:260 *2061:A 9.3 
36 *14:248 *2105:A 19.9786 
37 *14:171 *14:295 7.71429 
38 *14:295 *3024:A 16.1214 
39 *14:295 *2958:A 22.4607 
*END

*D_NET *15 0.0528896
*CONN
*P xP[2] I
*I *2238:A I *D sky130_fd_sc_hd__and2_1
*I *2465:A I *D sky130_fd_sc_hd__and2_1
*I *2463:A I *D sky130_fd_sc_hd__and2_1
*I *2450:A I *D sky130_fd_sc_hd__and2_1
*I *2452:A I *D sky130_fd_sc_hd__and2_1
*I *2459:A I *D sky130_fd_sc_hd__and2_1
*I *2456:A I *D sky130_fd_sc_hd__and2_1
*I *2443:A I *D sky130_fd_sc_hd__and2_1
*I *2445:A I *D sky130_fd_sc_hd__and2_1
*I *2394:A I *D sky130_fd_sc_hd__and2_1
*I *2327:A I *D sky130_fd_sc_hd__and2_1
*I *2260:A I *D sky130_fd_sc_hd__and2_1
*I *2194:A I *D sky130_fd_sc_hd__and2_1
*I *2172:A I *D sky130_fd_sc_hd__and2_1
*I *2430:A I *D sky130_fd_sc_hd__and2_1
*I *2437:A I *D sky130_fd_sc_hd__and2_1
*I *2439:A I *D sky130_fd_sc_hd__and2_1
*I *2432:A I *D sky130_fd_sc_hd__and2_1
*I *2371:A I *D sky130_fd_sc_hd__and2_1
*I *2305:A I *D sky130_fd_sc_hd__and2_1
*CAP
1 xP[2] 0.000389772
2 *2238:A 0
3 *2465:A 5.71807e-05
4 *2463:A 4.54269e-05
5 *2450:A 0.000202165
6 *2452:A 2.03441e-05
7 *2459:A 0
8 *2456:A 0.000351862
9 *2443:A 0.00111107
10 *2445:A 3.08226e-05
11 *2394:A 0.000169208
12 *2327:A 0.000182632
13 *2260:A 6.71674e-05
14 *2194:A 0.00058805
15 *2172:A 0
16 *2430:A 0.000105811
17 *2437:A 0.000103814
18 *2439:A 0
19 *2432:A 0
20 *2371:A 0
21 *2305:A 0
22 *15:262 0.000312536
23 *15:238 0.0010094
24 *15:229 0.000786892
25 *15:227 0.000660821
26 *15:212 0.00110171
27 *15:195 0.00192214
28 *15:184 0.000976506
29 *15:165 0.000775742
30 *15:150 0.00123334
31 *15:137 0.00216451
32 *15:105 0.000905042
33 *15:99 0.0016039
34 *15:93 0.000466604
35 *15:60 0.000622065
36 *15:51 0.000673395
37 *15:47 0.000691808
38 *15:32 0.0015303
39 *15:19 0.00264001
40 *15:13 0.00232963
41 *2194:A *2194:B 2.85321e-05
42 *2194:A *2205:B 0.000159341
43 *2194:A *2227:A 6.05161e-06
44 *2194:A *2227:B 3.6769e-05
45 *2194:A *24:220 0
46 *2194:A *33:30 1.02504e-05
47 *2194:A *33:39 0.000985257
48 *2194:A *301:10 0
49 *2260:A *24:270 0.000186662
50 *2327:A *2327:B 3.92757e-05
51 *2327:A *23:281 0
52 *2327:A *34:117 0.000362531
53 *2394:A *2625:B 0.000529356
54 *2394:A *3316:A 1.74352e-05
55 *2394:A *3316:B 0.000142856
56 *2394:A *26:71 1.97695e-05
57 *2394:A *1460:12 1.90303e-05
58 *2430:A *2430:B 8.77188e-05
59 *2437:A *2439:B 0.000218404
60 *2443:A *29:125 4.00276e-06
61 *2443:A *39:231 3.99614e-06
62 *2450:A *2452:B 0.000214043
63 *2450:A *2453:B 0.000340059
64 *2450:A *2455:A 4.88637e-05
65 *2450:A *30:212 4.57445e-05
66 *2450:A *30:221 4.1331e-06
67 *2450:A *1384:8 3.57315e-05
68 *2450:A *1430:8 0.000356028
69 *2452:A *2452:B 5.7661e-06
70 *2456:A *2461:A 7.32272e-05
71 *2456:A *2785:B 0.000180764
72 *2456:A *20:80 0.000360695
73 *2456:A *30:89 0.000137983
74 *2456:A *34:89 0.000266479
75 *2456:A *41:104 5.33334e-05
76 *2456:A *42:80 5.41797e-06
77 *2463:A *2463:B 5.52302e-05
78 *2463:A *2465:B 0.000181796
79 *2465:A *2465:B 0.000271352
80 *15:13 *18:15 0
81 *15:19 *2470:B 2.59355e-05
82 *15:19 *2474:A 9.71197e-05
83 *15:19 *3113:B 0.00010096
84 *15:19 *16:19 0.000178796
85 *15:19 *25:134 0.00021692
86 *15:19 *33:9 0.000152861
87 *15:19 *33:127 0.000691798
88 *15:19 *36:9 0.000198827
89 *15:19 *36:22 0.000534222
90 *15:32 *2349:A 0
91 *15:32 *2537:A 0.000334141
92 *15:32 *2541:B 0
93 *15:32 *3112:A1 0
94 *15:32 *17:40 0.000171355
95 *15:32 *24:19 0.000532299
96 *15:32 *26:38 1.50223e-05
97 *15:32 *1255:12 0
98 *15:47 *2430:B 2.42547e-05
99 *15:47 *3018:A 9.72853e-05
100 *15:47 *3119:A 0.000177234
101 *15:47 *17:40 4.37451e-05
102 *15:47 *36:39 9.84729e-05
103 *15:47 *36:58 0.000469126
104 *15:47 *37:143 5.52302e-05
105 *15:47 *1088:10 0.000179656
106 *15:47 *1163:12 4.98055e-06
107 *15:47 *1165:8 2.37944e-05
108 *15:51 *2431:B 5.58941e-05
109 *15:51 *27:178 0.000308351
110 *15:60 *2439:B 5.80706e-06
111 *15:60 *27:178 1.02504e-05
112 *15:60 *37:121 0
113 *15:60 *38:165 0.000172025
114 *15:93 *3171:A 5.52238e-05
115 *15:93 *18:15 0
116 *15:93 *24:190 0.000211284
117 *15:99 zN[2] 5.52238e-05
118 *15:99 *2153:B 2.07728e-05
119 *15:99 *18:15 1.66787e-05
120 *15:99 *24:190 9.71197e-05
121 *15:105 *23:15 0.00144994
122 *15:105 *33:30 0.00146361
123 *15:137 *2151:A 0
124 *15:137 *2153:B 4.06693e-05
125 *15:137 *3124:B 0.000152333
126 *15:137 *18:15 0.00118314
127 *15:137 *25:25 5.7903e-06
128 *15:137 *25:42 0.000568789
129 *15:137 *25:55 0.000187432
130 *15:137 *25:70 0.000118339
131 *15:137 *25:74 0
132 *15:137 *218:12 4.25716e-05
133 *15:137 *222:12 3.15645e-05
134 *15:137 *311:12 0.000125371
135 *15:137 *314:12 0.00014925
136 *15:137 *319:10 0.00014852
137 *15:150 *24:270 0.000542662
138 *15:150 *38:313 5.71472e-05
139 *15:165 *3319:B1 9.39088e-05
140 *15:165 *23:281 0
141 *15:165 *34:117 0.00021319
142 *15:184 *2449:B 7.83587e-05
143 *15:184 *23:281 0
144 *15:184 *24:291 0
145 *15:184 *29:129 0.00026032
146 *15:184 *34:117 9.09249e-05
147 *15:195 *24:291 7.90634e-05
148 *15:195 *29:125 0.00107695
149 *15:195 *34:89 0
150 *15:195 *42:84 0.000351657
151 *15:212 *24:291 0.000104391
152 *15:212 *42:80 0.000105202
153 *15:212 *42:84 0.000442032
154 *15:227 *2876:A 0.000306163
155 *15:227 *2881:A 5.01117e-05
156 *15:227 *22:252 0.000238528
157 *15:227 *24:291 2.01934e-05
158 *15:227 *31:207 0.000206083
159 *15:227 *42:80 0.000301496
160 *15:238 *2462:A 8.07313e-05
161 *15:238 *3238:A 1.74352e-05
162 *15:238 *3238:B 0.000100625
163 *15:238 *632:8 4.70078e-05
164 *15:238 *1383:8 0.000112995
165 *15:238 *1384:8 0.000131801
166 *15:238 *1430:8 0.00010096
167 *15:262 *31:207 5.80706e-06
168 *15:262 *31:218 0.000208079
169 *15:262 *42:74 9.69119e-06
170 *15:262 *42:76 1.65558e-05
171 *15:262 *42:80 0.000119267
172 *2138:A *15:212 0.000385525
173 *2382:A *15:32 0
174 *2431:A *15:47 5.52302e-05
175 *2438:A *15:60 0
176 *2464:A *2463:A 6.57815e-05
177 *2464:A *2465:A 2.28598e-05
178 *2538:A *15:32 6.13812e-05
179 *2636:A *15:150 0.000434806
180 *3224:A *15:150 1.56e-05
181 *4:11 *15:13 0.000419758
182 *4:199 *15:195 0
183 *5:11 *15:13 0.000496601
184 *5:109 *15:184 0
185 *5:147 *2465:A 0.000120509
186 *5:252 *15:47 0.000695348
187 *5:252 *15:51 1.52978e-05
188 *5:263 *15:51 0.00020305
189 *5:263 *15:60 9.97648e-05
190 *5:274 *15:60 0.000309358
191 *6:28 *15:32 0
192 *6:46 *15:51 0
193 *6:46 *15:60 0
194 *6:60 *15:60 0.0004024
195 *6:66 *2437:A 0.000384462
196 *6:66 *15:60 3.34366e-05
197 *7:34 *15:32 0.000107855
198 *7:34 *15:47 0.000359279
199 *8:38 *2327:A 0
200 *13:13 *15:13 8.32171e-05
201 *13:13 *15:19 2.42662e-05
202 *13:13 *15:93 9.89536e-05
203 *14:147 *2194:A 0
204 *14:156 *2194:A 0
*RES
1 xP[2] *15:13 21.8036 
2 *15:13 *15:19 33.8036 
3 *15:19 *2305:A 9.3 
4 *15:19 *15:32 31.2857 
5 *15:32 *2371:A 9.3 
6 *15:32 *15:47 24.5357 
7 *15:47 *15:51 9.78571 
8 *15:51 *2432:A 13.8 
9 *15:51 *15:60 15 
10 *15:60 *2439:A 13.8 
11 *15:60 *2437:A 18.7821 
12 *15:47 *2430:A 11.4964 
13 *15:13 *15:93 10.8036 
14 *15:93 *15:99 6.02679 
15 *15:99 *15:105 9.10107 
16 *15:105 *2172:A 13.8 
17 *15:105 *2194:A 28.8714 
18 *15:99 *15:137 36.4018 
19 *15:137 *2260:A 11.0679 
20 *15:137 *15:150 20.6607 
21 *15:150 *2327:A 18.4786 
22 *15:150 *15:165 4.125 
23 *15:165 *2394:A 19.2821 
24 *15:165 *15:184 11.5893 
25 *15:184 *2445:A 9.83571 
26 *15:184 *15:195 20.1071 
27 *15:195 *2443:A 26.1571 
28 *15:195 *15:212 9.4375 
29 *15:212 *2456:A 23.6482 
30 *15:212 *15:227 12.9554 
31 *15:227 *15:229 4.5 
32 *15:229 *2459:A 9.3 
33 *15:229 *15:238 14.4107 
34 *15:238 *2452:A 9.72857 
35 *15:238 *2450:A 26.0857 
36 *15:227 *15:262 9.78571 
37 *15:262 *2463:A 11.0679 
38 *15:262 *2465:A 11.8893 
39 *15:93 *2238:A 9.3 
*END

*D_NET *16 0.048787
*CONN
*P xP[3] I
*I *2470:A I *D sky130_fd_sc_hd__and2_1
*I *2472:A I *D sky130_fd_sc_hd__and2_1
*I *2497:A I *D sky130_fd_sc_hd__and2_1
*I *2519:A I *D sky130_fd_sc_hd__and2_1
*I *2517:A I *D sky130_fd_sc_hd__and2_1
*I *2526:A I *D sky130_fd_sc_hd__and2_1
*I *2523:A I *D sky130_fd_sc_hd__and2_1
*I *2532:A I *D sky130_fd_sc_hd__and2_1
*I *2530:A I *D sky130_fd_sc_hd__and2_1
*I *2510:A I *D sky130_fd_sc_hd__and2_1
*I *2512:A I *D sky130_fd_sc_hd__and2_1
*I *2504:A I *D sky130_fd_sc_hd__and2_1
*I *2506:A I *D sky130_fd_sc_hd__and2_1
*I *2499:A I *D sky130_fd_sc_hd__and2_1
*I *2493:A I *D sky130_fd_sc_hd__and2_1
*I *2489:A I *D sky130_fd_sc_hd__and2_1
*I *2485:A I *D sky130_fd_sc_hd__and2_1
*I *2483:A I *D sky130_fd_sc_hd__and2_1
*I *2476:A I *D sky130_fd_sc_hd__and2_1
*I *2478:A I *D sky130_fd_sc_hd__and2_1
*CAP
1 xP[3] 0.000255872
2 *2470:A 0
3 *2472:A 0.000672854
4 *2497:A 0.000600728
5 *2519:A 0
6 *2517:A 0.000207683
7 *2526:A 0
8 *2523:A 0
9 *2532:A 5.58421e-05
10 *2530:A 2.9238e-05
11 *2510:A 0.000332252
12 *2512:A 7.81262e-05
13 *2504:A 5.89812e-05
14 *2506:A 7.45189e-05
15 *2499:A 0.00027495
16 *2493:A 1.40355e-05
17 *2489:A 0.000239825
18 *2485:A 0
19 *2483:A 0.00013787
20 *2476:A 0.000434013
21 *2478:A 0
22 *16:228 0.000447646
23 *16:222 0.00068816
24 *16:214 0.00091616
25 *16:212 0.00100119
26 *16:195 0.00106373
27 *16:180 0.000933225
28 *16:167 0.00125649
29 *16:159 0.0017727
30 *16:144 0.000691419
31 *16:127 0.000886975
32 *16:116 0.000721194
33 *16:97 0.000900075
34 *16:62 0.000674966
35 *16:60 0.000412585
36 *16:58 0.00140934
37 *16:29 0.0019637
38 *16:19 0.00245759
39 *16:11 0.000927509
40 *2472:A *2164:A 0.00101474
41 *2472:A *2492:B 0.000335215
42 *2472:A *2503:B 2.14474e-05
43 *2476:A *2179:B 0
44 *2476:A *2476:B 9.27685e-05
45 *2476:A *2485:B 1.41665e-05
46 *2476:A *2546:B 7.52196e-05
47 *2476:A *3181:A 0.000152333
48 *2476:A *3182:A2 3.90513e-05
49 *2476:A *25:151 0.000116759
50 *2476:A *34:153 0.00011166
51 *2476:A *1322:8 2.27416e-05
52 *2483:A *2487:B 5.66971e-05
53 *2483:A *23:155 0.000585419
54 *2483:A *25:157 0.000253413
55 *2483:A *353:10 9.72199e-05
56 *2489:A *2489:B 0.000394975
57 *2489:A *3121:A2 0
58 *2489:A *1264:10 0.000599829
59 *2493:A *26:71 5.52302e-05
60 *2497:A *2752:B 5.80314e-05
61 *2497:A *18:320 0
62 *2497:A *26:152 0
63 *2497:A *27:160 0.000122879
64 *2499:A *2442:A 0.000137983
65 *2499:A *2499:B 3.18676e-05
66 *2499:A *2500:B 4.58976e-05
67 *2504:A *2444:B 0.000149911
68 *2506:A *2509:B 0.000167794
69 *2506:A *17:146 0.000122091
70 *2510:A *2511:B 1.92905e-05
71 *2512:A *2513:B 0
72 *2512:A *29:247 5.33005e-05
73 *2512:A *39:174 2.28499e-05
74 *2517:A *2454:B 6.05161e-06
75 *2517:A *2518:B 4.57445e-05
76 *2517:A *2519:B 3.18676e-05
77 *2517:A *40:240 0.000125731
78 *2530:A *2535:B 5.33005e-05
79 *2532:A *18:59 0.000173076
80 *2532:A *30:83 0.000173076
81 *16:11 *33:30 4.46186e-06
82 *16:19 *2155:B 6.11331e-05
83 *16:19 *2157:A 1.58559e-05
84 *16:19 *2164:A 0.000128504
85 *16:19 *318:10 0.00015244
86 *16:58 *1981:A 9.58689e-05
87 *16:58 *2047:A 9.58689e-05
88 *16:58 *2050:A 6.96806e-05
89 *16:58 *2416:A 3.49086e-05
90 *16:58 *2416:B 5.23822e-05
91 *16:58 *3018:B 8.05472e-05
92 *16:58 *36:58 0.000523641
93 *16:58 *162:12 0.000352381
94 *16:58 *168:14 0.000681663
95 *16:58 *168:16 0.000231236
96 *16:58 *227:20 0.00098527
97 *16:58 *228:8 0.000115401
98 *16:58 *232:12 0.000999141
99 *16:58 *1462:12 0.000141722
100 *16:60 *2485:B 5.54817e-06
101 *16:60 *2488:B 6.87672e-05
102 *16:62 *2485:B 6.87672e-05
103 *16:97 *36:58 0.000172
104 *16:97 *1165:8 0
105 *16:97 *1464:14 0.00010326
106 *16:116 *2435:A 8.33092e-05
107 *16:116 *36:58 1.76135e-05
108 *16:116 *36:77 0.000278433
109 *16:116 *36:100 0.000118303
110 *16:116 *37:127 0.000117398
111 *16:127 *2442:B 0.000100831
112 *16:127 *36:100 0.000320424
113 *16:127 *37:121 5.01213e-05
114 *16:127 *37:127 0.000320434
115 *16:144 *2439:B 0.000259019
116 *16:144 *36:100 1.73501e-05
117 *16:144 *37:111 0.000161411
118 *16:144 *37:115 0.000555122
119 *16:144 *37:121 4.46916e-05
120 *16:159 *2439:B 1.69115e-05
121 *16:159 *28:229 1.87955e-05
122 *16:159 *37:111 0.000551972
123 *16:167 *2505:B 0.000739586
124 *16:167 *2956:A 0.000268403
125 *16:167 *2957:A2 1.74352e-05
126 *16:167 *2957:B1 5.33005e-05
127 *16:167 *781:12 2.60984e-05
128 *16:167 *1104:12 0.000110101
129 *16:167 *1196:12 1.40415e-05
130 *16:180 *2444:B 0.000760065
131 *16:180 *1196:12 0.000150618
132 *16:195 *27:89 0.000934011
133 *16:195 *29:247 0.000357054
134 *16:212 *2454:B 0.000178847
135 *16:212 *2519:B 5.71472e-05
136 *16:212 *27:89 5.41794e-05
137 *16:214 *2526:B 5.03772e-05
138 *16:214 *2529:A 7.61932e-05
139 *16:222 *2523:B 0.000329603
140 *16:222 *2528:B 5.17614e-05
141 *16:222 *638:12 0.000176588
142 *16:228 *2528:B 3.18676e-05
143 *16:228 *2535:B 4.08637e-05
144 *2498:A *2497:A 0.000437762
145 *2498:A *16:159 0
146 *2498:A *16:167 0.000272371
147 *2500:A *2499:A 0.000358977
148 *2511:A *2510:A 0.000137983
149 *2511:A *16:212 0.000548949
150 *2511:A *16:214 9.71197e-05
151 *2524:A *16:228 6.29133e-05
152 *2527:A *16:222 3.90513e-05
153 *2557:A *2497:A 2.97863e-05
154 *3:125 *2472:A 0.000554394
155 *3:140 *2472:A 0.000389868
156 *4:11 *16:19 6.10679e-05
157 *5:11 *16:19 0.000315992
158 *5:252 *16:97 0
159 *6:5 *16:11 0.000422064
160 *6:46 *16:97 5.59013e-05
161 *6:46 *16:116 0.00054415
162 *6:60 *16:116 3.15439e-05
163 *6:77 *16:159 0
164 *6:130 *16:222 2.42662e-05
165 *6:130 *16:228 7.65689e-05
166 *6:134 *16:228 0.000229697
167 *6:252 *16:11 5.36048e-05
168 *6:269 *16:19 0
169 *8:42 *2493:A 2.89114e-05
170 *8:100 *2504:A 7.50601e-05
171 *8:100 *16:180 8.13599e-05
172 *8:104 *16:180 0
173 *8:115 *16:180 0
174 *8:115 *16:195 0.000333155
175 *8:115 *16:212 1.46624e-05
176 *13:13 *16:19 0.000907378
177 *13:24 *2472:A 0.00013347
178 *13:24 *16:19 0.000840573
179 *13:99 *2472:A 3.67452e-05
180 *14:9 *16:11 0.000491084
181 *14:207 *2472:A 0
182 *14:220 *2472:A 0
183 *15:19 *16:19 0.000178796
*RES
1 xP[3] *16:11 15.875 
2 *16:11 *16:19 26.4821 
3 *16:19 *16:29 26.3571 
4 *16:29 *2478:A 9.3 
5 *16:29 *16:58 38.3929 
6 *16:58 *16:60 4.67857 
7 *16:60 *16:62 1.94643 
8 *16:62 *2476:A 25.0143 
9 *16:62 *2483:A 20.6393 
10 *16:60 *2485:A 13.8 
11 *16:58 *16:97 5.89286 
12 *16:97 *2489:A 21.05 
13 *16:97 *16:116 12.625 
14 *16:116 *2493:A 14.3357 
15 *16:116 *16:127 9.23214 
16 *16:127 *2499:A 19.6929 
17 *16:127 *16:144 10.5 
18 *16:144 *2506:A 16.4071 
19 *16:144 *16:159 11.6071 
20 *16:159 *16:167 20.375 
21 *16:167 *2504:A 15.7464 
22 *16:167 *16:180 14.3393 
23 *16:180 *2512:A 10.675 
24 *16:180 *16:195 19.875 
25 *16:195 *2510:A 17.9429 
26 *16:195 *16:212 10.6964 
27 *16:212 *16:214 10.3929 
28 *16:214 *16:222 17.3214 
29 *16:222 *16:228 8.07143 
30 *16:228 *2530:A 9.83571 
31 *16:228 *2532:A 20.55 
32 *16:222 *2523:A 9.3 
33 *16:214 *2526:A 9.3 
34 *16:212 *2517:A 22.3357 
35 *16:212 *2519:A 9.3 
36 *16:159 *2497:A 27.7464 
37 *16:19 *2472:A 34.8714 
38 *16:11 *2470:A 9.3 
*END

*D_NET *17 0.0469751
*CONN
*P xP[4] I
*I *2583:A I *D sky130_fd_sc_hd__and2_1
*I *2592:A I *D sky130_fd_sc_hd__and2_1
*I *2596:A I *D sky130_fd_sc_hd__and2_1
*I *2598:A I *D sky130_fd_sc_hd__and2_1
*I *2589:A I *D sky130_fd_sc_hd__and2_1
*I *2539:A I *D sky130_fd_sc_hd__and2_1
*I *2559:A I *D sky130_fd_sc_hd__and2_1
*I *2556:A I *D sky130_fd_sc_hd__and2_1
*I *2565:A I *D sky130_fd_sc_hd__and2_1
*I *2578:A I *D sky130_fd_sc_hd__and2_1
*I *2585:A I *D sky130_fd_sc_hd__and2_1
*I *2570:A I *D sky130_fd_sc_hd__and2_1
*I *2576:A I *D sky130_fd_sc_hd__and2_1
*I *2572:A I *D sky130_fd_sc_hd__and2_1
*I *2563:A I *D sky130_fd_sc_hd__and2_1
*I *2552:A I *D sky130_fd_sc_hd__and2_1
*I *2550:A I *D sky130_fd_sc_hd__and2_1
*I *2543:A I *D sky130_fd_sc_hd__and2_1
*I *2545:A I *D sky130_fd_sc_hd__and2_1
*I *2537:A I *D sky130_fd_sc_hd__and2_1
*CAP
1 xP[4] 0.000948194
2 *2583:A 2.18703e-05
3 *2592:A 0
4 *2596:A 2.17614e-05
5 *2598:A 0.0006103
6 *2589:A 4.02277e-05
7 *2539:A 0
8 *2559:A 0
9 *2556:A 0.000297673
10 *2565:A 0.000113573
11 *2578:A 2.23854e-05
12 *2585:A 0.000656625
13 *2570:A 0.000368313
14 *2576:A 0
15 *2572:A 5.18888e-05
16 *2563:A 0
17 *2552:A 0.000148978
18 *2550:A 0
19 *2543:A 0.000367142
20 *2545:A 0
21 *2537:A 0.000157103
22 *17:294 0.000779634
23 *17:283 0.000446093
24 *17:277 0.00152679
25 *17:271 0.00164874
26 *17:206 0.00123153
27 *17:182 0.000393519
28 *17:178 0.00144562
29 *17:167 0.00181024
30 *17:146 0.00266637
31 *17:138 0.00168431
32 *17:134 0.000719093
33 *17:130 0.000672742
34 *17:103 0.00162133
35 *17:86 0.00135088
36 *17:57 0.00111702
37 *17:40 0.0009739
38 *17:17 0.00125571
39 *17:11 0.00153973
40 *2537:A *26:38 0.000141158
41 *2537:A *33:141 5.33005e-05
42 *2537:A *343:18 2.89016e-05
43 *2543:A *2544:B 0.000334126
44 *2543:A *2548:B 9.12114e-05
45 *2543:A *2554:B 9.15842e-06
46 *2543:A *3020:B 0
47 *2543:A *24:59 0.000127008
48 *2543:A *33:162 5.62995e-05
49 *2543:A *34:159 9.90431e-05
50 *2543:A *35:75 0.000136193
51 *2552:A *2552:B 0.000102232
52 *2552:A *3336:A 2.58997e-05
53 *2552:A *716:8 6.0038e-05
54 *2552:A *1386:10 5.80706e-06
55 *2556:A *2561:B 0.000103267
56 *2556:A *2629:A 2.66026e-05
57 *2556:A *26:139 0.000482574
58 *2556:A *26:152 4.46186e-06
59 *2556:A *36:132 8.93456e-05
60 *2556:A *782:12 0.000150625
61 *2565:A *18:320 0.00012401
62 *2565:A *1099:8 0.000140933
63 *2570:A *2581:A 0.000142856
64 *2570:A *2581:B 3.8274e-05
65 *2570:A *39:144 8.57023e-05
66 *2570:A *739:12 2.89114e-05
67 *2572:A *2572:B 1.92789e-05
68 *2572:A *1429:10 0.000139907
69 *2583:A *2583:B 3.99614e-06
70 *2583:A *2987:A 0
71 *2583:A *40:213 3.18676e-05
72 *2585:A *2585:B 2.97021e-05
73 *2585:A *2588:A 1.21258e-05
74 *2585:A *3290:B1 0.000181803
75 *2585:A *1136:16 6.03004e-05
76 *2585:A *1434:12 5.52302e-05
77 *2596:A *32:174 9.71197e-05
78 *2596:A *42:60 9.71197e-05
79 *2598:A *2023:A 0.000123912
80 *2598:A *2024:B 4.00025e-05
81 *2598:A *2026:B1 0.000321745
82 *2598:A *2599:B 3.34366e-05
83 *2598:A *2601:B 3.18676e-05
84 *2598:A *139:8 9.24299e-05
85 *2598:A *147:10 0.000200276
86 *17:11 *2514:A 6.90067e-05
87 *17:11 *2514:B 0
88 *17:11 *23:128 0.00064717
89 *17:11 *23:260 0.000208939
90 *17:11 *26:11 0.000605982
91 *17:11 *34:136 0.000326549
92 *17:11 *1321:18 5.41794e-05
93 *17:17 *2182:A 2.85321e-05
94 *17:17 *2185:B1 9.47378e-05
95 *17:17 *2542:A 3.851e-05
96 *17:17 *354:6 4.68201e-05
97 *17:40 *2545:B 2.72055e-05
98 *17:40 *26:38 8.399e-05
99 *17:40 *36:39 1.21258e-05
100 *17:40 *1165:8 5.51716e-05
101 *17:57 *2546:B 0.000141941
102 *17:57 *2549:A 0.000412622
103 *17:57 *2549:B 0.000138494
104 *17:57 *25:169 0.000265438
105 *17:57 *26:61 0.000369139
106 *17:57 *232:14 1.98839e-05
107 *17:57 *710:12 5.49995e-05
108 *17:86 *2554:A 8.07792e-06
109 *17:86 *25:169 0.000186937
110 *17:86 *715:8 0.000124012
111 *17:103 *1991:A2 0.000167313
112 *17:103 *1991:B1 9.10431e-06
113 *17:103 *3025:A 0.000148182
114 *17:103 *3026:A2 3.11262e-05
115 *17:103 *3026:B1 6.74815e-05
116 *17:103 *3325:B 0
117 *17:103 *3326:A1 0
118 *17:103 *3336:A 3.17067e-05
119 *17:103 *3337:B 7.90803e-05
120 *17:103 *25:169 0
121 *17:103 *35:88 0
122 *17:103 *35:99 0
123 *17:103 *715:8 0.000352913
124 *17:103 *716:8 0
125 *17:103 *1386:10 3.92854e-05
126 *17:103 *1470:14 5.74562e-05
127 *17:130 *3247:B 0.000176234
128 *17:130 *3248:A 0.000147652
129 *17:130 *3336:A 7.38748e-05
130 *17:130 *3337:B 0.00012401
131 *17:130 *25:213 0
132 *17:130 *26:121 0
133 *17:130 *36:100 0
134 *17:130 *668:10 8.10099e-05
135 *17:130 *1092:14 7.32173e-05
136 *17:130 *1392:8 0.00029993
137 *17:134 *2629:A 2.56601e-05
138 *17:134 *3248:A 5.80706e-06
139 *17:134 *26:121 1.02504e-05
140 *17:134 *26:130 0.000391583
141 *17:134 *26:139 0.000150618
142 *17:134 *722:10 0
143 *17:146 *2509:A 1.97865e-05
144 *17:146 *2509:B 7.49387e-06
145 *17:146 *2567:A 0.000100625
146 *17:146 *3253:A 2.77258e-05
147 *17:146 *28:152 0.000104611
148 *17:146 *38:148 0.000153959
149 *17:146 *39:231 1.24368e-05
150 *17:146 *674:6 3.32631e-05
151 *17:146 *727:10 1.92789e-05
152 *17:146 *1398:12 4.87953e-05
153 *17:167 *2567:A 0.00010096
154 *17:167 *2632:A 9.61412e-05
155 *17:167 *2633:B 0
156 *17:167 *2635:B 0.000139286
157 *17:167 *2954:B 5.90443e-06
158 *17:167 *2955:A 0.000195555
159 *17:167 *19:88 0.000389868
160 *17:167 *28:146 0.00036083
161 *17:167 *29:247 0.000223599
162 *17:167 *727:10 4.57445e-05
163 *17:167 *1198:10 0.000183593
164 *17:178 *2510:B 0.000197892
165 *17:178 *2515:B 0.000100823
166 *17:178 *2575:B 2.28428e-05
167 *17:178 *2577:B 1.99099e-05
168 *17:178 *28:146 8.15095e-05
169 *17:178 *1199:18 0
170 *17:182 *39:144 5.52302e-05
171 *17:206 *2577:B 7.05143e-06
172 *17:206 *2582:A 0.000140933
173 *17:206 *3277:A1 4.78818e-05
174 *17:206 *3277:B1 9.25014e-06
175 *17:206 *29:239 0
176 *17:206 *1136:16 0.000622125
177 *17:206 *1199:18 0
178 *17:206 *1430:16 2.68527e-05
179 *17:271 *2587:A 0
180 *17:271 *40:213 3.48705e-05
181 *17:271 *40:224 0.000136019
182 *17:271 *1133:10 0.000114121
183 *17:277 *2592:B 3.53387e-05
184 *17:277 *2595:A 0.000144773
185 *17:277 *2652:B 6.42095e-05
186 *17:277 *2987:A 0.000271352
187 *17:277 *18:98 2.77258e-05
188 *17:277 *18:109 0.000181192
189 *17:277 *30:79 6.57914e-05
190 *17:277 *40:213 8.29802e-05
191 *17:283 *2592:B 0.000438788
192 *17:283 *2594:A 0.000110918
193 *17:283 *139:8 8.56812e-05
194 *17:283 *697:14 7.79781e-06
195 *17:294 *139:8 0.000109659
196 *2382:A *2537:A 0
197 *2506:A *17:146 0.000122091
198 *2507:A *17:146 9.76491e-05
199 *2546:A *17:57 4.9209e-05
200 *2557:A *17:138 9.33978e-07
201 *2557:A *17:146 1.34703e-05
202 *2577:A *17:178 5.57056e-05
203 *2599:A *2598:A 0
204 *2618:A *17:134 0
205 *2618:A *17:138 6.57032e-05
206 *3080:A *17:11 0
207 *7:19 *17:17 0.0018121
208 *7:34 *17:40 0.000485381
209 *7:34 *17:57 2.83425e-05
210 *7:40 *17:57 1.97617e-05
211 *7:68 *17:103 0
212 *7:84 *2565:A 4.03318e-05
213 *7:94 *17:146 2.22803e-05
214 *7:111 *17:167 0.000194889
215 *7:111 *17:178 0.000117144
216 *7:124 *17:178 0.000254615
217 *8:21 *17:11 0
218 *8:115 *17:167 0
219 *8:139 *2598:A 0
220 *8:139 *17:283 0
221 *8:139 *17:294 0
222 *14:42 *17:11 0
223 *15:32 *2537:A 0.000334141
224 *15:32 *17:40 0.000171355
225 *15:47 *17:40 4.37451e-05
*RES
1 xP[4] *17:11 30.4464 
2 *17:11 *17:17 22.3036 
3 *17:17 *2537:A 18.7107 
4 *17:17 *17:40 22.3571 
5 *17:40 *2545:A 9.3 
6 *17:40 *17:57 13.25 
7 *17:57 *2543:A 27.925 
8 *17:57 *17:86 10.0179 
9 *17:86 *2550:A 13.8 
10 *17:86 *17:103 21.7857 
11 *17:103 *2552:A 25.3 
12 *17:103 *17:130 15.5714 
13 *17:130 *17:134 11.3036 
14 *17:134 *17:138 6.26786 
15 *17:138 *17:146 21.5357 
16 *17:146 *2563:A 9.3 
17 *17:146 *17:167 42.2143 
18 *17:167 *2572:A 15.1571 
19 *17:167 *17:178 12.5714 
20 *17:178 *17:182 5.03571 
21 *17:182 *2576:A 9.3 
22 *17:182 *2570:A 15.9964 
23 *17:178 *17:206 17.9107 
24 *17:206 *2585:A 14.7821 
25 *17:206 *2578:A 9.72857 
26 *17:138 *2565:A 21.3 
27 *17:134 *2556:A 22.7821 
28 *17:130 *2559:A 9.3 
29 *17:11 *2539:A 9.3 
30 *2585:A *17:271 25.8 
31 *17:271 *17:277 17.3036 
32 *17:277 *17:283 10.9821 
33 *17:283 *2589:A 14.3357 
34 *17:283 *17:294 2.85714 
35 *17:294 *2598:A 27.8357 
36 *17:294 *2596:A 14.7464 
37 *17:277 *2592:A 9.3 
38 *17:271 *2583:A 10.2643 
*END

*D_NET *18 0.0711835
*CONN
*P xP[5] I
*I *2623:A I *D sky130_fd_sc_hd__and2_1
*I *2632:A I *D sky130_fd_sc_hd__and2_1
*I *2619:A I *D sky130_fd_sc_hd__and2_1
*I *2626:A I *D sky130_fd_sc_hd__and2_1
*I *2617:A I *D sky130_fd_sc_hd__and2_1
*I *2612:A I *D sky130_fd_sc_hd__and2_1
*I *2610:A I *D sky130_fd_sc_hd__and2_1
*I *2604:A I *D sky130_fd_sc_hd__and2_1
*I *2606:A I *D sky130_fd_sc_hd__and2_1
*I *2643:A I *D sky130_fd_sc_hd__and2_1
*I *2645:A I *D sky130_fd_sc_hd__and2_1
*I *2637:A I *D sky130_fd_sc_hd__and2_1
*I *2630:A I *D sky130_fd_sc_hd__and2_1
*I *2639:A I *D sky130_fd_sc_hd__and2_1
*I *2652:A I *D sky130_fd_sc_hd__and2_1
*I *2656:A I *D sky130_fd_sc_hd__and2_1
*I *2650:A I *D sky130_fd_sc_hd__and2_1
*I *2663:A I *D sky130_fd_sc_hd__and2_1
*I *2659:A I *D sky130_fd_sc_hd__and2_1
*I *2665:A I *D sky130_fd_sc_hd__and2_1
*CAP
1 xP[5] 0.000368325
2 *2623:A 0
3 *2632:A 0.00036618
4 *2619:A 0.000266607
5 *2626:A 0.00159208
6 *2617:A 2.7879e-05
7 *2612:A 0
8 *2610:A 2.35133e-05
9 *2604:A 0.000415346
10 *2606:A 2.14006e-05
11 *2643:A 1.45429e-05
12 *2645:A 0
13 *2637:A 0.000390158
14 *2630:A 0.000532733
15 *2639:A 4.59789e-05
16 *2652:A 0
17 *2656:A 0
18 *2650:A 0.000266589
19 *2663:A 0.000169408
20 *2659:A 1.03356e-05
21 *2665:A 0.00068891
22 *18:324 0.000384034
23 *18:320 0.00108428
24 *18:264 0.00179863
25 *18:252 0.00177605
26 *18:219 0.00063779
27 *18:215 0.000610078
28 *18:207 0.000675494
29 *18:205 0.00293319
30 *18:182 0.00390874
31 *18:140 0.00217243
32 *18:125 0.00159013
33 *18:115 0.00199132
34 *18:109 0.00225109
35 *18:98 0.00080899
36 *18:67 0.000435997
37 *18:65 0.000802865
38 *18:59 0.00183333
39 *18:44 0.00109337
40 *18:25 0.0022773
41 *18:17 0.00295716
42 *18:15 0.00223639
43 *18:11 0.00186835
44 *2604:A *2604:B 0.000477998
45 *2604:A *3115:B 0
46 *2604:A *3116:B 1.78353e-05
47 *2604:A *3117:B1 9.60939e-05
48 *2604:A *33:173 0.000450866
49 *2604:A *34:167 0.000216797
50 *2604:A *34:178 1.6815e-05
51 *2604:A *1162:16 0
52 *2604:A *1167:10 3.75052e-05
53 *2604:A *1260:10 0.000123288
54 *2606:A *26:79 5.58941e-05
55 *2606:A *33:277 5.41794e-05
56 *2610:A *354:6 5.49995e-05
57 *2617:A *2617:B 5.33005e-05
58 *2619:A *33:197 4.28249e-05
59 *2619:A *34:200 2.01359e-05
60 *2626:A *2564:B 0
61 *2626:A *24:99 0.000167875
62 *2626:A *1099:8 0.000280393
63 *2630:A *190:10 0.000370808
64 *2630:A *733:12 6.09476e-05
65 *2630:A *1110:6 9.7659e-05
66 *2630:A *1111:14 0.000161868
67 *2630:A *1123:12 3.57163e-05
68 *2630:A *1136:18 0
69 *2632:A *2635:A 1.21289e-05
70 *2632:A *2635:B 0.000118986
71 *2632:A *2693:B 8.18783e-05
72 *2632:A *19:90 0.00018077
73 *2632:A *20:80 0.000256435
74 *2632:A *27:89 0.00010096
75 *2632:A *1198:18 0.000222666
76 *2632:A *1199:14 9.31893e-05
77 *2637:A *1136:18 0
78 *2639:A *28:95 3.18676e-05
79 *2639:A *28:97 1.04232e-05
80 *2639:A *28:119 7.43578e-06
81 *2643:A *1455:10 5.01876e-06
82 *2650:A *2661:A 5.33882e-05
83 *2650:A *2905:B 0.000150782
84 *2650:A *30:60 1.18064e-05
85 *2650:A *40:170 0.000149904
86 *2650:A *41:243 1.17968e-05
87 *2650:A *757:16 0.00011741
88 *2659:A *22:235 3.18676e-05
89 *2659:A *31:196 5.52238e-05
90 *2663:A *2905:B 6.8646e-06
91 *2663:A *32:163 7.77751e-05
92 *2663:A *41:243 0.000136834
93 *2665:A *2031:B1 3.14163e-05
94 *2665:A *2665:B 9.90431e-05
95 *2665:A *19:45 0.000846814
96 *2665:A *31:136 0.000444162
97 *2665:A *42:120 0.000293224
98 *18:15 zN[2] 0.000966909
99 *18:15 *1977:A 0
100 *18:15 *2525:B 0
101 *18:15 *34:13 4.03293e-05
102 *18:15 *34:32 0.000231847
103 *18:15 *158:10 6.54849e-05
104 *18:15 *274:12 6.65302e-05
105 *18:15 *319:10 0.00014852
106 *18:17 *2492:B 8.25843e-06
107 *18:17 *2569:B 0.000344232
108 *18:25 *2038:B 4.38621e-05
109 *18:25 *2858:A 0.000104974
110 *18:25 *2858:B 0.000103253
111 *18:25 *2913:B 5.56943e-05
112 *18:25 *3191:A 9.91086e-05
113 *18:25 *31:151 0
114 *18:25 *38:313 0.000581069
115 *18:25 *41:124 0.000318309
116 *18:25 *577:12 0.000171375
117 *18:25 *1138:10 7.6644e-05
118 *18:25 *1402:12 0.000151141
119 *18:44 *22:235 0.000134539
120 *18:44 *30:89 0
121 *18:44 *31:196 5.33005e-05
122 *18:44 *31:207 0.000213172
123 *18:44 *38:313 0.000185633
124 *18:44 *577:12 0.000328394
125 *18:44 *1087:12 0
126 *18:59 *2025:B 0
127 *18:59 *2534:A 5.35516e-05
128 *18:59 *2535:B 0.000100823
129 *18:59 *2662:B 5.01117e-05
130 *18:59 *3312:B1 0.000128154
131 *18:59 *25:74 0
132 *18:59 *30:83 0.000289214
133 *18:59 *30:89 0.000702281
134 *18:59 *31:196 1.19309e-05
135 *18:59 *32:187 0
136 *18:59 *41:192 0
137 *18:59 *42:66 2.00751e-05
138 *18:65 *2534:A 2.89114e-05
139 *18:65 *2593:B 0.000277986
140 *18:65 *29:198 1.74352e-05
141 *18:65 *41:256 0.000562529
142 *18:65 *697:14 3.89931e-05
143 *18:98 *2534:A 1.69115e-05
144 *18:98 *2652:B 0.000137983
145 *18:98 *29:198 0
146 *18:98 *30:79 0.000114733
147 *18:98 *30:83 0.000115072
148 *18:98 *40:213 9.60939e-05
149 *18:109 *2648:B 0
150 *18:109 *2990:B1 0
151 *18:109 *29:216 3.92757e-05
152 *18:109 *40:213 0.000487467
153 *18:109 *1137:14 0
154 *18:109 *1455:10 0.000257346
155 *18:125 *28:95 1.02936e-05
156 *18:125 *39:129 6.48068e-05
157 *18:125 *1384:10 0.000125243
158 *18:140 *2641:A 9.41642e-05
159 *18:140 *2642:A 0.000134559
160 *18:140 *2642:B 5.52302e-05
161 *18:140 *2976:A 5.04705e-05
162 *18:140 *2976:B 1.32552e-05
163 *18:140 *2977:A2 9.71197e-05
164 *18:140 *28:119 0.000231329
165 *18:140 *793:6 3.98431e-05
166 *18:140 *1124:12 2.44318e-05
167 *18:140 *1426:18 7.06678e-05
168 *18:182 *2569:B 0.000255062
169 *18:182 *2609:B 9.60875e-05
170 *18:182 *26:79 0.000199601
171 *18:182 *33:266 6.86792e-05
172 *18:182 *33:277 4.88637e-05
173 *18:205 *2569:B 0.000418655
174 *18:205 *2580:B 0.000140933
175 *18:205 *3023:B 0.000147381
176 *18:205 *3026:B1 0.000230475
177 *18:205 *26:79 0.000101545
178 *18:205 *33:277 9.22948e-05
179 *18:205 *37:151 0.000381587
180 *18:215 *2613:B 5.52238e-05
181 *18:215 *25:169 0.000510186
182 *18:215 *35:88 0.000509464
183 *18:219 *2616:B 0.000150476
184 *18:219 *33:173 0.000571929
185 *18:219 *34:178 0.000211616
186 *18:219 *34:189 4.46186e-06
187 *18:252 *25:169 0.000639615
188 *18:252 *35:88 0.000618139
189 *18:252 *35:99 2.09897e-05
190 *18:264 *24:99 0.000248862
191 *18:264 *25:213 0.000132532
192 *18:264 *35:116 0.000118477
193 *18:320 *2752:B 0
194 *18:320 *20:80 0.000175502
195 *18:320 *20:95 3.98431e-05
196 *18:320 *26:139 2.14378e-05
197 *18:320 *26:152 6.09807e-05
198 *18:320 *36:117 0.000197276
199 *18:320 *37:97 9.90367e-05
200 *18:320 *37:111 0.000321929
201 *18:320 *38:142 2.04825e-05
202 *18:320 *103:12 0.000354111
203 *18:324 *2693:B 1.58163e-05
204 *18:324 *20:80 4.27935e-05
205 *2105:A *18:25 5.35516e-05
206 *2393:A *18:17 3.69047e-06
207 *2457:A *2665:A 0.000481562
208 *2473:A *18:25 0.000775378
209 *2497:A *18:320 0
210 *2532:A *18:59 0.000173076
211 *2557:A *18:320 0.000533176
212 *2565:A *18:320 0.00012401
213 *2569:A *18:15 0
214 *2569:A *18:17 1.40306e-05
215 *3:35 *18:15 0
216 *5:62 *18:25 0
217 *5:77 *18:25 0
218 *7:13 *18:15 0
219 *7:84 *18:320 0
220 *7:111 *2632:A 0.000382424
221 *7:247 *2650:A 0
222 *7:247 *2663:A 0
223 *8:15 *18:11 0.000345863
224 *8:123 *18:125 0.000268396
225 *8:262 *2632:A 0.000178847
226 *8:280 *18:320 0.000544239
227 *9:132 *18:115 0
228 *9:222 *2626:A 0.000159252
229 *9:222 *18:264 1.94879e-05
230 *10:192 *2630:A 4.80729e-05
231 *10:192 *2637:A 0.000315894
232 *10:202 *2630:A 8.25098e-05
233 *11:218 *2637:A 0.000290158
234 *13:138 *18:25 0.000331328
235 *13:153 *18:25 0.000106542
236 *14:237 *18:25 0.000198097
237 *14:248 *18:25 1.49749e-05
238 *15:13 *18:15 0
239 *15:93 *18:15 0
240 *15:99 *18:15 1.66787e-05
241 *15:137 *18:15 0.00118314
242 *17:167 *2632:A 9.61412e-05
243 *17:277 *18:98 2.77258e-05
244 *17:277 *18:109 0.000181192
*RES
1 xP[5] *18:11 17.9286 
2 *18:11 *18:15 41.9643 
3 *18:15 *18:17 8.75 
4 *18:17 *18:25 41.4107 
5 *18:25 *2665:A 32.55 
6 *18:25 *18:44 13.8929 
7 *18:44 *2659:A 9.83571 
8 *18:44 *18:59 24.4107 
9 *18:59 *18:65 19.4286 
10 *18:65 *18:67 4.5 
11 *18:67 *2663:A 17.4071 
12 *18:67 *2650:A 21.2107 
13 *18:65 *2656:A 9.3 
14 *18:59 *18:98 10.6607 
15 *18:98 *2652:A 9.3 
16 *18:98 *18:109 18.5268 
17 *18:109 *18:115 9.96587 
18 *18:115 *18:125 9.55357 
19 *18:125 *2639:A 10.6929 
20 *18:125 *18:140 21.0536 
21 *18:140 *2630:A 27.2464 
22 *18:140 *2637:A 22.925 
23 *18:115 *2645:A 13.8 
24 *18:109 *2643:A 14.0768 
25 *18:17 *18:182 16.9464 
26 *18:182 *2606:A 14.5321 
27 *18:182 *18:205 46.0893 
28 *18:205 *18:207 4.5 
29 *18:207 *18:215 14.8393 
30 *18:215 *18:219 11.9107 
31 *18:219 *2604:A 27.1393 
32 *18:219 *2610:A 14.3357 
33 *18:215 *2612:A 9.3 
34 *18:207 *18:252 11.7347 
35 *18:252 *18:264 13.2312 
36 *18:264 *2617:A 14.3357 
37 *18:264 *2626:A 23.9964 
38 *18:252 *2619:A 18.3058 
39 *2626:A *18:320 48.4071 
40 *18:320 *18:324 5.03571 
41 *18:324 *2632:A 30.925 
42 *18:324 *2623:A 9.3 
*END

*D_NET *19 0.0738818
*CONN
*P xP[6] I
*I *2696:A I *D sky130_fd_sc_hd__and2_1
*I *2698:A I *D sky130_fd_sc_hd__and2_1
*I *2689:A I *D sky130_fd_sc_hd__and2_1
*I *2705:A I *D sky130_fd_sc_hd__and2_1
*I *2703:A I *D sky130_fd_sc_hd__and2_1
*I *2711:A I *D sky130_fd_sc_hd__and2_1
*I *2709:A I *D sky130_fd_sc_hd__and2_1
*I *2717:A I *D sky130_fd_sc_hd__and2_1
*I *2723:A I *D sky130_fd_sc_hd__and2_1
*I *2730:A I *D sky130_fd_sc_hd__and2_1
*I *2692:A I *D sky130_fd_sc_hd__and2_1
*I *2683:A I *D sky130_fd_sc_hd__and2_1
*I *2685:A I *D sky130_fd_sc_hd__and2_1
*I *2676:A I *D sky130_fd_sc_hd__and2_1
*I *2678:A I *D sky130_fd_sc_hd__and2_1
*I *2672:A I *D sky130_fd_sc_hd__and2_1
*I *2670:A I *D sky130_fd_sc_hd__and2_1
*I *2719:A I *D sky130_fd_sc_hd__and2_1
*I *2726:A I *D sky130_fd_sc_hd__and2_1
*I *2732:A I *D sky130_fd_sc_hd__and2_1
*CAP
1 xP[6] 0.000653931
2 *2696:A 1.16062e-05
3 *2698:A 0.000127255
4 *2689:A 0.000307506
5 *2705:A 2.23854e-05
6 *2703:A 0.000261441
7 *2711:A 1.28427e-05
8 *2709:A 0.00033498
9 *2717:A 5.67276e-05
10 *2723:A 2.37855e-05
11 *2730:A 0
12 *2692:A 0
13 *2683:A 0.000353351
14 *2685:A 0
15 *2676:A 0
16 *2678:A 2.84146e-05
17 *2672:A 4.44514e-05
18 *2670:A 5.78354e-05
19 *2719:A 0
20 *2726:A 0
21 *2732:A 7.38768e-05
22 *19:288 0.000514621
23 *19:286 0.00136244
24 *19:269 0.00157799
25 *19:252 0.00182697
26 *19:237 0.00261382
27 *19:222 0.00230856
28 *19:209 0.0017037
29 *19:196 0.00104417
30 *19:132 0.000201084
31 *19:130 0.00071321
32 *19:124 0.00202653
33 *19:106 0.00149321
34 *19:104 0.00222707
35 *19:90 0.00188685
36 *19:88 0.0022678
37 *19:71 0.00352704
38 *19:45 0.00199386
39 *19:29 0.00255281
40 *19:25 0.00346318
41 *19:21 0.0022058
42 *19:11 0.00138135
43 *2670:A *24:93 0.000173083
44 *2670:A *33:182 3.34295e-05
45 *2670:A *33:197 0.000148903
46 *2672:A *172:26 0.000100084
47 *2672:A *1089:18 8.65736e-05
48 *2678:A *2678:B 2.89114e-05
49 *2678:A *24:99 2.59355e-05
50 *2678:A *171:10 9.90431e-05
51 *2683:A *2814:B 0.000150618
52 *2683:A *21:180 0.000167842
53 *2683:A *21:184 0.000615703
54 *2683:A *21:186 5.41794e-05
55 *2683:A *25:269 4.46186e-06
56 *2683:A *35:169 0.00065657
57 *2683:A *35:177 1.02504e-05
58 *2689:A *3278:A 0.000225314
59 *2689:A *3282:A1 0.000153047
60 *2689:A *20:244 0.000191795
61 *2689:A *36:193 0.000335215
62 *2689:A *37:89 0.000409501
63 *2689:A *851:8 0.000127446
64 *2689:A *1111:14 0.000197991
65 *2696:A *2696:B 5.52302e-05
66 *2696:A *193:10 5.52302e-05
67 *2698:A *2698:B 9.41642e-05
68 *2698:A *2701:A 0.000144773
69 *2698:A *2701:B 3.68898e-05
70 *2698:A *27:116 0.00030926
71 *2698:A *27:143 0.000126572
72 *2703:A *3075:A1 0.000184914
73 *2703:A *38:101 4.94362e-05
74 *2703:A *39:114 5.52238e-05
75 *2703:A *1133:10 9.42015e-05
76 *2709:A *2715:A 3.37976e-05
77 *2709:A *20:194 0.000182256
78 *2709:A *28:44 3.14649e-05
79 *2709:A *39:76 0
80 *2711:A *2711:B 5.7903e-06
81 *2711:A *206:14 2.06178e-05
82 *2717:A *40:170 0.000142152
83 *2732:A *2732:B 0.000317082
84 *2732:A *2918:B 0.00040279
85 *19:11 *2783:B 0.00015626
86 *19:11 *2787:B 0.000101689
87 *19:11 *2909:A 4.32258e-05
88 *19:11 *20:7 0.000494798
89 *19:11 *20:15 0.000577248
90 *19:11 *20:166 0.000100061
91 *19:11 *21:7 9.12969e-06
92 *19:11 *22:22 0.0002772
93 *19:11 *30:11 1.94945e-05
94 *19:11 *39:9 0.000266869
95 *19:21 zP[16] 0
96 *19:21 *2728:B 5.30637e-06
97 *19:21 *20:19 1.44868e-05
98 *19:21 *31:257 2.32625e-05
99 *19:21 *32:11 0.000162216
100 *19:25 *2379:A1 5.52579e-06
101 *19:25 *2379:A2 6.57768e-05
102 *19:25 *2730:B 1.58163e-05
103 *19:25 *2734:A 7.48091e-05
104 *19:25 *3103:A 5.03998e-05
105 *19:25 *3103:B 0.000178847
106 *19:25 *3106:B1 8.0786e-06
107 *19:25 *3227:A 3.14048e-05
108 *19:25 *42:45 2.74464e-05
109 *19:25 *883:6 2.59355e-05
110 *19:25 *1249:10 5.62995e-05
111 *19:25 *1372:8 7.38537e-05
112 *19:29 *2386:A 0
113 *19:29 *2905:A 9.7478e-05
114 *19:29 *38:295 0.00046212
115 *19:29 *525:14 0.00014805
116 *19:45 *1975:A 0.000112926
117 *19:45 *1976:B1 4.25716e-05
118 *19:45 *2030:B 0.000202842
119 *19:45 *2386:B 0
120 *19:45 *2665:B 0.000537593
121 *19:45 *2795:B 0.000100831
122 *19:45 *2918:A 0
123 *19:45 *20:44 0
124 *19:45 *25:74 0
125 *19:45 *31:136 0.000139907
126 *19:45 *32:199 0
127 *19:45 *42:120 4.02462e-05
128 *19:45 *154:12 7.8327e-05
129 *19:45 *156:12 6.16864e-05
130 *19:45 *525:14 2.19778e-05
131 *19:45 *532:10 7.6997e-05
132 *19:45 *884:12 0
133 *19:45 *944:10 4.57445e-05
134 *19:71 *2025:B 0.000254036
135 *19:71 *2096:A1 0.000369298
136 *19:71 *2096:A2 1.32552e-05
137 *19:71 *2096:B1 3.19626e-05
138 *19:71 *2377:B 0.000137983
139 *19:71 *2379:B1 8.07313e-05
140 *19:71 *151:12 5.52302e-05
141 *19:71 *207:6 8.1737e-05
142 *19:71 *276:6 9.31893e-05
143 *19:71 *525:14 5.52238e-05
144 *19:88 *2722:A 0.000144773
145 *19:88 *3285:A 1.74352e-05
146 *19:88 *3285:B 4.87953e-05
147 *19:88 *27:89 0.000697212
148 *19:88 *29:247 0.000124479
149 *19:88 *30:186 5.33005e-05
150 *19:88 *30:197 0.000433628
151 *19:88 *871:12 2.89114e-05
152 *19:88 *1429:10 0.000861158
153 *19:88 *1430:16 7.6644e-05
154 *19:90 *2635:A 0.000114587
155 *19:90 *1198:18 1.38323e-05
156 *19:104 *2692:B 5.33005e-05
157 *19:104 *2695:A 6.86693e-05
158 *19:104 *38:142 5.41794e-05
159 *19:104 *1023:16 0.000148118
160 *19:104 *1198:18 0.00281085
161 *19:104 *1199:18 5.41794e-05
162 *19:106 *2686:B 4.49293e-05
163 *19:106 *21:186 0.000149419
164 *19:106 *35:169 0.000101545
165 *19:124 *2686:B 9.25014e-06
166 *19:124 *2803:B 0.00015091
167 *19:124 *2805:A 0.000101626
168 *19:124 *20:97 0.000122227
169 *19:124 *21:186 2.06178e-05
170 *19:124 *24:108 0.000177453
171 *19:124 *33:225 1.26352e-05
172 *19:130 *2682:B 0.000155469
173 *19:130 *2741:B 0.00010326
174 *19:130 *23:202 0.000134563
175 *19:130 *23:210 4.45793e-05
176 *19:130 *33:197 0.000733007
177 *19:130 *33:210 0.000196914
178 *19:130 *33:225 0.000322084
179 *19:132 *23:202 1.69115e-05
180 *19:132 *24:93 0.000196276
181 *19:132 *33:197 0.000231241
182 *19:196 *2728:B 1.74352e-05
183 *19:209 *2375:A2 0.000535431
184 *19:209 *2728:A 7.02611e-05
185 *19:209 *2728:B 5.1969e-05
186 *19:209 *29:81 0
187 *19:209 *31:257 0.000271794
188 *19:222 *2715:A 2.95076e-06
189 *19:222 *2779:B 0.000110097
190 *19:222 *2782:B 0.000152333
191 *19:222 *3012:A2 4.73656e-05
192 *19:222 *3012:B1 4.43106e-05
193 *19:222 *29:81 0
194 *19:222 *39:76 8.10802e-05
195 *19:222 *870:10 0.000125731
196 *19:222 *1159:14 0.000255274
197 *19:237 *28:44 0.000119449
198 *19:252 *37:52 0.000466648
199 *19:269 *2706:B 0.000139907
200 *19:269 *3074:A 9.60939e-05
201 *19:269 *3075:A1 1.04707e-05
202 *19:269 *1220:12 2.59355e-05
203 *19:269 *1221:10 0
204 *19:286 *2012:A 0.000532299
205 *19:286 *2013:A2 1.21258e-05
206 *19:286 *2013:B1 0.000208151
207 *19:286 *2696:B 4.91146e-05
208 *19:286 *2697:B 2.59355e-05
209 *19:286 *2705:B 0.00014285
210 *19:286 *2756:A 2.49484e-05
211 *19:286 *117:14 1.21258e-05
212 *19:286 *193:10 3.98307e-05
213 *19:286 *194:10 0.000229456
214 *19:288 *2696:B 0.000125731
215 *19:288 *2700:B 3.25078e-05
216 *19:288 *20:244 1.721e-05
217 *19:288 *37:89 5.41794e-05
218 *19:288 *193:10 9.69119e-06
219 *2632:A *19:90 0.00018077
220 *2665:A *19:45 0.000846814
221 *2697:A *19:286 0.000102207
222 *2704:A *2703:A 0
223 *2706:A *19:269 3.18676e-05
224 *2740:A *19:130 0.000108542
225 *2886:A *2703:A 0.000352292
226 *2886:A *19:269 6.57648e-05
227 *9:13 *19:11 0.000506429
228 *9:29 *19:222 0
229 *9:42 *19:11 0
230 *9:42 *19:21 4.52236e-05
231 *9:48 *19:21 0.000748098
232 *9:102 *2709:A 6.08019e-05
233 *9:102 *19:237 0.000437664
234 *9:115 *19:237 6.92466e-05
235 *9:115 *19:252 0.000195383
236 *9:132 *19:252 0.000353465
237 *9:157 *19:269 0.000140819
238 *9:168 *19:269 4.16899e-05
239 *9:168 *19:286 0.000363201
240 *10:57 *19:45 0
241 *10:179 *19:269 0.000993616
242 *10:179 *19:286 0.000525394
243 *10:208 *2683:A 0
244 *10:226 *19:124 0.000141455
245 *10:226 *19:130 0.000403938
246 *11:23 *19:11 0
247 *17:167 *19:88 0.000389868
*RES
1 xP[6] *19:11 22.6942 
2 *19:11 *19:21 24.2857 
3 *19:21 *19:25 18.4107 
4 *19:25 *19:29 18.2857 
5 *19:29 *19:45 49.9464 
6 *19:45 *2732:A 13.1214 
7 *19:29 *2726:A 13.8 
8 *19:25 *19:71 22.9107 
9 *19:71 *2719:A 9.3 
10 *19:71 *19:88 48.0714 
11 *19:88 *19:90 2.17857 
12 *19:90 *19:104 41.6071 
13 *19:104 *19:106 1.94643 
14 *19:106 *19:124 17.1605 
15 *19:124 *19:130 19.9107 
16 *19:130 *19:132 3.16071 
17 *19:132 *2670:A 16.05 
18 *19:132 *2672:A 15.175 
19 *19:130 *2678:A 14.7464 
20 *19:124 *2676:A 13.8 
21 *19:106 *2685:A 13.8 
22 *19:104 *2683:A 26.675 
23 *19:90 *2692:A 9.3 
24 *19:21 *2730:A 9.3 
25 *19:11 *19:196 0.535714 
26 *19:196 *2723:A 9.72857 
27 *19:196 *19:209 22.1786 
28 *19:209 *2717:A 15.1571 
29 *19:209 *19:222 17.9546 
30 *19:222 *2709:A 20.0912 
31 *19:222 *19:237 3.0738 
32 *19:237 *2711:A 17.4868 
33 *19:237 *19:252 6.98827 
34 *19:252 *2703:A 21.2911 
35 *19:252 *19:269 14.9554 
36 *19:269 *2705:A 9.72857 
37 *19:269 *19:286 28.8036 
38 *19:286 *19:288 2.25 
39 *19:288 *2689:A 26.0679 
40 *19:288 *2698:A 18.0321 
41 *19:286 *2696:A 14.3357 
*END

*D_NET *20 0.0677846
*CONN
*P xP[7] I
*I *2772:A I *D sky130_fd_sc_hd__and2_1
*I *2765:A I *D sky130_fd_sc_hd__and2_1
*I *2756:A I *D sky130_fd_sc_hd__and2_1
*I *2759:A I *D sky130_fd_sc_hd__and2_1
*I *2750:A I *D sky130_fd_sc_hd__and2_1
*I *2763:A I *D sky130_fd_sc_hd__and2_1
*I *2770:A I *D sky130_fd_sc_hd__and2_1
*I *2778:A I *D sky130_fd_sc_hd__and2_1
*I *2776:A I *D sky130_fd_sc_hd__and2_1
*I *2783:A I *D sky130_fd_sc_hd__and2_1
*I *2789:A I *D sky130_fd_sc_hd__and2_1
*I *2785:A I *D sky130_fd_sc_hd__and2_1
*I *2743:A I *D sky130_fd_sc_hd__and2_1
*I *2745:A I *D sky130_fd_sc_hd__and2_1
*I *2737:A I *D sky130_fd_sc_hd__and2_1
*I *2739:A I *D sky130_fd_sc_hd__and2_1
*I *2752:A I *D sky130_fd_sc_hd__and2_1
*I *2792:A I *D sky130_fd_sc_hd__and2_1
*I *2798:A I *D sky130_fd_sc_hd__and2_1
*I *2796:A I *D sky130_fd_sc_hd__and2_1
*CAP
1 xP[7] 0.000213514
2 *2772:A 7.05687e-05
3 *2765:A 0.000145388
4 *2756:A 0.000173034
5 *2759:A 0
6 *2750:A 0.000982401
7 *2763:A 2.23854e-05
8 *2770:A 2.8261e-05
9 *2778:A 9.79464e-05
10 *2776:A 3.65392e-05
11 *2783:A 0
12 *2789:A 7.54338e-05
13 *2785:A 0
14 *2743:A 0.000183203
15 *2745:A 0
16 *2737:A 7.7488e-05
17 *2739:A 0.000146797
18 *2752:A 0
19 *2792:A 0
20 *2798:A 0.000560207
21 *2796:A 3.41335e-05
22 *20:244 0.00139407
23 *20:238 0.00162227
24 *20:232 0.00278921
25 *20:215 0.00234308
26 *20:209 0.00193767
27 *20:194 0.0015043
28 *20:177 0.00149337
29 *20:166 0.00117795
30 *20:123 0.00055006
31 *20:97 0.000880512
32 *20:95 0.00246458
33 *20:80 0.00495545
34 *20:68 0.00354069
35 *20:44 0.00127555
36 *20:38 0.00341652
37 *20:21 0.00280846
38 *20:19 0.000622415
39 *20:15 0.000735593
40 *20:7 0.000571363
41 *2737:A *2737:B 5.52302e-05
42 *2737:A *2738:B 0
43 *2739:A *2739:B 1.02504e-05
44 *2739:A *23:210 0.00019712
45 *2739:A *33:210 1.08359e-05
46 *2739:A *33:225 1.76135e-05
47 *2739:A *1095:10 0
48 *2743:A *2743:B 4.38128e-05
49 *2743:A *21:184 8.56716e-05
50 *2743:A *34:245 5.52302e-05
51 *2750:A *21:180 0.000191119
52 *2750:A *36:187 0.000304387
53 *2750:A *903:10 0.000153047
54 *2750:A *1111:14 9.24491e-05
55 *2750:A *1120:10 0
56 *2750:A *1199:24 0.000357098
57 *2750:A *1208:14 0.000136958
58 *2756:A *2696:B 7.90803e-05
59 *2756:A *2697:B 6.98302e-05
60 *2756:A *36:238 9.90431e-05
61 *2756:A *190:10 0
62 *2756:A *1220:24 2.44318e-05
63 *2765:A *2765:B 1.1594e-05
64 *2765:A *27:112 0.000228537
65 *2765:A *37:62 0
66 *2772:A *2772:B 0.000148196
67 *2772:A *2773:B 0
68 *2772:A *22:82 3.06406e-05
69 *2776:A *2776:B 1.04232e-05
70 *2778:A *29:62 5.49544e-05
71 *2796:A *32:11 0.000129868
72 *2798:A *2732:B 0.000418239
73 *2798:A *2918:A 0
74 *2798:A *2921:A 0.000150625
75 *2798:A *31:91 0.000315165
76 *2798:A *42:157 9.90367e-05
77 *20:7 *21:7 0.000484878
78 *20:15 *29:9 0.000259087
79 *20:15 *29:24 0.000213523
80 *20:19 *2724:B 4.97876e-05
81 *20:19 *2783:B 0.000344748
82 *20:19 *31:15 0.000971719
83 *20:19 *31:247 0.000105821
84 *20:19 *32:11 0.000342621
85 *20:21 *2796:B 2.23987e-05
86 *20:21 *31:15 0.000177941
87 *20:21 *32:11 0.00046328
88 *20:38 *1966:A 0.000219734
89 *20:38 *1967:B1 0
90 *20:38 *2599:B 9.37977e-05
91 *20:38 *2920:A 5.52302e-05
92 *20:38 *2920:B 2.2351e-05
93 *20:38 *3165:A 4.82947e-05
94 *20:38 *3166:A2 1.59373e-05
95 *20:38 *22:207 0
96 *20:38 *38:307 0.00125548
97 *20:38 *148:10 5.84171e-05
98 *20:38 *211:12 0
99 *20:38 *1068:8 4.25623e-05
100 *20:38 *1310:10 6.78055e-06
101 *20:44 *1976:B1 6.65398e-05
102 *20:44 *2028:B 3.80445e-05
103 *20:44 *2030:B 0
104 *20:44 *2031:A1 0.000177941
105 *20:44 *2031:B1 0.000342495
106 *20:44 *2599:B 0
107 *20:44 *2918:A 0.000225783
108 *20:44 *22:207 0
109 *20:44 *31:136 3.92757e-05
110 *20:44 *42:120 4.38129e-05
111 *20:44 *42:132 1.05524e-05
112 *20:44 *148:10 0.000219741
113 *20:68 *41:104 9.90431e-05
114 *20:68 *42:132 5.52238e-05
115 *20:80 *2623:B 5.7661e-06
116 *20:80 *2693:B 1.32552e-05
117 *20:80 *2785:B 0.000684502
118 *20:80 *2871:B 3.67142e-05
119 *20:80 *2872:B 5.04705e-05
120 *20:80 *2875:A 1.05947e-05
121 *20:80 *2879:B 0.000179836
122 *20:80 *2986:B1 2.27416e-05
123 *20:80 *3052:A 9.7659e-05
124 *20:80 *3053:A2 9.99644e-06
125 *20:80 *3053:B1 0.000132577
126 *20:80 *30:89 0.00012747
127 *20:80 *34:89 1.56e-05
128 *20:80 *36:157 0.000217931
129 *20:80 *41:104 2.07491e-05
130 *20:80 *1133:8 2.37716e-05
131 *20:95 *2501:A 0.00014183
132 *20:95 *2501:B 0.000205582
133 *20:95 *2755:A 9.80173e-05
134 *20:95 *2804:B 2.89016e-05
135 *20:95 *2807:B 0.000140933
136 *20:95 *2949:B 5.33433e-05
137 *20:95 *36:157 5.71472e-05
138 *20:95 *37:97 1.39726e-05
139 *20:95 *37:111 0.00054467
140 *20:95 *103:12 1.16903e-05
141 *20:95 *667:6 9.74668e-05
142 *20:95 *1096:8 3.15046e-05
143 *20:97 *2741:A 0.00010326
144 *20:97 *2803:B 0.000624967
145 *20:97 *3032:A 0.000197977
146 *20:97 *3032:B 0
147 *20:97 *3341:A 9.57064e-05
148 *20:97 *3341:B 4.97121e-06
149 *20:97 *21:186 1.46624e-05
150 *20:97 *33:225 0.000741691
151 *20:97 *1095:10 0
152 *20:97 *1393:10 0.000265893
153 *20:97 *1403:8 0
154 *20:123 *21:184 9.52204e-05
155 *20:123 *21:186 9.97081e-05
156 *20:123 *838:10 0
157 *20:123 *898:12 0
158 *20:123 *1403:8 0
159 *20:166 *22:22 4.22135e-06
160 *20:177 *2776:B 2.42516e-05
161 *20:177 *2781:A 6.57032e-05
162 *20:177 *2843:A 0.000307343
163 *20:177 *29:52 0.00057949
164 *20:177 *39:35 5.74499e-06
165 *20:177 *39:46 3.63775e-05
166 *20:194 *2715:B 0.000150618
167 *20:194 *2771:B 1.90936e-05
168 *20:194 *2774:B 5.49544e-05
169 *20:194 *2779:B 0
170 *20:194 *3099:B 0
171 *20:194 *3101:B1 4.46186e-06
172 *20:194 *27:29 0.000105845
173 *20:194 *38:34 1.59373e-05
174 *20:194 *1159:14 0
175 *20:209 *2774:A 5.52302e-05
176 *20:209 *2774:B 5.65955e-05
177 *20:209 *3008:B1 0.00014183
178 *20:209 *27:29 0.000587734
179 *20:209 *27:57 0.000232005
180 *20:209 *37:34 0.000240237
181 *20:209 *38:34 3.18747e-05
182 *20:209 *38:49 1.64616e-05
183 *20:215 *2772:B 0.000404903
184 *20:215 *2883:A 1.37429e-05
185 *20:215 *22:82 7.41454e-05
186 *20:215 *37:42 0.000281071
187 *20:215 *38:91 9.50993e-05
188 *20:232 *2767:A 5.23142e-05
189 *20:232 *2994:B 0.000291795
190 *20:232 *2995:A1 2.78509e-05
191 *20:232 *3075:A2 9.41642e-05
192 *20:232 *3370:B1 4.88515e-05
193 *20:232 *27:112 0.000121573
194 *20:232 *36:238 0.00108528
195 *20:232 *37:42 3.97677e-05
196 *20:232 *37:62 0.000186662
197 *20:232 *122:8 0
198 *20:232 *916:12 3.39935e-05
199 *20:232 *1139:12 9.41642e-05
200 *20:238 *117:14 1.98839e-05
201 *20:238 *193:10 0.000183713
202 *20:244 *2696:B 7.6644e-05
203 *20:244 *2697:B 9.91086e-05
204 *20:244 *3278:A 0.000225314
205 *20:244 *3279:B 3.90513e-05
206 *20:244 *3282:B1 0.000317602
207 *20:244 *117:14 0
208 *20:244 *851:8 0.000117196
209 *20:244 *1111:14 5.80706e-06
210 *2456:A *20:80 0.000360695
211 *2631:A *2750:A 9.47456e-05
212 *2631:A *20:244 8.53432e-05
213 *2632:A *20:80 0.000256435
214 *2689:A *20:244 0.000191795
215 *2697:A *20:238 1.02936e-05
216 *2709:A *20:194 0.000182256
217 *2712:A *20:215 7.61501e-05
218 *2757:A *2756:A 5.52302e-05
219 *2771:A *20:194 7.05867e-05
220 *2804:A *20:95 4.58194e-05
221 *2871:A *20:80 4.01768e-05
222 *8:262 *20:80 4.72513e-05
223 *9:29 *2778:A 0.000125724
224 *9:29 *20:194 3.45763e-05
225 *9:42 *20:15 0.000106699
226 *9:42 *20:19 0.000383156
227 *9:48 *20:19 0.00074645
228 *9:78 *2798:A 0.000259941
229 *9:168 *20:238 0.000955701
230 *9:183 *20:238 0.000297849
231 *10:13 *20:166 0
232 *10:38 *2796:A 0.000128146
233 *10:38 *20:21 0.00025263
234 *10:137 *20:194 4.6511e-05
235 *11:23 *20:19 0
236 *11:128 *20:177 2.95726e-05
237 *11:240 *20:95 6.57032e-05
238 *12:113 *20:38 3.41371e-05
239 *12:124 *20:38 2.37485e-05
240 *18:320 *20:80 0.000175502
241 *18:320 *20:95 3.98431e-05
242 *18:324 *20:80 4.27935e-05
243 *19:11 *20:7 0.000494798
244 *19:11 *20:15 0.000577248
245 *19:11 *20:166 0.000100061
246 *19:21 *20:19 1.44868e-05
247 *19:45 *20:44 0
248 *19:124 *20:97 0.000122227
249 *19:286 *2756:A 2.49484e-05
250 *19:288 *20:244 1.721e-05
*RES
1 xP[7] *20:7 4.7918 
2 *20:7 *20:15 13.4375 
3 *20:15 *20:19 23.75 
4 *20:19 *20:21 5.89286 
5 *20:21 *2796:A 15.4429 
6 *20:21 *20:38 44.7857 
7 *20:38 *20:44 22.4643 
8 *20:44 *2798:A 33.0857 
9 *20:44 *2792:A 9.3 
10 *20:38 *20:68 5.44643 
11 *20:68 *20:80 49.8036 
12 *20:80 *2752:A 9.3 
13 *20:80 *20:95 25.7321 
14 *20:95 *20:97 19.8571 
15 *20:97 *2739:A 16.9607 
16 *20:97 *2737:A 15.175 
17 *20:95 *20:123 7.16071 
18 *20:123 *2745:A 13.8 
19 *20:123 *2743:A 17.425 
20 *20:68 *2785:A 9.3 
21 *20:19 *2789:A 14.7464 
22 *20:15 *2783:A 9.3 
23 *20:7 *20:166 5.99107 
24 *20:166 *2776:A 10.0321 
25 *20:166 *20:177 18.1786 
26 *20:177 *2778:A 15.9786 
27 *20:177 *20:194 12.0536 
28 *20:194 *2770:A 9.72857 
29 *20:194 *20:209 22.8393 
30 *20:209 *20:215 18.9464 
31 *20:215 *2763:A 9.72857 
32 *20:215 *20:232 35.9821 
33 *20:232 *20:238 23.5 
34 *20:238 *20:244 12.0179 
35 *20:244 *2750:A 42.7821 
36 *20:244 *2759:A 13.8 
37 *20:238 *2756:A 17.9071 
38 *20:232 *2765:A 16.9607 
39 *20:209 *2772:A 15.7464 
*END

*D_NET *21 0.0581114
*CONN
*P xP[8] I
*I *2837:A I *D sky130_fd_sc_hd__and2_1
*I *2843:A I *D sky130_fd_sc_hd__and2_1
*I *2830:A I *D sky130_fd_sc_hd__and2_1
*I *2839:A I *D sky130_fd_sc_hd__and2_1
*I *2822:A I *D sky130_fd_sc_hd__and2_1
*I *2816:A I *D sky130_fd_sc_hd__and2_1
*I *2818:A I *D sky130_fd_sc_hd__and2_1
*I *2809:A I *D sky130_fd_sc_hd__and2_1
*I *2811:A I *D sky130_fd_sc_hd__and2_1
*I *2803:A I *D sky130_fd_sc_hd__and2_1
*I *2805:A I *D sky130_fd_sc_hd__and2_1
*I *2826:A I *D sky130_fd_sc_hd__and2_1
*I *2832:A I *D sky130_fd_sc_hd__and2_1
*I *2850:A I *D sky130_fd_sc_hd__and2_1
*I *2845:A I *D sky130_fd_sc_hd__and2_1
*I *2856:A I *D sky130_fd_sc_hd__and2_1
*I *2863:A I *D sky130_fd_sc_hd__and2_1
*I *2852:A I *D sky130_fd_sc_hd__and2_1
*I *2859:A I *D sky130_fd_sc_hd__and2_1
*I *2865:A I *D sky130_fd_sc_hd__and2_1
*CAP
1 xP[8] 0.000425804
2 *2837:A 0.000397198
3 *2843:A 0.000100127
4 *2830:A 0.000438076
5 *2839:A 0
6 *2822:A 0
7 *2816:A 3.98145e-05
8 *2818:A 0.000127332
9 *2809:A 9.12192e-05
10 *2811:A 0.00023745
11 *2803:A 1.40355e-05
12 *2805:A 0.000217565
13 *2826:A 0
14 *2832:A 0
15 *2850:A 0
16 *2845:A 0.000700977
17 *2856:A 0
18 *2863:A 0
19 *2852:A 0.000855595
20 *2859:A 0
21 *2865:A 8.2535e-05
22 *21:271 0.000596079
23 *21:186 0.000430876
24 *21:184 0.000689773
25 *21:180 0.00120232
26 *21:170 0.00108646
27 *21:168 0.00293662
28 *21:149 0.0037144
29 *21:138 0.00170545
30 *21:124 0.00154873
31 *21:118 0.000826167
32 *21:114 0.00147388
33 *21:62 0.00127823
34 *21:49 0.00126951
35 *21:41 0.0013288
36 *21:31 0.00111417
37 *21:19 0.00152166
38 *21:15 0.000831317
39 *21:9 0.00157851
40 *21:7 0.00057113
41 *2803:A *2807:B 2.89114e-05
42 *2803:A *1096:8 5.52302e-05
43 *2805:A *2803:B 0.000488514
44 *2805:A *2804:B 0.000319125
45 *2805:A *2808:A 0.000150625
46 *2809:A *2744:B 2.79421e-05
47 *2811:A *2811:B 0.000824269
48 *2811:A *2812:B 1.98839e-05
49 *2811:A *1198:18 0.00102859
50 *2811:A *1404:10 4.85033e-05
51 *2818:A *35:196 0.000227532
52 *2830:A *3008:B1 6.19181e-05
53 *2830:A *28:44 0.000693165
54 *2830:A *37:17 0.000183726
55 *2830:A *38:49 0.000400672
56 *2830:A *1151:12 0
57 *2830:A *1152:12 1.02504e-05
58 *2830:A *1158:10 0.000246601
59 *2837:A *27:29 1.64616e-05
60 *2837:A *28:9 0.000174867
61 *2837:A *38:30 3.29233e-05
62 *2843:A *29:52 0.000114542
63 *2843:A *39:35 2.05612e-05
64 *2845:A *2845:B 3.63587e-05
65 *2845:A *2849:A 5.33005e-05
66 *2845:A *3230:A1 0.000228508
67 *2845:A *3230:A2 3.18747e-05
68 *2845:A *3230:B1 5.68713e-05
69 *2845:A *38:295 0.000261094
70 *2845:A *1375:10 0.000183726
71 *2852:A *1976:A2 9.15975e-05
72 *2852:A *1976:B1 4.58976e-05
73 *2852:A *2100:B1 5.71472e-05
74 *2852:A *2853:B 0.000227532
75 *2852:A *32:207 7.50697e-05
76 *2852:A *157:6 0.000703595
77 *2865:A *2865:B 7.60962e-05
78 *21:7 *22:5 0.000543663
79 *21:7 *22:127 0.000181534
80 *21:9 *28:9 4.16437e-05
81 *21:15 *28:9 0.000102725
82 *21:15 *40:22 0.000229602
83 *21:15 *40:32 1.02504e-05
84 *21:15 *40:153 6.62299e-06
85 *21:15 *877:10 8.39e-05
86 *21:19 *3104:B 5.59013e-05
87 *21:19 *40:32 0.000791222
88 *21:19 *42:45 0.000218123
89 *21:19 *943:8 0.000100823
90 *21:31 *2797:B 9.7049e-06
91 *21:31 *2861:A 5.71472e-05
92 *21:31 *40:32 0.000171308
93 *21:31 *41:30 5.52302e-05
94 *21:31 *41:34 3.53302e-05
95 *21:41 zP[17] 0
96 *21:41 *2400:B 0.000125724
97 *21:41 *2797:B 3.58638e-05
98 *21:41 *32:17 0.000145584
99 *21:41 *41:34 1.97695e-05
100 *21:49 *2864:B 0.000269422
101 *21:49 *2865:B 0.000818736
102 *21:49 *32:25 9.41642e-05
103 *21:49 *1015:12 5.52238e-05
104 *21:62 *2100:B1 0.000157409
105 *21:62 *2859:B 5.52238e-05
106 *21:62 *2862:A 7.32272e-05
107 *21:62 *2868:A 0.000144222
108 *21:62 *1016:6 2.86767e-05
109 *21:114 *2779:B 2.84026e-05
110 *21:114 *3159:B 5.33005e-05
111 *21:114 *3161:A 3.97677e-05
112 *21:114 *3161:B 5.33005e-05
113 *21:114 *1062:6 5.81579e-05
114 *21:114 *1304:8 2.59355e-05
115 *21:114 *1306:14 0.000268775
116 *21:124 *2823:B 0.000166686
117 *21:124 *2828:B 5.71472e-05
118 *21:124 *2883:A 0.000102207
119 *21:138 *2711:B 2.26327e-05
120 *21:138 *2997:A 0.000262504
121 *21:138 *2999:A1 3.69047e-06
122 *21:138 *35:220 5.74499e-06
123 *21:138 *37:42 7.89585e-05
124 *21:138 *206:14 0.000145594
125 *21:138 *865:14 6.42338e-05
126 *21:138 *976:12 4.58976e-05
127 *21:138 *1035:12 0.00022217
128 *21:138 *1146:16 0
129 *21:138 *1448:16 0
130 *21:149 *2826:B 0.000184745
131 *21:149 *27:57 5.16736e-05
132 *21:149 *27:66 0.000607122
133 *21:149 *36:265 0.000111481
134 *21:149 *1220:24 0.000353079
135 *21:168 *2768:A 1.54142e-05
136 *21:168 *2768:B 0.00027032
137 *21:168 *2816:B 1.17968e-05
138 *21:168 *2978:A 0.000156903
139 *21:168 *2981:A 5.33005e-05
140 *21:168 *2982:A1 4.10304e-05
141 *21:168 *2982:A2 0.000150921
142 *21:168 *2982:B1 0.000461886
143 *21:168 *3206:A 0
144 *21:168 *3292:A 0.000303959
145 *21:168 *36:220 5.19805e-05
146 *21:168 *36:238 0.00148338
147 *21:168 *969:10 6.74911e-05
148 *21:168 *1128:10 0.000324167
149 *21:168 *1208:14 0
150 *21:168 *1220:24 0.000275883
151 *21:168 *1285:10 0
152 *21:170 *2816:B 0.000172053
153 *21:170 *35:192 2.24646e-05
154 *21:170 *1120:10 0
155 *21:180 *2687:A 5.71755e-05
156 *21:180 *2960:A 0.000197991
157 *21:180 *35:177 0.000591052
158 *21:180 *35:192 0.000927275
159 *21:180 *837:10 0.000282457
160 *21:180 *903:10 0.00029443
161 *21:180 *1120:10 0
162 *21:184 *2809:B 0.00017309
163 *21:184 *2960:A 1.3142e-05
164 *21:186 *2803:B 1.76135e-05
165 *21:186 *2804:B 2.31791e-05
166 *21:271 *28:9 0.000120313
167 *2683:A *21:180 0.000167842
168 *2683:A *21:184 0.000615703
169 *2683:A *21:186 5.41794e-05
170 *2743:A *21:184 8.56716e-05
171 *2750:A *21:180 0.000191119
172 *2779:A *21:114 6.23141e-05
173 *2831:A *2830:A 3.43988e-06
174 *2838:A *2837:A 0.00012359
175 *2844:A *2843:A 2.14658e-05
176 *2853:A *2852:A 0.000116438
177 *2853:A *21:62 4.43355e-05
178 *2910:A *21:114 0.000137983
179 *9:13 *21:7 0
180 *10:24 *21:9 3.89636e-05
181 *10:24 *21:15 3.48023e-05
182 *10:24 *21:271 3.06366e-05
183 *10:26 *21:15 0.000285039
184 *10:32 *21:15 0.000288444
185 *10:32 *21:19 8.16757e-05
186 *10:32 *21:31 0.000175519
187 *10:51 *21:31 0.000227532
188 *10:51 *21:41 3.6392e-05
189 *10:133 *21:114 0.000165055
190 *10:188 *21:168 6.09919e-05
191 *10:226 *21:186 4.90817e-05
192 *11:9 *2837:A 4.68195e-05
193 *11:23 *2837:A 2.42103e-05
194 *11:23 *21:271 6.19792e-05
195 *11:41 *21:41 7.80929e-05
196 *11:47 *21:41 0.000503884
197 *11:47 *21:49 0.000177948
198 *11:128 *2843:A 2.89114e-05
199 *11:142 *2837:A 5.33072e-05
200 *11:161 *21:124 0.000357063
201 *11:180 *21:124 2.07382e-05
202 *11:199 *21:138 1.19402e-05
203 *11:199 *21:149 0.00083947
204 *11:216 *21:149 6.12434e-05
205 *12:13 *2837:A 0.000307349
206 *12:30 *21:15 0.000130495
207 *12:36 *21:31 0
208 *19:11 *21:7 9.12969e-06
209 *19:106 *21:186 0.000149419
210 *19:124 *2805:A 0.000101626
211 *19:124 *21:186 2.06178e-05
212 *20:7 *21:7 0.000484878
213 *20:97 *21:186 1.46624e-05
214 *20:123 *21:184 9.52204e-05
215 *20:123 *21:186 9.97081e-05
216 *20:177 *2843:A 0.000307343
*RES
1 xP[8] *21:7 5.4404 
2 *21:7 *21:9 1.1875 
3 *21:9 *21:15 15.9643 
4 *21:15 *21:19 14.6429 
5 *21:19 *21:31 21.7857 
6 *21:31 *21:41 18.4821 
7 *21:41 *21:49 19.625 
8 *21:49 *2865:A 11.4071 
9 *21:49 *21:62 8.75 
10 *21:62 *2859:A 9.3 
11 *21:62 *2852:A 35.175 
12 *21:41 *2863:A 13.8 
13 *21:31 *2856:A 9.3 
14 *21:19 *2845:A 23.4071 
15 *21:15 *2850:A 13.8 
16 *21:9 *21:114 21.0536 
17 *21:114 *21:118 1.26786 
18 *21:118 *21:124 14.5357 
19 *21:124 *21:138 31.7857 
20 *21:138 *2832:A 9.3 
21 *21:138 *21:149 23.1607 
22 *21:149 *2826:A 9.3 
23 *21:149 *21:168 49.6964 
24 *21:168 *21:170 2.55357 
25 *21:170 *21:180 25.125 
26 *21:180 *21:184 8.55357 
27 *21:184 *21:186 4.98214 
28 *21:186 *2805:A 21.8714 
29 *21:186 *2803:A 14.3357 
30 *21:184 *2811:A 23.7821 
31 *21:180 *2809:A 15.175 
32 *21:170 *2818:A 16.3893 
33 *21:168 *2816:A 14.3357 
34 *21:124 *2822:A 9.3 
35 *21:118 *2839:A 9.3 
36 *21:114 *2830:A 31.7286 
37 *21:7 *21:271 3.00893 
38 *21:271 *2843:A 17.2286 
39 *21:271 *2837:A 23.0321 
*END

*D_NET *22 0.0504471
*CONN
*P xP[9] I
*I *2870:A I *D sky130_fd_sc_hd__and2_1
*I *2872:A I *D sky130_fd_sc_hd__and2_1
*I *2878:A I *D sky130_fd_sc_hd__and2_1
*I *2876:A I *D sky130_fd_sc_hd__and2_1
*I *2911:A I *D sky130_fd_sc_hd__and2_1
*I *2918:A I *D sky130_fd_sc_hd__and2_1
*I *2905:A I *D sky130_fd_sc_hd__and2_1
*I *2916:A I *D sky130_fd_sc_hd__and2_1
*I *2929:A I *D sky130_fd_sc_hd__and2_1
*I *2922:A I *D sky130_fd_sc_hd__and2_1
*I *2925:A I *D sky130_fd_sc_hd__and2_1
*I *2931:A I *D sky130_fd_sc_hd__and2_1
*I *2885:A I *D sky130_fd_sc_hd__and2_1
*I *2892:A I *D sky130_fd_sc_hd__and2_1
*I *2889:A I *D sky130_fd_sc_hd__and2_1
*I *2883:A I *D sky130_fd_sc_hd__and2_1
*I *2898:A I *D sky130_fd_sc_hd__and2_1
*I *2896:A I *D sky130_fd_sc_hd__and2_1
*I *2903:A I *D sky130_fd_sc_hd__and2_1
*I *2909:A I *D sky130_fd_sc_hd__and2_1
*CAP
1 xP[9] 0.000244176
2 *2870:A 0
3 *2872:A 0.000169403
4 *2878:A 0
5 *2876:A 0.000146007
6 *2911:A 4.99334e-05
7 *2918:A 0.000724877
8 *2905:A 0.00011538
9 *2916:A 0
10 *2929:A 0
11 *2922:A 0.000251668
12 *2925:A 0
13 *2931:A 0.000160063
14 *2885:A 0.000435126
15 *2892:A 5.95593e-05
16 *2889:A 1.92218e-05
17 *2883:A 0.000384874
18 *2898:A 0
19 *2896:A 0.000252182
20 *2903:A 2.63024e-05
21 *2909:A 1.76577e-05
22 *22:263 0.000465344
23 *22:252 0.000618855
24 *22:235 0.00187404
25 *22:207 0.00139433
26 *22:201 0.00232117
27 *22:182 0.000705409
28 *22:175 0.000420955
29 *22:153 0.000779315
30 *22:142 0.000527648
31 *22:129 0.00115807
32 *22:127 0.0029755
33 *22:95 0.00126244
34 *22:82 0.00153617
35 *22:61 0.00132517
36 *22:48 0.000959148
37 *22:26 0.00036948
38 *22:22 0.00148397
39 *22:7 0.000642578
40 *22:5 0.00209421
41 *2872:A *2874:A 0.00015234
42 *2872:A *2874:B 0.000102545
43 *2872:A *23:304 3.34295e-05
44 *2872:A *39:216 0
45 *2872:A *1022:16 2.00751e-05
46 *2872:A *1133:10 0.000117144
47 *2876:A *2984:A 3.69697e-05
48 *2876:A *24:291 0.000148189
49 *2883:A *2772:B 0
50 *2883:A *2773:B 0.00026482
51 *2883:A *35:220 7.60306e-05
52 *2885:A *2886:B 4.46186e-06
53 *2885:A *3074:B 5.9483e-05
54 *2885:A *26:249 4.70078e-05
55 *2885:A *36:265 2.34204e-05
56 *2885:A *1133:10 6.07626e-05
57 *2885:A *1434:12 0.000684987
58 *2889:A *2822:B 5.59013e-05
59 *2889:A *138:14 5.59013e-05
60 *2892:A *26:249 1.24368e-05
61 *2892:A *26:264 1.54142e-05
62 *2892:A *36:265 5.71472e-05
63 *2896:A *2838:B 6.12813e-05
64 *2896:A *2900:A 4.58976e-05
65 *2896:A *2900:B 0.000158695
66 *2896:A *37:17 0.000354105
67 *2896:A *516:12 9.60298e-05
68 *2903:A *38:30 9.71197e-05
69 *2905:A *38:295 1.02504e-05
70 *2905:A *38:307 9.41642e-05
71 *2905:A *525:14 0.00019384
72 *2909:A *39:9 1.02504e-05
73 *2909:A *39:20 3.29754e-05
74 *2911:A *29:125 2.19513e-05
75 *2918:A *2795:B 0
76 *2918:A *2918:B 5.71472e-05
77 *2918:A *2921:A 5.26184e-05
78 *2918:A *29:108 0
79 *2922:A zN[0] 0
80 *2922:A *2863:B 0.000180111
81 *2931:A *2104:B1 0
82 *2931:A *2931:B 0.00010096
83 *2931:A *2934:A 5.52302e-05
84 *2931:A *2934:B 3.9846e-05
85 *2931:A *42:157 0.000227526
86 *2931:A *536:8 0.000193675
87 *22:5 *27:9 0.000375849
88 *22:5 *28:9 7.621e-05
89 *22:22 *37:13 4.98496e-06
90 *22:22 *39:20 0.000390506
91 *22:22 *930:10 6.21562e-05
92 *22:26 *2848:B 3.34366e-05
93 *22:26 *28:23 2.06178e-05
94 *22:26 *516:12 8.19752e-05
95 *22:48 *2715:A 5.49544e-05
96 *22:48 *2715:B 0.000182598
97 *22:48 *2848:A 5.52302e-05
98 *22:48 *2848:B 0.00018077
99 *22:48 *2898:B 0.000230475
100 *22:48 *39:76 0.00086219
101 *22:48 *996:10 1.92905e-05
102 *22:61 *1957:B 5.17614e-05
103 *22:61 *2898:B 9.90431e-05
104 *22:61 *2901:A 4.88637e-05
105 *22:61 *2901:B 5.71472e-05
106 *22:61 *39:76 0.00060668
107 *22:82 *2773:B 0.000301778
108 *22:82 *206:24 0.000529363
109 *22:127 *3097:A1 1.3142e-05
110 *22:127 *3097:A2 0.000200413
111 *22:127 *3105:A 0
112 *22:127 *3106:B1 6.42338e-05
113 *22:127 *3161:B 3.25341e-05
114 *22:127 *3162:A1 0.000125724
115 *22:127 *3162:B1 2.95076e-06
116 *22:127 *3165:A 0
117 *22:127 *3166:A2 0
118 *22:127 *3227:A 9.24299e-05
119 *22:127 *3228:B 5.90443e-06
120 *22:127 *3230:A2 0
121 *22:127 *28:9 0.000100137
122 *22:127 *38:295 0
123 *22:127 *516:22 0.000126281
124 *22:127 *1240:10 0.000103295
125 *22:127 *1242:14 7.15218e-05
126 *22:127 *1249:10 0
127 *22:127 *1251:10 0.000637942
128 *22:127 *1310:10 0.00017371
129 *22:127 *1375:10 0.000282527
130 *22:129 *2101:A 0
131 *22:129 *2102:A 0
132 *22:129 *2104:B1 0
133 *22:129 *2386:A 0
134 *22:129 *2389:A 6.95205e-05
135 *22:129 *2392:B1 0.000316887
136 *22:129 *2398:B1 0
137 *22:129 *2868:B 0
138 *22:129 *3234:A2 0
139 *22:129 *536:8 0.00107257
140 *22:129 *1375:10 0.000126186
141 *22:129 *1378:10 0
142 *22:153 *2925:B 0.00044468
143 *22:153 *2930:B 5.52238e-05
144 *22:153 *42:173 0.000103236
145 *22:175 *3166:A1 0.000148622
146 *22:175 *40:32 2.75452e-05
147 *22:182 *40:32 5.45307e-05
148 *22:182 *40:45 0.000299935
149 *22:201 *40:45 0.00050268
150 *22:201 *211:12 1.46624e-05
151 *22:207 *1965:B 0.000197991
152 *22:207 *1967:B1 0.000127446
153 *22:207 *2029:A 8.79776e-05
154 *22:207 *2031:B1 0
155 *22:207 *2915:A 0.000104974
156 *22:207 *29:108 5.71472e-05
157 *22:207 *29:125 5.52238e-05
158 *22:207 *148:10 0
159 *22:207 *211:12 0.000161798
160 *22:207 *1063:10 7.8327e-05
161 *22:235 *31:196 3.14193e-05
162 *22:235 *31:207 5.54432e-05
163 *22:252 *2984:A 2.84494e-05
164 *22:252 *2984:B 0
165 *22:252 *31:207 0.000176234
166 *22:252 *39:184 0.00028114
167 *22:263 *2882:A 0.000142856
168 *22:263 *39:184 0.000613013
169 *22:263 *1022:16 8.2731e-05
170 *22:263 *1133:10 0.000114838
171 *2659:A *22:235 3.18676e-05
172 *2660:A *22:235 0.000256985
173 *2712:A *2883:A 0.000209202
174 *2772:A *22:82 3.06406e-05
175 *2798:A *2918:A 0
176 *2871:A *2872:A 0
177 *2884:A *2883:A 0
178 *2886:A *2885:A 0
179 *2886:A *2892:A 5.52238e-05
180 *2886:A *22:95 0.000259934
181 *2893:A *2892:A 0
182 *2919:A *22:153 1.98839e-05
183 *2930:A *22:153 4.43256e-05
184 *8:143 *22:201 0.000783405
185 *8:143 *22:235 0.000653877
186 *9:13 *22:127 0
187 *9:78 *2918:A 5.52238e-05
188 *10:13 *22:22 0
189 *10:145 *22:48 0.000362013
190 *10:145 *22:61 0.000359879
191 *10:162 *22:61 0.000126566
192 *11:53 *2922:A 1.02504e-05
193 *11:72 *22:129 0
194 *11:161 *2883:A 0.000181803
195 *12:22 *22:26 1.62539e-05
196 *12:24 *22:26 7.92879e-05
197 *12:30 *22:127 0
198 *12:124 *2905:A 9.41642e-05
199 *12:165 *22:235 0.000397918
200 *12:219 *2903:A 5.03772e-05
201 *12:251 *22:82 0.000911896
202 *12:255 *22:82 0.000265447
203 *12:255 *22:95 0.000873967
204 *15:227 *2876:A 0.000306163
205 *15:227 *22:252 0.000238528
206 *18:44 *22:235 0.000134539
207 *19:11 *2909:A 4.32258e-05
208 *19:11 *22:22 0.0002772
209 *19:29 *2905:A 9.7478e-05
210 *19:45 *2918:A 0
211 *20:38 *22:207 0
212 *20:44 *2918:A 0.000225783
213 *20:44 *22:207 0
214 *20:166 *22:22 4.22135e-06
215 *20:215 *2883:A 1.37429e-05
216 *20:215 *22:82 7.41454e-05
217 *21:7 *22:5 0.000543663
218 *21:7 *22:127 0.000181534
219 *21:124 *2883:A 0.000102207
*RES
1 xP[9] *22:5 1.52593 
2 *22:5 *22:7 3.41 
3 *22:7 *2909:A 14.3804 
4 *22:7 *22:22 16.5089 
5 *22:22 *22:26 7.05357 
6 *22:26 *2903:A 14.7464 
7 *22:26 *2896:A 20.5857 
8 *22:22 *22:48 18.1964 
9 *22:48 *2898:A 9.3 
10 *22:48 *22:61 12.875 
11 *22:61 *2883:A 23.2821 
12 *22:61 *22:82 21.5714 
13 *22:82 *2889:A 19.0321 
14 *22:82 *22:95 11.2143 
15 *22:95 *2892:A 10.9786 
16 *22:95 *2885:A 28.5857 
17 *22:5 *22:127 37.8703 
18 *22:127 *22:129 23.8036 
19 *22:129 *2931:A 18.5321 
20 *22:129 *22:142 4.5 
21 *22:142 *2925:A 9.3 
22 *22:142 *22:153 10.0179 
23 *22:153 *2922:A 22.9786 
24 *22:153 *2929:A 9.3 
25 *22:127 *22:175 7.10714 
26 *22:175 *2916:A 9.3 
27 *22:175 *22:182 6.28571 
28 *22:182 *2905:A 21.8 
29 *22:182 *22:201 14.3929 
30 *22:201 *22:207 18.9286 
31 *22:207 *2918:A 31.4071 
32 *22:207 *2911:A 10.2643 
33 *22:201 *22:235 28.0179 
34 *22:235 *2876:A 17.8714 
35 *22:235 *22:252 13.1429 
36 *22:252 *2878:A 9.3 
37 *22:252 *22:263 13.2321 
38 *22:263 *2872:A 18.7821 
39 *22:263 *2870:A 13.8 
*END

*D_NET *23 0.0559426
*CONN
*P yN[0] I
*I *2606:B I *D sky130_fd_sc_hd__and2_1
*I *2872:B I *D sky130_fd_sc_hd__and2_1
*I *2871:B I *D sky130_fd_sc_hd__and2_1
*I *2472:B I *D sky130_fd_sc_hd__and2_1
*I *2539:B I *D sky130_fd_sc_hd__and2_1
*I *2739:B I *D sky130_fd_sc_hd__and2_1
*I *2738:B I *D sky130_fd_sc_hd__and2_1
*I *2805:B I *D sky130_fd_sc_hd__and2_1
*I *2804:B I *D sky130_fd_sc_hd__and2_1
*I *2672:B I *D sky130_fd_sc_hd__and2_1
*I *2671:B I *D sky130_fd_sc_hd__and2_1
*I *2605:B I *D sky130_fd_sc_hd__and2_1
*I *2538:B I *D sky130_fd_sc_hd__and2_1
*I *2471:B I *D sky130_fd_sc_hd__and2_1
*I *1948:B I *D sky130_fd_sc_hd__and2_1
*I *2491:B I *D sky130_fd_sc_hd__and2_1
*I *2958:B I *D sky130_fd_sc_hd__and2_1
*I *2947:B I *D sky130_fd_sc_hd__and2_1
*I *2194:B I *D sky130_fd_sc_hd__and2_1
*I *2183:B I *D sky130_fd_sc_hd__and2_1
*CAP
1 yN[0] 0.000413729
2 *2606:B 1.99857e-05
3 *2872:B 6.41044e-05
4 *2871:B 3.39935e-05
5 *2472:B 0.000769971
6 *2539:B 0
7 *2739:B 6.96393e-05
8 *2738:B 2.23854e-05
9 *2805:B 8.92332e-06
10 *2804:B 0.000213501
11 *2672:B 1.99857e-05
12 *2671:B 9.23803e-05
13 *2605:B 0.000430401
14 *2538:B 2.13113e-05
15 *2471:B 2.27333e-05
16 *1948:B 0
17 *2491:B 0.000186471
18 *2958:B 0
19 *2947:B 0.000252016
20 *2194:B 1.42311e-05
21 *2183:B 0.000221193
22 *23:304 0.00136475
23 *23:281 0.00260736
24 *23:275 0.00121199
25 *23:260 0.000753485
26 *23:220 0.000582075
27 *23:210 0.00058516
28 *23:202 0.000783865
29 *23:189 0.000764453
30 *23:172 0.000927921
31 *23:155 0.00256063
32 *23:144 0.00268406
33 *23:128 0.00223252
34 *23:93 0.00061657
35 *23:80 0.00104522
36 *23:47 0.00120228
37 *23:36 0.000756248
38 *23:15 0.00115779
39 *23:13 0.00074218
40 *23:11 0.00156908
41 *2183:B *2216:A 5.65955e-05
42 *2183:B *2216:B 5.65955e-05
43 *2183:B *33:39 0
44 *2183:B *583:10 0.000228508
45 *2194:B *2227:B 5.50052e-05
46 *2472:B *2446:B 0.000487467
47 *2472:B *3235:B 8.41716e-05
48 *2472:B *3257:B 9.71197e-05
49 *2472:B *34:81 9.21689e-05
50 *2472:B *34:117 8.18698e-05
51 *2491:B *2473:B 0.000214082
52 *2491:B *2713:B 3.4879e-05
53 *2491:B *33:90 9.90431e-05
54 *2605:B *2615:B 1.0609e-05
55 *2605:B *3020:A 0.000200838
56 *2605:B *3114:A 0
57 *2605:B *3115:B 0
58 *2605:B *34:167 0
59 *2605:B *763:10 0
60 *2605:B *1162:16 0
61 *2605:B *1167:10 0
62 *2605:B *1262:12 3.57163e-05
63 *2606:B *2609:B 1.04232e-05
64 *2671:B *2670:B 0
65 *2672:B *1089:18 1.04232e-05
66 *2739:B *1095:10 0
67 *2804:B *2808:A 0.000150625
68 *2804:B *1096:8 2.89016e-05
69 *2805:B *2806:B 4.33899e-05
70 *2805:B *1400:6 5.49544e-05
71 *2871:B *1133:8 3.18676e-05
72 *2947:B *2111:B 0.000223461
73 *2947:B *2980:B 2.36164e-05
74 *2947:B *131:6 0.000128946
75 *2947:B *288:14 5.33005e-05
76 *23:11 zP[1] 0
77 *23:11 *2474:A 0.000148196
78 *23:11 *3170:B 0
79 *23:11 *3173:B1 1.90936e-05
80 *23:11 *24:5 0.000407962
81 *23:11 *24:190 0.000198648
82 *23:13 *33:30 0.000175446
83 *23:15 *33:30 0.000452944
84 *23:36 *2124:B 0.000221163
85 *23:36 *2126:A2 0.000171375
86 *23:36 *2126:B1 7.99908e-05
87 *23:36 *33:39 8.20077e-05
88 *23:36 *296:10 0.000526668
89 *23:36 *583:10 0
90 *23:47 *2111:B 0
91 *23:47 *2980:A 0.000148911
92 *23:47 *33:39 3.84632e-05
93 *23:47 *33:52 0.000159605
94 *23:47 *33:63 6.25397e-06
95 *23:80 *2113:B 0.000200849
96 *23:80 *2114:A 0
97 *23:80 *2115:B 7.55063e-05
98 *23:80 *2980:A 5.41794e-05
99 *23:80 *2991:B 9.11653e-05
100 *23:80 *33:63 1.28883e-05
101 *23:80 *940:6 9.41642e-05
102 *23:93 *2824:B 5.16852e-05
103 *23:93 *2969:B 0.000181803
104 *23:93 *33:82 0
105 *23:93 *33:90 0
106 *23:128 *2174:B 2.76714e-05
107 *23:128 *2514:B 1.7276e-05
108 *23:128 *26:21 0.000158576
109 *23:128 *334:12 0.00012401
110 *23:144 *2174:B 7.67334e-05
111 *23:144 *2176:A 8.69355e-05
112 *23:144 *2184:A 0.000224582
113 *23:144 *2184:B 2.12733e-05
114 *23:144 *323:12 2.53112e-06
115 *23:144 *338:14 5.50052e-05
116 *23:144 *345:8 0.000523662
117 *23:144 *353:10 5.35386e-05
118 *23:155 *2487:A 0.000140243
119 *23:155 *2487:B 0.000194027
120 *23:155 *3021:B 0.000117392
121 *23:155 *353:10 0.000174259
122 *23:155 *655:6 2.83425e-05
123 *23:172 *2615:A 7.58841e-05
124 *23:172 *2615:B 9.26011e-05
125 *23:172 *34:167 2.60107e-05
126 *23:172 *34:178 0.000307597
127 *23:172 *34:189 0.000272078
128 *23:172 *1168:6 3.24049e-05
129 *23:189 *34:189 0.000140021
130 *23:189 *1089:18 0.000245499
131 *23:202 *2682:A 0.000294422
132 *23:202 *2682:B 0.000292708
133 *23:202 *24:93 6.51946e-05
134 *23:202 *1089:18 6.71755e-05
135 *23:202 *1095:10 0
136 *23:210 *2737:B 5.33005e-05
137 *23:210 *2741:B 2.77143e-05
138 *23:210 *33:210 0.000172728
139 *23:220 *2741:B 5.30637e-06
140 *23:220 *2806:B 9.58181e-05
141 *23:220 *34:200 0.000604188
142 *23:220 *34:213 0.000367396
143 *23:220 *1400:6 9.41642e-05
144 *23:275 *1981:B 0.000116841
145 *23:275 *2048:B 0
146 *23:275 *2542:A 4.40806e-05
147 *23:275 *2609:B 3.23206e-05
148 *23:275 *26:79 3.17148e-05
149 *23:275 *34:136 0
150 *23:275 *160:8 4.38511e-05
151 *23:275 *1462:12 0.000210583
152 *23:281 *2609:B 4.58976e-05
153 *23:281 *3319:B1 0
154 *23:281 *26:79 0.000274288
155 *23:281 *33:266 5.52302e-05
156 *23:281 *33:277 0.000131439
157 *23:304 *2446:B 0.000137983
158 *23:304 *2953:B1 6.74911e-05
159 *23:304 *3235:B 0.000281062
160 *23:304 *33:277 0
161 *23:304 *39:216 0
162 *23:304 *39:251 0.000215348
163 *23:304 *1084:14 7.08001e-05
164 *23:304 *1397:16 0.00129111
165 *1947:A *2491:B 5.52238e-05
166 *1948:A *2491:B 0.000316065
167 *2183:A *2183:B 0
168 *2194:A *2194:B 2.85321e-05
169 *2205:A *23:36 0
170 *2327:A *23:281 0
171 *2446:A *2472:B 5.52302e-05
172 *2473:A *2472:B 0.000181742
173 *2483:A *23:155 0.000585419
174 *2491:A *2491:B 9.71197e-05
175 *2605:A *2605:B 0.000319396
176 *2671:A *2671:B 6.05161e-06
177 *2673:A *23:172 0.000150625
178 *2673:A *23:189 4.80729e-05
179 *2691:A *23:304 7.43412e-05
180 *2737:A *2738:B 0
181 *2739:A *2739:B 1.02504e-05
182 *2739:A *23:210 0.00019712
183 *2740:A *23:220 3.34366e-05
184 *2805:A *2804:B 0.000319125
185 *2872:A *23:304 3.34295e-05
186 *2947:A *2947:B 5.70158e-05
187 *2947:A *23:80 0.000295137
188 *2958:A *23:93 9.61553e-05
189 *2969:A *23:80 0.000197782
190 *2969:A *23:93 9.71197e-05
191 *3:72 *23:93 0
192 *3:204 *23:304 0
193 *4:11 *2471:B 6.74751e-05
194 *4:138 *23:144 0.00060819
195 *5:13 *23:15 0.000816349
196 *5:21 *2183:B 6.02982e-05
197 *5:21 *23:15 0.000864095
198 *5:58 *23:13 0.000530292
199 *5:58 *23:15 8.68261e-05
200 *5:58 *23:128 0.000164928
201 *5:109 *23:281 0.0005527
202 *5:109 *23:304 5.41794e-05
203 *5:209 *23:128 0.000627797
204 *6:5 *23:11 0.000419758
205 *6:252 *2471:B 3.34295e-05
206 *6:252 *23:11 8.89188e-05
207 *6:269 *2471:B 3.40456e-05
208 *8:21 *23:275 0
209 *8:21 *23:281 1.02504e-05
210 *8:38 *23:281 0.000335215
211 *8:50 *23:172 0.000394476
212 *8:56 *23:172 0.000549222
213 *9:224 *23:189 0.000222885
214 *10:226 *2804:B 0.000498367
215 *10:226 *23:220 0.000923047
216 *13:189 *23:304 6.5185e-05
217 *13:191 *23:304 0.000210296
218 *14:42 *23:128 0
219 *14:42 *23:144 4.10169e-05
220 *14:54 *23:144 0.000161137
221 *15:105 *23:15 0.00144994
222 *15:165 *23:281 0
223 *15:184 *23:281 0
224 *17:11 *23:128 0.00064717
225 *17:11 *23:260 0.000208939
226 *19:130 *23:202 0.000134563
227 *19:130 *23:210 4.45793e-05
228 *19:132 *23:202 1.69115e-05
229 *20:80 *2871:B 3.67142e-05
230 *20:80 *2872:B 5.04705e-05
231 *20:95 *2804:B 2.89016e-05
232 *21:186 *2804:B 2.31791e-05
*RES
1 yN[0] *23:11 18.2761 
2 *23:11 *23:13 0.839733 
3 *23:13 *23:15 3.7224 
4 *23:15 *2183:B 20.9993 
5 *23:15 *23:36 14.6154 
6 *23:36 *2194:B 14.3357 
7 *23:36 *23:47 7.10714 
8 *23:47 *2947:B 19.3 
9 *23:47 *23:80 26.3393 
10 *23:80 *2958:B 9.3 
11 *23:80 *23:93 17.3929 
12 *23:93 *2491:B 15.3357 
13 *23:93 *1948:B 9.3 
14 *23:13 *2471:B 18.0939 
15 *23:11 *23:128 13.7319 
16 *23:128 *23:144 34.5357 
17 *23:144 *2538:B 9.72857 
18 *23:144 *23:155 20.2679 
19 *23:155 *2605:B 28.7464 
20 *23:155 *23:172 22.5893 
21 *23:172 *2671:B 15.175 
22 *23:172 *23:189 10.5536 
23 *23:189 *2672:B 9.72857 
24 *23:189 *23:202 16.7589 
25 *23:202 *23:210 9.70536 
26 *23:210 *23:220 23.1607 
27 *23:220 *2804:B 26.55 
28 *23:220 *2805:B 9.83571 
29 *23:210 *2738:B 9.72857 
30 *23:202 *2739:B 15.2196 
31 *23:128 *23:260 2.85714 
32 *23:260 *2539:B 13.8 
33 *23:260 *23:275 18.25 
34 *23:275 *23:281 19.0536 
35 *23:281 *2472:B 28.7286 
36 *23:281 *23:304 46.125 
37 *23:304 *2871:B 10.2464 
38 *23:304 *2872:B 10.6571 
39 *23:275 *2606:B 9.72857 
*END

*D_NET *24 0.059529
*CONN
*P yN[1] I
*I *2878:B I *D sky130_fd_sc_hd__and2_1
*I *2877:B I *D sky130_fd_sc_hd__and2_1
*I *2478:B I *D sky130_fd_sc_hd__and2_1
*I *2260:B I *D sky130_fd_sc_hd__and2_1
*I *3024:B I *D sky130_fd_sc_hd__and2_1
*I *3157:B I *D sky130_fd_sc_hd__and2_1
*I *3046:B I *D sky130_fd_sc_hd__and2_1
*I *3013:B I *D sky130_fd_sc_hd__and2_1
*I *2249:B I *D sky130_fd_sc_hd__and2_1
*I *2545:B I *D sky130_fd_sc_hd__and2_1
*I *2678:B I *D sky130_fd_sc_hd__and2_1
*I *2810:B I *D sky130_fd_sc_hd__and2_1
*I *2744:B I *D sky130_fd_sc_hd__and2_1
*I *2745:B I *D sky130_fd_sc_hd__and2_1
*I *2811:B I *D sky130_fd_sc_hd__and2_1
*I *2677:B I *D sky130_fd_sc_hd__and2_1
*I *2612:B I *D sky130_fd_sc_hd__and2_1
*I *2611:B I *D sky130_fd_sc_hd__and2_1
*I *2544:B I *D sky130_fd_sc_hd__and2_1
*I *2477:B I *D sky130_fd_sc_hd__and2_1
*CAP
1 yN[1] 0.000162156
2 *2878:B 0.000264797
3 *2877:B 0.00011689
4 *2478:B 0.000612494
5 *2260:B 0
6 *3024:B 0
7 *3157:B 0.000139233
8 *3046:B 0
9 *3013:B 6.55013e-05
10 *2249:B 0
11 *2545:B 0.000176641
12 *2678:B 9.72491e-05
13 *2810:B 0
14 *2744:B 0.000217237
15 *2745:B 0.000138403
16 *2811:B 0.000167929
17 *2677:B 0
18 *2612:B 3.72884e-05
19 *2611:B 5.59167e-05
20 *2544:B 0.00011911
21 *2477:B 0
22 *24:291 0.0014995
23 *24:270 0.00235512
24 *24:259 0.00103257
25 *24:237 0.000139233
26 *24:235 0.00064887
27 *24:220 0.000812291
28 *24:205 0.00121599
29 *24:190 0.0012121
30 *24:136 0.000359528
31 *24:119 0.000363945
32 *24:108 0.000698847
33 *24:99 0.00111628
34 *24:93 0.00124054
35 *24:80 0.00107234
36 *24:59 0.00105135
37 *24:44 0.00129294
38 *24:38 0.0017686
39 *24:19 0.00226925
40 *24:5 0.00221101
41 *2478:B zP[1] 0
42 *2478:B *2338:B 0.00034008
43 *2478:B *2482:A 0.00015234
44 *2478:B *2482:B 3.79467e-05
45 *2478:B *3224:B 0.000175526
46 *2478:B *27:218 0.000188018
47 *2478:B *33:266 0
48 *2478:B *34:117 0.000614429
49 *2478:B *162:12 0.000100165
50 *2478:B *226:12 9.19611e-06
51 *2478:B *227:20 0.000100165
52 *2478:B *596:10 0
53 *2544:B *2483:B 0.000121891
54 *2544:B *353:10 0.000173914
55 *2545:B *2546:B 0.000101687
56 *2545:B *35:45 5.36422e-05
57 *2545:B *1165:8 6.45831e-05
58 *2678:B *171:10 2.95726e-05
59 *2744:B *2960:A 7.17136e-05
60 *2745:B *2746:B 5.33005e-05
61 *2745:B *2749:B 7.3237e-05
62 *2745:B *107:16 0.000347187
63 *2811:B *2812:B 0.000910869
64 *2811:B *1198:18 4.72818e-05
65 *2877:B *2881:A 5.52302e-05
66 *2877:B *2881:B 5.33005e-05
67 *2877:B *2983:A 5.33005e-05
68 *2877:B *1085:12 0.000195629
69 *2877:B *1086:6 4.72818e-05
70 *2878:B *2879:B 0.000247778
71 *2878:B *2983:A 9.90431e-05
72 *2878:B *2984:B 2.44318e-05
73 *2878:B *2985:A 0.000139913
74 *2878:B *2985:B 2.05612e-05
75 *2878:B *1086:6 1.39726e-05
76 *2878:B *1132:12 2.51343e-06
77 *2878:B *1382:14 9.21958e-05
78 *3013:B *3047:B 5.71472e-05
79 *24:5 *33:7 0.000405655
80 *24:19 *2305:B 5.58941e-05
81 *24:19 *2349:A 0.000188586
82 *24:19 *25:134 0
83 *24:38 *2476:B 6.85697e-05
84 *24:38 *2481:B 7.89032e-05
85 *24:38 *3112:B1 0
86 *24:38 *3179:A 0.000193111
87 *24:38 *3179:B 9.76928e-05
88 *24:38 *35:45 0.000376361
89 *24:38 *1165:8 0.000222163
90 *24:44 *35:56 0.000101216
91 *24:44 *354:6 8.25843e-06
92 *24:59 *2483:B 7.11068e-05
93 *24:59 *35:75 5.51716e-05
94 *24:59 *354:6 0.000615784
95 *24:80 *2616:A 0.000150476
96 *24:80 *3028:A 0.00014852
97 *24:80 *33:173 0.000378114
98 *24:80 *354:6 0.000420779
99 *24:80 *824:10 0
100 *24:93 *2675:A 0.000100161
101 *24:93 *3036:B 0
102 *24:93 *33:173 0.000206073
103 *24:93 *33:182 8.56716e-05
104 *24:93 *824:10 0
105 *24:93 *1095:10 0
106 *24:99 *2679:B 0.000140933
107 *24:99 *34:189 3.34366e-05
108 *24:99 *34:200 0.00151653
109 *24:99 *171:10 8.43535e-06
110 *24:108 *34:200 3.51442e-05
111 *24:108 *34:213 0.00132199
112 *24:119 *34:213 3.17148e-05
113 *24:119 *34:230 0.000133839
114 *24:119 *34:245 1.08359e-05
115 *24:136 *34:245 0.000106542
116 *24:136 *35:169 7.81334e-05
117 *24:190 zN[2] 2.44318e-05
118 *24:190 zP[1] 1.13345e-05
119 *24:190 *2170:A 3.99614e-06
120 *24:190 *2283:A 4.88637e-05
121 *24:190 *2283:B 0.000241633
122 *24:190 *2474:B 0.000110146
123 *24:190 *3171:A 0.00041518
124 *24:190 *33:7 7.2754e-05
125 *24:190 *643:8 0.000346329
126 *24:205 zN[2] 0.000141244
127 *24:205 *2133:B 0.000183713
128 *24:205 *2150:A 2.80853e-05
129 *24:205 *2151:B 0.000163737
130 *24:205 *3047:A 3.47641e-06
131 *24:205 *301:10 3.6474e-05
132 *24:205 *306:18 3.4579e-05
133 *24:220 *2130:B 7.7939e-05
134 *24:220 *2131:A2 0.000110938
135 *24:220 *3047:A 3.41117e-05
136 *24:220 *34:40 0.00115128
137 *24:220 *76:12 5.52302e-05
138 *24:220 *217:10 0
139 *24:220 *301:10 4.37204e-05
140 *24:220 *302:12 0.000507426
141 *24:220 *306:18 6.81974e-05
142 *24:235 *34:40 1.27784e-05
143 *24:235 *34:70 3.06078e-05
144 *24:235 *76:12 4.38128e-05
145 *24:259 *34:70 0.000394712
146 *24:270 *38:313 5.52302e-05
147 *24:291 *2127:B 0.000105235
148 *24:291 *2160:B 0.000104974
149 *24:291 *2449:B 5.16759e-05
150 *24:291 *2986:A2 0
151 *24:291 *29:125 0.00107234
152 *24:291 *34:117 0.000208322
153 *24:291 *578:8 0
154 *24:291 *620:10 0
155 *2138:A *24:291 0.000201387
156 *2194:A *24:220 0
157 *2260:A *24:270 0.000186662
158 *2271:A *24:291 3.69697e-05
159 *2471:A *24:190 5.43733e-05
160 *2484:A *24:44 0.000172173
161 *2543:A *2544:B 0.000334126
162 *2543:A *24:59 0.000127008
163 *2544:A *2544:B 2.04626e-05
164 *2605:A *2611:B 1.0609e-05
165 *2626:A *24:99 0.000167875
166 *2636:A *24:270 0.000434806
167 *2670:A *24:93 0.000173083
168 *2678:A *2678:B 2.89114e-05
169 *2678:A *24:99 2.59355e-05
170 *2679:A *24:99 1.98839e-05
171 *2744:A *2744:B 0.000361547
172 *2744:A *24:136 2.14757e-05
173 *2806:A *24:108 0.000604203
174 *2809:A *2744:B 2.79421e-05
175 *2811:A *2811:B 0.000824269
176 *2876:A *24:291 0.000148189
177 *3013:A *3013:B 0.00018372
178 *3024:A *3157:B 0.000130393
179 *3046:A *24:220 1.24368e-05
180 *3157:A *3157:B 2.28598e-05
181 *3169:A *3157:B 5.52302e-05
182 *3169:A *24:235 0.00014209
183 *3224:A *24:270 0.000739579
184 *3235:A *24:291 0
185 *3:48 *24:220 4.27935e-05
186 *3:48 *24:235 5.52238e-05
187 *3:61 *24:235 7.8327e-05
188 *3:72 *24:235 9.55514e-05
189 *4:38 *24:220 0.000127457
190 *4:38 *24:235 0.000197991
191 *4:199 *24:291 9.99811e-05
192 *4:221 *24:291 0.0010896
193 *5:62 *2478:B 0
194 *5:77 *2478:B 0
195 *5:81 *2478:B 1.17968e-05
196 *5:81 *24:291 0.000175636
197 *5:128 *2878:B 0.000419613
198 *6:13 *24:19 0.0023371
199 *6:28 *24:38 0
200 *6:32 *24:44 0.000522748
201 *6:252 *24:190 0.000194007
202 *7:13 *24:19 0
203 *8:56 *2611:B 1.48252e-05
204 *9:218 *24:108 0.000105262
205 *9:218 *24:119 7.8894e-05
206 *9:220 *24:108 0.000280909
207 *9:222 *24:99 0.000692
208 *9:222 *24:108 1.41029e-05
209 *9:224 *24:99 3.17067e-05
210 *10:110 *2877:B 0.000170692
211 *10:110 *2878:B 0.000553821
212 *10:208 *24:136 5.83304e-05
213 *10:214 *2745:B 5.33005e-05
214 *10:214 *24:119 3.34366e-05
215 *10:214 *24:136 0.000309773
216 *10:226 *2745:B 8.43535e-06
217 *13:57 *3157:B 2.44318e-05
218 *13:70 *24:259 0.000372248
219 *14:147 *24:220 6.1684e-05
220 *15:32 *24:19 0.000532299
221 *15:93 *24:190 0.000211284
222 *15:99 *24:190 9.71197e-05
223 *15:150 *24:270 0.000542662
224 *15:184 *24:291 0
225 *15:195 *24:291 7.90634e-05
226 *15:212 *24:291 0.000104391
227 *15:227 *24:291 2.01934e-05
228 *17:40 *2545:B 2.72055e-05
229 *18:264 *24:99 0.000248862
230 *19:124 *24:108 0.000177453
231 *19:132 *24:93 0.000196276
232 *23:11 *24:5 0.000407962
233 *23:11 *24:190 0.000198648
234 *23:202 *24:93 6.51946e-05
*RES
1 yN[1] *24:5 8.89286 
2 *24:5 *24:19 47.0179 
3 *24:19 *2477:B 9.3 
4 *24:19 *24:38 22.5 
5 *24:38 *24:44 18.9821 
6 *24:44 *2544:B 18.175 
7 *24:44 *24:59 12.0179 
8 *24:59 *2611:B 19.3357 
9 *24:59 *24:80 16.1964 
10 *24:80 *2612:B 14.3357 
11 *24:80 *24:93 16.1607 
12 *24:93 *24:99 26.9464 
13 *24:99 *2677:B 13.8 
14 *24:99 *24:108 17.4286 
15 *24:108 *2811:B 22.55 
16 *24:108 *24:119 2.55357 
17 *24:119 *2745:B 17.6393 
18 *24:119 *24:136 9.71429 
19 *24:136 *2744:B 14.3893 
20 *24:136 *2810:B 9.3 
21 *24:93 *2678:B 11.0857 
22 *24:38 *2545:B 17.2643 
23 *24:5 *24:190 23.1071 
24 *24:190 *2249:B 9.3 
25 *24:190 *24:205 15.3393 
26 *24:205 *3013:B 15.5679 
27 *24:205 *24:220 24.5893 
28 *24:220 *3046:B 9.3 
29 *24:220 *24:235 11.0893 
30 *24:235 *24:237 4.5 
31 *24:237 *3157:B 12.3357 
32 *24:237 *3024:B 9.3 
33 *24:235 *24:259 14.5357 
34 *24:259 *2260:B 9.3 
35 *24:259 *24:270 21.8929 
36 *24:270 *2478:B 30.9429 
37 *24:270 *24:291 38.0179 
38 *24:291 *2877:B 13.2643 
39 *24:291 *2878:B 29.05 
*END

*D_NET *25 0.0673912
*CONN
*P yN[2] I
*I *2485:B I *D sky130_fd_sc_hd__and2_1
*I *2484:B I *D sky130_fd_sc_hd__and2_1
*I *2551:B I *D sky130_fd_sc_hd__and2_1
*I *2817:B I *D sky130_fd_sc_hd__and2_1
*I *2818:B I *D sky130_fd_sc_hd__and2_1
*I *2751:B I *D sky130_fd_sc_hd__and2_1
*I *2684:B I *D sky130_fd_sc_hd__and2_1
*I *2685:B I *D sky130_fd_sc_hd__and2_1
*I *2752:B I *D sky130_fd_sc_hd__and2_1
*I *2618:B I *D sky130_fd_sc_hd__and2_1
*I *2552:B I *D sky130_fd_sc_hd__and2_1
*I *2619:B I *D sky130_fd_sc_hd__and2_1
*I *2316:B I *D sky130_fd_sc_hd__and2_1
*I *3080:B I *D sky130_fd_sc_hd__and2_1
*I *2327:B I *D sky130_fd_sc_hd__and2_1
*I *2885:B I *D sky130_fd_sc_hd__and2_1
*I *2884:B I *D sky130_fd_sc_hd__and2_1
*I *2393:B I *D sky130_fd_sc_hd__and2_1
*I *3091:B I *D sky130_fd_sc_hd__and2_1
*I *2282:B I *D sky130_fd_sc_hd__and2_1
*CAP
1 yN[2] 0.000217388
2 *2485:B 0.000129946
3 *2484:B 0
4 *2551:B 0.000209052
5 *2817:B 0.000162729
6 *2818:B 2.52229e-05
7 *2751:B 0
8 *2684:B 0
9 *2685:B 0.000183365
10 *2752:B 0.00100445
11 *2618:B 0
12 *2552:B 0.000240018
13 *2619:B 0.000240437
14 *2316:B 0
15 *3080:B 0
16 *2327:B 0.00111606
17 *2885:B 0.00132208
18 *2884:B 0.000221194
19 *2393:B 2.52056e-05
20 *3091:B 6.33872e-05
21 *2282:B 0
22 *25:282 0.000666235
23 *25:269 0.000768661
24 *25:258 0.000920933
25 *25:239 0.00100668
26 *25:222 0.00161141
27 *25:213 0.000845578
28 *25:192 0.000853107
29 *25:169 0.00117359
30 *25:161 0.00127062
31 *25:157 0.000399082
32 *25:151 0.00124775
33 *25:134 0.00144551
34 *25:123 0.00107626
35 *25:76 0.00154327
36 *25:74 0.00247879
37 *25:72 0.00247879
38 *25:70 0.00128152
39 *25:55 0.000360729
40 *25:42 0.000795268
41 *25:25 0.00173723
42 *25:7 0.0020524
43 *2327:B *36:339 0.00120438
44 *2551:B *35:88 0
45 *2551:B *168:16 0.000271352
46 *2551:B *232:12 0.000111802
47 *2551:B *710:12 2.60107e-05
48 *2551:B *1465:6 0.000139861
49 *2552:B *2553:B 0.00025318
50 *2552:B *3337:B 2.59355e-05
51 *2552:B *3338:A 2.28598e-05
52 *2552:B *3338:B 0.000139907
53 *2552:B *3339:B1 0.000226507
54 *2552:B *1470:14 9.71197e-05
55 *2619:B *2620:B 0.000181381
56 *2619:B *2622:B 0.000136951
57 *2685:B *2686:B 0.000135028
58 *2685:B *2688:B 4.51317e-05
59 *2685:B *2753:B 9.41642e-05
60 *2685:B *35:146 0.000248138
61 *2752:B *2556:B 9.60875e-05
62 *2752:B *2557:B 5.33005e-05
63 *2752:B *2628:A 0
64 *2752:B *37:111 0.000174455
65 *2817:B *2820:B 6.05161e-06
66 *2817:B *1208:14 8.04913e-05
67 *2818:B *35:196 5.52238e-05
68 *2884:B *2772:B 0
69 *2884:B *40:185 0.000186662
70 *2884:B *139:8 0
71 *2884:B *206:14 0
72 *2884:B *1150:10 0
73 *2885:B *3303:A 1.74352e-05
74 *2885:B *3303:B 0.00010096
75 *2885:B *39:114 0
76 *2885:B *39:129 0
77 *2885:B *40:185 0.000340649
78 *2885:B *40:198 0.000159049
79 *2885:B *806:6 0.000273269
80 *2885:B *1434:12 0.000548586
81 *2885:B *1447:10 0.000534229
82 *2885:B *1448:16 0.00010096
83 *3091:B *3124:A 6.05161e-06
84 *25:7 zN[4] 0.000448999
85 *25:7 *35:5 0.000448999
86 *25:25 zN[4] 0.000183237
87 *25:25 zP[4] 0.000160329
88 *25:25 *2171:B 8.87461e-06
89 *25:25 *35:271 0.000487514
90 *25:25 *337:12 0.00017467
91 *25:42 *2447:B 8.07308e-05
92 *25:42 *3124:B 0.000125724
93 *25:42 *35:288 0.000772363
94 *25:42 *222:12 0.00036226
95 *25:42 *311:12 0.000127079
96 *25:42 *314:12 0.000150917
97 *25:42 *317:10 0
98 *25:55 *3124:B 3.34366e-05
99 *25:55 *222:12 0.000400661
100 *25:70 *218:12 0.000185643
101 *25:70 *222:12 0.000211913
102 *25:74 *1975:A 0
103 *25:74 *2005:B 0
104 *25:74 *2025:B 0.000107503
105 *25:74 *2042:B1 0
106 *25:74 *2294:B 0
107 *25:74 *2473:B 4.57445e-05
108 *25:74 *2475:B 0
109 *25:74 *2732:B 0
110 *25:74 *3312:B1 0
111 *25:74 *32:187 0
112 *25:74 *32:199 0.000478216
113 *25:74 *40:45 0.000235085
114 *25:74 *40:47 0.00111422
115 *25:74 *40:51 0.000556844
116 *25:74 *41:192 0
117 *25:74 *139:8 0
118 *25:74 *154:12 0
119 *25:74 *156:12 6.98669e-05
120 *25:74 *206:14 0.000465904
121 *25:74 *218:12 0.000126439
122 *25:74 *220:10 0.000141375
123 *25:74 *884:12 0.000282094
124 *25:123 *36:22 8.18698e-05
125 *25:134 *2305:B 0
126 *25:134 *3177:A2 0
127 *25:134 *35:45 0
128 *25:134 *36:22 0.000276211
129 *25:151 *3112:A2 0.000177815
130 *25:151 *3175:A 8.91822e-05
131 *25:151 *3175:B 2.89114e-05
132 *25:151 *3177:A1 0
133 *25:151 *3177:A2 0
134 *25:151 *3177:B1 0.00014285
135 *25:151 *3178:A 1.98839e-05
136 *25:151 *3178:B 0.000178847
137 *25:151 *3182:A1 9.60875e-05
138 *25:151 *3182:A2 5.59013e-05
139 *25:151 *3182:B1 2.84494e-05
140 *25:151 *34:136 0.000136395
141 *25:151 *35:45 0.00116592
142 *25:151 *36:22 0
143 *25:151 *343:18 0
144 *25:151 *1162:12 0.000238624
145 *25:151 *1258:6 4.72818e-05
146 *25:157 *353:10 0.000446215
147 *25:161 *232:12 3.29297e-05
148 *25:169 *35:88 0.000114838
149 *25:169 *35:99 7.05143e-06
150 *25:169 *232:14 0.000916555
151 *25:192 *35:99 5.56524e-05
152 *25:192 *35:116 8.01647e-05
153 *25:213 *3247:B 0
154 *25:213 *3338:A 6.8646e-06
155 *25:213 *3339:B1 0.000150625
156 *25:213 *35:116 0.000942157
157 *25:213 *722:10 0
158 *25:213 *1392:8 0
159 *25:222 *2629:A 0
160 *25:222 *2948:A 2.19684e-05
161 *25:222 *35:116 1.02504e-05
162 *25:222 *35:133 0.000960702
163 *25:222 *36:132 0
164 *25:222 *721:10 0
165 *25:239 *2948:A 4.75521e-05
166 *25:239 *2949:B 0
167 *25:239 *35:133 8.33655e-05
168 *25:239 *36:145 0
169 *25:258 *3272:B 0.000176234
170 *25:258 *35:169 0
171 *25:258 *36:187 0
172 *25:258 *189:6 6.94273e-05
173 *25:258 *1404:10 0.000365674
174 *25:269 *2687:B 0.000152333
175 *25:269 *2754:B 8.39e-05
176 *25:269 *35:169 6.05161e-06
177 *25:269 *35:177 2.62575e-05
178 *25:269 *189:6 2.89016e-05
179 *25:282 *2821:A 0
180 *25:282 *2821:B 0
181 *25:282 *3059:B 4.73656e-05
182 *25:282 *35:177 0
183 *25:282 *35:192 0
184 *25:282 *1115:10 0.000286128
185 *25:282 *1208:14 0.000131553
186 *2316:A *25:134 2.8266e-06
187 *2316:A *25:151 5.0725e-05
188 *2327:A *2327:B 3.92757e-05
189 *2393:A *2393:B 5.52302e-05
190 *2469:A *25:123 0.000428268
191 *2476:A *2485:B 1.41665e-05
192 *2476:A *25:151 0.000116759
193 *2483:A *25:157 0.000253413
194 *2484:A *25:161 6.87582e-05
195 *2497:A *2752:B 5.80314e-05
196 *2498:A *2752:B 0.000154993
197 *2531:A *25:74 2.49484e-05
198 *2533:A *25:74 6.97972e-05
199 *2552:A *2552:B 0.000102232
200 *2618:A *25:213 5.80706e-06
201 *2618:A *25:222 0.000186416
202 *2683:A *25:269 4.46186e-06
203 *2684:A *25:258 2.59355e-05
204 *2693:A *2685:B 0.000135028
205 *2884:A *2884:B 2.8266e-06
206 *3169:A *2327:B 7.95313e-05
207 *3169:A *25:70 7.53317e-05
208 *3:5 *25:25 7.2084e-05
209 *3:22 *25:25 7.69776e-06
210 *3:125 *25:74 0
211 *3:140 *25:74 0
212 *4:30 *25:42 2.49484e-05
213 *5:13 *25:25 0.000829024
214 *5:21 *25:25 2.83129e-05
215 *5:58 *25:25 0.000743782
216 *5:209 *25:25 0.000296171
217 *6:38 *2551:B 0
218 *7:68 *2551:B 0
219 *7:213 *2885:B 0.000185643
220 *7:215 *2885:B 0.000753293
221 *7:225 *2885:B 0.000228815
222 *8:38 *2327:B 0
223 *8:50 *25:169 0.000956798
224 *8:56 *25:169 0.000191127
225 *8:139 *25:74 0.00212051
226 *9:222 *25:169 3.17018e-05
227 *9:222 *25:192 0.000159585
228 *10:202 *25:269 5.80706e-06
229 *10:202 *25:282 0.000588504
230 *10:208 *25:269 0.000253303
231 *11:216 *2885:B 0
232 *11:222 *2817:B 0
233 *11:222 *25:282 0
234 *11:232 *25:258 0.000334667
235 *11:232 *25:282 0
236 *11:234 *25:258 0.000460151
237 *11:240 *25:239 0.000197977
238 *11:240 *25:258 0.000303727
239 *13:13 *25:25 0.000137983
240 *13:13 *25:123 0.00026353
241 *13:30 *3091:B 5.62425e-05
242 *14:196 *3091:B 3.00177e-05
243 *15:19 *25:134 0.00021692
244 *15:137 *25:25 5.7903e-06
245 *15:137 *25:42 0.000568789
246 *15:137 *25:55 0.000187432
247 *15:137 *25:70 0.000118339
248 *15:137 *25:74 0
249 *16:60 *2485:B 5.54817e-06
250 *16:62 *2485:B 6.87672e-05
251 *17:57 *25:169 0.000265438
252 *17:86 *25:169 0.000186937
253 *17:103 *25:169 0
254 *17:130 *25:213 0
255 *18:59 *25:74 0
256 *18:215 *25:169 0.000510186
257 *18:252 *25:169 0.000639615
258 *18:264 *25:213 0.000132532
259 *18:320 *2752:B 0
260 *19:45 *25:74 0
261 *24:19 *25:134 0
*RES
1 yN[2] *25:7 14.6071 
2 *25:7 *25:25 21.9818 
3 *25:25 *2282:B 13.8 
4 *25:25 *25:42 18.4464 
5 *25:42 *3091:B 15.175 
6 *25:42 *25:55 5.28571 
7 *25:55 *2393:B 14.3357 
8 *25:55 *25:70 9.94643 
9 *25:70 *25:72 4.5 
10 *25:72 *25:74 68.125 
11 *25:74 *25:76 4.5 
12 *25:76 *2884:B 22.3179 
13 *25:76 *2885:B 49.7643 
14 *25:70 *2327:B 34.8 
15 *25:7 *25:123 9.48214 
16 *25:123 *3080:B 9.3 
17 *25:123 *25:134 13.6429 
18 *25:134 *2316:B 13.8 
19 *25:134 *25:151 35.625 
20 *25:151 *25:157 9.16071 
21 *25:157 *25:161 9.48214 
22 *25:161 *25:169 37.6071 
23 *25:169 *2619:B 18.175 
24 *25:169 *25:192 8.66071 
25 *25:192 *2552:B 16.4607 
26 *25:192 *25:213 16.4643 
27 *25:213 *2618:B 13.8 
28 *25:213 *25:222 12.5714 
29 *25:222 *2752:B 39.1393 
30 *25:222 *25:239 4.67857 
31 *25:239 *2685:B 18.4607 
32 *25:239 *25:258 21.6071 
33 *25:258 *2684:B 9.3 
34 *25:258 *25:269 12.75 
35 *25:269 *2751:B 13.8 
36 *25:269 *25:282 12.625 
37 *25:282 *2818:B 14.3357 
38 *25:282 *2817:B 17.1929 
39 *25:161 *2551:B 19.3714 
40 *25:157 *2484:B 9.3 
41 *25:151 *2485:B 16.3536 
*END

*D_NET *26 0.0594649
*CONN
*P yN[3] I
*I *2480:B I *D sky130_fd_sc_hd__and2_1
*I *2490:B I *D sky130_fd_sc_hd__and2_1
*I *2757:B I *D sky130_fd_sc_hd__and2_1
*I *2890:B I *D sky130_fd_sc_hd__and2_1
*I *2823:B I *D sky130_fd_sc_hd__and2_1
*I *2892:B I *D sky130_fd_sc_hd__and2_1
*I *2826:B I *D sky130_fd_sc_hd__and2_1
*I *2759:B I *D sky130_fd_sc_hd__and2_1
*I *2690:B I *D sky130_fd_sc_hd__and2_1
*I *2692:B I *D sky130_fd_sc_hd__and2_1
*I *2624:B I *D sky130_fd_sc_hd__and2_1
*I *2557:B I *D sky130_fd_sc_hd__and2_1
*I *2626:B I *D sky130_fd_sc_hd__and2_1
*I *2559:B I *D sky130_fd_sc_hd__and2_1
*I *2493:B I *D sky130_fd_sc_hd__and2_1
*I *2394:B I *D sky130_fd_sc_hd__and2_1
*I *3158:B I *D sky130_fd_sc_hd__and2_1
*I *2492:B I *D sky130_fd_sc_hd__and2_1
*I *2382:B I *D sky130_fd_sc_hd__and2_1
*I *3146:B I *D sky130_fd_sc_hd__and2_1
*CAP
1 yN[3] 0.000555837
2 *2480:B 0
3 *2490:B 5.44177e-05
4 *2757:B 5.40981e-05
5 *2890:B 0
6 *2823:B 0.000791791
7 *2892:B 0
8 *2826:B 0.000112323
9 *2759:B 0.000301281
10 *2690:B 6.5538e-05
11 *2692:B 0.000230162
12 *2624:B 6.11415e-05
13 *2557:B 5.23235e-05
14 *2626:B 0
15 *2559:B 0
16 *2493:B 2.23854e-05
17 *2394:B 0
18 *3158:B 3.82418e-05
19 *2492:B 0.000273447
20 *2382:B 0
21 *3146:B 0.000109823
22 *26:264 0.00162364
23 *26:249 0.00102668
24 *26:232 0.00251222
25 *26:228 0.00288693
26 *26:211 0.00113048
27 *26:196 0.00123603
28 *26:158 0.00138467
29 *26:152 0.00228378
30 *26:139 0.000502968
31 *26:130 0.00034083
32 *26:121 0.000898561
33 *26:79 0.00154801
34 *26:71 0.00263289
35 *26:67 0.00150986
36 *26:65 0.00148661
37 *26:61 0.00194527
38 *26:38 0.0023595
39 *26:21 0.00152283
40 *26:11 0.000891516
41 *2490:B *2489:B 0
42 *2492:B *2503:B 0.00017309
43 *2492:B *2569:B 3.82242e-05
44 *2492:B *2591:B 5.33005e-05
45 *2557:B *2556:B 0
46 *2624:B *2693:B 3.92854e-05
47 *2624:B *28:146 1.50181e-05
48 *2624:B *38:142 4.25622e-05
49 *2690:B *2634:B 0.000137983
50 *2690:B *27:143 5.52302e-05
51 *2692:B *2693:B 2.49484e-05
52 *2692:B *2695:B 6.73091e-05
53 *2692:B *28:146 0.000187718
54 *2692:B *38:142 3.06975e-05
55 *2759:B *1111:14 0.000125355
56 *2759:B *1123:12 5.76505e-05
57 *2823:B *2822:B 0.000244312
58 *2823:B *2828:A 4.87854e-05
59 *2823:B *2828:B 0.000104446
60 *2823:B *37:52 0.000323277
61 *2823:B *38:91 0.000610071
62 *2823:B *39:95 0.000573281
63 *2823:B *1448:16 0
64 *2823:B *1455:10 0.000346056
65 *2826:B *2829:B 7.83587e-05
66 *2826:B *36:240 9.54798e-06
67 *2826:B *36:265 7.71596e-05
68 *2826:B *1036:12 0
69 *2826:B *1434:12 2.28428e-05
70 *3158:B *2569:B 0
71 *26:21 *2174:B 5.58941e-05
72 *26:21 *2176:B 0.000136958
73 *26:21 *33:141 7.75987e-05
74 *26:21 *334:12 0.00012401
75 *26:21 *1253:12 0.00022266
76 *26:38 *33:141 0.00124045
77 *26:61 *2416:A 1.00887e-05
78 *26:61 *2549:B 0.000143633
79 *26:61 *36:58 0.000223228
80 *26:61 *656:12 0.000124157
81 *26:65 *2496:A 0.000149915
82 *26:65 *2496:B 2.56694e-05
83 *26:65 *3023:A 0
84 *26:65 *3023:B 0
85 *26:65 *3323:A 0.000197998
86 *26:65 *3323:B 1.41029e-05
87 *26:65 *27:172 0
88 *26:65 *36:77 0
89 *26:65 *36:100 0
90 *26:65 *661:8 0
91 *26:65 *662:10 5.97623e-05
92 *26:71 *2625:B 0.000621848
93 *26:79 *2427:A 0.000152211
94 *26:79 *2569:B 8.87062e-05
95 *26:79 *3314:A 7.77751e-05
96 *26:79 *33:266 4.13595e-05
97 *26:79 *33:277 0.000320044
98 *26:79 *36:339 4.03318e-05
99 *26:79 *1462:12 0
100 *26:121 *2502:A 0.000100932
101 *26:121 *2555:A 0.000150625
102 *26:121 *3248:A 6.18257e-05
103 *26:121 *3323:B 5.52302e-05
104 *26:121 *3326:B1 0.000229456
105 *26:121 *3336:A 0
106 *26:121 *27:162 0
107 *26:121 *27:172 0
108 *26:121 *36:117 4.46186e-06
109 *26:121 *668:10 8.00004e-05
110 *26:121 *716:8 0.000149886
111 *26:121 *1470:14 0.000139907
112 *26:130 *2562:A 0.000153047
113 *26:130 *36:117 0.000172515
114 *26:139 *2561:B 0.000104974
115 *26:139 *36:117 0.00021192
116 *26:152 *27:160 0
117 *26:152 *36:145 0
118 *26:152 *37:97 7.2754e-05
119 *26:158 *2755:B 0.00010096
120 *26:196 *2008:B 0.000106552
121 *26:196 *2630:B 0.000140933
122 *26:196 *2634:A 0.000162405
123 *26:196 *2694:A 0.000148189
124 *26:196 *3270:B 5.59013e-05
125 *26:196 *3273:B1 7.6351e-05
126 *26:196 *3355:B 2.82057e-05
127 *26:196 *3356:A1 0.000175519
128 *26:196 *3363:B 1.78353e-05
129 *26:196 *3365:A2 7.22594e-05
130 *26:196 *3365:B1 6.42242e-05
131 *26:196 *27:149 0
132 *26:196 *36:187 5.08481e-05
133 *26:196 *37:97 0.000456844
134 *26:196 *108:10 7.2754e-05
135 *26:196 *117:14 0
136 *26:196 *1023:16 0.000268599
137 *26:196 *1110:6 0.000312222
138 *26:196 *1417:10 0.000152466
139 *26:196 *1425:10 2.59093e-05
140 *26:196 *1429:10 0.000369818
141 *26:211 *2694:A 0.00013966
142 *26:211 *36:187 0.00010906
143 *26:211 *1425:10 0.000196836
144 *26:228 *2700:A 0.00015304
145 *26:228 *2761:B 3.32631e-05
146 *26:228 *27:143 0.000185212
147 *26:228 *36:220 0.000671131
148 *26:228 *193:10 0.000186641
149 *26:228 *850:10 0.000319309
150 *26:228 *1129:12 2.47724e-05
151 *26:228 *1425:10 0.000421403
152 *26:232 *3067:A 0.000166485
153 *26:232 *3070:A 1.74352e-05
154 *26:232 *3070:B 0.000274294
155 *26:232 *3295:A1 1.32552e-05
156 *26:232 *3295:A2 0.000181831
157 *26:232 *3299:A1 1.50524e-05
158 *26:232 *917:14 0.000534222
159 *26:232 *1129:12 0.000188857
160 *26:249 *2829:B 8.15095e-05
161 *26:249 *1434:12 2.78729e-05
162 *26:264 *2894:A 0.000144773
163 *26:264 *2894:B 0.000244529
164 *26:264 *36:265 0.000186662
165 *26:264 *36:273 0.000597994
166 *2382:A *26:38 0.000249013
167 *2394:A *26:71 1.97695e-05
168 *2472:A *2492:B 0.000335215
169 *2480:A *26:11 0.000201566
170 *2493:A *26:71 5.52302e-05
171 *2497:A *26:152 0
172 *2537:A *26:38 0.000141158
173 *2556:A *26:139 0.000482574
174 *2556:A *26:152 4.46186e-06
175 *2569:A *3158:B 0
176 *2606:A *26:79 5.58941e-05
177 *2680:A *26:71 9.46929e-05
178 *2693:A *26:158 0.0011706
179 *2720:A *2823:B 0
180 *2752:B *2557:B 5.33005e-05
181 *2823:A *2823:B 0
182 *2885:A *26:249 4.70078e-05
183 *2892:A *26:249 1.24368e-05
184 *2892:A *26:264 1.54142e-05
185 *3:35 *2492:B 6.47912e-05
186 *4:130 *3146:B 6.05139e-05
187 *5:209 *26:11 3.30352e-05
188 *5:252 *26:61 0.000265438
189 *6:38 *2490:B 9.25014e-06
190 *6:38 *26:61 0.000203594
191 *7:34 *26:61 1.51881e-05
192 *7:68 *26:65 0
193 *7:68 *26:121 8.359e-05
194 *8:21 *26:11 0.00118843
195 *8:21 *26:79 0
196 *8:42 *26:67 6.62783e-05
197 *8:42 *26:71 0.000621674
198 *8:42 *26:121 6.22626e-05
199 *8:280 *2624:B 4.46186e-06
200 *8:280 *26:139 0.00053159
201 *8:280 *26:152 1.04707e-05
202 *9:216 *2690:B 6.12335e-05
203 *11:180 *2823:B 8.06403e-05
204 *11:216 *2826:B 0.000186662
205 *11:232 *26:211 0
206 *11:232 *26:228 0
207 *12:255 *26:264 2.15245e-05
208 *13:99 *2492:B 3.34295e-05
209 *14:42 *26:21 0.000196282
210 *14:196 *2492:B 5.33005e-05
211 *14:207 *2492:B 4.27935e-05
212 *15:32 *26:38 1.50223e-05
213 *17:11 *26:11 0.000605982
214 *17:40 *26:38 8.399e-05
215 *17:57 *26:61 0.000369139
216 *17:130 *26:121 0
217 *17:134 *26:121 1.02504e-05
218 *17:134 *26:130 0.000391583
219 *17:134 *26:139 0.000150618
220 *18:17 *2492:B 8.25843e-06
221 *18:182 *26:79 0.000199601
222 *18:205 *26:79 0.000101545
223 *18:320 *26:139 2.14378e-05
224 *18:320 *26:152 6.09807e-05
225 *19:104 *2692:B 5.33005e-05
226 *21:124 *2823:B 0.000166686
227 *21:149 *2826:B 0.000184745
228 *23:128 *26:21 0.000158576
229 *23:275 *26:79 3.17148e-05
230 *23:281 *26:79 0.000274288
*RES
1 yN[3] *26:11 22.7857 
2 *26:11 *26:21 18.4286 
3 *26:21 *3146:B 20.2464 
4 *26:21 *26:38 23.3393 
5 *26:38 *2382:B 13.8 
6 *26:38 *26:61 29.5089 
7 *26:61 *26:65 16.9196 
8 *26:65 *26:67 1.76786 
9 *26:67 *26:71 26.8393 
10 *26:71 *26:79 33.5357 
11 *26:79 *2492:B 25.2643 
12 *26:79 *3158:B 10.0321 
13 *26:71 *2394:B 9.3 
14 *26:67 *2493:B 9.72857 
15 *26:65 *26:121 21.875 
16 *26:121 *2559:B 13.8 
17 *26:121 *26:130 4.98214 
18 *26:130 *2626:B 13.8 
19 *26:130 *26:139 10.1429 
20 *26:139 *2557:B 14.7643 
21 *26:139 *26:152 4.07143 
22 *26:152 *26:158 24.7321 
23 *26:158 *2624:B 15.4429 
24 *26:158 *2692:B 18.8714 
25 *26:152 *26:196 37.8036 
26 *26:196 *2690:B 15.5679 
27 *26:196 *26:211 5.33929 
28 *26:211 *2759:B 18.4607 
29 *26:211 *26:228 23.0893 
30 *26:228 *26:232 33.375 
31 *26:232 *2826:B 17.5143 
32 *26:232 *26:249 8.53571 
33 *26:249 *2892:B 9.3 
34 *26:249 *26:264 14.5714 
35 *26:264 *2823:B 41.7464 
36 *26:264 *2890:B 9.3 
37 *26:228 *2757:B 10.3357 
38 *26:61 *2490:B 14.9161 
39 *26:11 *2480:B 9.3 
*END

*D_NET *27 0.0602523
*CONN
*P yN[4] I
*I *2897:B I *D sky130_fd_sc_hd__and2_1
*I *2765:B I *D sky130_fd_sc_hd__and2_1
*I *2698:B I *D sky130_fd_sc_hd__and2_1
*I *2631:B I *D sky130_fd_sc_hd__and2_1
*I *2565:B I *D sky130_fd_sc_hd__and2_1
*I *2564:B I *D sky130_fd_sc_hd__and2_1
*I *2499:B I *D sky130_fd_sc_hd__and2_1
*I *2432:B I *D sky130_fd_sc_hd__and2_1
*I *3213:B I *D sky130_fd_sc_hd__and2_1
*I *3224:B I *D sky130_fd_sc_hd__and2_1
*I *2558:B I *D sky130_fd_sc_hd__and2_1
*I *2547:B I *D sky130_fd_sc_hd__and2_1
*I *2431:B I *D sky130_fd_sc_hd__and2_1
*I *2498:B I *D sky130_fd_sc_hd__and2_1
*I *2697:B I *D sky130_fd_sc_hd__and2_1
*I *2632:B I *D sky130_fd_sc_hd__and2_1
*I *2764:B I *D sky130_fd_sc_hd__and2_1
*I *2832:B I *D sky130_fd_sc_hd__and2_1
*I *2831:B I *D sky130_fd_sc_hd__and2_1
*I *2898:B I *D sky130_fd_sc_hd__and2_1
*CAP
1 yN[4] 0.000655233
2 *2897:B 0.000273734
3 *2765:B 1.11248e-05
4 *2698:B 3.4234e-05
5 *2631:B 0
6 *2565:B 0
7 *2564:B 0.00069542
8 *2499:B 7.28063e-05
9 *2432:B 2.23854e-05
10 *3213:B 5.7759e-05
11 *3224:B 4.76544e-05
12 *2558:B 0.000396702
13 *2547:B 0
14 *2431:B 4.81621e-05
15 *2498:B 4.28091e-05
16 *2697:B 0.000132761
17 *2632:B 0
18 *2764:B 0.000111999
19 *2832:B 0
20 *2831:B 0
21 *2898:B 0.000149397
22 *27:263 0.00069542
23 *27:218 0.000975417
24 *27:197 0.00110481
25 *27:191 0.0015332
26 *27:178 0.00114509
27 *27:172 0.00110005
28 *27:162 0.00129468
29 *27:160 0.000876198
30 *27:149 0.00192761
31 *27:143 0.0019642
32 *27:116 0.000848431
33 *27:112 0.00109789
34 *27:98 0.00136912
35 *27:89 0.00144508
36 *27:81 0.00318314
37 *27:66 0.00158467
38 *27:57 0.000840728
39 *27:31 0.000171783
40 *27:29 0.00188428
41 *27:9 0.00207862
42 *2432:B *2494:B 0
43 *2564:B *2441:B 0.000227539
44 *2564:B *2566:B 0.0001399
45 *2564:B *2568:B 0.000181796
46 *2564:B *3254:B 5.52302e-05
47 *2564:B *613:10 6.57032e-05
48 *2564:B *1099:8 0.000128866
49 *2697:B *117:14 0
50 *2697:B *193:10 2.59355e-05
51 *2698:B *2701:B 0.000125547
52 *2764:B *2822:B 0.000167368
53 *2764:B *1142:10 0
54 *2897:B *930:10 0
55 *2898:B *1151:12 0
56 *3213:B *3246:B 0
57 *3213:B *37:143 0
58 *27:9 *28:9 0.000385854
59 *27:9 *29:9 0
60 *27:9 *29:24 0
61 *27:9 *38:19 0
62 *27:29 *2771:B 5.33005e-05
63 *27:29 *2841:A 9.80173e-05
64 *27:29 *2907:A 5.71472e-05
65 *27:29 *2907:B 9.60875e-05
66 *27:29 *3101:B1 0.000187042
67 *27:29 *38:30 0.000734598
68 *27:29 *38:34 0.000301238
69 *27:29 *38:49 0.000206174
70 *27:57 *37:34 0.00111519
71 *27:81 *37:52 0.00235701
72 *27:89 *2635:A 6.05161e-06
73 *27:89 *2705:B 0.000320995
74 *27:89 *625:12 4.57445e-05
75 *27:89 *858:10 0.000294599
76 *27:89 *1430:16 0.00129635
77 *27:98 *37:52 0.000355026
78 *27:112 *2010:A 0.000312222
79 *27:112 *2699:B 4.38128e-05
80 *27:112 *2701:B 1.33343e-05
81 *27:112 *3367:B 0
82 *27:112 *36:238 0
83 *27:112 *37:62 0.000335666
84 *27:112 *37:66 3.24224e-05
85 *27:112 *113:10 2.19778e-05
86 *27:112 *122:8 0
87 *27:112 *1124:12 0
88 *27:116 *37:66 0.000369533
89 *27:143 *2634:B 0.000114457
90 *27:143 *2700:A 5.83233e-05
91 *27:143 *2700:B 5.83233e-05
92 *27:143 *37:66 9.60939e-05
93 *27:143 *37:89 0.00104797
94 *27:143 *1425:10 0.000754903
95 *27:149 *2006:A 0
96 *27:149 *2007:B 0
97 *27:149 *2009:A1 4.57445e-05
98 *27:149 *2755:A 0
99 *27:149 *2815:B 5.24274e-05
100 *27:149 *3266:B 0
101 *27:149 *3270:B 0
102 *27:149 *3273:B1 0
103 *27:149 *3353:A 0
104 *27:149 *3354:B 0
105 *27:149 *3363:B 0
106 *27:149 *104:10 0
107 *27:149 *117:14 0.000509479
108 *27:149 *190:10 0.000897363
109 *27:149 *904:10 0
110 *27:149 *1023:16 0
111 *27:149 *1411:10 0
112 *27:149 *1417:10 0
113 *27:160 *3253:B 0
114 *27:160 *3256:B1 0.000315172
115 *27:160 *3351:B 0
116 *27:160 *103:12 3.92757e-05
117 *27:160 *104:10 0
118 *27:160 *1398:12 0.000175519
119 *27:160 *1401:10 0
120 *27:162 *2568:A 5.33978e-05
121 *27:162 *728:10 0
122 *27:172 *2435:A 1.38323e-05
123 *27:172 *2494:B 9.71197e-05
124 *27:172 *2496:A 3.18676e-05
125 *27:172 *2502:B 0.000149047
126 *27:172 *2555:B 0
127 *27:172 *3323:B 0.000103285
128 *27:172 *36:100 0
129 *27:172 *662:10 9.78113e-05
130 *27:172 *1089:18 0.000642466
131 *27:178 *1089:18 5.52302e-05
132 *27:191 *2430:B 0.000178847
133 *27:191 *3246:A 0.000186669
134 *27:191 *3246:B 0.000197545
135 *27:191 *37:143 0.000266513
136 *27:197 *1985:B 7.43578e-06
137 *27:197 *1987:B1 4.00276e-06
138 *27:197 *36:316 6.42338e-05
139 *27:197 *1127:12 2.15137e-05
140 *27:197 *1462:12 0
141 *27:218 *2569:B 0.00101037
142 *27:218 *36:316 2.84398e-05
143 *27:218 *36:339 0.00094868
144 *2478:B *3224:B 0.000175526
145 *2478:B *27:218 0.000188018
146 *2497:A *27:160 0.000122879
147 *2498:A *27:160 4.6234e-05
148 *2499:A *2499:B 3.18676e-05
149 *2547:A *27:197 1.02504e-05
150 *2547:A *27:218 4.56437e-05
151 *2557:A *27:160 0
152 *2558:A *2558:B 5.33005e-05
153 *2564:A *2564:B 0.000276211
154 *2626:A *2564:B 0
155 *2632:A *27:89 0.00010096
156 *2690:B *27:143 5.52302e-05
157 *2698:A *2698:B 9.41642e-05
158 *2698:A *27:116 0.00030926
159 *2698:A *27:143 0.000126572
160 *2756:A *2697:B 6.98302e-05
161 *2765:A *2765:B 1.1594e-05
162 *2765:A *27:112 0.000228537
163 *2812:A *27:149 0.000128146
164 *2831:A *2898:B 0.000174805
165 *2837:A *27:29 1.64616e-05
166 *2897:A *2897:B 0.00010096
167 *2897:A *27:9 0
168 *2899:A *27:57 3.57366e-05
169 *3213:A *27:197 1.92905e-05
170 *5:77 *2558:B 0.000140933
171 *5:77 *27:218 0
172 *5:81 *3224:B 0.000166276
173 *5:81 *27:218 3.17148e-05
174 *5:105 *2558:B 5.33005e-05
175 *6:46 *2431:B 0
176 *6:46 *27:178 0
177 *6:60 *27:172 0.00014285
178 *7:68 *27:172 0
179 *7:78 *27:162 8.56716e-05
180 *7:78 *27:172 0.000562389
181 *7:84 *27:160 9.88136e-05
182 *7:84 *27:162 0.000206326
183 *7:94 *2564:B 0.000108613
184 *7:96 *2564:B 0.000760416
185 *8:115 *27:89 0
186 *9:203 *27:143 0.000122062
187 *9:216 *27:143 0.000130593
188 *10:13 *27:9 0.000512186
189 *10:145 *2898:B 0.000315165
190 *11:199 *27:57 3.80079e-05
191 *11:199 *27:66 0.000564335
192 *12:9 *27:9 0
193 *12:219 *27:29 6.595e-05
194 *12:219 *27:57 0.000132349
195 *12:230 *27:57 0.00045814
196 *15:51 *2431:B 5.58941e-05
197 *15:51 *27:178 0.000308351
198 *15:60 *27:178 1.02504e-05
199 *16:195 *27:89 0.000934011
200 *16:212 *27:89 5.41794e-05
201 *19:88 *27:89 0.000697212
202 *19:286 *2697:B 2.59355e-05
203 *20:194 *27:29 0.000105845
204 *20:209 *27:29 0.000587734
205 *20:209 *27:57 0.000232005
206 *20:232 *27:112 0.000121573
207 *20:244 *2697:B 9.91086e-05
208 *21:149 *27:57 5.16736e-05
209 *21:149 *27:66 0.000607122
210 *22:5 *27:9 0.000375849
211 *22:48 *2898:B 0.000230475
212 *22:61 *2898:B 9.90431e-05
213 *26:65 *27:172 0
214 *26:121 *27:162 0
215 *26:121 *27:172 0
216 *26:152 *27:160 0
217 *26:196 *27:149 0
218 *26:228 *27:143 0.000185212
*RES
1 yN[4] *27:9 15.6368 
2 *27:9 *27:29 38.8036 
3 *27:29 *27:31 0.428571 
4 *27:31 *2898:B 23.55 
5 *27:31 *2831:B 9.3 
6 *27:29 *27:57 18.25 
7 *27:57 *2832:B 9.3 
8 *27:57 *27:66 10.375 
9 *27:66 *2764:B 16.05 
10 *27:66 *27:81 7.20447 
11 *27:81 *27:89 49.8118 
12 *27:89 *2632:B 9.3 
13 *27:81 *27:98 4.39387 
14 *27:98 *27:112 21.4375 
15 *27:112 *27:116 4.14286 
16 *27:116 *2697:B 21.0857 
17 *27:116 *27:143 29.7321 
18 *27:143 *27:149 33.2143 
19 *27:149 *2498:B 14.3357 
20 *27:149 *27:160 12.5714 
21 *27:160 *27:162 7.10714 
22 *27:162 *27:172 26.4464 
23 *27:172 *27:178 9.10714 
24 *27:178 *2431:B 14.5321 
25 *27:178 *27:191 16.9464 
26 *27:191 *27:197 12.0179 
27 *27:197 *2547:B 13.8 
28 *27:197 *27:218 25.6964 
29 *27:218 *2558:B 20.4964 
30 *27:218 *3224:B 16.05 
31 *27:191 *3213:B 10.5679 
32 *27:172 *2432:B 9.72857 
33 *27:162 *2499:B 15.1571 
34 *27:160 *27:263 4.5 
35 *27:263 *2564:B 27.2464 
36 *27:263 *2565:B 9.3 
37 *27:143 *2631:B 9.3 
38 *27:112 *2698:B 10.6571 
39 *27:98 *2765:B 14.0768 
40 *27:9 *2897:B 18.8893 
*END

*D_NET *28 0.0548779
*CONN
*P yN[5] I
*I *2838:B I *D sky130_fd_sc_hd__and2_1
*I *2904:B I *D sky130_fd_sc_hd__and2_1
*I *2839:B I *D sky130_fd_sc_hd__and2_1
*I *2638:B I *D sky130_fd_sc_hd__and2_1
*I *2571:B I *D sky130_fd_sc_hd__and2_1
*I *2505:B I *D sky130_fd_sc_hd__and2_1
*I *2506:B I *D sky130_fd_sc_hd__and2_1
*I *2439:B I *D sky130_fd_sc_hd__and2_1
*I *2438:B I *D sky130_fd_sc_hd__and2_1
*I *3291:B I *D sky130_fd_sc_hd__and2_1
*I *3280:B I *D sky130_fd_sc_hd__and2_1
*I *2614:B I *D sky130_fd_sc_hd__and2_1
*I *2625:B I *D sky130_fd_sc_hd__and2_1
*I *2572:B I *D sky130_fd_sc_hd__and2_1
*I *2639:B I *D sky130_fd_sc_hd__and2_1
*I *2705:B I *D sky130_fd_sc_hd__and2_1
*I *2704:B I *D sky130_fd_sc_hd__and2_1
*I *2772:B I *D sky130_fd_sc_hd__and2_1
*I *2905:B I *D sky130_fd_sc_hd__and2_1
*I *2771:B I *D sky130_fd_sc_hd__and2_1
*CAP
1 yN[5] 0.000777302
2 *2838:B 0.000492056
3 *2904:B 0
4 *2839:B 0
5 *2638:B 0.000130512
6 *2571:B 0.00012868
7 *2505:B 0.000706378
8 *2506:B 0
9 *2439:B 0.00035063
10 *2438:B 0
11 *3291:B 1.42796e-05
12 *3280:B 0
13 *2614:B 0
14 *2625:B 0.00150355
15 *2572:B 0.00011936
16 *2639:B 0
17 *2705:B 0.000432196
18 *2704:B 0
19 *2772:B 0.000552249
20 *2905:B 0.00141102
21 *2771:B 3.21286e-05
22 *28:229 0.000667072
23 *28:184 0.00172822
24 *28:178 0.000486527
25 *28:172 0.00105655
26 *28:164 0.00121293
27 *28:152 0.00123331
28 *28:146 0.00192875
29 *28:133 0.00143424
30 *28:123 0.00112582
31 *28:119 0.000916011
32 *28:97 0.000452182
33 *28:95 0.000762017
34 *28:84 0.00118177
35 *28:63 0.0021297
36 *28:46 0.00234553
37 *28:44 0.00114683
38 *28:23 0.00199259
39 *28:15 0.00103827
40 *28:9 0.00133198
41 *2439:B *37:121 4.46186e-06
42 *2505:B *2444:B 4.57352e-05
43 *2505:B *1196:12 7.52646e-06
44 *2571:B *2964:A2 0
45 *2572:B *2575:A 6.05161e-06
46 *2572:B *1429:10 5.74499e-06
47 *2625:B *2658:A 0.000142856
48 *2625:B *3257:A 2.59355e-05
49 *2625:B *3316:B 2.28499e-05
50 *2625:B *390:6 7.3237e-05
51 *2625:B *1204:6 7.63411e-05
52 *2638:B *2641:B 5.01117e-05
53 *2638:B *2977:B1 0
54 *2638:B *38:113 9.41642e-05
55 *2638:B *113:10 0
56 *2638:B *1124:12 0.000168217
57 *2705:B *2649:A 0
58 *2705:B *2706:B 0
59 *2705:B *2708:A 0.000149911
60 *2705:B *38:107 0
61 *2705:B *800:12 0
62 *2705:B *858:10 0.000150625
63 *2771:B *38:34 5.49544e-05
64 *2772:B *2887:A 0
65 *2772:B *35:220 0
66 *2772:B *206:14 0.00111364
67 *2772:B *1146:16 0
68 *2838:B *2841:B 5.71472e-05
69 *2838:B *516:12 0
70 *2838:B *1048:8 6.74911e-05
71 *2905:B *1969:A 0.000113887
72 *2905:B *2093:A 0
73 *2905:B *2096:B1 0
74 *2905:B *2376:B 0
75 *2905:B *2654:B 0
76 *2905:B *2661:A 0.00010326
77 *2905:B *2663:B 2.84494e-05
78 *2905:B *29:108 0
79 *2905:B *38:307 0.000271352
80 *2905:B *41:243 0.000177948
81 *2905:B *42:45 3.69697e-05
82 *2905:B *152:8 0
83 *2905:B *211:12 0
84 *2905:B *279:8 0
85 *2905:B *514:14 0
86 *2905:B *811:12 0
87 *2905:B *817:12 0.000127101
88 *2905:B *1151:12 0
89 *3291:B *3324:B 5.52302e-05
90 *28:9 *29:9 0.000470725
91 *28:9 *37:13 6.55095e-05
92 *28:9 *38:295 0
93 *28:15 *38:30 2.28598e-05
94 *28:44 *1151:12 0
95 *28:44 *1158:10 1.91418e-05
96 *28:46 *514:14 0
97 *28:46 *1151:12 0
98 *28:46 *1158:10 0
99 *28:63 *2654:B 2.89114e-05
100 *28:63 *2887:A 4.8843e-05
101 *28:63 *2887:B 3.18676e-05
102 *28:84 *2887:A 3.69047e-06
103 *28:84 *29:216 0.000446544
104 *28:84 *1035:12 2.72859e-05
105 *28:84 *1137:14 1.97381e-05
106 *28:95 *29:216 0.000566259
107 *28:119 *2641:A 6.05161e-06
108 *28:119 *2642:A 0.000312222
109 *28:119 *1426:18 0.000167998
110 *28:123 *2977:B1 0
111 *28:123 *38:115 0
112 *28:123 *113:10 0
113 *28:123 *685:12 9.45762e-05
114 *28:123 *739:12 0.000158426
115 *28:123 *1420:12 0.000340781
116 *28:133 *2515:A 0.000100831
117 *28:133 *2575:A 3.98559e-05
118 *28:133 *2575:B 5.52238e-05
119 *28:133 *38:142 0.000151333
120 *28:133 *113:10 0.000273564
121 *28:133 *1199:18 0.00031995
122 *28:133 *1420:12 0
123 *28:133 *1429:10 3.1521e-05
124 *28:146 *2575:B 1.76039e-05
125 *28:146 *2628:B 0
126 *28:146 *2635:A 5.33882e-05
127 *28:146 *2693:B 0.000127446
128 *28:146 *2957:B1 4.49293e-05
129 *28:146 *1101:10 1.52978e-05
130 *28:146 *1199:18 0
131 *28:152 *2957:B1 0.000262948
132 *28:152 *38:148 5.03772e-05
133 *28:152 *1101:10 7.50601e-05
134 *28:164 *2441:A 0
135 *28:164 *2441:B 3.93942e-05
136 *28:164 *2946:B1 9.25014e-06
137 *28:164 *38:148 2.94103e-05
138 *28:164 *38:159 0
139 *28:164 *613:10 2.28904e-05
140 *28:164 *1093:18 5.52238e-05
141 *28:172 *1950:B 0.000104974
142 *28:172 *2944:A 0
143 *28:172 *3235:B 0.000380002
144 *28:172 *3357:B 0.000143188
145 *28:172 *37:227 0.000536795
146 *28:172 *38:171 0
147 *28:172 *1270:12 0
148 *28:178 *3269:B 0.00018372
149 *28:178 *38:171 0
150 *28:178 *38:177 0
151 *28:178 *1259:14 0.00012488
152 *28:184 *2603:B 9.45734e-05
153 *28:184 *2647:A 9.60875e-05
154 *28:184 *2647:B 0.000184745
155 *28:184 *3269:B 1.69961e-05
156 *28:184 *1463:10 6.25878e-05
157 *28:229 *2509:B 0.000140933
158 *28:229 *38:148 9.61553e-05
159 *28:229 *38:159 2.89016e-05
160 *2394:A *2625:B 0.000529356
161 *2437:A *2439:B 0.000218404
162 *2438:A *28:164 0.000175251
163 *2438:A *28:172 0.00010096
164 *2500:A *2439:B 1.33343e-05
165 *2507:A *28:229 8.43535e-06
166 *2547:A *2625:B 2.8266e-06
167 *2571:A *2571:B 0.000139907
168 *2571:A *28:133 0.000266479
169 *2572:A *2572:B 1.92789e-05
170 *2603:A *28:184 5.52302e-05
171 *2624:B *28:146 1.50181e-05
172 *2639:A *28:95 3.18676e-05
173 *2639:A *28:97 1.04232e-05
174 *2639:A *28:119 7.43578e-06
175 *2650:A *2905:B 0.000150782
176 *2663:A *2905:B 6.8646e-06
177 *2692:B *28:146 0.000187718
178 *2709:A *28:44 3.14649e-05
179 *2712:A *2772:B 2.12952e-05
180 *2772:A *2772:B 0.000148196
181 *2830:A *28:44 0.000693165
182 *2831:A *28:44 0.000155033
183 *2837:A *28:9 0.000174867
184 *2838:A *2838:B 0.000315158
185 *2840:A *28:44 0
186 *2883:A *2772:B 0
187 *2884:A *2772:B 0
188 *2884:A *28:63 3.18676e-05
189 *2884:B *2772:B 0
190 *2896:A *2838:B 6.12813e-05
191 *3280:A *28:184 9.71197e-05
192 *3:204 *2625:B 2.66026e-05
193 *3:206 *2625:B 7.04631e-05
194 *6:66 *2439:B 0.000172845
195 *6:77 *2439:B 1.19402e-05
196 *6:77 *28:164 0
197 *6:77 *28:229 1.46624e-05
198 *6:98 *2505:B 6.97972e-05
199 *7:111 *28:146 0.000401131
200 *7:111 *28:152 0.000100735
201 *7:111 *28:164 0
202 *7:247 *2905:B 0
203 *8:115 *2705:B 1.76039e-05
204 *8:123 *28:84 0.000791541
205 *8:123 *28:95 0.000746844
206 *8:131 *28:84 0.000961599
207 *8:158 *2905:B 0
208 *8:175 *2905:B 0
209 *8:216 *2705:B 8.68569e-05
210 *8:238 *2638:B 9.41642e-05
211 *8:280 *28:146 0.00018553
212 *9:13 *28:23 0
213 *9:21 *28:23 0
214 *9:102 *28:23 0
215 *9:168 *2705:B 7.77652e-05
216 *11:142 *28:9 5.15925e-05
217 *11:144 *28:44 0.000118871
218 *11:161 *28:44 7.8327e-05
219 *12:13 *28:15 5.33005e-05
220 *12:22 *2838:B 3.17148e-05
221 *12:22 *28:9 2.31791e-05
222 *12:22 *28:23 2.04825e-05
223 *12:24 *28:9 0.000677387
224 *12:30 *28:9 0.000182409
225 *12:124 *2905:B 0.000301143
226 *12:219 *28:15 5.52302e-05
227 *13:218 *2625:B 0.000270243
228 *14:62 *28:178 4.46186e-06
229 *14:77 *3291:B 5.33005e-05
230 *14:77 *28:172 3.17148e-05
231 *14:77 *28:178 0.000188563
232 *14:83 *28:172 2.49484e-05
233 *15:60 *2439:B 5.80706e-06
234 *16:144 *2439:B 0.000259019
235 *16:159 *2439:B 1.69115e-05
236 *16:159 *28:229 1.87955e-05
237 *16:167 *2505:B 0.000739586
238 *17:146 *28:152 0.000104611
239 *17:167 *28:146 0.00036083
240 *17:178 *28:146 8.15095e-05
241 *18:125 *28:95 1.02936e-05
242 *18:140 *28:119 0.000231329
243 *19:237 *28:44 0.000119449
244 *19:286 *2705:B 0.00014285
245 *20:194 *2771:B 1.90936e-05
246 *20:215 *2772:B 0.000404903
247 *21:9 *28:9 4.16437e-05
248 *21:15 *28:9 0.000102725
249 *21:271 *28:9 0.000120313
250 *22:5 *28:9 7.621e-05
251 *22:26 *28:23 2.06178e-05
252 *22:127 *28:9 0.000100137
253 *26:71 *2625:B 0.000621848
254 *27:9 *28:9 0.000385854
255 *27:29 *2771:B 5.33005e-05
256 *27:89 *2705:B 0.000320995
*RES
1 yN[5] *28:9 17.0935 
2 *28:9 *28:15 5.875 
3 *28:15 *28:23 9.74719 
4 *28:23 *2771:B 18.0225 
5 *28:23 *28:44 15.244 
6 *28:44 *28:46 2.85714 
7 *28:46 *2905:B 43.4607 
8 *28:46 *28:63 16.125 
9 *28:63 *2772:B 33.6036 
10 *28:63 *28:84 29.2857 
11 *28:84 *2704:B 9.3 
12 *28:84 *28:95 13.4107 
13 *28:95 *28:97 0.428571 
14 *28:97 *2705:B 29.4964 
15 *28:97 *2639:B 9.3 
16 *28:95 *28:119 13.6607 
17 *28:119 *28:123 14.3393 
18 *28:123 *28:133 23.1071 
19 *28:133 *2572:B 10.9786 
20 *28:133 *28:146 23.1429 
21 *28:146 *28:152 13.8036 
22 *28:152 *28:164 17.0179 
23 *28:164 *28:172 22.6607 
24 *28:172 *28:178 11.25 
25 *28:178 *28:184 5.91071 
26 *28:184 *2625:B 41.1036 
27 *28:184 *2614:B 9.3 
28 *28:178 *3280:B 9.3 
29 *28:172 *3291:B 14.3357 
30 *28:164 *2438:B 9.3 
31 *28:152 *28:229 9.05357 
32 *28:229 *2439:B 24.175 
33 *28:229 *2506:B 13.8 
34 *28:146 *2505:B 33.1929 
35 *28:123 *2571:B 11.9071 
36 *28:119 *2638:B 17.3 
37 *28:44 *2839:B 13.8 
38 *28:15 *2904:B 9.3 
39 *28:9 *2838:B 23.7286 
*END

*D_NET *29 0.0531555
*CONN
*P yN[6] I
*I *2710:B I *D sky130_fd_sc_hd__and2_1
*I *2711:B I *D sky130_fd_sc_hd__and2_1
*I *2644:B I *D sky130_fd_sc_hd__and2_1
*I *2645:B I *D sky130_fd_sc_hd__and2_1
*I *2577:B I *D sky130_fd_sc_hd__and2_1
*I *2511:B I *D sky130_fd_sc_hd__and2_1
*I *2512:B I *D sky130_fd_sc_hd__and2_1
*I *2444:B I *D sky130_fd_sc_hd__and2_1
*I *2578:B I *D sky130_fd_sc_hd__and2_1
*I *2445:B I *D sky130_fd_sc_hd__and2_1
*I *3357:B I *D sky130_fd_sc_hd__and2_1
*I *3346:B I *D sky130_fd_sc_hd__and2_1
*I *2680:B I *D sky130_fd_sc_hd__and2_1
*I *2691:B I *D sky130_fd_sc_hd__and2_1
*I *2911:B I *D sky130_fd_sc_hd__and2_1
*I *2845:B I *D sky130_fd_sc_hd__and2_1
*I *2778:B I *D sky130_fd_sc_hd__and2_1
*I *2844:B I *D sky130_fd_sc_hd__and2_1
*I *2777:B I *D sky130_fd_sc_hd__and2_1
*I *2910:B I *D sky130_fd_sc_hd__and2_1
*CAP
1 yN[6] 0.000289523
2 *2710:B 0
3 *2711:B 0.000418612
4 *2644:B 0
5 *2645:B 0.000127789
6 *2577:B 5.57669e-05
7 *2511:B 2.91597e-05
8 *2512:B 0
9 *2444:B 0.000828536
10 *2578:B 0.000286996
11 *2445:B 0
12 *3357:B 0.000199765
13 *3346:B 5.40981e-05
14 *2680:B 0.000217493
15 *2691:B 3.85689e-05
16 *2911:B 0
17 *2845:B 8.37306e-05
18 *2778:B 0
19 *2844:B 0
20 *2777:B 0
21 *2910:B 2.52229e-05
22 *29:247 0.00132787
23 *29:241 0.000698021
24 *29:239 0.000628354
25 *29:220 0.0009146
26 *29:216 0.00168564
27 *29:206 0.00179945
28 *29:198 0.00183284
29 *29:159 0.000925029
30 *29:140 0.00117699
31 *29:129 0.000841581
32 *29:125 0.00245766
33 *29:108 0.00312862
34 *29:89 0.00168284
35 *29:81 0.00218399
36 *29:62 0.00113369
37 *29:52 0.000530815
38 *29:37 0.000609173
39 *29:24 0.000543222
40 *29:9 0.000468363
41 *2444:B *1100:10 0
42 *2444:B *1199:14 0.000136982
43 *2578:B *3289:B 0
44 *2578:B *746:8 0
45 *2578:B *1136:16 0.000129913
46 *2645:B *38:107 1.02504e-05
47 *2645:B *1384:10 0.000236099
48 *2680:B *2714:B 5.56943e-05
49 *2691:B *2725:B 9.35228e-06
50 *2711:B *2828:B 0.000101545
51 *2711:B *38:91 3.78516e-05
52 *2711:B *206:14 0
53 *2711:B *1035:12 0.0003335
54 *3357:B *1961:B 5.71472e-05
55 *3357:B *1336:6 5.52302e-05
56 *29:9 *37:13 0.000483633
57 *29:37 *2781:B 4.87953e-05
58 *29:37 *2848:B 5.80706e-06
59 *29:37 *3160:B 9.25014e-06
60 *29:37 *516:12 4.84284e-05
61 *29:37 *516:22 6.10018e-06
62 *29:52 *2843:B 3.51368e-05
63 *29:52 *39:35 0.000191058
64 *29:52 *39:46 0.000206535
65 *29:62 *1371:16 0
66 *29:81 *2374:B 1.63058e-05
67 *29:81 *2782:A 4.04817e-05
68 *29:81 *514:14 0.000884231
69 *29:81 *870:10 7.80714e-06
70 *29:81 *931:8 5.33005e-05
71 *29:81 *1156:10 3.48139e-05
72 *29:81 *1159:14 0.000388139
73 *29:89 *2374:B 0
74 *29:89 *2376:A 0.000179656
75 *29:89 *2667:A 0.000154762
76 *29:89 *2667:B 0.000153047
77 *29:89 *32:155 0.000223592
78 *29:108 *2846:B 8.36642e-05
79 *29:108 *2912:B 0.000181589
80 *29:108 *2915:A 3.5707e-05
81 *29:108 *211:12 0.00130249
82 *29:125 *1975:A 8.02593e-05
83 *29:125 *1003:10 0.000526463
84 *29:129 *2449:A 3.30352e-05
85 *29:129 *2449:B 2.89016e-05
86 *29:129 *2725:B 5.76121e-05
87 *29:140 *2725:A 2.95726e-05
88 *29:140 *2725:B 7.37347e-05
89 *29:140 *1270:12 0.000356028
90 *29:159 *2747:B 0
91 *29:198 *2593:B 0.000891374
92 *29:198 *2595:B 8.39e-05
93 *29:198 *2655:A 0
94 *29:198 *2661:A 9.80173e-05
95 *29:198 *2828:B 2.8034e-05
96 *29:198 *30:73 2.78729e-05
97 *29:198 *30:79 1.00375e-05
98 *29:198 *41:256 0.000655748
99 *29:198 *206:14 9.6422e-05
100 *29:198 *697:14 0.000437756
101 *29:198 *757:16 0.00049041
102 *29:198 *1087:12 0
103 *29:206 *2828:B 5.52302e-05
104 *29:220 *686:12 4.25619e-05
105 *29:220 *1384:10 0.000385717
106 *29:239 *3275:B 0.000108603
107 *29:239 *740:6 5.17614e-05
108 *29:239 *1136:16 1.35455e-05
109 *29:239 *1418:6 0.000137983
110 *29:239 *1430:16 0.000105449
111 *29:241 *1430:16 0.000585649
112 *29:247 *39:174 9.90431e-05
113 *29:247 *1022:16 0.000243054
114 *29:247 *1430:16 0.000531943
115 *1972:A *29:159 0.000397924
116 *2443:A *29:125 4.00276e-06
117 *2504:A *2444:B 0.000149911
118 *2505:B *2444:B 4.57352e-05
119 *2510:A *2511:B 1.92905e-05
120 *2512:A *29:247 5.33005e-05
121 *2577:A *2577:B 1.02504e-05
122 *2577:A *29:241 0.000177234
123 *2651:A *29:81 7.33494e-06
124 *2702:A *2691:B 0
125 *2702:A *29:129 2.97829e-05
126 *2711:A *2711:B 5.7903e-06
127 *2778:A *29:62 5.49544e-05
128 *2843:A *29:52 0.000114542
129 *2845:A *2845:B 3.63587e-05
130 *2905:B *29:108 0
131 *2910:A *2910:B 5.52238e-05
132 *2911:A *29:125 2.19513e-05
133 *2918:A *29:108 0
134 *3346:A *29:159 2.28598e-05
135 *4:160 *2680:B 0
136 *4:171 *2680:B 0
137 *4:171 *29:159 0
138 *6:85 *2444:B 0.000126629
139 *6:98 *2444:B 0
140 *6:107 *2444:B 0
141 *7:111 *29:247 0.000426522
142 *7:124 *2577:B 0
143 *7:124 *29:241 0.000203777
144 *7:124 *29:247 9.74684e-05
145 *7:213 *2578:B 8.08022e-05
146 *7:225 *29:198 5.84171e-05
147 *8:100 *2444:B 7.22614e-05
148 *8:115 *2645:B 0
149 *8:115 *29:220 0
150 *8:123 *29:206 9.71197e-05
151 *8:131 *29:198 0.000195562
152 *8:131 *29:206 0.000870549
153 *8:158 *29:89 0.000379092
154 *8:175 *29:81 0.000128462
155 *8:175 *29:89 4.53593e-05
156 *8:216 *2645:B 0
157 *9:13 *29:52 0.000143375
158 *9:21 *29:62 1.90936e-05
159 *9:60 *29:89 0.000343217
160 *9:78 *29:108 0.000888361
161 *10:13 *29:24 9.71123e-06
162 *10:24 *29:24 5.33005e-05
163 *10:24 *29:37 0.000289001
164 *10:137 *29:62 0.00014348
165 *11:180 *2711:B 0.00051407
166 *12:24 *29:37 0.00017309
167 *13:214 *2680:B 8.91534e-05
168 *13:214 *29:159 0.000109795
169 *13:218 *2680:B 9.14882e-05
170 *15:184 *29:129 0.00026032
171 *15:195 *29:125 0.00107695
172 *16:180 *2444:B 0.000760065
173 *16:195 *29:247 0.000357054
174 *17:167 *29:247 0.000223599
175 *17:178 *2577:B 1.99099e-05
176 *17:206 *2577:B 7.05143e-06
177 *17:206 *29:239 0
178 *18:65 *29:198 1.74352e-05
179 *18:98 *29:198 0
180 *18:109 *29:216 3.92757e-05
181 *19:88 *29:247 0.000124479
182 *19:209 *29:81 0
183 *19:222 *29:81 0
184 *20:15 *29:9 0.000259087
185 *20:15 *29:24 0.000213523
186 *20:177 *29:52 0.00057949
187 *21:138 *2711:B 2.26327e-05
188 *22:207 *29:108 5.71472e-05
189 *22:207 *29:125 5.52238e-05
190 *24:291 *29:125 0.00107234
191 *27:9 *29:9 0
192 *27:9 *29:24 0
193 *28:9 *29:9 0.000470725
194 *28:84 *29:216 0.000446544
195 *28:95 *29:216 0.000566259
196 *28:172 *3357:B 0.000143188
*RES
1 yN[6] *29:9 8.03223 
2 *29:9 *2910:B 14.3357 
3 *29:9 *29:24 7.89286 
4 *29:24 *2777:B 9.3 
5 *29:24 *29:37 16.7143 
6 *29:37 *2844:B 9.3 
7 *29:37 *29:52 8.82143 
8 *29:52 *29:62 13.9643 
9 *29:62 *2778:B 9.3 
10 *29:62 *29:81 23.2143 
11 *29:81 *29:89 17.7321 
12 *29:89 *2845:B 10.675 
13 *29:89 *29:108 39.4464 
14 *29:108 *2911:B 9.3 
15 *29:108 *29:125 42.5536 
16 *29:125 *29:129 9.48214 
17 *29:129 *2691:B 10.0321 
18 *29:129 *29:140 10.7857 
19 *29:140 *2680:B 18.175 
20 *29:140 *29:159 14.8929 
21 *29:159 *3346:B 10.3357 
22 *29:159 *3357:B 21.7286 
23 *29:125 *2445:B 9.3 
24 *29:81 *29:198 35.6429 
25 *29:198 *29:206 15.0357 
26 *29:206 *29:216 32.3214 
27 *29:216 *29:220 9.48214 
28 *29:220 *2578:B 21.925 
29 *29:220 *29:239 10.6339 
30 *29:239 *29:241 7.5625 
31 *29:241 *29:247 22.5357 
32 *29:247 *2444:B 37.6393 
33 *29:247 *2512:B 9.3 
34 *29:241 *2511:B 14.3357 
35 *29:239 *2577:B 15.3268 
36 *29:216 *2645:B 16.9607 
37 *29:206 *2644:B 9.3 
38 *29:198 *2711:B 23.8714 
39 *29:52 *2710:B 9.3 
*END

*D_NET *30 0.0425919
*CONN
*P yN[7] I
*I *2718:B I *D sky130_fd_sc_hd__and2_1
*I *2585:B I *D sky130_fd_sc_hd__and2_1
*I *2584:B I *D sky130_fd_sc_hd__and2_1
*I *2652:B I *D sky130_fd_sc_hd__and2_1
*I *2519:B I *D sky130_fd_sc_hd__and2_1
*I *2518:B I *D sky130_fd_sc_hd__and2_1
*I *2451:B I *D sky130_fd_sc_hd__and2_1
*I *2452:B I *D sky130_fd_sc_hd__and2_1
*I *2719:B I *D sky130_fd_sc_hd__and2_1
*I *2852:B I *D sky130_fd_sc_hd__and2_1
*I *2918:B I *D sky130_fd_sc_hd__and2_1
*I *1994:B I *D sky130_fd_sc_hd__and2_1
*I *2758:B I *D sky130_fd_sc_hd__and2_1
*I *2747:B I *D sky130_fd_sc_hd__and2_1
*I *1983:B I *D sky130_fd_sc_hd__and2_1
*I *2785:B I *D sky130_fd_sc_hd__and2_1
*I *2651:B I *D sky130_fd_sc_hd__and2_1
*I *2851:B I *D sky130_fd_sc_hd__and2_1
*I *2917:B I *D sky130_fd_sc_hd__and2_1
*I *2784:B I *D sky130_fd_sc_hd__and2_1
*CAP
1 yN[7] 0.000192343
2 *2718:B 2.22847e-05
3 *2585:B 0.000342996
4 *2584:B 0.000123336
5 *2652:B 3.9183e-05
6 *2519:B 5.15193e-05
7 *2518:B 9.52229e-05
8 *2451:B 0
9 *2452:B 0.000176891
10 *2719:B 0
11 *2852:B 3.39029e-05
12 *2918:B 0.000507481
13 *1994:B 0
14 *2758:B 9.7367e-05
15 *2747:B 0.000219673
16 *1983:B 0
17 *2785:B 0.000177417
18 *2651:B 0
19 *2851:B 0
20 *2917:B 0.00073437
21 *2784:B 0
22 *30:252 0.00131432
23 *30:221 0.000265376
24 *30:212 0.000172836
25 *30:197 0.00201327
26 *30:186 0.00180886
27 *30:131 0.000517274
28 *30:120 0.00145972
29 *30:106 0.00127531
30 *30:104 0.000896295
31 *30:102 0.000763349
32 *30:89 0.00107087
33 *30:83 0.000876695
34 *30:79 0.000479977
35 *30:73 0.00182742
36 *30:60 0.00181275
37 *30:48 0.00159299
38 *30:22 0.000915672
39 *30:20 0.000919281
40 *30:11 0.000320725
41 *2452:B *2455:A 5.71472e-05
42 *2452:B *1384:8 2.95726e-05
43 *2518:B *2454:B 4.1331e-06
44 *2518:B *40:240 0
45 *2584:B *2587:A 0
46 *2584:B *2990:B1 5.83304e-05
47 *2584:B *1134:10 8.32242e-05
48 *2584:B *1137:14 0.000128154
49 *2585:B *2989:A 1.39841e-05
50 *2585:B *2990:A2 0.000229456
51 *2585:B *1136:16 0.000227532
52 *2747:B *2736:B 0.000201127
53 *2747:B *2769:B 0.00017096
54 *2758:B *2791:B 2.28598e-05
55 *2785:B *41:104 0.000175882
56 *2852:B *1003:10 2.59355e-05
57 *2917:B *2794:B 0.00010326
58 *2917:B *41:11 0.000373725
59 *2917:B *41:30 5.92447e-05
60 *2918:B *2732:B 0.000344627
61 *2918:B *2733:B 2.30741e-05
62 *2918:B *884:12 5.71472e-05
63 *30:11 *2783:B 2.11419e-05
64 *30:11 *38:5 0.000492586
65 *30:11 *38:295 1.12406e-05
66 *30:11 *39:9 0.000493583
67 *30:48 *3097:A2 4.43256e-05
68 *30:48 *936:12 0.00039015
69 *30:60 *2721:A 5.47047e-05
70 *30:60 *2721:B 5.71472e-05
71 *30:60 *3010:A 0.000113073
72 *30:60 *3010:B 2.95726e-05
73 *30:60 *40:170 0.000103253
74 *30:60 *757:16 0.000564194
75 *30:60 *870:10 3.32983e-05
76 *30:73 *2595:B 1.40306e-05
77 *30:73 *2655:A 0
78 *30:73 *3000:A 0.00010096
79 *30:73 *3001:B 0.000264433
80 *30:73 *40:170 1.97695e-05
81 *30:73 *697:14 5.52238e-05
82 *30:73 *752:10 2.19778e-05
83 *30:79 *2595:A 5.71472e-05
84 *30:79 *2595:B 0.00015304
85 *30:79 *752:10 3.5707e-05
86 *30:79 *1087:12 0
87 *30:83 *1087:12 0.000769594
88 *30:89 *2461:B 2.84494e-05
89 *30:89 *31:196 0
90 *30:89 *577:12 0
91 *30:89 *631:10 6.09476e-05
92 *30:89 *1087:12 0.000903566
93 *30:102 *2149:B 0.000150618
94 *30:102 *2461:B 0.000100823
95 *30:102 *2855:B 4.46186e-06
96 *30:102 *31:140 7.6644e-05
97 *30:102 *31:151 0
98 *30:102 *31:157 0
99 *30:102 *31:196 9.91086e-05
100 *30:102 *32:207 0.000164554
101 *30:102 *41:112 0.000196057
102 *30:102 *577:12 0
103 *30:104 *2005:B 9.97744e-05
104 *30:104 *2855:B 7.2754e-05
105 *30:104 *32:207 0.000388139
106 *30:104 *40:51 0
107 *30:104 *41:124 0.000117144
108 *30:106 *2005:B 2.58997e-05
109 *30:120 *2005:B 1.28585e-05
110 *30:120 *620:10 7.69776e-06
111 *30:120 *1397:16 4.72917e-05
112 *30:131 *1397:16 0.000291809
113 *30:197 *2722:A 8.07313e-05
114 *30:197 *3285:A 5.33433e-05
115 *30:197 *3285:B 1.21258e-05
116 *30:197 *1429:10 6.20656e-05
117 *30:221 *2454:B 5.16852e-05
118 *30:221 *40:240 0
119 *30:252 *3300:B 9.0145e-05
120 *30:252 *3301:A 2.77143e-05
121 *30:252 *3304:B1 2.47833e-05
122 *30:252 *1137:14 2.72859e-05
123 *1983:A *30:120 4.08637e-05
124 *1994:A *2918:B 2.27416e-05
125 *2450:A *2452:B 0.000214043
126 *2450:A *30:212 4.57445e-05
127 *2450:A *30:221 4.1331e-06
128 *2452:A *2452:B 5.7661e-06
129 *2456:A *2785:B 0.000180764
130 *2456:A *30:89 0.000137983
131 *2517:A *2518:B 4.57445e-05
132 *2517:A *2519:B 3.18676e-05
133 *2520:A *2518:B 4.46186e-06
134 *2532:A *30:83 0.000173076
135 *2585:A *2585:B 2.97021e-05
136 *2650:A *30:60 1.18064e-05
137 *2732:A *2918:B 0.00040279
138 *2736:A *2747:B 5.52302e-05
139 *2784:A *30:20 0.000265453
140 *2846:A *2917:B 0.000174521
141 *2880:A *30:104 0.000194299
142 *2918:A *2918:B 5.71472e-05
143 *3346:A *2747:B 0
144 *3:140 *30:104 0.00034008
145 *3:140 *30:106 5.71242e-05
146 *3:140 *30:120 2.06178e-05
147 *3:196 *30:131 0.000310292
148 *4:189 *30:120 0.00027344
149 *6:107 *2452:B 0.000122632
150 *6:107 *30:212 5.97719e-05
151 *6:107 *30:221 8.66324e-05
152 *6:120 *2518:B 8.98897e-05
153 *6:120 *30:221 2.84494e-05
154 *7:215 *2584:B 5.52302e-05
155 *9:29 *30:48 5.45307e-05
156 *9:29 *30:60 2.75484e-05
157 *9:42 *30:48 0.000109444
158 *9:78 *2918:B 0.000133464
159 *10:26 *30:22 2.24646e-05
160 *10:26 *30:48 0.000125372
161 *10:32 *2917:B 0.000993401
162 *10:32 *30:22 0.000573587
163 *11:23 *2917:B 9.25014e-06
164 *11:23 *30:22 0.000587523
165 *11:23 *30:48 0.000116121
166 *12:101 *2917:B 0.00052642
167 *13:210 *2758:B 0.000129515
168 *13:210 *30:131 5.31902e-05
169 *14:237 *30:102 0
170 *14:237 *30:104 0
171 *16:212 *2519:B 5.71472e-05
172 *17:277 *2652:B 6.42095e-05
173 *17:277 *30:79 6.57914e-05
174 *18:44 *30:89 0
175 *18:59 *30:83 0.000289214
176 *18:59 *30:89 0.000702281
177 *18:98 *2652:B 0.000137983
178 *18:98 *30:79 0.000114733
179 *18:98 *30:83 0.000115072
180 *19:11 *30:11 1.94945e-05
181 *19:88 *30:186 5.33005e-05
182 *19:88 *30:197 0.000433628
183 *20:80 *2785:B 0.000684502
184 *20:80 *30:89 0.00012747
185 *29:159 *2747:B 0
186 *29:198 *30:73 2.78729e-05
187 *29:198 *30:79 1.00375e-05
*RES
1 yN[7] *30:11 9.56859 
2 *30:11 *2784:B 9.3 
3 *30:11 *30:20 7.08929 
4 *30:20 *30:22 7.71429 
5 *30:22 *2917:B 34.5143 
6 *30:22 *2851:B 13.8 
7 *30:20 *30:48 16.1429 
8 *30:48 *30:60 22.8214 
9 *30:60 *2651:B 9.3 
10 *30:60 *30:73 18.4107 
11 *30:73 *30:79 8.51786 
12 *30:79 *30:83 16.4643 
13 *30:83 *30:89 21.1607 
14 *30:89 *2785:B 16.3179 
15 *30:89 *30:102 13.7321 
16 *30:102 *30:104 11.9643 
17 *30:104 *30:106 0.732143 
18 *30:106 *30:120 18.3147 
19 *30:120 *1983:B 9.3 
20 *30:120 *30:131 5.60714 
21 *30:131 *2747:B 23.5143 
22 *30:131 *2758:B 11.4964 
23 *30:106 *1994:B 13.8 
24 *30:104 *2918:B 25.4607 
25 *30:102 *2852:B 14.3357 
26 *30:83 *30:186 5.03571 
27 *30:186 *2719:B 9.3 
28 *30:186 *30:197 27.5357 
29 *30:197 *2452:B 18.7464 
30 *30:197 *30:212 1.64286 
31 *30:212 *2451:B 13.8 
32 *30:212 *30:221 2.85714 
33 *30:221 *2518:B 16.05 
34 *30:221 *2519:B 14.8714 
35 *30:79 *2652:B 10.6571 
36 *30:73 *30:252 17.3571 
37 *30:252 *2584:B 21.6929 
38 *30:252 *2585:B 16.3179 
39 *30:48 *2718:B 9.72857 
*END

*D_NET *31 0.0444199
*CONN
*P yN[8] I
*I *2724:B I *D sky130_fd_sc_hd__and2_1
*I *2592:B I *D sky130_fd_sc_hd__and2_1
*I *2590:B I *D sky130_fd_sc_hd__and2_1
*I *2657:B I *D sky130_fd_sc_hd__and2_1
*I *2790:B I *D sky130_fd_sc_hd__and2_1
*I *2526:B I *D sky130_fd_sc_hd__and2_1
*I *2524:B I *D sky130_fd_sc_hd__and2_1
*I *2459:B I *D sky130_fd_sc_hd__and2_1
*I *2659:B I *D sky130_fd_sc_hd__and2_1
*I *2049:B I *D sky130_fd_sc_hd__and2_1
*I *2061:B I *D sky130_fd_sc_hd__and2_1
*I *2813:B I *D sky130_fd_sc_hd__and2_1
*I *2457:B I *D sky130_fd_sc_hd__and2_1
*I *2859:B I *D sky130_fd_sc_hd__and2_1
*I *2792:B I *D sky130_fd_sc_hd__and2_1
*I *2825:B I *D sky130_fd_sc_hd__and2_1
*I *2726:B I *D sky130_fd_sc_hd__and2_1
*I *2925:B I *D sky130_fd_sc_hd__and2_1
*I *2923:B I *D sky130_fd_sc_hd__and2_1
*I *2857:B I *D sky130_fd_sc_hd__and2_1
*CAP
1 yN[8] 0.000206146
2 *2724:B 2.38235e-05
3 *2592:B 0.000197835
4 *2590:B 2.23854e-05
5 *2657:B 0
6 *2790:B 0
7 *2526:B 0.000345081
8 *2524:B 0.000183634
9 *2459:B 0
10 *2659:B 0
11 *2049:B 0
12 *2061:B 0.000270958
13 *2813:B 0.000192492
14 *2457:B 0
15 *2859:B 1.1624e-05
16 *2792:B 2.23854e-05
17 *2825:B 0.000858593
18 *2726:B 2.23854e-05
19 *2925:B 0.000186698
20 *2923:B 0.000340193
21 *2857:B 0
22 *31:266 0.000639444
23 *31:257 0.00168848
24 *31:247 0.00135662
25 *31:218 0.000876651
26 *31:207 0.00104048
27 *31:196 0.00106012
28 *31:157 0.00127612
29 *31:151 0.00108934
30 *31:140 0.000307843
31 *31:136 0.00163662
32 *31:91 0.00159365
33 *31:85 0.00116078
34 *31:83 0.00185996
35 *31:70 0.00125227
36 *31:40 0.00102207
37 *31:32 0.00173497
38 *31:23 0.000564055
39 *31:15 0.000799185
40 *31:7 0.000700315
41 *2061:B *3237:A 2.06178e-05
42 *2524:B *2467:A 5.52302e-05
43 *2524:B *2467:B 0.00010096
44 *2524:B *637:12 5.52238e-05
45 *2524:B *1455:10 0.000152333
46 *2526:B *2468:B 0.000142856
47 *2526:B *637:12 5.52302e-05
48 *2592:B *2594:B 2.89114e-05
49 *2724:B *2723:B 0
50 *2726:B *42:132 0
51 *2813:B *2127:B 0.000575085
52 *2813:B *2924:A 4.58976e-05
53 *2813:B *2924:B 6.8646e-06
54 *2825:B *2795:A 7.16452e-05
55 *2825:B *2858:B 0.000136951
56 *2923:B *2927:B 5.71472e-05
57 *2925:B *2926:B 1.30413e-05
58 *2925:B *1379:12 0.000222878
59 *31:7 *40:5 0.000232623
60 *31:7 *41:7 0.000467656
61 *31:15 *2381:A 2.69641e-05
62 *31:15 *2384:B 0.000321378
63 *31:15 *2734:B 5.58875e-06
64 *31:15 *2796:B 0.000367389
65 *31:15 *42:9 0.000104528
66 *31:23 *2800:B 0.000153047
67 *31:23 *2861:B 0
68 *31:23 *41:30 0.000235314
69 *31:23 *41:40 0
70 *31:40 *2926:B 0.000197635
71 *31:40 *3234:B1 0.000148189
72 *31:40 *41:40 0.000534573
73 *31:40 *1379:12 5.93856e-05
74 *31:70 *2386:B 0.000139202
75 *31:70 *2388:A 5.74499e-06
76 *31:70 *2388:B 2.84109e-05
77 *31:70 *2390:B 7.32272e-05
78 *31:70 *525:14 7.56534e-05
79 *31:70 *530:10 7.59753e-06
80 *31:83 *2668:B 5.52238e-05
81 *31:83 *2729:A 0.000265453
82 *31:83 *42:132 6.87245e-05
83 *31:83 *279:8 4.75715e-05
84 *31:83 *525:14 1.92789e-05
85 *31:85 *2097:B 0
86 *31:85 *42:136 0.000161234
87 *31:85 *277:10 8.15843e-05
88 *31:85 *279:8 0.000247655
89 *31:91 *2034:A 0.000124521
90 *31:91 *2035:A1 0
91 *31:91 *42:136 1.59782e-05
92 *31:91 *42:138 6.41079e-05
93 *31:91 *42:140 2.8266e-06
94 *31:91 *213:8 9.90367e-05
95 *31:91 *215:8 0
96 *31:136 *42:120 7.6644e-05
97 *31:136 *42:132 0.00047369
98 *31:140 *41:112 7.83587e-05
99 *31:151 *2149:B 5.26091e-05
100 *31:151 *42:114 0.000227532
101 *31:151 *577:12 4.03318e-05
102 *31:196 *2461:B 2.39876e-05
103 *31:196 *41:112 0.00013651
104 *31:196 *41:175 0.000389154
105 *31:196 *41:192 1.02504e-05
106 *31:207 *2462:B 0
107 *31:207 *2984:B 2.8266e-06
108 *31:207 *3239:A 0
109 *31:207 *578:8 0
110 *31:218 *2466:B 5.59013e-05
111 *31:218 *2467:A 8.15939e-05
112 *31:218 *2468:B 5.80217e-05
113 *31:218 *3239:A 0
114 *31:218 *42:74 0
115 *31:218 *1455:10 0
116 *31:247 *2723:B 0
117 *31:257 *2375:A1 5.49544e-05
118 *31:257 *2375:A2 0.000310908
119 *31:257 *2728:A 4.43256e-05
120 *31:257 *2728:B 0.000265441
121 *31:257 *514:14 9.31893e-05
122 *31:266 *2661:B 3.18676e-05
123 *31:266 *811:12 0.000166416
124 *2105:A *31:151 0.00014209
125 *2127:A *2061:B 1.89507e-06
126 *2457:A *31:151 0.000225609
127 *2527:A *31:218 0
128 *2659:A *31:196 5.52238e-05
129 *2665:A *31:136 0.000444162
130 *2793:A *31:91 4.88546e-05
131 *2798:A *31:91 0.000315165
132 *2853:A *2859:B 5.52238e-05
133 *2853:A *31:91 9.34004e-05
134 *2857:A *31:23 0.00010096
135 *2912:A *31:83 3.34672e-05
136 *2912:A *31:85 0.000195124
137 *2919:A *2925:B 0.000272371
138 *2923:A *2923:B 0.00057972
139 *2923:A *31:40 4.22697e-05
140 *2930:A *2925:B 5.52238e-05
141 *3:151 *2825:B 0.000137437
142 *4:221 *2813:B 0.000545939
143 *7:237 *2592:B 0.000652858
144 *7:237 *31:266 5.52302e-05
145 *7:247 *31:266 0.000272371
146 *9:78 *31:85 0
147 *9:78 *31:91 0
148 *10:32 *31:15 9.41642e-05
149 *10:38 *31:15 5.33005e-05
150 *11:39 *31:15 0.00012297
151 *11:39 *31:23 5.41794e-05
152 *11:41 *31:23 0.000728672
153 *12:36 *31:40 0.00113925
154 *12:40 *2925:B 0
155 *12:42 *2925:B 0.000140933
156 *12:85 *31:40 5.69037e-05
157 *12:165 *31:207 0.000235174
158 *13:172 *2813:B 5.68795e-05
159 *14:237 *31:151 9.54798e-06
160 *14:237 *31:157 2.11419e-05
161 *14:248 *31:151 4.5147e-05
162 *15:227 *31:207 0.000206083
163 *15:262 *31:207 5.80706e-06
164 *15:262 *31:218 0.000208079
165 *16:214 *2526:B 5.03772e-05
166 *17:277 *2592:B 3.53387e-05
167 *17:283 *2592:B 0.000438788
168 *18:25 *31:151 0
169 *18:44 *31:196 5.33005e-05
170 *18:44 *31:207 0.000213172
171 *18:59 *31:196 1.19309e-05
172 *19:21 *31:257 2.32625e-05
173 *19:45 *31:136 0.000139907
174 *19:209 *31:257 0.000271794
175 *20:19 *2724:B 4.97876e-05
176 *20:19 *31:15 0.000971719
177 *20:19 *31:247 0.000105821
178 *20:21 *31:15 0.000177941
179 *20:44 *31:136 3.92757e-05
180 *21:62 *2859:B 5.52238e-05
181 *22:153 *2925:B 0.00044468
182 *22:235 *31:196 3.14193e-05
183 *22:235 *31:207 5.54432e-05
184 *22:252 *31:207 0.000176234
185 *30:89 *31:196 0
186 *30:102 *31:140 7.6644e-05
187 *30:102 *31:151 0
188 *30:102 *31:157 0
189 *30:102 *31:196 9.91086e-05
*RES
1 yN[8] *31:7 4.71973 
2 *31:7 *31:15 20.8304 
3 *31:15 *31:23 20.6071 
4 *31:23 *2857:B 9.3 
5 *31:23 *31:32 3.01786 
6 *31:32 *31:40 27.0714 
7 *31:40 *2923:B 16.4429 
8 *31:40 *2925:B 25.3893 
9 *31:32 *31:70 12.8929 
10 *31:70 *2726:B 9.72857 
11 *31:70 *31:83 9.25 
12 *31:83 *31:85 11.6607 
13 *31:85 *31:91 18.125 
14 *31:91 *2825:B 21.5143 
15 *31:91 *2792:B 9.72857 
16 *31:85 *2859:B 14.3357 
17 *31:83 *31:136 34.8929 
18 *31:136 *31:140 5.53571 
19 *31:140 *2457:B 9.3 
20 *31:140 *31:151 11.6607 
21 *31:151 *31:157 5.17512 
22 *31:157 *2813:B 25.5225 
23 *31:157 *2061:B 17.9662 
24 *31:151 *2049:B 13.8 
25 *31:136 *31:196 13.0714 
26 *31:196 *2659:B 9.3 
27 *31:196 *31:207 19.5357 
28 *31:207 *2459:B 13.8 
29 *31:207 *31:218 12.5179 
30 *31:218 *2524:B 22.425 
31 *31:218 *2526:B 15.1929 
32 *31:15 *2790:B 9.3 
33 *31:7 *31:247 1.49107 
34 *31:247 *31:257 25.3214 
35 *31:257 *2657:B 9.3 
36 *31:257 *31:266 8.76786 
37 *31:266 *2590:B 9.72857 
38 *31:266 *2592:B 16.425 
39 *31:247 *2724:B 14.5321 
*END

*D_NET *32 0.0424961
*CONN
*P yN[9] I
*I *2731:B I *D sky130_fd_sc_hd__and2_1
*I *2664:B I *D sky130_fd_sc_hd__and2_1
*I *2465:B I *D sky130_fd_sc_hd__and2_1
*I *2464:B I *D sky130_fd_sc_hd__and2_1
*I *2532:B I *D sky130_fd_sc_hd__and2_1
*I *2598:B I *D sky130_fd_sc_hd__and2_1
*I *2116:B I *D sky130_fd_sc_hd__and2_1
*I *2127:B I *D sky130_fd_sc_hd__and2_1
*I *2891:B I *D sky130_fd_sc_hd__and2_1
*I *2880:B I *D sky130_fd_sc_hd__and2_1
*I *2531:B I *D sky130_fd_sc_hd__and2_1
*I *2597:B I *D sky130_fd_sc_hd__and2_1
*I *2797:B I *D sky130_fd_sc_hd__and2_1
*I *2665:B I *D sky130_fd_sc_hd__and2_1
*I *2865:B I *D sky130_fd_sc_hd__and2_1
*I *2930:B I *D sky130_fd_sc_hd__and2_1
*I *2931:B I *D sky130_fd_sc_hd__and2_1
*I *2732:B I *D sky130_fd_sc_hd__and2_1
*I *2798:B I *D sky130_fd_sc_hd__and2_1
*I *2864:B I *D sky130_fd_sc_hd__and2_1
*CAP
1 yN[9] 0.000279241
2 *2731:B 0
3 *2664:B 0
4 *2465:B 0.000352415
5 *2464:B 3.58421e-05
6 *2532:B 0.000107736
7 *2598:B 0
8 *2116:B 0
9 *2127:B 0.000563799
10 *2891:B 0
11 *2880:B 0
12 *2531:B 0
13 *2597:B 1.20576e-05
14 *2797:B 8.37866e-05
15 *2665:B 0.00124518
16 *2865:B 0.000306852
17 *2930:B 1.40568e-05
18 *2931:B 4.04559e-05
19 *2732:B 0.000428334
20 *2798:B 2.23854e-05
21 *2864:B 0.000114761
22 *32:273 0.000570439
23 *32:258 0.000552188
24 *32:222 0.000859353
25 *32:207 0.000775208
26 *32:199 0.0015027
27 *32:193 0.0014129
28 *32:187 0.000851968
29 *32:174 0.000604468
30 *32:163 0.000756109
31 *32:155 0.00151867
32 *32:139 0.00133792
33 *32:52 0.00111288
34 *32:44 0.000997844
35 *32:38 0.000627398
36 *32:25 0.000479682
37 *32:23 0.000710073
38 *32:17 0.00218408
39 *32:11 0.00122673
40 *32:9 0.000998369
41 *2127:B *2160:B 5.33978e-05
42 *2127:B *2802:B 0
43 *2127:B *2924:A 5.33005e-05
44 *2127:B *2924:B 6.42242e-05
45 *2127:B *3237:A 0
46 *2127:B *578:8 0
47 *2532:B *2720:B 0.000173804
48 *2532:B *42:74 9.41642e-05
49 *2532:B *1087:12 0.000173804
50 *2597:B *2596:B 0
51 *2665:B *2385:A 1.14548e-05
52 *2665:B *2386:B 3.4792e-05
53 *2665:B *2391:A 3.42509e-05
54 *2665:B *2391:B 0.000105781
55 *2665:B *533:8 2.95726e-05
56 *2665:B *535:10 0.000511633
57 *2732:B *2733:B 0.0009753
58 *2732:B *2735:A 0.000188586
59 *2732:B *2735:B 5.71472e-05
60 *2732:B *42:157 3.14193e-05
61 *2864:B *2867:B 3.18676e-05
62 *2865:B *3234:A1 2.14757e-05
63 *2865:B *3234:A2 9.60875e-05
64 *2930:B *42:173 2.89016e-05
65 *2931:B *2932:B 1.04232e-05
66 *2931:B *2934:B 0.000144773
67 *2931:B *42:157 4.88637e-05
68 *32:9 zN[16] 0.00024974
69 *32:9 *41:7 0
70 *32:9 *42:9 0.000422693
71 *32:17 *2399:A 4.27657e-05
72 *32:17 *2401:A 1.91113e-05
73 *32:17 *535:10 0.000120439
74 *32:23 *2399:A 5.5782e-05
75 *32:23 *2863:B 0
76 *32:23 *41:40 0.00081683
77 *32:23 *1015:12 1.17968e-05
78 *32:23 *1075:14 0.000144038
79 *32:38 *2863:B 0
80 *32:38 *2867:A 3.34295e-05
81 *32:38 *2927:B 4.71941e-05
82 *32:38 *1075:14 0.000151333
83 *32:38 *1379:12 0.000215896
84 *32:44 *2863:B 0
85 *32:44 *2933:B 4.94851e-05
86 *32:44 *42:157 1.21289e-05
87 *32:44 *42:173 5.76121e-05
88 *32:44 *1379:12 0.000126609
89 *32:52 *2934:A 7.41433e-05
90 *32:52 *2934:B 0.000317082
91 *32:52 *42:157 0.000277996
92 *32:52 *1082:14 0.000228508
93 *32:155 *2380:A 3.13387e-05
94 *32:155 *3105:A 2.28598e-05
95 *32:155 *3105:B 0.00022266
96 *32:155 *41:11 0.000171375
97 *32:155 *41:243 2.59355e-05
98 *32:155 *42:45 0.000315709
99 *32:155 *524:12 0.00010326
100 *32:155 *1251:10 0.000139637
101 *32:163 *41:243 0.000102463
102 *32:163 *42:51 0.000458732
103 *32:174 *2530:B 0
104 *32:174 *2600:A 3.18676e-05
105 *32:174 *42:51 2.77289e-05
106 *32:174 *42:60 0.00028726
107 *32:187 *42:60 5.33005e-05
108 *32:187 *42:66 5.03694e-05
109 *32:187 *206:14 0.00031345
110 *32:193 *2024:B 0
111 *32:193 *2025:A 0.000136958
112 *32:193 *2026:A1 0.000151333
113 *32:193 *147:10 0
114 *32:193 *151:12 5.26091e-05
115 *32:193 *206:14 5.52238e-05
116 *32:199 *2599:B 0
117 *32:199 *2788:A 5.01117e-05
118 *32:199 *41:112 2.59355e-05
119 *32:199 *42:120 0
120 *32:199 *147:10 0
121 *32:199 *156:12 9.25014e-06
122 *32:207 *40:47 0
123 *32:207 *40:51 0
124 *32:207 *41:112 5.66157e-05
125 *32:222 *2869:B 7.09224e-05
126 *32:258 *206:14 5.52302e-05
127 *2116:A *32:199 9.60875e-05
128 *2127:A *2127:B 0.000160517
129 *2463:A *2465:B 0.000181796
130 *2464:A *2464:B 1.04232e-05
131 *2464:A *2465:B 4.51526e-05
132 *2464:A *32:273 2.27416e-05
133 *2465:A *2465:B 0.000271352
134 *2466:A *2465:B 0
135 *2596:A *32:174 9.71197e-05
136 *2599:A *2597:B 1.04232e-05
137 *2599:A *32:163 4.42013e-05
138 *2599:A *32:174 7.03295e-05
139 *2663:A *32:163 7.77751e-05
140 *2665:A *2665:B 9.90431e-05
141 *2720:A *32:258 9.60939e-05
142 *2720:A *32:273 0.000214198
143 *2732:A *2732:B 0.000317082
144 *2796:A *32:11 0.000129868
145 *2797:A *32:11 1.76135e-05
146 *2797:A *32:17 1.76039e-05
147 *2798:A *2732:B 0.000418239
148 *2813:B *2127:B 0.000575085
149 *2852:A *32:207 7.50697e-05
150 *2865:A *2865:B 7.60962e-05
151 *2880:A *32:207 0.00022266
152 *2918:B *2732:B 0.000344627
153 *2931:A *2931:B 0.00010096
154 *4:221 *2127:B 4.22135e-06
155 *5:147 *2465:B 3.48705e-05
156 *7:247 *32:163 5.52302e-05
157 *8:139 *32:193 0.000604203
158 *8:139 *32:199 0.000439656
159 *9:48 *32:139 0.000263524
160 *9:78 *2732:B 1.21289e-05
161 *10:38 *32:11 8.63888e-05
162 *10:51 *2797:B 5.52302e-05
163 *11:39 *32:155 5.88016e-05
164 *11:41 *32:17 0
165 *11:47 *32:23 0
166 *13:153 *32:207 5.52238e-05
167 *13:153 *32:222 0.000128496
168 *13:161 *32:222 0.000267599
169 *13:172 *2127:B 3.53079e-05
170 *13:172 *32:222 9.41642e-05
171 *14:260 *2127:B 5.71242e-05
172 *18:59 *32:187 0
173 *19:21 *32:11 0.000162216
174 *19:45 *2665:B 0.000537593
175 *19:45 *32:199 0
176 *20:19 *32:11 0.000342621
177 *20:21 *32:11 0.00046328
178 *21:31 *2797:B 9.7049e-06
179 *21:41 *2797:B 3.58638e-05
180 *21:41 *32:17 0.000145584
181 *21:49 *2864:B 0.000269422
182 *21:49 *2865:B 0.000818736
183 *21:49 *32:25 9.41642e-05
184 *22:153 *2930:B 5.52238e-05
185 *24:291 *2127:B 0.000105235
186 *25:74 *2732:B 0
187 *25:74 *32:187 0
188 *25:74 *32:199 0.000478216
189 *29:89 *32:155 0.000223592
190 *30:102 *32:207 0.000164554
191 *30:104 *32:207 0.000388139
*RES
1 yN[9] *32:9 4.72913 
2 *32:9 *32:11 14.2411 
3 *32:11 *32:17 13.9286 
4 *32:17 *32:23 19.4464 
5 *32:23 *32:25 0.946429 
6 *32:25 *2864:B 12.3179 
7 *32:25 *32:38 11.9107 
8 *32:38 *32:44 10.6607 
9 *32:44 *32:52 12.6071 
10 *32:52 *2798:B 9.72857 
11 *32:52 *2732:B 34.8357 
12 *32:44 *2931:B 11.4964 
13 *32:38 *2930:B 14.3357 
14 *32:23 *2865:B 17.6571 
15 *32:17 *2665:B 29.3179 
16 *32:11 *2797:B 15.5857 
17 *32:9 *32:139 7.51786 
18 *32:139 *32:155 40.1964 
19 *32:155 *32:163 8.80357 
20 *32:163 *2597:B 9.72857 
21 *32:163 *32:174 8.76786 
22 *32:174 *2531:B 9.3 
23 *32:174 *32:187 13.9107 
24 *32:187 *32:193 14.8036 
25 *32:193 *32:199 26.1607 
26 *32:199 *32:207 19.9286 
27 *32:207 *2880:B 9.3 
28 *32:207 *32:222 6.98214 
29 *32:222 *2891:B 9.3 
30 *32:222 *2127:B 32.2821 
31 *32:199 *2116:B 9.3 
32 *32:193 *2598:B 13.8 
33 *32:187 *32:258 4.23214 
34 *32:258 *2532:B 21.4964 
35 *32:258 *32:273 3.41071 
36 *32:273 *2464:B 10.0321 
37 *32:273 *2465:B 16.3179 
38 *32:155 *2664:B 9.3 
39 *32:139 *2731:B 9.3 
*END

*D_NET *33 0.0542348
*CONN
*P yP[0] I
*I *2870:B I *D sky130_fd_sc_hd__and2_1
*I *2873:B I *D sky130_fd_sc_hd__and2_1
*I *2607:B I *D sky130_fd_sc_hd__and2_1
*I *2540:B I *D sky130_fd_sc_hd__and2_1
*I *2803:B I *D sky130_fd_sc_hd__and2_1
*I *2806:B I *D sky130_fd_sc_hd__and2_1
*I *2737:B I *D sky130_fd_sc_hd__and2_1
*I *2740:B I *D sky130_fd_sc_hd__and2_1
*I *2670:B I *D sky130_fd_sc_hd__and2_1
*I *2673:B I *D sky130_fd_sc_hd__and2_1
*I *2604:B I *D sky130_fd_sc_hd__and2_1
*I *2537:B I *D sky130_fd_sc_hd__and2_1
*I *2602:B I *D sky130_fd_sc_hd__and2_1
*I *2473:B I *D sky130_fd_sc_hd__and2_1
*I *1947:B I *D sky130_fd_sc_hd__and2_1
*I *2969:B I *D sky130_fd_sc_hd__and2_1
*I *2936:B I *D sky130_fd_sc_hd__and2_1
*I *2205:B I *D sky130_fd_sc_hd__and2_1
*I *2172:B I *D sky130_fd_sc_hd__and2_1
*I *2470:B I *D sky130_fd_sc_hd__and2_1
*CAP
1 yP[0] 0.000243582
2 *2870:B 0.000287888
3 *2873:B 0
4 *2607:B 0
5 *2540:B 0
6 *2803:B 0.000213546
7 *2806:B 0.000196804
8 *2737:B 7.06487e-05
9 *2740:B 0
10 *2670:B 7.65624e-05
11 *2673:B 0
12 *2604:B 0.000267172
13 *2537:B 2.36523e-05
14 *2602:B 0
15 *2473:B 0.000846688
16 *1947:B 0
17 *2969:B 0.000118806
18 *2936:B 0.000100451
19 *2205:B 0.000242575
20 *2172:B 0
21 *2470:B 2.55917e-05
22 *33:283 0.000359
23 *33:277 0.00200219
24 *33:266 0.00237282
25 *33:249 0.000648232
26 *33:225 0.000831008
27 *33:210 0.000635753
28 *33:197 0.000598366
29 *33:182 0.000612158
30 *33:173 0.000617113
31 *33:162 0.00214371
32 *33:141 0.00208397
33 *33:127 0.00142076
34 *33:90 0.000990413
35 *33:82 0.000530579
36 *33:63 0.0010437
37 *33:52 0.000812494
38 *33:39 0.000734745
39 *33:30 0.00150648
40 *33:9 0.00129374
41 *33:7 0.000818472
42 *2205:B *2227:B 1.14849e-05
43 *2205:B *296:10 7.86699e-06
44 *2473:B *2039:A 2.95641e-05
45 *2473:B *2040:B 0.000276211
46 *2473:B *2294:B 5.52238e-05
47 *2473:B *2475:A 0
48 *2473:B *2475:B 3.92854e-05
49 *2473:B *590:6 8.83221e-05
50 *2473:B *644:6 6.4443e-05
51 *2537:B *343:18 5.71472e-05
52 *2604:B *3115:B 0
53 *2604:B *3117:B1 0.000120227
54 *2604:B *3183:B 0
55 *2604:B *3184:A 0
56 *2670:B *2674:B 5.03772e-05
57 *2737:B *2741:B 6.05161e-06
58 *2803:B *2807:B 5.33005e-05
59 *2803:B *1096:8 2.59355e-05
60 *2806:B *1400:6 8.54e-05
61 *2870:B *2874:A 1.92905e-05
62 *2870:B *1132:12 0.000170612
63 *2870:B *1133:10 3.90513e-05
64 *2870:B *1382:14 0
65 *2936:B *2980:A 9.75679e-05
66 *2969:B *2991:B 1.59373e-05
67 *33:7 zP[1] 0.000473948
68 *33:30 *2134:A 0
69 *33:30 *2474:A 7.57819e-06
70 *33:30 *34:13 0.00069841
71 *33:39 *2126:A2 0.000173097
72 *33:39 *296:10 0.000537625
73 *33:63 *2060:B 0
74 *33:63 *2980:A 0.000197991
75 *33:63 *2991:A 0.000150618
76 *33:90 *2713:A 2.89114e-05
77 *33:90 *2824:B 7.73758e-05
78 *33:127 *36:9 9.90431e-05
79 *33:127 *327:12 0.000148196
80 *33:127 *330:10 7.38748e-05
81 *33:141 *2162:B1 9.41642e-05
82 *33:141 *2175:A 0.000105268
83 *33:141 *3015:B 0.000271345
84 *33:141 *343:18 0.000689988
85 *33:141 *1253:12 0.000302222
86 *33:162 *2541:A 0.000104088
87 *33:162 *34:159 0.000768411
88 *33:162 *34:167 0.000661699
89 *33:162 *343:18 0.000941371
90 *33:173 *3028:A 3.08439e-05
91 *33:173 *3183:B 0
92 *33:173 *34:189 0.000135254
93 *33:173 *769:10 6.45442e-05
94 *33:173 *1176:10 0
95 *33:182 *34:189 6.67033e-05
96 *33:197 *34:189 0.000122968
97 *33:197 *34:200 0.000254298
98 *33:210 *2742:B 1.33343e-05
99 *33:210 *1390:6 4.87953e-05
100 *33:225 *2741:A 0.000101545
101 *33:249 *327:12 0.000188558
102 *33:266 *2482:A 0
103 *33:266 *34:117 0
104 *33:266 *596:10 0.000200369
105 *33:277 *2016:B 0
106 *33:277 *2609:B 5.52238e-05
107 *33:277 *2702:B 0.000220455
108 *33:277 *2953:B1 0
109 *33:277 *572:10 0.000127446
110 *33:277 *1382:14 0.000484571
111 *33:277 *1460:12 7.50601e-05
112 *33:283 *1132:12 4.4787e-05
113 *1948:A *33:90 8.89385e-05
114 *2183:B *33:39 0
115 *2194:A *2205:B 0.000159341
116 *2194:A *33:30 1.02504e-05
117 *2194:A *33:39 0.000985257
118 *2478:B *33:266 0
119 *2491:A *2473:B 4.72917e-05
120 *2491:B *2473:B 0.000214082
121 *2491:B *33:90 9.90431e-05
122 *2537:A *33:141 5.33005e-05
123 *2540:A *33:249 8.3321e-05
124 *2543:A *33:162 5.62995e-05
125 *2604:A *2604:B 0.000477998
126 *2604:A *33:173 0.000450866
127 *2606:A *33:277 5.41794e-05
128 *2619:A *33:197 4.28249e-05
129 *2670:A *33:182 3.34295e-05
130 *2670:A *33:197 0.000148903
131 *2671:B *2670:B 0
132 *2691:A *33:277 0
133 *2702:A *33:277 0
134 *2737:A *2737:B 5.52302e-05
135 *2739:A *33:210 1.08359e-05
136 *2739:A *33:225 1.76135e-05
137 *2740:A *33:197 1.02504e-05
138 *2805:A *2803:B 0.000488514
139 *2805:B *2806:B 4.33899e-05
140 *2871:A *2870:B 1.41706e-05
141 *2871:A *33:277 7.50505e-05
142 *2936:A *2936:B 9.43886e-05
143 *2947:A *33:63 0.000154124
144 *2958:A *2969:B 0.000258192
145 *2958:A *33:63 0
146 *2969:A *2969:B 0.000200273
147 *2969:A *33:63 0.00013652
148 *2969:A *33:82 2.16719e-05
149 *3:72 *33:90 4.46186e-06
150 *3:140 *2473:B 0
151 *3:179 *33:277 0
152 *4:181 *33:277 4.04292e-05
153 *5:109 *33:277 0.000629693
154 *5:122 *33:277 2.65075e-05
155 *5:209 *33:127 4.22202e-05
156 *6:252 *33:30 0.000148911
157 *7:13 *33:127 0.000101802
158 *7:13 *33:249 5.13026e-05
159 *8:21 *33:127 0.000709103
160 *8:21 *33:249 0.00062582
161 *8:21 *33:266 0.000727087
162 *8:38 *33:266 2.31791e-05
163 *10:110 *2870:B 2.44318e-05
164 *10:110 *33:283 0.000183726
165 *10:226 *33:225 0
166 *12:178 *2870:B 5.26091e-05
167 *13:13 *2470:B 5.52302e-05
168 *13:13 *33:9 0.000295938
169 *13:13 *33:127 0.00029965
170 *13:189 *33:277 0
171 *13:191 *33:277 0
172 *14:9 *33:30 4.12932e-05
173 *14:156 *33:63 0
174 *14:171 *33:63 0
175 *14:295 *33:63 0
176 *15:19 *2470:B 2.59355e-05
177 *15:19 *33:9 0.000152861
178 *15:19 *33:127 0.000691798
179 *15:105 *33:30 0.00146361
180 *16:11 *33:30 4.46186e-06
181 *18:182 *33:266 6.86792e-05
182 *18:182 *33:277 4.88637e-05
183 *18:205 *33:277 9.22948e-05
184 *18:219 *33:173 0.000571929
185 *19:124 *2803:B 0.00015091
186 *19:124 *33:225 1.26352e-05
187 *19:130 *33:197 0.000733007
188 *19:130 *33:210 0.000196914
189 *19:130 *33:225 0.000322084
190 *19:132 *33:197 0.000231241
191 *20:97 *2803:B 0.000624967
192 *20:97 *33:225 0.000741691
193 *21:186 *2803:B 1.76135e-05
194 *23:13 *33:30 0.000175446
195 *23:15 *33:30 0.000452944
196 *23:36 *33:39 8.20077e-05
197 *23:47 *33:39 3.84632e-05
198 *23:47 *33:52 0.000159605
199 *23:47 *33:63 6.25397e-06
200 *23:80 *33:63 1.28883e-05
201 *23:93 *2969:B 0.000181803
202 *23:93 *33:82 0
203 *23:93 *33:90 0
204 *23:210 *2737:B 5.33005e-05
205 *23:210 *33:210 0.000172728
206 *23:220 *2806:B 9.58181e-05
207 *23:281 *33:266 5.52302e-05
208 *23:281 *33:277 0.000131439
209 *23:304 *33:277 0
210 *24:5 *33:7 0.000405655
211 *24:80 *33:173 0.000378114
212 *24:93 *33:173 0.000206073
213 *24:93 *33:182 8.56716e-05
214 *24:190 *33:7 7.2754e-05
215 *25:74 *2473:B 4.57445e-05
216 *26:21 *33:141 7.75987e-05
217 *26:38 *33:141 0.00124045
218 *26:79 *33:266 4.13595e-05
219 *26:79 *33:277 0.000320044
*RES
1 yP[0] *33:7 15.2143 
2 *33:7 *33:9 3 
3 *33:9 *2470:B 9.96964 
4 *33:9 *33:30 18.3849 
5 *33:30 *2172:B 13.8 
6 *33:30 *33:39 12.875 
7 *33:39 *2205:B 17.425 
8 *33:39 *33:52 4.07143 
9 *33:52 *2936:B 15.9786 
10 *33:52 *33:63 12.2679 
11 *33:63 *2969:B 18.175 
12 *33:63 *33:82 10.875 
13 *33:82 *33:90 12.8036 
14 *33:90 *1947:B 9.3 
15 *33:90 *2473:B 32.9607 
16 *33:82 *2602:B 9.3 
17 *33:7 *33:127 20.8571 
18 *33:127 *33:141 27.4107 
19 *33:141 *2537:B 10.2643 
20 *33:141 *33:162 30.2679 
21 *33:162 *2604:B 20.3 
22 *33:162 *33:173 18.0357 
23 *33:173 *2673:B 13.8 
24 *33:173 *33:182 2.55357 
25 *33:182 *2670:B 15.175 
26 *33:182 *33:197 18.8929 
27 *33:197 *2740:B 9.3 
28 *33:197 *33:210 8.42857 
29 *33:210 *2737:B 15.1571 
30 *33:210 *33:225 12.3214 
31 *33:225 *2806:B 17.2286 
32 *33:225 *2803:B 22.3536 
33 *33:127 *33:249 8.01786 
34 *33:249 *2540:B 13.8 
35 *33:249 *33:266 16.3571 
36 *33:266 *2607:B 9.3 
37 *33:266 *33:277 46.6607 
38 *33:277 *33:283 6.69643 
39 *33:283 *2873:B 9.3 
40 *33:283 *2870:B 24.2821 
*END

*D_NET *34 0.0564631
*CONN
*P yP[1] I
*I *3002:B I *D sky130_fd_sc_hd__and2_1
*I *3035:B I *D sky130_fd_sc_hd__and2_1
*I *2546:B I *D sky130_fd_sc_hd__and2_1
*I *2543:B I *D sky130_fd_sc_hd__and2_1
*I *2743:B I *D sky130_fd_sc_hd__and2_1
*I *2809:B I *D sky130_fd_sc_hd__and2_1
*I *2746:B I *D sky130_fd_sc_hd__and2_1
*I *2812:B I *D sky130_fd_sc_hd__and2_1
*I *2676:B I *D sky130_fd_sc_hd__and2_1
*I *2679:B I *D sky130_fd_sc_hd__and2_1
*I *2613:B I *D sky130_fd_sc_hd__and2_1
*I *2610:B I *D sky130_fd_sc_hd__and2_1
*I *2476:B I *D sky130_fd_sc_hd__and2_1
*I *2479:B I *D sky130_fd_sc_hd__and2_1
*I *2879:B I *D sky130_fd_sc_hd__and2_1
*I *2876:B I *D sky130_fd_sc_hd__and2_1
*I *2271:B I *D sky130_fd_sc_hd__and2_1
*I *2935:B I *D sky130_fd_sc_hd__and2_1
*I *3268:B I *D sky130_fd_sc_hd__and2_1
*I *2238:B I *D sky130_fd_sc_hd__and2_1
*CAP
1 yP[1] 0.000753976
2 *3002:B 0
3 *3035:B 0
4 *2546:B 0.000346828
5 *2543:B 0
6 *2743:B 2.18155e-05
7 *2809:B 8.76147e-05
8 *2746:B 2.80869e-05
9 *2812:B 0.000505799
10 *2676:B 9.11612e-05
11 *2679:B 2.97542e-05
12 *2613:B 2.36895e-05
13 *2610:B 2.79788e-05
14 *2476:B 9.74103e-05
15 *2479:B 0
16 *2879:B 0.000436806
17 *2876:B 0
18 *2271:B 0
19 *2935:B 0.000268542
20 *3268:B 0
21 *2238:B 0
22 *34:245 0.000311639
23 *34:230 0.000330516
24 *34:213 0.00101269
25 *34:200 0.00103804
26 *34:189 0.000986818
27 *34:178 0.000661984
28 *34:167 0.000624608
29 *34:159 0.000860727
30 *34:153 0.000986737
31 *34:142 0.00132722
32 *34:136 0.0029295
33 *34:117 0.00251055
34 *34:89 0.00163957
35 *34:81 0.00224374
36 *34:70 0.00114032
37 *34:49 0.00102437
38 *34:47 0.000157008
39 *34:40 0.000561984
40 *34:32 0.00152786
41 *34:13 0.00187686
42 *2476:B *3179:A 3.17067e-05
43 *2546:B *2549:A 4.77002e-05
44 *2546:B *35:45 0.00034801
45 *2610:B *2615:A 6.05161e-06
46 *2610:B *354:6 2.85234e-05
47 *2676:B *2681:B 6.86792e-05
48 *2676:B *1099:8 0.000177545
49 *2679:B *171:10 4.58976e-05
50 *2809:B *2748:B 0
51 *2812:B *1198:18 8.3725e-05
52 *2812:B *1404:10 0.000306317
53 *2879:B *2986:A1 5.52302e-05
54 *2879:B *2986:B1 5.52302e-05
55 *2879:B *1133:8 0.000227532
56 *2879:B *1382:14 0.000362531
57 *2935:B *1949:B 0.000103253
58 *2935:B *217:10 0
59 *34:32 *2136:A 2.524e-05
60 *34:32 *2137:B 2.3917e-05
61 *34:32 *2143:A 0.000184598
62 *34:32 *2144:A2 1.55885e-05
63 *34:32 *3170:A 0
64 *34:32 *317:10 9.76689e-05
65 *34:70 *2294:A 0
66 *34:70 *2713:A 0
67 *34:70 *2824:A 3.92757e-05
68 *34:70 *2824:B 0
69 *34:70 *3058:B 5.24274e-05
70 *34:89 *2869:B 0.000220448
71 *34:89 *2913:A 5.33882e-05
72 *34:89 *38:313 0.00107737
73 *34:89 *42:84 0
74 *34:89 *571:10 4.79842e-05
75 *34:89 *1085:12 0.000117073
76 *34:89 *1457:10 0
77 *34:117 *2360:B 3.25247e-05
78 *34:117 *3235:B 0.000268403
79 *34:117 *596:10 0
80 *34:136 *1981:B 1.5864e-05
81 *34:136 *1982:B1 0.000310214
82 *34:136 *2162:B1 0.000128146
83 *34:136 *3175:A 2.89114e-05
84 *34:136 *3175:B 2.24079e-05
85 *34:136 *1459:6 0.000526414
86 *34:142 *3111:A 2.79421e-05
87 *34:142 *3176:A 1.21258e-05
88 *34:142 *3177:A2 6.86792e-05
89 *34:142 *3179:B 8.02709e-05
90 *34:142 *1257:6 0.000340405
91 *34:142 *1319:8 1.39726e-05
92 *34:142 *1321:18 5.71472e-05
93 *34:153 *3179:A 2.8046e-05
94 *34:153 *35:45 0.000262956
95 *34:159 *2548:B 5.62995e-05
96 *34:167 *2548:A 1.72894e-05
97 *34:167 *2615:A 0.000101908
98 *34:167 *3020:B 7.77652e-05
99 *34:167 *1167:10 0.000134381
100 *34:178 *2616:B 0.000152064
101 *34:213 *2808:B 0.00015234
102 *34:230 *35:169 3.53786e-05
103 *34:245 *35:169 0.000221163
104 *2271:A *34:70 2.65105e-05
105 *2271:A *34:81 0.00138387
106 *2271:A *34:117 0.000313241
107 *2327:A *34:117 0.000362531
108 *2456:A *34:89 0.000266479
109 *2472:B *34:81 9.21689e-05
110 *2472:B *34:117 8.18698e-05
111 *2473:A *34:81 0.000659763
112 *2476:A *2476:B 9.27685e-05
113 *2476:A *2546:B 7.52196e-05
114 *2476:A *34:153 0.00011166
115 *2478:B *34:117 0.000614429
116 *2543:A *34:159 9.90431e-05
117 *2545:B *2546:B 0.000101687
118 *2546:A *2546:B 5.50052e-05
119 *2604:A *34:167 0.000216797
120 *2604:A *34:178 1.6815e-05
121 *2605:B *34:167 0
122 *2619:A *34:200 2.01359e-05
123 *2679:A *2679:B 5.52302e-05
124 *2740:A *34:200 9.76969e-05
125 *2743:A *2743:B 4.38128e-05
126 *2743:A *34:245 5.52302e-05
127 *2744:A *2809:B 2.84494e-05
128 *2745:B *2746:B 5.33005e-05
129 *2811:A *2812:B 1.98839e-05
130 *2811:B *2812:B 0.000910869
131 *2878:B *2879:B 0.000247778
132 *3169:A *2935:B 1.76039e-05
133 *3169:A *34:70 6.07232e-05
134 *3235:A *34:89 5.03694e-05
135 *3268:A *34:47 5.52302e-05
136 *3:35 *34:32 0
137 *3:61 *34:40 0.00015234
138 *3:72 *34:40 2.31791e-05
139 *4:11 *34:13 0.000536426
140 *4:38 *2935:B 0.000135578
141 *4:46 *34:47 6.12335e-05
142 *4:117 *34:136 0.000476709
143 *4:199 *34:89 5.29648e-05
144 *5:128 *2879:B 5.41797e-05
145 *8:21 *34:136 0.000655337
146 *8:38 *34:117 0
147 *9:224 *34:189 3.9718e-05
148 *10:226 *2746:B 6.05161e-06
149 *10:226 *34:213 0.000733837
150 *10:226 *34:230 9.91086e-05
151 *13:13 *34:13 0
152 *13:13 *34:32 0
153 *13:57 *2935:B 1.19309e-05
154 *13:57 *34:70 3.568e-05
155 *13:70 *34:70 0.000103993
156 *14:9 *34:13 0.000554049
157 *14:147 *34:40 1.02504e-05
158 *14:156 *34:40 0.00081973
159 *14:171 *34:40 0.00015134
160 *14:179 *2935:B 5.71472e-05
161 *14:295 *34:40 0.000414769
162 *15:165 *34:117 0.00021319
163 *15:184 *34:117 9.09249e-05
164 *15:195 *34:89 0
165 *17:11 *34:136 0.000326549
166 *17:57 *2546:B 0.000141941
167 *18:15 *34:13 4.03293e-05
168 *18:15 *34:32 0.000231847
169 *18:215 *2613:B 5.52238e-05
170 *18:219 *34:178 0.000211616
171 *18:219 *34:189 4.46186e-06
172 *20:80 *2879:B 0.000179836
173 *20:80 *34:89 1.56e-05
174 *21:184 *2809:B 0.00017309
175 *23:172 *34:167 2.60107e-05
176 *23:172 *34:178 0.000307597
177 *23:172 *34:189 0.000272078
178 *23:189 *34:189 0.000140021
179 *23:220 *34:200 0.000604188
180 *23:220 *34:213 0.000367396
181 *23:275 *34:136 0
182 *24:38 *2476:B 6.85697e-05
183 *24:99 *2679:B 0.000140933
184 *24:99 *34:189 3.34366e-05
185 *24:99 *34:200 0.00151653
186 *24:108 *34:200 3.51442e-05
187 *24:108 *34:213 0.00132199
188 *24:119 *34:213 3.17148e-05
189 *24:119 *34:230 0.000133839
190 *24:119 *34:245 1.08359e-05
191 *24:136 *34:245 0.000106542
192 *24:220 *34:40 0.00115128
193 *24:235 *34:40 1.27784e-05
194 *24:235 *34:70 3.06078e-05
195 *24:259 *34:70 0.000394712
196 *24:291 *34:117 0.000208322
197 *25:151 *34:136 0.000136395
198 *33:30 *34:13 0.00069841
199 *33:162 *34:159 0.000768411
200 *33:162 *34:167 0.000661699
201 *33:173 *34:189 0.000135254
202 *33:182 *34:189 6.67033e-05
203 *33:197 *34:189 0.000122968
204 *33:197 *34:200 0.000254298
205 *33:266 *34:117 0
*RES
1 yP[1] *34:13 21.5194 
2 *34:13 *2238:B 13.8 
3 *34:13 *34:32 22.375 
4 *34:32 *34:40 26.9643 
5 *34:40 *3268:B 9.3 
6 *34:40 *34:47 2.58929 
7 *34:47 *34:49 4.5 
8 *34:49 *2935:B 19.8536 
9 *34:49 *34:70 20.8214 
10 *34:70 *2271:B 9.3 
11 *34:70 *34:81 14.5357 
12 *34:81 *34:89 38.5357 
13 *34:89 *2876:B 9.3 
14 *34:89 *2879:B 30.1036 
15 *34:81 *34:117 28.9464 
16 *34:117 *2479:B 9.3 
17 *34:117 *34:136 49.3571 
18 *34:136 *34:142 22.6786 
19 *34:142 *2476:B 16.9607 
20 *34:142 *34:153 4.375 
21 *34:153 *34:159 16.1429 
22 *34:159 *34:167 16.5 
23 *34:167 *2610:B 14.3357 
24 *34:167 *34:178 7.71429 
25 *34:178 *2613:B 14.3357 
26 *34:178 *34:189 11.9643 
27 *34:189 *2679:B 15.1571 
28 *34:189 *34:200 19.8571 
29 *34:200 *2676:B 15.9964 
30 *34:200 *34:213 17.4286 
31 *34:213 *2812:B 25.4429 
32 *34:213 *34:230 2.60714 
33 *34:230 *2746:B 14.3357 
34 *34:230 *34:245 9.125 
35 *34:245 *2809:B 20.55 
36 *34:245 *2743:B 9.83571 
37 *34:159 *2543:B 9.3 
38 *34:153 *2546:B 22.5679 
39 *34:47 *3035:B 9.3 
40 *34:32 *3002:B 9.3 
*END

*D_NET *35 0.0623595
*CONN
*P yP[2] I
*I *2338:B I *D sky130_fd_sc_hd__and2_1
*I *2436:B I *D sky130_fd_sc_hd__and2_1
*I *3102:B I *D sky130_fd_sc_hd__and2_1
*I *2171:B I *D sky130_fd_sc_hd__and2_1
*I *2683:B I *D sky130_fd_sc_hd__and2_1
*I *2816:B I *D sky130_fd_sc_hd__and2_1
*I *2819:B I *D sky130_fd_sc_hd__and2_1
*I *2886:B I *D sky130_fd_sc_hd__and2_1
*I *2883:B I *D sky130_fd_sc_hd__and2_1
*I *2750:B I *D sky130_fd_sc_hd__and2_1
*I *2686:B I *D sky130_fd_sc_hd__and2_1
*I *2753:B I *D sky130_fd_sc_hd__and2_1
*I *2617:B I *D sky130_fd_sc_hd__and2_1
*I *2553:B I *D sky130_fd_sc_hd__and2_1
*I *2620:B I *D sky130_fd_sc_hd__and2_1
*I *2550:B I *D sky130_fd_sc_hd__and2_1
*I *2483:B I *D sky130_fd_sc_hd__and2_1
*I *2486:B I *D sky130_fd_sc_hd__and2_1
*I *2305:B I *D sky130_fd_sc_hd__and2_1
*I *3069:B I *D sky130_fd_sc_hd__and2_1
*CAP
1 yP[2] 0.000320842
2 *2338:B 0.00110152
3 *2436:B 0
4 *3102:B 4.26984e-05
5 *2171:B 0.000164918
6 *2683:B 2.74371e-05
7 *2816:B 0.000125482
8 *2819:B 1.91209e-05
9 *2886:B 6.6163e-05
10 *2883:B 0
11 *2750:B 3.39029e-05
12 *2686:B 8.4475e-05
13 *2753:B 0.0007841
14 *2617:B 7.62568e-05
15 *2553:B 0.000316571
16 *2620:B 0.00012353
17 *2550:B 0
18 *2483:B 6.72948e-05
19 *2486:B 0
20 *2305:B 0.000126589
21 *3069:B 5.3528e-05
22 *35:299 0.00129319
23 *35:288 0.000578409
24 *35:271 0.00209824
25 *35:220 0.00187948
26 *35:206 0.0039161
27 *35:196 0.00223472
28 *35:192 0.000791
29 *35:177 0.000723015
30 *35:169 0.000855212
31 *35:146 0.000795486
32 *35:133 0.00139146
33 *35:116 0.000918709
34 *35:99 0.000789697
35 *35:88 0.00105243
36 *35:75 0.00109787
37 *35:56 0.000544057
38 *35:45 0.00147225
39 *35:22 0.00195968
40 *35:9 0.000918358
41 *35:5 0.00219239
42 *2171:B *317:10 4.46689e-05
43 *2305:B *2349:A 0
44 *2338:B *3315:A 9.90431e-05
45 *2338:B *76:12 2.99966e-05
46 *2338:B *222:12 5.58941e-05
47 *2338:B *1459:6 0.000273269
48 *2553:B *3337:B 5.52302e-05
49 *2553:B *3338:A 9.90367e-05
50 *2553:B *3338:B 1.69961e-05
51 *2553:B *1386:10 0.000396898
52 *2553:B *1470:14 5.33433e-05
53 *2617:B *2621:B 0.000136951
54 *2617:B *1093:18 2.14757e-05
55 *2683:B *189:6 2.59355e-05
56 *2686:B *2688:B 5.52302e-05
57 *2750:B *1110:6 2.59355e-05
58 *2753:B *36:157 0.00122448
59 *2753:B *904:10 5.71472e-05
60 *2816:B *1208:14 8.08118e-05
61 *2886:B *38:101 2.59355e-05
62 *2886:B *1133:10 6.98302e-05
63 *2886:B *1434:12 2.37761e-05
64 *3069:B *3113:A 1.24368e-05
65 *3069:B *1061:14 4.72818e-05
66 *35:5 zN[4] 0
67 *35:5 *36:9 0.000263422
68 *35:9 *2167:A 0.000127165
69 *35:9 *1061:14 7.95668e-05
70 *35:22 *2349:B 4.8843e-05
71 *35:22 *3113:A 4.51611e-05
72 *35:22 *3177:A2 5.62995e-05
73 *35:45 *2349:A 0
74 *35:45 *3177:B1 0.000310314
75 *35:45 *3179:A 7.6644e-05
76 *35:45 *354:6 1.98839e-05
77 *35:56 *354:6 0.000912268
78 *35:75 *2554:B 4.67214e-05
79 *35:75 *168:16 9.14454e-05
80 *35:75 *1465:6 0.000185403
81 *35:88 *168:16 0.000357048
82 *35:88 *1465:6 0.000185465
83 *35:99 *1470:14 0
84 *35:116 *1470:14 0
85 *35:169 *2814:B 0.000152333
86 *35:169 *189:6 2.90184e-05
87 *35:177 *2687:B 7.8327e-05
88 *35:177 *2754:A 0.000153054
89 *35:192 *3062:A2 0.000222885
90 *35:192 *1115:10 0
91 *35:192 *1208:14 0.000131553
92 *35:196 *2821:A 5.33433e-05
93 *35:206 *3278:A 4.58194e-05
94 *35:206 *3281:A 5.96516e-05
95 *35:206 *39:114 0.000573169
96 *35:206 *911:6 0.000266479
97 *35:206 *1133:10 9.91086e-05
98 *35:206 *1425:10 9.41642e-05
99 *35:206 *1434:12 3.0285e-05
100 *35:220 *2996:B 8.55871e-05
101 *35:220 *2997:A 2.24195e-05
102 *35:220 *2998:A 2.93966e-05
103 *35:220 *2998:B 8.1579e-05
104 *35:220 *2999:A1 5.33005e-05
105 *35:220 *2999:B1 0.000178847
106 *35:220 *38:101 0.000266479
107 *35:220 *976:12 5.33334e-05
108 *35:220 *1145:10 0.000823243
109 *35:271 *2159:A 1.08359e-05
110 *35:271 *2159:B 0.000162914
111 *35:271 *333:12 1.02532e-05
112 *35:288 *2447:B 4.28365e-05
113 *35:288 *222:12 0.000175274
114 *35:299 *217:10 0
115 *35:299 *222:12 0.000387282
116 *2316:A *35:22 3.18676e-05
117 *2382:A *35:45 0
118 *2478:B *2338:B 0.00034008
119 *2479:A *2338:B 0.000107991
120 *2484:A *35:56 9.7497e-05
121 *2503:A *2338:B 0.000135028
122 *2543:A *35:75 0.000136193
123 *2544:A *2483:B 0.000192997
124 *2544:A *35:75 0.000113331
125 *2544:B *2483:B 0.000121891
126 *2545:B *35:45 5.36422e-05
127 *2546:B *35:45 0.00034801
128 *2551:B *35:88 0
129 *2552:B *2553:B 0.00025318
130 *2617:A *2617:B 5.33005e-05
131 *2619:B *2620:B 0.000181381
132 *2620:A *2620:B 2.59355e-05
133 *2631:A *35:206 0.000343836
134 *2646:A *35:206 0.000465143
135 *2683:A *35:169 0.00065657
136 *2683:A *35:177 1.02504e-05
137 *2685:B *2686:B 0.000135028
138 *2685:B *2753:B 9.41642e-05
139 *2685:B *35:146 0.000248138
140 *2693:A *2753:B 0.000186445
141 *2772:B *35:220 0
142 *2818:A *35:196 0.000227532
143 *2818:B *35:196 5.52238e-05
144 *2883:A *35:220 7.60306e-05
145 *2884:A *35:220 9.14786e-05
146 *2885:A *2886:B 4.46186e-06
147 *3:39 *2338:B 0.000297938
148 *3:48 *2338:B 9.41642e-05
149 *4:30 *2171:B 2.01525e-05
150 *4:30 *35:288 0.000475274
151 *5:21 *2171:B 4.90543e-05
152 *5:62 *2338:B 0
153 *5:209 *35:271 4.12535e-05
154 *6:32 *35:45 5.33005e-05
155 *6:32 *35:56 0.0002321
156 *6:269 *2338:B 4.53889e-05
157 *7:13 *35:5 0.000552679
158 *7:13 *35:271 0.000383664
159 *7:51 *35:75 0.000231681
160 *7:68 *2553:B 5.33334e-05
161 *7:68 *35:75 3.67279e-06
162 *8:42 *2620:B 6.57032e-05
163 *8:229 *35:206 0.000181803
164 *8:238 *35:206 0.00103642
165 *9:218 *35:133 4.49293e-05
166 *9:220 *35:133 0.000780198
167 *9:222 *35:116 0.000492493
168 *9:222 *35:133 0.000103285
169 *10:208 *35:169 0.000121516
170 *10:226 *2686:B 5.41794e-05
171 *10:226 *35:169 0.000276877
172 *11:240 *35:133 0.000218734
173 *13:43 *2338:B 4.73656e-05
174 *13:43 *35:299 0.000197991
175 *14:25 *35:5 1.76135e-05
176 *14:25 *35:9 0.000605198
177 *14:25 *35:271 6.7953e-05
178 *17:103 *35:88 0
179 *17:103 *35:99 0
180 *18:215 *35:88 0.000509464
181 *18:252 *35:88 0.000618139
182 *18:252 *35:99 2.09897e-05
183 *18:264 *35:116 0.000118477
184 *19:106 *2686:B 4.49293e-05
185 *19:106 *35:169 0.000101545
186 *19:124 *2686:B 9.25014e-06
187 *21:138 *35:220 5.74499e-06
188 *21:168 *2816:B 1.17968e-05
189 *21:170 *2816:B 0.000172053
190 *21:170 *35:192 2.24646e-05
191 *21:180 *35:177 0.000591052
192 *21:180 *35:192 0.000927275
193 *24:19 *2305:B 5.58941e-05
194 *24:38 *35:45 0.000376361
195 *24:44 *35:56 0.000101216
196 *24:59 *2483:B 7.11068e-05
197 *24:59 *35:75 5.51716e-05
198 *24:136 *35:169 7.81334e-05
199 *25:7 *35:5 0.000448999
200 *25:25 *2171:B 8.87461e-06
201 *25:25 *35:271 0.000487514
202 *25:42 *35:288 0.000772363
203 *25:134 *2305:B 0
204 *25:134 *35:45 0
205 *25:151 *35:45 0.00116592
206 *25:169 *35:88 0.000114838
207 *25:169 *35:99 7.05143e-06
208 *25:192 *35:99 5.56524e-05
209 *25:192 *35:116 8.01647e-05
210 *25:213 *35:116 0.000942157
211 *25:222 *35:116 1.02504e-05
212 *25:222 *35:133 0.000960702
213 *25:239 *35:133 8.33655e-05
214 *25:258 *35:169 0
215 *25:269 *35:169 6.05161e-06
216 *25:269 *35:177 2.62575e-05
217 *25:282 *35:177 0
218 *25:282 *35:192 0
219 *34:153 *35:45 0.000262956
220 *34:230 *35:169 3.53786e-05
221 *34:245 *35:169 0.000221163
*RES
1 yP[2] *35:5 12.8393 
2 *35:5 *35:9 12.0179 
3 *35:9 *3069:B 10.9786 
4 *35:9 *35:22 14.0714 
5 *35:22 *2305:B 16.05 
6 *35:22 *35:45 37.9464 
7 *35:45 *2486:B 9.3 
8 *35:45 *35:56 13.6786 
9 *35:56 *2483:B 16.3536 
10 *35:56 *35:75 12.0179 
11 *35:75 *2550:B 9.3 
12 *35:75 *35:88 25.4643 
13 *35:88 *2620:B 16.3893 
14 *35:88 *35:99 1.94643 
15 *35:99 *2553:B 21.7464 
16 *35:99 *35:116 13.9464 
17 *35:116 *2617:B 15.5679 
18 *35:116 *35:133 22.5893 
19 *35:133 *2753:B 25.7643 
20 *35:133 *35:146 7.08929 
21 *35:146 *2686:B 15.8893 
22 *35:146 *35:169 20.7321 
23 *35:169 *35:177 12.875 
24 *35:177 *2750:B 14.3357 
25 *35:177 *35:192 12.9286 
26 *35:192 *35:196 9.55357 
27 *35:196 *35:206 42.6607 
28 *35:206 *35:220 41.0714 
29 *35:220 *2883:B 9.3 
30 *35:206 *2886:B 15.3714 
31 *35:196 *2819:B 9.72857 
32 *35:192 *2816:B 17.55 
33 *35:169 *2683:B 9.83571 
34 *35:5 *35:271 11.906 
35 *35:271 *2171:B 18.1256 
36 *35:271 *35:288 15.8296 
37 *35:288 *3102:B 14.3357 
38 *35:288 *35:299 4.98214 
39 *35:299 *2436:B 13.8 
40 *35:299 *2338:B 44.05 
*END

*D_NET *36 0.0586704
*CONN
*P yP[3] I
*I *3169:B I *D sky130_fd_sc_hd__and2_1
*I *2503:B I *D sky130_fd_sc_hd__and2_1
*I *2405:B I *D sky130_fd_sc_hd__and2_1
*I *2689:B I *D sky130_fd_sc_hd__and2_1
*I *2756:B I *D sky130_fd_sc_hd__and2_1
*I *2893:B I *D sky130_fd_sc_hd__and2_1
*I *2889:B I *D sky130_fd_sc_hd__and2_1
*I *2822:B I *D sky130_fd_sc_hd__and2_1
*I *2827:B I *D sky130_fd_sc_hd__and2_1
*I *2760:B I *D sky130_fd_sc_hd__and2_1
*I *2623:B I *D sky130_fd_sc_hd__and2_1
*I *2693:B I *D sky130_fd_sc_hd__and2_1
*I *2556:B I *D sky130_fd_sc_hd__and2_1
*I *2627:B I *D sky130_fd_sc_hd__and2_1
*I *2560:B I *D sky130_fd_sc_hd__and2_1
*I *2494:B I *D sky130_fd_sc_hd__and2_1
*I *2489:B I *D sky130_fd_sc_hd__and2_1
*I *2371:B I *D sky130_fd_sc_hd__and2_1
*I *3135:B I *D sky130_fd_sc_hd__and2_1
*I *2469:B I *D sky130_fd_sc_hd__and2_1
*CAP
1 yP[3] 0.000324347
2 *3169:B 0
3 *2503:B 0.000221169
4 *2405:B 0.000129899
5 *2689:B 0
6 *2756:B 0
7 *2893:B 0
8 *2889:B 0
9 *2822:B 0.00110067
10 *2827:B 0
11 *2760:B 0.000213508
12 *2623:B 3.62004e-05
13 *2693:B 0.000281423
14 *2556:B 6.88408e-05
15 *2627:B 0
16 *2560:B 0
17 *2494:B 7.03966e-05
18 *2489:B 0.000351566
19 *2371:B 0
20 *3135:B 0
21 *2469:B 0
22 *36:339 0.00106222
23 *36:316 0.00182704
24 *36:273 0.00129498
25 *36:265 0.00061981
26 *36:240 0.000633534
27 *36:238 0.00167195
28 *36:220 0.00211954
29 *36:193 0.000983207
30 *36:187 0.0016542
31 *36:157 0.000980827
32 *36:145 0.00247635
33 *36:132 0.000825302
34 *36:117 0.000810292
35 *36:100 0.00128114
36 *36:77 0.00136348
37 *36:58 0.00116741
38 *36:39 0.00114857
39 *36:31 0.00179783
40 *36:22 0.00111679
41 *36:9 0.0011709
42 *2405:B *2427:B 5.52238e-05
43 *2405:B *602:14 3.69047e-06
44 *2489:B *2495:A 6.05161e-06
45 *2489:B *661:8 3.69697e-05
46 *2489:B *1264:10 5.52302e-05
47 *2494:B *2435:A 5.52302e-05
48 *2760:B *3282:A1 1.03037e-05
49 *2760:B *3282:A2 2.59355e-05
50 *2760:B *1426:18 7.02611e-05
51 *2822:B *2767:B 5.26384e-05
52 *2822:B *2828:A 9.60875e-05
53 *2822:B *2894:B 5.52302e-05
54 *2822:B *2995:B1 0
55 *2822:B *39:95 0.000268403
56 *2822:B *138:14 0.000186307
57 *2822:B *799:10 0
58 *2822:B *916:12 0
59 *2822:B *1137:14 0
60 *2822:B *1142:10 0
61 *2822:B *1146:16 5.52238e-05
62 *2822:B *1455:10 0.000172134
63 *36:22 *3113:B 0
64 *36:22 *3174:B 0
65 *36:22 *3175:A 0
66 *36:22 *263:10 7.50601e-05
67 *36:22 *323:12 0
68 *36:22 *1161:8 0
69 *36:39 *2050:B 0.000100165
70 *36:39 *2051:B1 3.27592e-05
71 *36:39 *2182:B 8.17274e-05
72 *36:39 *227:20 8.41587e-05
73 *36:39 *231:6 9.84673e-05
74 *36:39 *350:10 5.49995e-05
75 *36:58 *3018:A 1.00887e-05
76 *36:58 *168:16 0.000320144
77 *36:58 *232:12 4.63305e-05
78 *36:58 *1464:14 0.00010326
79 *36:77 *2435:A 3.34366e-05
80 *36:77 *2496:A 1.99099e-05
81 *36:77 *2496:B 7.6644e-05
82 *36:100 *2435:A 9.0573e-05
83 *36:100 *2442:A 0.000145147
84 *36:100 *2442:B 0.000100831
85 *36:100 *2496:A 0.000118054
86 *36:100 *3244:A 0.000128146
87 *36:100 *3244:B 1.41029e-05
88 *36:100 *37:115 8.16036e-05
89 *36:100 *1092:14 0.000207913
90 *36:117 *2562:A 0.000153047
91 *36:117 *2562:B 0.000154762
92 *36:117 *1092:14 0.00014285
93 *36:132 *2561:A 0.000103267
94 *36:132 *2629:B 5.52302e-05
95 *36:132 *721:10 0
96 *36:132 *782:12 0.000196392
97 *36:145 *2949:B 7.35679e-05
98 *36:145 *37:97 0
99 *36:145 *721:10 2.8266e-06
100 *36:187 *2634:A 0.00010326
101 *36:187 *2965:B 0
102 *36:187 *2966:A 5.80217e-05
103 *36:187 *3272:A 0.000128154
104 *36:187 *3272:B 0
105 *36:187 *3362:A 9.57064e-05
106 *36:187 *37:97 0
107 *36:187 *107:16 0.000104974
108 *36:187 *1132:24 2.34204e-05
109 *36:187 *1199:24 0.00015732
110 *36:187 *1404:10 0
111 *36:187 *1414:10 0.000117369
112 *36:187 *1425:10 8.71059e-06
113 *36:193 *37:89 0.0003335
114 *36:220 *2978:A 2.59355e-05
115 *36:220 *2979:B 0
116 *36:220 *3281:B 0.00020042
117 *36:220 *3282:A2 0.000105471
118 *36:220 *850:10 0.000319309
119 *36:220 *1220:24 0.00022459
120 *36:238 *2013:B1 4.94362e-05
121 *36:238 *2768:A 5.33005e-05
122 *36:238 *2978:A 0
123 *36:238 *37:62 0.000399841
124 *36:238 *194:10 0.000100823
125 *36:238 *1124:12 0
126 *36:238 *1220:24 2.95641e-05
127 *36:240 *1036:12 0
128 *36:240 *1220:12 0.000189407
129 *36:240 *1434:12 7.38652e-05
130 *36:265 *1220:12 4.5147e-05
131 *36:265 *1220:24 5.33005e-05
132 *36:265 *1221:10 0
133 *36:265 *1434:12 1.17968e-05
134 *36:273 *2894:A 4.88637e-05
135 *36:273 *2894:B 0.000128379
136 *36:316 *1985:B 7.36267e-05
137 *36:316 *1987:B1 0.000322446
138 *36:316 *2048:B 5.77261e-05
139 *36:316 *2051:A2 7.54369e-06
140 *36:316 *2580:B 3.25247e-05
141 *36:316 *167:10 0
142 *36:316 *168:14 7.83659e-05
143 *36:316 *227:20 2.90501e-05
144 *36:316 *602:14 1.58163e-05
145 *36:316 *1462:12 0
146 *36:339 *2569:B 4.17014e-05
147 *36:339 *3191:A 1.58163e-05
148 *36:339 *3191:B 0.000260574
149 *36:339 *332:10 4.05411e-05
150 *36:339 *1138:10 1.40034e-05
151 *36:339 *1462:12 0.00012401
152 *2316:A *36:22 0
153 *2327:B *36:339 0.00120438
154 *2338:A *36:339 7.77751e-05
155 *2432:B *2494:B 0
156 *2469:A *36:9 0.000396892
157 *2469:A *36:22 3.4855e-05
158 *2472:A *2503:B 2.14474e-05
159 *2489:A *2489:B 0.000394975
160 *2490:B *2489:B 0
161 *2492:B *2503:B 0.00017309
162 *2536:A *36:316 0.000103275
163 *2547:A *36:316 4.75521e-05
164 *2556:A *36:132 8.93456e-05
165 *2557:B *2556:B 0
166 *2569:A *2503:B 0.000148196
167 *2618:A *36:132 0.000118948
168 *2624:B *2693:B 3.92854e-05
169 *2632:A *2693:B 8.18783e-05
170 *2689:A *36:193 0.000335215
171 *2692:B *2693:B 2.49484e-05
172 *2693:A *36:157 0.00122448
173 *2750:A *36:187 0.000304387
174 *2752:B *2556:B 9.60875e-05
175 *2753:B *36:157 0.00122448
176 *2756:A *36:238 9.90431e-05
177 *2757:A *36:238 0.000180317
178 *2764:B *2822:B 0.000167368
179 *2823:A *2822:B 0
180 *2823:B *2822:B 0.000244312
181 *2826:B *36:240 9.54798e-06
182 *2826:B *36:265 7.71596e-05
183 *2885:A *36:265 2.34204e-05
184 *2886:A *36:265 0.000166683
185 *2886:A *36:273 5.33433e-05
186 *2889:A *2822:B 5.59013e-05
187 *2892:A *36:265 5.71472e-05
188 *3080:A *36:22 0
189 *3169:A *36:339 5.7661e-06
190 *3:35 *2503:B 9.25014e-06
191 *3:125 *2503:B 0.000177227
192 *4:130 *36:22 0
193 *4:138 *36:316 0
194 *4:149 *36:316 0
195 *5:252 *36:39 0.000220907
196 *5:252 *36:58 0.000315806
197 *7:13 *36:9 0.000392276
198 *7:78 *36:100 0.000183726
199 *7:84 *36:117 0
200 *8:21 *36:9 6.8646e-06
201 *8:38 *2405:B 0.000141985
202 *8:38 *36:316 0.000255126
203 *8:262 *2693:B 6.05161e-06
204 *8:280 *36:132 4.9071e-05
205 *10:188 *36:238 0.000499454
206 *10:202 *2760:B 0.000234032
207 *10:202 *36:220 0.000206248
208 *11:180 *2822:B 5.52302e-05
209 *11:222 *36:220 0
210 *11:232 *36:187 0
211 *11:232 *36:220 0
212 *12:255 *2822:B 2.14757e-05
213 *12:255 *36:273 0.000582118
214 *13:7 *36:9 0.000463093
215 *13:13 *36:9 9.71197e-05
216 *15:19 *36:9 0.000198827
217 *15:19 *36:22 0.000534222
218 *15:47 *36:39 9.84729e-05
219 *15:47 *36:58 0.000469126
220 *16:58 *36:58 0.000523641
221 *16:97 *36:58 0.000172
222 *16:116 *36:58 1.76135e-05
223 *16:116 *36:77 0.000278433
224 *16:116 *36:100 0.000118303
225 *16:127 *36:100 0.000320424
226 *16:144 *36:100 1.73501e-05
227 *17:40 *36:39 1.21258e-05
228 *17:130 *36:100 0
229 *18:320 *36:117 0.000197276
230 *18:324 *2693:B 1.58163e-05
231 *20:80 *2623:B 5.7661e-06
232 *20:80 *2693:B 1.32552e-05
233 *20:80 *36:157 0.000217931
234 *20:95 *36:157 5.71472e-05
235 *20:232 *36:238 0.00108528
236 *21:149 *36:265 0.000111481
237 *21:168 *36:220 5.19805e-05
238 *21:168 *36:238 0.00148338
239 *25:123 *36:22 8.18698e-05
240 *25:134 *36:22 0.000276211
241 *25:151 *36:22 0
242 *25:222 *36:132 0
243 *25:239 *36:145 0
244 *25:258 *36:187 0
245 *26:61 *36:58 0.000223228
246 *26:65 *36:77 0
247 *26:65 *36:100 0
248 *26:79 *36:339 4.03318e-05
249 *26:121 *36:117 4.46186e-06
250 *26:130 *36:117 0.000172515
251 *26:139 *36:117 0.00021192
252 *26:152 *36:145 0
253 *26:196 *36:187 5.08481e-05
254 *26:211 *36:187 0.00010906
255 *26:228 *36:220 0.000671131
256 *26:264 *36:265 0.000186662
257 *26:264 *36:273 0.000597994
258 *27:112 *36:238 0
259 *27:172 *2494:B 9.71197e-05
260 *27:172 *36:100 0
261 *27:197 *36:316 6.42338e-05
262 *27:218 *36:316 2.84398e-05
263 *27:218 *36:339 0.00094868
264 *28:146 *2693:B 0.000127446
265 *33:127 *36:9 9.90431e-05
266 *35:5 *36:9 0.000263422
*RES
1 yP[3] *36:9 19.8571 
2 *36:9 *2469:B 9.3 
3 *36:9 *36:22 22.25 
4 *36:22 *3135:B 13.8 
5 *36:22 *36:31 4.375 
6 *36:31 *36:39 17.3929 
7 *36:39 *2371:B 9.3 
8 *36:39 *36:58 30.5179 
9 *36:58 *2489:B 28.1929 
10 *36:58 *36:77 7.41071 
11 *36:77 *2494:B 15.4786 
12 *36:77 *36:100 26.9643 
13 *36:100 *2560:B 9.3 
14 *36:100 *36:117 18.7321 
15 *36:117 *2627:B 9.3 
16 *36:117 *36:132 15.1607 
17 *36:132 *2556:B 15.175 
18 *36:132 *36:145 4.98214 
19 *36:145 *36:157 31.7143 
20 *36:157 *2693:B 22.9429 
21 *36:157 *2623:B 10.0321 
22 *36:145 *36:187 35.4107 
23 *36:187 *36:193 13.375 
24 *36:193 *2760:B 13.9786 
25 *36:193 *36:220 27.3214 
26 *36:220 *36:238 48.0714 
27 *36:238 *36:240 4.375 
28 *36:240 *2827:B 13.8 
29 *36:240 *36:265 21.8036 
30 *36:265 *36:273 9.32143 
31 *36:273 *2822:B 40.6482 
32 *36:273 *2889:B 9.3 
33 *36:265 *2893:B 9.3 
34 *36:220 *2756:B 9.3 
35 *36:187 *2689:B 9.3 
36 *36:31 *36:316 24.1429 
37 *36:316 *2405:B 12.3179 
38 *36:316 *36:339 30.125 
39 *36:339 *2503:B 23.2821 
40 *36:339 *3169:B 9.3 
*END

*D_NET *37 0.0638968
*CONN
*P yP[4] I
*I *2896:B I *D sky130_fd_sc_hd__and2_1
*I *2830:B I *D sky130_fd_sc_hd__and2_1
*I *2833:B I *D sky130_fd_sc_hd__and2_1
*I *2763:B I *D sky130_fd_sc_hd__and2_1
*I *2766:B I *D sky130_fd_sc_hd__and2_1
*I *2699:B I *D sky130_fd_sc_hd__and2_1
*I *2630:B I *D sky130_fd_sc_hd__and2_1
*I *2497:B I *D sky130_fd_sc_hd__and2_1
*I *2566:B I *D sky130_fd_sc_hd__and2_1
*I *2500:B I *D sky130_fd_sc_hd__and2_1
*I *2633:B I *D sky130_fd_sc_hd__and2_1
*I *2563:B I *D sky130_fd_sc_hd__and2_1
*I *3235:B I *D sky130_fd_sc_hd__and2_1
*I *2433:B I *D sky130_fd_sc_hd__and2_1
*I *2430:B I *D sky130_fd_sc_hd__and2_1
*I *3202:B I *D sky130_fd_sc_hd__and2_1
*I *2569:B I *D sky130_fd_sc_hd__and2_1
*I *2536:B I *D sky130_fd_sc_hd__and2_1
*I *2696:B I *D sky130_fd_sc_hd__and2_1
*I *2899:B I *D sky130_fd_sc_hd__and2_1
*CAP
1 yP[4] 0.000839514
2 *2896:B 1.63101e-05
3 *2830:B 5.97892e-05
4 *2833:B 0
5 *2763:B 0
6 *2766:B 4.75906e-05
7 *2699:B 7.92705e-06
8 *2630:B 4.39882e-05
9 *2497:B 0
10 *2566:B 2.94474e-05
11 *2500:B 0.000177749
12 *2633:B 0.000756321
13 *2563:B 0
14 *3235:B 0.00162438
15 *2433:B 0
16 *2430:B 0.0001534
17 *3202:B 0
18 *2569:B 0.00102801
19 *2536:B 0
20 *2696:B 0.00013574
21 *2899:B 0
22 *37:227 0.00115375
23 *37:208 0.00288558
24 *37:151 0.00134143
25 *37:143 0.000710632
26 *37:135 0.000831313
27 *37:127 0.000625764
28 *37:121 0.00134197
29 *37:115 0.000554521
30 *37:111 0.000903157
31 *37:97 0.00182759
32 *37:89 0.00184751
33 *37:66 0.00116593
34 *37:62 0.00110112
35 *37:52 0.00235904
36 *37:42 0.00214921
37 *37:34 0.000853319
38 *37:27 0.000801312
39 *37:17 0.00179024
40 *37:13 0.00213151
41 *2430:B *2434:B 0.00014285
42 *2569:B *2360:B 0.000140933
43 *2569:B *3314:A 0.000142856
44 *2569:B *332:10 9.91086e-05
45 *2630:B *2634:A 5.33334e-05
46 *2630:B *1110:6 2.28499e-05
47 *2630:B *1111:14 3.18676e-05
48 *2633:B *2567:B 0
49 *2633:B *1104:12 0.000125724
50 *2633:B *1198:10 0.000106533
51 *2696:B *193:10 6.57815e-05
52 *2830:B *2834:B 6.05161e-06
53 *2896:B *2841:A 4.73656e-05
54 *3235:B *2446:B 0.000310783
55 *3235:B *3324:B 9.22103e-06
56 *3235:B *39:237 3.65633e-05
57 *3235:B *39:245 0.000279499
58 *3235:B *39:251 0.000118546
59 *37:13 *2781:B 0.000100831
60 *37:13 *2841:A 0.00010326
61 *37:13 *38:5 0.000474784
62 *37:13 *38:295 0.000135455
63 *37:13 *39:9 0.000181872
64 *37:13 *39:20 0.000156581
65 *37:13 *930:10 0.000250973
66 *37:17 *3006:B 0.000122591
67 *37:17 *3099:B 8.17274e-05
68 *37:17 *923:6 9.90367e-05
69 *37:17 *1055:6 9.60875e-05
70 *37:27 *2834:A 2.47833e-05
71 *37:27 *2834:B 0.000140933
72 *37:27 *2901:B 1.76135e-05
73 *37:27 *275:12 0
74 *37:27 *1151:12 0
75 *37:42 *865:14 0.00012401
76 *37:42 *1146:16 0.000186413
77 *37:52 *1455:10 0.000321341
78 *37:62 *2010:A 4.70078e-05
79 *37:62 *2010:B 9.76689e-05
80 *37:62 *122:8 7.35585e-05
81 *37:89 *2694:B 0.000102545
82 *37:89 *2700:B 8.07879e-05
83 *37:89 *3282:A1 0.000150625
84 *37:89 *117:14 0
85 *37:89 *1111:14 0.000103533
86 *37:89 *1425:10 4.08132e-05
87 *37:97 *2501:A 4.43256e-05
88 *37:97 *2501:B 0.000128379
89 *37:97 *3355:B 0.000196269
90 *37:97 *3356:A1 1.18064e-05
91 *37:97 *3362:A 9.24491e-05
92 *37:97 *3365:A2 4.25523e-05
93 *37:97 *103:12 9.16173e-05
94 *37:97 *117:14 0
95 *37:97 *1414:10 0.000110844
96 *37:97 *1425:10 9.74588e-05
97 *37:97 *1429:10 0.000196422
98 *37:111 *2501:B 0.000144773
99 *37:111 *3351:B 0
100 *37:111 *104:10 0.000167194
101 *37:111 *1103:10 0
102 *37:111 *1401:10 0
103 *37:115 *2568:B 3.34672e-05
104 *37:127 *1991:B1 3.98559e-05
105 *37:127 *2435:B 9.80173e-05
106 *37:127 *169:10 9.46929e-05
107 *37:135 *1988:B 0
108 *37:135 *1991:B1 0.000137983
109 *37:135 *169:10 4.16984e-05
110 *37:135 *1088:10 0.000147336
111 *37:143 *3246:A 4.88637e-05
112 *37:143 *3246:B 0.00017318
113 *37:143 *381:12 2.89114e-05
114 *37:143 *1088:10 3.17163e-05
115 *37:151 *3017:A 0.000170654
116 *37:208 *3242:A 0.000317082
117 *37:208 *3245:A1 2.28499e-05
118 *37:208 *3245:B1 4.40008e-05
119 *37:208 *1336:6 0.000305562
120 *37:208 *1390:6 0.000181796
121 *37:208 *1396:16 0.000162575
122 *37:227 *2567:B 0
123 *37:227 *39:231 0.000561696
124 *37:227 *39:237 0.000311488
125 *2338:A *2569:B 0.000142856
126 *2430:A *2430:B 8.77188e-05
127 *2431:A *2430:B 2.89114e-05
128 *2439:B *37:121 4.46186e-06
129 *2446:A *3235:B 5.52302e-05
130 *2472:B *3235:B 8.41716e-05
131 *2492:B *2569:B 3.82242e-05
132 *2499:A *2500:B 4.58976e-05
133 *2500:A *2500:B 0.000346541
134 *2500:A *37:121 9.41642e-05
135 *2564:B *2566:B 0.0001399
136 *2689:A *37:89 0.000409501
137 *2696:A *2696:B 5.52302e-05
138 *2752:B *37:111 0.000174455
139 *2756:A *2696:B 7.90803e-05
140 *2765:A *37:62 0
141 *2823:B *37:52 0.000323277
142 *2830:A *37:17 0.000183726
143 *2838:A *2896:B 5.59013e-05
144 *2838:A *37:13 0.000386998
145 *2896:A *37:17 0.000354105
146 *3158:B *2569:B 0
147 *3213:B *37:143 0
148 *4:149 *37:151 0
149 *5:62 *2569:B 6.19181e-05
150 *5:252 *37:143 9.25014e-06
151 *5:263 *37:135 0.000505321
152 *5:263 *37:143 4.73656e-05
153 *6:60 *37:121 5.06365e-05
154 *6:60 *37:127 0.000838689
155 *7:78 *37:115 0
156 *7:94 *2566:B 0.0001399
157 *7:94 *37:111 8.6432e-05
158 *7:111 *2633:B 0
159 *7:111 *37:227 0
160 *8:100 *2633:B 0
161 *8:100 *37:227 0
162 *8:104 *2633:B 6.5185e-05
163 *8:115 *2633:B 4.46186e-06
164 *9:203 *37:89 0.000189908
165 *10:110 *2633:B 5.52238e-05
166 *10:179 *2766:B 2.57472e-05
167 *10:179 *37:62 2.86754e-05
168 *11:9 *37:13 4.41146e-05
169 *11:23 *37:13 0.000709188
170 *11:180 *37:34 5.33005e-05
171 *11:199 *37:34 6.42592e-05
172 *14:62 *37:143 0.000101854
173 *14:77 *3235:B 2.89114e-05
174 *14:83 *3235:B 0.000313458
175 *14:196 *2569:B 2.59355e-05
176 *14:207 *2569:B 2.59355e-05
177 *15:47 *2430:B 2.42547e-05
178 *15:47 *37:143 5.52302e-05
179 *15:60 *37:121 0
180 *16:116 *37:127 0.000117398
181 *16:127 *37:121 5.01213e-05
182 *16:127 *37:127 0.000320434
183 *16:144 *37:111 0.000161411
184 *16:144 *37:115 0.000555122
185 *16:144 *37:121 4.46916e-05
186 *16:159 *37:111 0.000551972
187 *17:167 *2633:B 0
188 *18:17 *2569:B 0.000344232
189 *18:182 *2569:B 0.000255062
190 *18:205 *2569:B 0.000418655
191 *18:205 *37:151 0.000381587
192 *18:320 *37:97 9.90367e-05
193 *18:320 *37:111 0.000321929
194 *19:252 *37:52 0.000466648
195 *19:286 *2696:B 4.91146e-05
196 *19:288 *2696:B 0.000125731
197 *19:288 *37:89 5.41794e-05
198 *20:95 *37:97 1.39726e-05
199 *20:95 *37:111 0.00054467
200 *20:209 *37:34 0.000240237
201 *20:215 *37:42 0.000281071
202 *20:232 *37:42 3.97677e-05
203 *20:232 *37:62 0.000186662
204 *20:244 *2696:B 7.6644e-05
205 *21:138 *37:42 7.89585e-05
206 *22:22 *37:13 4.98496e-06
207 *23:304 *3235:B 0.000281062
208 *26:79 *2569:B 8.87062e-05
209 *26:152 *37:97 7.2754e-05
210 *26:196 *2630:B 0.000140933
211 *26:196 *37:97 0.000456844
212 *27:57 *37:34 0.00111519
213 *27:81 *37:52 0.00235701
214 *27:98 *37:52 0.000355026
215 *27:112 *2699:B 4.38128e-05
216 *27:112 *37:62 0.000335666
217 *27:112 *37:66 3.24224e-05
218 *27:116 *37:66 0.000369533
219 *27:143 *37:66 9.60939e-05
220 *27:143 *37:89 0.00104797
221 *27:191 *2430:B 0.000178847
222 *27:191 *37:143 0.000266513
223 *27:218 *2569:B 0.00101037
224 *28:9 *37:13 6.55095e-05
225 *28:172 *3235:B 0.000380002
226 *28:172 *37:227 0.000536795
227 *29:9 *37:13 0.000483633
228 *34:117 *3235:B 0.000268403
229 *36:100 *37:115 8.16036e-05
230 *36:145 *37:97 0
231 *36:187 *37:97 0
232 *36:193 *37:89 0.0003335
233 *36:238 *37:62 0.000399841
234 *36:339 *2569:B 4.17014e-05
*RES
1 yP[4] *37:13 22.1789 
2 *37:13 *37:17 24.3393 
3 *37:17 *37:27 15.1964 
4 *37:27 *2899:B 9.3 
5 *37:27 *37:34 10.8036 
6 *37:34 *37:42 19.8571 
7 *37:42 *37:52 20.2745 
8 *37:52 *37:62 20.1875 
9 *37:62 *37:66 6.5 
10 *37:66 *2696:B 22.0143 
11 *37:66 *37:89 23.8393 
12 *37:89 *37:97 32.2321 
13 *37:97 *37:111 24.875 
14 *37:111 *37:115 11.6071 
15 *37:115 *37:121 7.39286 
16 *37:121 *37:127 17.0179 
17 *37:127 *37:135 12.7857 
18 *37:135 *37:143 14.8214 
19 *37:143 *37:151 16.7143 
20 *37:151 *2536:B 9.3 
21 *37:151 *2569:B 44.9071 
22 *37:143 *3202:B 9.3 
23 *37:135 *2430:B 18.175 
24 *37:127 *2433:B 9.3 
25 *37:121 *37:208 21.0357 
26 *37:208 *3235:B 41.55 
27 *37:208 *37:227 11.6607 
28 *37:227 *2563:B 13.8 
29 *37:227 *2633:B 26.8357 
30 *37:115 *2500:B 13.5321 
31 *37:111 *2566:B 15.1571 
32 *37:97 *2497:B 9.3 
33 *37:89 *2630:B 15.5679 
34 *37:62 *2699:B 9.83571 
35 *37:52 *2766:B 14.6839 
36 *37:42 *2763:B 9.3 
37 *37:34 *2833:B 9.3 
38 *37:17 *2830:B 10.5679 
39 *37:13 *2896:B 14.5321 
*END

*D_NET *38 0.062437
*CONN
*P yP[5] I
*I *2906:B I *D sky130_fd_sc_hd__and2_1
*I *2636:B I *D sky130_fd_sc_hd__and2_1
*I *2903:B I *D sky130_fd_sc_hd__and2_1
*I *2703:B I *D sky130_fd_sc_hd__and2_1
*I *2706:B I *D sky130_fd_sc_hd__and2_1
*I *2640:B I *D sky130_fd_sc_hd__and2_1
*I *2637:B I *D sky130_fd_sc_hd__and2_1
*I *2570:B I *D sky130_fd_sc_hd__and2_1
*I *2504:B I *D sky130_fd_sc_hd__and2_1
*I *2437:B I *D sky130_fd_sc_hd__and2_1
*I *2440:B I *D sky130_fd_sc_hd__and2_1
*I *3302:B I *D sky130_fd_sc_hd__and2_1
*I *3269:B I *D sky130_fd_sc_hd__and2_1
*I *2603:B I *D sky130_fd_sc_hd__and2_1
*I *2507:B I *D sky130_fd_sc_hd__and2_1
*I *2573:B I *D sky130_fd_sc_hd__and2_1
*I *2773:B I *D sky130_fd_sc_hd__and2_1
*I *2840:B I *D sky130_fd_sc_hd__and2_1
*I *2770:B I *D sky130_fd_sc_hd__and2_1
*I *2837:B I *D sky130_fd_sc_hd__and2_1
*CAP
1 yP[5] 0.000189463
2 *2906:B 0
3 *2636:B 0
4 *2903:B 0
5 *2703:B 0
6 *2706:B 0.000195451
7 *2640:B 0
8 *2637:B 0.000218234
9 *2570:B 0
10 *2504:B 0.000638702
11 *2437:B 2.9238e-05
12 *2440:B 5.97585e-05
13 *3302:B 0
14 *3269:B 7.47896e-05
15 *2603:B 7.44615e-05
16 *2507:B 0
17 *2573:B 0.000150933
18 *2773:B 0.00032382
19 *2840:B 0.000121646
20 *2770:B 2.37855e-05
21 *2837:B 0
22 *38:313 0.00144004
23 *38:307 0.002726
24 *38:297 0.00128596
25 *38:295 0.00189775
26 *38:177 0.000342274
27 *38:171 0.000868524
28 *38:165 0.00111982
29 *38:159 0.000617037
30 *38:148 0.000573472
31 *38:142 0.00199328
32 *38:125 0.00179654
33 *38:115 0.00115284
34 *38:113 0.0012391
35 *38:107 0.000779859
36 *38:101 0.00106437
37 *38:91 0.00252533
38 *38:64 0.00324366
39 *38:49 0.00138667
40 *38:34 0.000489565
41 *38:30 0.000417871
42 *38:19 0.00186286
43 *38:5 0.00374582
44 *2437:B *1093:18 5.33005e-05
45 *2504:B *2508:A 4.88637e-05
46 *2504:B *2508:B 0.000132316
47 *2504:B *2628:B 5.33005e-05
48 *2504:B *2954:A 7.48091e-05
49 *2504:B *3352:B1 0.000419133
50 *2504:B *673:6 9.76491e-05
51 *2573:B *1132:24 0.000312209
52 *2603:B *1463:10 0.000270326
53 *2637:B *2641:A 0
54 *2637:B *1124:12 0
55 *2637:B *1136:18 0.000115082
56 *2706:B *2649:A 5.83304e-05
57 *2706:B *800:12 0.000337637
58 *2706:B *1384:10 0.00022124
59 *2773:B *1150:10 0
60 *2840:B *514:14 0.000129868
61 *2840:B *1158:10 0.000128146
62 *3269:B *1463:10 0.000281078
63 *38:49 *1158:10 0.000400672
64 *38:64 *1955:A 4.87953e-05
65 *38:64 *1957:A 1.96078e-05
66 *38:64 *136:6 1.1979e-05
67 *38:91 *2648:A 7.61932e-05
68 *38:91 *2707:A 7.61932e-05
69 *38:91 *2828:A 7.90803e-05
70 *38:91 *2828:B 4.46186e-06
71 *38:91 *2999:B1 5.41797e-05
72 *38:91 *39:95 9.40156e-05
73 *38:91 *39:114 0.000162547
74 *38:91 *976:12 2.37761e-05
75 *38:91 *1146:16 0.000258797
76 *38:101 *2649:B 7.3237e-05
77 *38:101 *2888:A 3.48705e-05
78 *38:101 *2888:B 0.000115433
79 *38:101 *1036:12 1.32552e-05
80 *38:101 *1133:10 0
81 *38:107 *2649:A 0.00010326
82 *38:107 *1384:10 8.33655e-05
83 *38:113 *2641:B 9.71197e-05
84 *38:115 *2641:A 0
85 *38:115 *2977:B1 0.000148196
86 *38:115 *1121:10 0.000147474
87 *38:115 *1136:18 0.000187358
88 *38:115 *1420:12 0
89 *38:125 *2574:B 0.000104974
90 *38:125 *3360:B 5.33433e-05
91 *38:125 *3361:A1 3.14078e-05
92 *38:125 *733:12 0
93 *38:125 *1108:12 0.000112106
94 *38:125 *1132:24 0.000485433
95 *38:125 *1420:12 0
96 *38:142 *2628:A 0
97 *38:142 *2628:B 0.000252721
98 *38:142 *2695:B 1.8338e-05
99 *38:142 *3267:B1 0
100 *38:142 *3359:A 0.000125731
101 *38:142 *3361:B1 4.79842e-05
102 *38:142 *110:12 0
103 *38:142 *734:10 2.49484e-05
104 *38:142 *845:12 0.000125724
105 *38:142 *1022:16 0.000265995
106 *38:142 *1199:18 0.000273262
107 *38:142 *1412:12 0
108 *38:142 *1420:12 0
109 *38:148 *2628:B 3.17148e-05
110 *38:148 *1101:10 0
111 *38:148 *1103:10 0
112 *38:159 *2441:A 0.000102545
113 *38:159 *613:10 1.91414e-05
114 *38:165 *2945:B 0.000109809
115 *38:165 *2946:A1 7.80714e-06
116 *38:165 *613:10 5.80706e-06
117 *38:171 *39:245 0.000100969
118 *38:171 *1270:12 0.000238695
119 *38:177 *1259:14 0.000338366
120 *38:295 *2849:A 0.000100823
121 *38:295 *3097:B1 6.56976e-05
122 *38:295 *3106:A2 0.000199698
123 *38:295 *3230:A2 0.000139208
124 *38:295 *39:9 3.18978e-05
125 *38:295 *40:20 0
126 *38:295 *516:22 0.000697999
127 *38:295 *525:14 0.00018943
128 *38:295 *1002:10 0.000142082
129 *38:295 *1249:10 9.65171e-05
130 *38:307 *1969:B 5.71472e-05
131 *38:307 *2662:A 5.33005e-05
132 *38:307 *2662:B 9.71197e-05
133 *38:307 *39:184 0.000526764
134 *38:313 *2038:B 2.39664e-05
135 *38:313 *2658:B 0.000154762
136 *38:313 *2662:A 0
137 *38:313 *2858:A 5.56943e-05
138 *38:313 *2913:B 0.00010326
139 *38:313 *3257:B 0
140 *38:313 *41:124 0.000168217
141 *38:313 *42:80 0
142 *38:313 *1085:12 0
143 *38:313 *1087:12 0
144 *38:313 *1402:12 7.62707e-05
145 *2271:A *38:313 0
146 *2438:A *38:165 0
147 *2438:A *38:171 0.000184745
148 *2498:A *38:148 0
149 *2507:A *38:148 0.00010096
150 *2507:A *38:159 4.18895e-05
151 *2624:B *38:142 4.25622e-05
152 *2631:A *38:113 9.90367e-05
153 *2638:B *38:113 9.41642e-05
154 *2645:B *38:107 1.02504e-05
155 *2646:A *38:107 0.000140933
156 *2692:B *38:142 3.06975e-05
157 *2703:A *38:101 4.94362e-05
158 *2704:A *38:101 0.000173606
159 *2705:B *2706:B 0
160 *2705:B *38:107 0
161 *2711:B *38:91 3.78516e-05
162 *2771:B *38:34 5.49544e-05
163 *2772:A *2773:B 0
164 *2773:A *2773:B 0.000160741
165 *2823:B *38:91 0.000610071
166 *2830:A *38:49 0.000400672
167 *2837:A *38:30 3.29233e-05
168 *2845:A *38:295 0.000261094
169 *2883:A *2773:B 0.00026482
170 *2884:A *2773:B 9.5151e-05
171 *2886:B *38:101 2.59355e-05
172 *2903:A *38:30 9.71197e-05
173 *2905:A *38:295 1.02504e-05
174 *2905:A *38:307 9.41642e-05
175 *2905:B *38:307 0.000271352
176 *3235:A *38:313 0
177 *3280:A *2603:B 9.71197e-05
178 *5:81 *38:313 0
179 *6:66 *38:159 0.000355965
180 *6:66 *38:165 0.000417177
181 *6:77 *38:148 0
182 *6:77 *38:159 2.24646e-05
183 *7:111 *38:148 0
184 *8:38 *38:177 7.60306e-05
185 *8:100 *38:171 0.00010965
186 *8:100 *38:177 0.000115082
187 *8:216 *38:107 9.69119e-06
188 *8:229 *38:107 0.000169366
189 *8:238 *38:107 8.46829e-05
190 *8:238 *38:113 0.000450887
191 *8:280 *38:142 0
192 *9:168 *2706:B 7.32272e-05
193 *11:142 *2840:B 1.90303e-05
194 *11:142 *38:64 4.05548e-05
195 *11:218 *2637:B 3.18676e-05
196 *11:218 *38:101 8.18667e-05
197 *12:9 *38:19 5.25966e-05
198 *12:13 *38:30 0.000435839
199 *12:30 *38:295 0.00130646
200 *12:124 *38:307 8.25897e-05
201 *12:165 *38:313 0.000148196
202 *12:219 *38:30 3.27016e-05
203 *12:219 *38:34 0.00086893
204 *12:219 *38:49 0.000424269
205 *15:60 *38:165 0.000172025
206 *15:150 *38:313 5.71472e-05
207 *17:146 *38:148 0.000153959
208 *18:25 *38:313 0.000581069
209 *18:44 *38:313 0.000185633
210 *18:320 *38:142 2.04825e-05
211 *19:29 *38:295 0.00046212
212 *19:104 *38:142 5.41794e-05
213 *19:269 *2706:B 0.000139907
214 *20:38 *38:307 0.00125548
215 *20:194 *38:34 1.59373e-05
216 *20:209 *38:34 3.18747e-05
217 *20:209 *38:49 1.64616e-05
218 *20:215 *38:91 9.50993e-05
219 *22:82 *2773:B 0.000301778
220 *22:127 *38:295 0
221 *24:270 *38:313 5.52302e-05
222 *27:9 *38:19 0
223 *27:29 *38:30 0.000734598
224 *27:29 *38:34 0.000301238
225 *27:29 *38:49 0.000206174
226 *28:9 *38:295 0
227 *28:15 *38:30 2.28598e-05
228 *28:123 *38:115 0
229 *28:133 *38:142 0.000151333
230 *28:152 *38:148 5.03772e-05
231 *28:164 *38:148 2.94103e-05
232 *28:164 *38:159 0
233 *28:172 *38:171 0
234 *28:178 *3269:B 0.00018372
235 *28:178 *38:171 0
236 *28:178 *38:177 0
237 *28:184 *2603:B 9.45734e-05
238 *28:184 *3269:B 1.69961e-05
239 *28:229 *38:148 9.61553e-05
240 *28:229 *38:159 2.89016e-05
241 *30:11 *38:5 0.000492586
242 *30:11 *38:295 1.12406e-05
243 *34:89 *38:313 0.00107737
244 *35:220 *38:101 0.000266479
245 *37:13 *38:5 0.000474784
246 *37:13 *38:295 0.000135455
*RES
1 yP[5] *38:5 1.34577 
2 *38:5 *38:19 17.8722 
3 *38:19 *2837:B 9.3 
4 *38:19 *38:30 7.96429 
5 *38:30 *38:34 8.76786 
6 *38:34 *2770:B 9.72857 
7 *38:34 *38:49 18.5179 
8 *38:49 *2840:B 20.8893 
9 *38:49 *38:64 11.625 
10 *38:64 *2773:B 27.2821 
11 *38:64 *38:91 36.3214 
12 *38:91 *38:101 26.1429 
13 *38:101 *38:107 10.5714 
14 *38:107 *38:113 14.9107 
15 *38:113 *38:115 9.53571 
16 *38:115 *38:125 18.9286 
17 *38:125 *2573:B 12.7286 
18 *38:125 *38:142 26.5357 
19 *38:142 *38:148 12.6786 
20 *38:148 *2507:B 9.3 
21 *38:148 *38:159 10.0179 
22 *38:159 *38:165 14.4643 
23 *38:165 *38:171 18.5714 
24 *38:171 *38:177 9.71429 
25 *38:177 *2603:B 12.3179 
26 *38:177 *3269:B 12.3179 
27 *38:171 *3302:B 13.8 
28 *38:165 *2440:B 10.2464 
29 *38:159 *2437:B 14.3357 
30 *38:142 *2504:B 24.55 
31 *38:115 *2570:B 13.8 
32 *38:113 *2637:B 18.1571 
33 *38:107 *2640:B 9.3 
34 *38:101 *2706:B 20.7464 
35 *38:91 *2703:B 9.3 
36 *38:30 *2903:B 9.3 
37 *38:5 *38:295 48.0823 
38 *38:295 *38:297 4.5 
39 *38:297 *38:307 29.8393 
40 *38:307 *38:313 43.4107 
41 *38:313 *2636:B 9.3 
42 *38:297 *2906:B 9.3 
*END

*D_NET *39 0.0488826
*CONN
*P yP[6] I
*I *2513:B I *D sky130_fd_sc_hd__and2_1
*I *3335:B I *D sky130_fd_sc_hd__and2_1
*I *3368:B I *D sky130_fd_sc_hd__and2_1
*I *2669:B I *D sky130_fd_sc_hd__and2_1
*I *2702:B I *D sky130_fd_sc_hd__and2_1
*I *2446:B I *D sky130_fd_sc_hd__and2_1
*I *2443:B I *D sky130_fd_sc_hd__and2_1
*I *2846:B I *D sky130_fd_sc_hd__and2_1
*I *2912:B I *D sky130_fd_sc_hd__and2_1
*I *2576:B I *D sky130_fd_sc_hd__and2_1
*I *2510:B I *D sky130_fd_sc_hd__and2_1
*I *2579:B I *D sky130_fd_sc_hd__and2_1
*I *2646:B I *D sky130_fd_sc_hd__and2_1
*I *2643:B I *D sky130_fd_sc_hd__and2_1
*I *2712:B I *D sky130_fd_sc_hd__and2_1
*I *2779:B I *D sky130_fd_sc_hd__and2_1
*I *2709:B I *D sky130_fd_sc_hd__and2_1
*I *2843:B I *D sky130_fd_sc_hd__and2_1
*I *2776:B I *D sky130_fd_sc_hd__and2_1
*I *2909:B I *D sky130_fd_sc_hd__and2_1
*CAP
1 yP[6] 0.000495676
2 *2513:B 2.23854e-05
3 *3335:B 0
4 *3368:B 0
5 *2669:B 0
6 *2702:B 9.10309e-05
7 *2446:B 0.000143791
8 *2443:B 3.0906e-05
9 *2846:B 0.000809178
10 *2912:B 0.000649671
11 *2576:B 0
12 *2510:B 0.00026595
13 *2579:B 0
14 *2646:B 0
15 *2643:B 2.30826e-05
16 *2712:B 0
17 *2779:B 0.000323918
18 *2709:B 0
19 *2843:B 1.50541e-05
20 *2776:B 9.48502e-05
21 *2909:B 0
22 *39:251 0.000692337
23 *39:245 0.000784024
24 *39:237 0.000494386
25 *39:231 0.000938672
26 *39:216 0.0015504
27 *39:184 0.00332977
28 *39:176 0.00271647
29 *39:174 0.000828938
30 *39:144 0.000692901
31 *39:136 0.00120782
32 *39:129 0.000499566
33 *39:114 0.00149714
34 *39:95 0.00168317
35 *39:76 0.00150163
36 *39:55 0.00129657
37 *39:46 0.00027074
38 *39:35 0.000450031
39 *39:20 0.00050941
40 *39:9 0.000683644
41 *2510:B *1199:18 0.000289673
42 *2776:B *2781:A 1.24368e-05
43 *2779:B *2782:B 0.000147718
44 *2846:B *1968:A 9.90431e-05
45 *2846:B *1969:A 1.69115e-05
46 *2846:B *1969:B 7.57869e-05
47 *2846:B *2849:B 2.84026e-05
48 *2846:B *997:6 0.000438794
49 *2912:B *1969:B 3.17163e-05
50 *2912:B *2668:A 0.000149911
51 *2912:B *41:104 7.2754e-05
52 *39:9 *2787:B 0.000101689
53 *39:9 *40:5 0.000476603
54 *39:9 *40:20 0.000121004
55 *39:20 *2781:B 0.000100831
56 *39:35 *2781:A 6.71854e-05
57 *39:35 *930:10 0.0001827
58 *39:76 *1957:B 9.80173e-05
59 *39:76 *1958:A2 0.000142856
60 *39:76 *2715:A 0.00010205
61 *39:76 *138:14 0.000112995
62 *39:95 *2716:A 7.06479e-05
63 *39:95 *2716:B 0.000238819
64 *39:95 *138:14 0.000861997
65 *39:95 *1448:16 0
66 *39:114 *2648:A 8.07313e-05
67 *39:114 *2649:B 4.46186e-06
68 *39:114 *2707:A 8.07313e-05
69 *39:114 *857:12 0.00014183
70 *39:114 *1384:10 0
71 *39:129 *2582:B 0.000149911
72 *39:129 *1384:10 0.000169569
73 *39:129 *1431:8 0
74 *39:144 *2581:B 0.000140933
75 *39:174 *2453:B 5.62613e-05
76 *39:174 *2454:A 7.2754e-05
77 *39:174 *2516:A 0.000153047
78 *39:174 *2516:B 0.000153047
79 *39:174 *2522:A 0.000344925
80 *39:174 *3260:B 4.73656e-05
81 *39:174 *680:10 0.000129868
82 *39:174 *686:12 0.000125724
83 *39:174 *1022:16 0.000318101
84 *39:174 *1384:10 0.000512907
85 *39:176 *1022:16 0.000271352
86 *39:184 *1971:B1 0.000182694
87 *39:184 *2662:A 1.58163e-05
88 *39:184 *2662:B 3.32631e-05
89 *39:184 *812:12 5.71472e-05
90 *39:184 *1022:16 5.33005e-05
91 *39:184 *1030:12 5.71472e-05
92 *39:216 *2874:A 2.6949e-05
93 *39:216 *2875:A 5.10822e-05
94 *39:216 *3050:B 4.73656e-05
95 *39:216 *3053:B1 5.48488e-05
96 *39:216 *1022:16 0.000344917
97 *39:216 *1023:16 0
98 *39:216 *1084:14 0.000115072
99 *39:216 *1100:10 0.000556844
100 *39:216 *1397:16 0
101 *39:231 *2448:A 7.77751e-05
102 *39:231 *619:12 5.52302e-05
103 *39:245 *2714:A 0.000144773
104 *39:245 *3324:B 7.43578e-06
105 *39:245 *1259:14 6.42095e-05
106 *2443:A *39:231 3.99614e-06
107 *2472:B *2446:B 0.000487467
108 *2512:A *2513:B 0
109 *2512:A *39:174 2.28499e-05
110 *2570:A *39:144 8.57023e-05
111 *2703:A *39:114 5.52238e-05
112 *2709:A *39:76 0
113 *2720:A *39:95 0.000126371
114 *2776:A *2776:B 1.04232e-05
115 *2822:B *39:95 0.000268403
116 *2823:B *39:95 0.000573281
117 *2843:A *39:35 2.05612e-05
118 *2844:A *39:35 5.33005e-05
119 *2872:A *39:216 0
120 *2885:B *39:114 0
121 *2885:B *39:129 0
122 *2909:A *39:9 1.02504e-05
123 *2909:A *39:20 3.29754e-05
124 *2912:A *2912:B 0
125 *3235:B *2446:B 0.000310783
126 *3235:B *39:237 3.65633e-05
127 *3235:B *39:245 0.000279499
128 *3235:B *39:251 0.000118546
129 *3302:A *39:245 9.71197e-05
130 *3335:A *39:237 0.000120645
131 *5:109 *2702:B 0.000114121
132 *6:98 *39:216 0
133 *6:107 *39:174 0
134 *6:107 *39:216 0
135 *7:197 *39:129 5.52302e-05
136 *7:197 *39:136 0.00018372
137 *7:197 *39:144 0.000221608
138 *7:213 *39:129 0.000388146
139 *8:100 *39:231 0
140 *8:100 *39:245 0
141 *8:115 *39:174 0.000288412
142 *9:13 *39:46 0.000140088
143 *9:29 *2779:B 0
144 *9:78 *2912:B 0.000721391
145 *10:162 *39:76 6.87574e-05
146 *10:162 *39:95 0.000319336
147 *11:23 *39:9 0.000136583
148 *11:128 *39:35 0.000137983
149 *11:142 *39:35 0.000357254
150 *11:142 *39:46 0.000711278
151 *11:142 *39:55 6.8529e-05
152 *12:124 *2912:B 0
153 *14:83 *39:237 1.02504e-05
154 *14:83 *39:245 0.000362545
155 *14:91 *39:237 0.000114858
156 *14:91 *39:245 3.34366e-05
157 *17:146 *39:231 1.24368e-05
158 *17:178 *2510:B 0.000197892
159 *17:182 *39:144 5.52302e-05
160 *18:125 *39:129 6.48068e-05
161 *19:11 *39:9 0.000266869
162 *19:222 *2779:B 0.000110097
163 *19:222 *39:76 8.10802e-05
164 *20:177 *2776:B 2.42516e-05
165 *20:177 *39:35 5.74499e-06
166 *20:177 *39:46 3.63775e-05
167 *20:194 *2779:B 0
168 *21:114 *2779:B 2.84026e-05
169 *22:22 *39:20 0.000390506
170 *22:48 *39:76 0.00086219
171 *22:61 *39:76 0.00060668
172 *22:252 *39:184 0.00028114
173 *22:263 *39:184 0.000613013
174 *23:304 *2446:B 0.000137983
175 *23:304 *39:216 0
176 *23:304 *39:251 0.000215348
177 *29:52 *2843:B 3.51368e-05
178 *29:52 *39:35 0.000191058
179 *29:52 *39:46 0.000206535
180 *29:108 *2846:B 8.36642e-05
181 *29:108 *2912:B 0.000181589
182 *29:247 *39:174 9.90431e-05
183 *30:11 *39:9 0.000493583
184 *33:277 *2702:B 0.000220455
185 *35:206 *39:114 0.000573169
186 *37:13 *39:9 0.000181872
187 *37:13 *39:20 0.000156581
188 *37:227 *39:231 0.000561696
189 *37:227 *39:237 0.000311488
190 *38:91 *39:95 9.40156e-05
191 *38:91 *39:114 0.000162547
192 *38:171 *39:245 0.000100969
193 *38:295 *39:9 3.18978e-05
194 *38:307 *39:184 0.000526764
*RES
1 yP[6] *39:9 13.1776 
2 *39:9 *2909:B 13.8 
3 *39:9 *39:20 10.0893 
4 *39:20 *2776:B 11.1036 
5 *39:20 *39:35 6.71429 
6 *39:35 *2843:B 9.72857 
7 *39:35 *39:46 7.53571 
8 *39:46 *2709:B 9.3 
9 *39:46 *39:55 5.85714 
10 *39:55 *2779:B 19.3179 
11 *39:55 *39:76 24.5714 
12 *39:76 *2712:B 9.3 
13 *39:76 *39:95 28.8214 
14 *39:95 *2643:B 9.72857 
15 *39:95 *39:114 22.6607 
16 *39:114 *2646:B 13.8 
17 *39:114 *39:129 15.4107 
18 *39:129 *2579:B 9.3 
19 *39:129 *39:136 1.76786 
20 *39:136 *39:144 8.08929 
21 *39:144 *2510:B 25.9429 
22 *39:144 *2576:B 9.3 
23 *39:136 *39:174 31.9107 
24 *39:174 *39:176 2.58929 
25 *39:176 *39:184 39.2679 
26 *39:184 *2912:B 29.7643 
27 *39:184 *2846:B 25.7286 
28 *39:176 *39:216 26.125 
29 *39:216 *2443:B 9.83571 
30 *39:216 *39:231 19.8571 
31 *39:231 *39:237 5.64286 
32 *39:237 *39:245 14.6607 
33 *39:245 *39:251 8.78571 
34 *39:251 *2446:B 15.175 
35 *39:251 *2702:B 21.1571 
36 *39:245 *2669:B 9.3 
37 *39:237 *3368:B 13.8 
38 *39:231 *3335:B 13.8 
39 *39:174 *2513:B 9.72857 
*END

*D_NET *40 0.041624
*CONN
*P yP[7] I
*I *2586:B I *D sky130_fd_sc_hd__and2_1
*I *2520:B I *D sky130_fd_sc_hd__and2_1
*I *2517:B I *D sky130_fd_sc_hd__and2_1
*I *2450:B I *D sky130_fd_sc_hd__and2_1
*I *2453:B I *D sky130_fd_sc_hd__and2_1
*I *2583:B I *D sky130_fd_sc_hd__and2_1
*I *2720:B I *D sky130_fd_sc_hd__and2_1
*I *2653:B I *D sky130_fd_sc_hd__and2_1
*I *2650:B I *D sky130_fd_sc_hd__and2_1
*I *2717:B I *D sky130_fd_sc_hd__and2_1
*I *2850:B I *D sky130_fd_sc_hd__and2_1
*I *2786:B I *D sky130_fd_sc_hd__and2_1
*I *2853:B I *D sky130_fd_sc_hd__and2_1
*I *1972:B I *D sky130_fd_sc_hd__and2_1
*I *2736:B I *D sky130_fd_sc_hd__and2_1
*I *2769:B I *D sky130_fd_sc_hd__and2_1
*I *2005:B I *D sky130_fd_sc_hd__and2_1
*I *2919:B I *D sky130_fd_sc_hd__and2_1
*I *2916:B I *D sky130_fd_sc_hd__and2_1
*I *2783:B I *D sky130_fd_sc_hd__and2_1
*CAP
1 yP[7] 0.000199011
2 *2586:B 0.000137086
3 *2520:B 0
4 *2517:B 2.9238e-05
5 *2450:B 3.39029e-05
6 *2453:B 0.000283875
7 *2583:B 3.64675e-05
8 *2720:B 0.000356405
9 *2653:B 0
10 *2650:B 0
11 *2717:B 0
12 *2850:B 0
13 *2786:B 0
14 *2853:B 7.82879e-05
15 *1972:B 0
16 *2736:B 0.000290486
17 *2769:B 0.000130804
18 *2005:B 0.000309862
19 *2919:B 0.000268764
20 *2916:B 1.90705e-05
21 *2783:B 0.00014126
22 *40:240 0.000467215
23 *40:238 0.000401263
24 *40:230 0.00059018
25 *40:224 0.000813848
26 *40:213 0.000875688
27 *40:198 0.00112404
28 *40:185 0.000886979
29 *40:170 0.00105373
30 *40:153 0.00105346
31 *40:91 0.000621659
32 *40:85 0.00129531
33 *40:66 0.0015253
34 *40:51 0.000704272
35 *40:47 0.000953728
36 *40:45 0.00191726
37 *40:32 0.00231754
38 *40:22 0.00115472
39 *40:20 0.001253
40 *40:5 0.000731063
41 *2450:B *1132:24 2.59355e-05
42 *2453:B *2455:B 0
43 *2453:B *2516:B 9.25014e-06
44 *2453:B *1384:10 0.000435505
45 *2517:B *2521:B 5.33005e-05
46 *2586:B *2588:B 0.000104077
47 *2586:B *3290:B1 8.56716e-05
48 *2586:B *1133:10 6.07626e-05
49 *2586:B *1434:12 0.000128154
50 *2720:B *2535:A 0.000102545
51 *2720:B *698:10 0.00041474
52 *2720:B *1087:12 0.000478807
53 *2736:B *2780:B 3.48705e-05
54 *2736:B *557:12 5.9483e-05
55 *2736:B *1397:16 0
56 *2769:B *1397:16 0
57 *2853:B *1976:A2 5.33005e-05
58 *2916:B *3166:A1 0
59 *2916:B *3166:B1 0
60 *2919:B *2793:B 0.000355009
61 *2919:B *2795:B 9.80173e-05
62 *40:20 *41:7 0
63 *40:32 *3164:B 2.44318e-05
64 *40:32 *3166:A1 4.39965e-05
65 *40:32 *3166:B1 0.000453058
66 *40:45 *41:175 0
67 *40:45 *41:192 0
68 *40:45 *147:10 2.89114e-05
69 *40:47 *1976:A2 0.00017309
70 *40:47 *2105:B 0
71 *40:47 *41:112 0
72 *40:47 *41:175 0
73 *40:51 *1976:A2 3.17148e-05
74 *40:66 *2793:B 0.000260954
75 *40:85 *2793:B 0.00016641
76 *40:85 *1402:12 3.32631e-05
77 *40:91 *2016:A 6.86693e-05
78 *40:91 *557:12 3.14163e-05
79 *40:153 *3094:B 6.57032e-05
80 *40:153 *3095:A 1.56e-05
81 *40:153 *817:12 0.000255533
82 *40:153 *877:10 0.000104974
83 *40:153 *1240:10 9.90367e-05
84 *40:170 *757:16 6.60662e-05
85 *40:170 *817:12 0.00056765
86 *40:185 *2654:A 0.00018372
87 *40:185 *3003:B 5.33433e-05
88 *40:185 *3004:A1 3.14078e-05
89 *40:185 *3004:B1 2.89016e-05
90 *40:185 *757:16 1.39726e-05
91 *40:185 *1151:12 5.33005e-05
92 *40:198 *2655:B 5.71472e-05
93 *40:198 *3304:A2 0
94 *40:198 *3304:B1 3.2534e-05
95 *40:198 *698:10 0.000173812
96 *40:198 *806:6 1.33343e-05
97 *40:198 *1087:12 0.000301778
98 *40:213 *2987:A 2.95841e-05
99 *40:213 *2988:B 0.000186662
100 *40:213 *2990:B1 0.000232399
101 *40:224 *2587:A 5.71472e-05
102 *40:230 *2588:B 3.17067e-05
103 *40:230 *3290:B1 0.000123903
104 *40:230 *1431:8 0
105 *40:238 *2522:B 5.33334e-05
106 *40:238 *1384:10 0.000176234
107 *40:240 *2454:B 0.000146474
108 *40:240 *1384:10 0.000380866
109 *1972:A *40:85 4.43256e-05
110 *1972:A *40:91 0.000528198
111 *2005:A *2005:B 9.90367e-05
112 *2450:A *2453:B 0.000340059
113 *2453:A *2453:B 5.62995e-05
114 *2517:A *40:240 0.000125731
115 *2518:B *40:240 0
116 *2520:A *40:238 0
117 *2532:B *2720:B 0.000173804
118 *2583:A *2583:B 3.99614e-06
119 *2583:A *40:213 3.18676e-05
120 *2650:A *40:170 0.000149904
121 *2651:A *40:170 0.000393949
122 *2660:A *40:45 2.79421e-05
123 *2717:A *40:170 0.000142152
124 *2720:A *2720:B 5.52238e-05
125 *2736:A *2736:B 0.000230482
126 *2747:B *2736:B 0.000201127
127 *2747:B *2769:B 0.00017096
128 *2793:A *2919:B 0.000128818
129 *2852:A *2853:B 0.000227532
130 *2853:A *2853:B 5.46298e-05
131 *2884:B *40:185 0.000186662
132 *2885:B *40:185 0.000340649
133 *2885:B *40:198 0.000159049
134 *2919:A *2919:B 7.80274e-05
135 *3:140 *2005:B 5.6677e-05
136 *3:204 *2769:B 8.6229e-06
137 *6:107 *2453:B 0
138 *7:225 *40:185 2.95641e-05
139 *7:225 *40:198 0.000134529
140 *8:139 *40:185 0.000307343
141 *8:143 *40:45 0.000206953
142 *12:30 *40:22 0.00021837
143 *12:30 *40:32 0.000492338
144 *12:30 *40:153 0.000138178
145 *12:36 *40:32 0.000167266
146 *12:157 *40:45 0
147 *12:157 *40:47 0
148 *17:271 *40:213 3.48705e-05
149 *17:271 *40:224 0.000136019
150 *17:277 *40:213 8.29802e-05
151 *18:98 *40:213 9.60939e-05
152 *18:109 *40:213 0.000487467
153 *19:11 *2783:B 0.00015626
154 *20:19 *2783:B 0.000344748
155 *21:15 *40:22 0.000229602
156 *21:15 *40:32 1.02504e-05
157 *21:15 *40:153 6.62299e-06
158 *21:19 *40:32 0.000791222
159 *21:31 *40:32 0.000171308
160 *22:175 *40:32 2.75452e-05
161 *22:182 *40:32 5.45307e-05
162 *22:182 *40:45 0.000299935
163 *22:201 *40:45 0.00050268
164 *25:74 *2005:B 0
165 *25:74 *40:45 0.000235085
166 *25:74 *40:47 0.00111422
167 *25:74 *40:51 0.000556844
168 *30:11 *2783:B 2.11419e-05
169 *30:60 *40:170 0.000103253
170 *30:73 *40:170 1.97695e-05
171 *30:104 *2005:B 9.97744e-05
172 *30:104 *40:51 0
173 *30:106 *2005:B 2.58997e-05
174 *30:120 *2005:B 1.28585e-05
175 *30:221 *40:240 0
176 *31:7 *40:5 0.000232623
177 *32:207 *40:47 0
178 *32:207 *40:51 0
179 *38:295 *40:20 0
180 *39:9 *40:5 0.000476603
181 *39:9 *40:20 0.000121004
182 *39:174 *2453:B 5.62613e-05
*RES
1 yP[7] *40:5 1.30973 
2 *40:5 *2783:B 21.7368 
3 *40:5 *40:20 4.3218 
4 *40:20 *40:22 5.4375 
5 *40:22 *40:32 28.375 
6 *40:32 *2916:B 9.72857 
7 *40:32 *40:45 29.1429 
8 *40:45 *40:47 14.3929 
9 *40:47 *40:51 11.6071 
10 *40:51 *2919:B 16.05 
11 *40:51 *40:66 2.58929 
12 *40:66 *2005:B 24.9429 
13 *40:66 *40:85 17.5179 
14 *40:85 *40:91 9.98214 
15 *40:91 *2769:B 16.3536 
16 *40:91 *2736:B 20.6929 
17 *40:85 *1972:B 9.3 
18 *40:47 *2853:B 16.4071 
19 *40:45 *2786:B 13.8 
20 *40:22 *2850:B 13.8 
21 *40:20 *40:153 17.1339 
22 *40:153 *2717:B 9.3 
23 *40:153 *40:170 20.25 
24 *40:170 *2650:B 9.3 
25 *40:170 *40:185 14.5714 
26 *40:185 *2653:B 9.3 
27 *40:185 *40:198 12 
28 *40:198 *2720:B 24.7821 
29 *40:198 *40:213 16.5357 
30 *40:213 *2583:B 10.0321 
31 *40:213 *40:224 9.96429 
32 *40:224 *40:230 11.5893 
33 *40:230 *40:238 9.25 
34 *40:238 *40:240 4.98214 
35 *40:240 *2453:B 22.2643 
36 *40:240 *2450:B 14.3357 
37 *40:238 *2517:B 14.3357 
38 *40:230 *2520:B 9.3 
39 *40:224 *2586:B 18.175 
*END

*D_NET *41 0.0417982
*CONN
*P yP[8] I
*I *2723:B I *D sky130_fd_sc_hd__and2_1
*I *2593:B I *D sky130_fd_sc_hd__and2_1
*I *2589:B I *D sky130_fd_sc_hd__and2_1
*I *2656:B I *D sky130_fd_sc_hd__and2_1
*I *2856:B I *D sky130_fd_sc_hd__and2_1
*I *2456:B I *D sky130_fd_sc_hd__and2_1
*I *2523:B I *D sky130_fd_sc_hd__and2_1
*I *2527:B I *D sky130_fd_sc_hd__and2_1
*I *2460:B I *D sky130_fd_sc_hd__and2_1
*I *2660:B I *D sky130_fd_sc_hd__and2_1
*I *2802:B I *D sky130_fd_sc_hd__and2_1
*I *2072:B I *D sky130_fd_sc_hd__and2_1
*I *2038:B I *D sky130_fd_sc_hd__and2_1
*I *2836:B I *D sky130_fd_sc_hd__and2_1
*I *2793:B I *D sky130_fd_sc_hd__and2_1
*I *2727:B I *D sky130_fd_sc_hd__and2_1
*I *2860:B I *D sky130_fd_sc_hd__and2_1
*I *2926:B I *D sky130_fd_sc_hd__and2_1
*I *2922:B I *D sky130_fd_sc_hd__and2_1
*I *2789:B I *D sky130_fd_sc_hd__and2_1
*CAP
1 yP[8] 0.000463366
2 *2723:B 0.000124611
3 *2593:B 0.000262839
4 *2589:B 0
5 *2656:B 0
6 *2856:B 0
7 *2456:B 0
8 *2523:B 0.000367256
9 *2527:B 0
10 *2460:B 0
11 *2660:B 0
12 *2802:B 0.000415104
13 *2072:B 3.99336e-05
14 *2038:B 2.84178e-05
15 *2836:B 0
16 *2793:B 0.000395344
17 *2727:B 0
18 *2860:B 0.000660631
19 *2926:B 8.28335e-05
20 *2922:B 0.000308784
21 *2789:B 7.32351e-05
22 *41:256 0.000508887
23 *41:243 0.00144737
24 *41:203 0.00104199
25 *41:192 0.00159107
26 *41:175 0.00112299
27 *41:153 0.000983066
28 *41:124 0.000846928
29 *41:114 0.000480002
30 *41:112 0.00121521
31 *41:106 0.000893832
32 *41:104 0.000928051
33 *41:87 0.0017504
34 *41:55 0.000823022
35 *41:40 0.000917795
36 *41:34 0.00154667
37 *41:30 0.000621101
38 *41:11 0.000835232
39 *41:9 0.00157478
40 *41:7 0.000625669
41 *2523:B *2529:B 5.48581e-05
42 *2523:B *638:12 0.000137983
43 *2523:B *692:10 0
44 *2523:B *1132:12 0
45 *2523:B *1133:10 0
46 *2593:B *2534:B 4.46186e-06
47 *2593:B *206:14 0.0001008
48 *2723:B *2381:A 4.47395e-05
49 *2802:B *2094:B 0.000227526
50 *2802:B *2924:A 3.5707e-05
51 *2802:B *2924:B 0
52 *2802:B *3237:A 0.000270229
53 *2860:B *2102:B 5.52238e-05
54 *2860:B *2862:B 9.80173e-05
55 *2860:B *2866:B 0.00010975
56 *2860:B *2868:B 0.000141132
57 *2922:B *2927:A 0.000144773
58 *41:7 zP[16] 0
59 *41:9 *2381:A 3.98154e-05
60 *41:11 *2381:A 1.99099e-05
61 *41:11 *2381:B 0.00012401
62 *41:11 *2384:B 0
63 *41:11 *524:12 1.41029e-05
64 *41:30 *2794:B 0.00010326
65 *41:30 *2800:B 0.000153047
66 *41:34 *2861:A 7.32272e-05
67 *41:40 *2861:B 3.92757e-05
68 *41:40 *3234:B1 0.000148189
69 *41:40 *1075:14 3.55407e-05
70 *41:40 *1379:12 0.000103267
71 *41:87 *2386:A 8.69765e-05
72 *41:87 *2388:B 3.32012e-05
73 *41:87 *2861:A 6.05161e-06
74 *41:87 *521:12 1.17907e-05
75 *41:104 *2729:B 5.52302e-05
76 *41:104 *42:132 0.000237013
77 *41:104 *818:6 0.000135028
78 *41:104 *878:6 0.000140933
79 *41:112 *2083:B 0.0001399
80 *41:112 *2105:B 0.000153047
81 *41:124 *2855:B 6.05161e-06
82 *41:153 *2083:A 4.43256e-05
83 *41:153 *2083:B 0.000139913
84 *41:192 *2662:B 5.24274e-05
85 *41:192 *3309:A 0.000266473
86 *41:192 *3310:B 1.21258e-05
87 *41:192 *1453:12 5.71472e-05
88 *41:203 *3239:A 0
89 *41:203 *578:8 0
90 *41:203 *1132:12 0
91 *41:203 *1382:14 4.46186e-06
92 *41:243 *2667:A 5.52238e-05
93 *41:243 *2667:B 0.00010096
94 *41:243 *2854:A 7.32272e-05
95 *41:243 *2854:B 7.47221e-05
96 *41:243 *3229:A 9.21933e-05
97 *41:243 *3229:B 0.000141734
98 *41:243 *1002:10 2.15245e-05
99 *41:243 *1374:12 0.000230155
100 *2038:A *41:112 2.14757e-05
101 *2116:A *41:112 4.51611e-05
102 *2127:B *2802:B 0
103 *2456:A *41:104 5.33334e-05
104 *2460:A *41:192 5.33433e-05
105 *2460:A *41:203 0.000236814
106 *2527:A *2523:B 0
107 *2650:A *41:243 1.17968e-05
108 *2663:A *41:243 0.000136834
109 *2724:B *2723:B 0
110 *2785:B *41:104 0.000175882
111 *2880:A *2793:B 1.02504e-05
112 *2880:A *41:124 0.000190162
113 *2905:B *41:243 0.000177948
114 *2912:A *41:104 4.25622e-05
115 *2912:B *41:104 7.2754e-05
116 *2917:B *41:11 0.000373725
117 *2917:B *41:30 5.92447e-05
118 *2919:B *2793:B 0.000355009
119 *2925:B *2926:B 1.30413e-05
120 *3:140 *2793:B 0.000173097
121 *4:223 *41:153 7.32173e-05
122 *4:244 *41:112 3.80647e-05
123 *4:244 *41:153 8.33883e-05
124 *5:109 *2802:B 0.00019049
125 *5:139 *41:203 2.89114e-05
126 *5:145 *41:203 0
127 *6:128 *2523:B 0.000178847
128 *6:130 *2523:B 0.000405727
129 *7:225 *2593:B 1.02504e-05
130 *7:237 *2593:B 0.000177948
131 *9:60 *41:87 5.33005e-05
132 *9:78 *41:87 4.40249e-05
133 *9:78 *41:104 0.000134882
134 *10:32 *41:30 7.80714e-06
135 *10:51 *41:87 0.000557639
136 *10:91 *41:87 4.08637e-05
137 *10:91 *41:104 0.000155895
138 *11:23 *2723:B 0.000256928
139 *11:23 *41:9 8.88838e-05
140 *11:23 *41:11 5.66157e-05
141 *11:23 *41:243 2.59355e-05
142 *11:39 *2789:B 2.69614e-05
143 *11:39 *41:11 0.00017516
144 *11:39 *41:30 5.88692e-05
145 *11:41 *41:40 0
146 *11:47 *41:40 0
147 *11:53 *2860:B 0.000253544
148 *11:53 *2922:B 0.000114938
149 *11:53 *41:55 6.57815e-05
150 *11:72 *2860:B 0.000382404
151 *12:36 *2926:B 0.000212131
152 *12:36 *41:40 3.06406e-05
153 *12:40 *2926:B 3.23542e-05
154 *12:124 *41:104 9.69119e-06
155 *12:157 *41:104 0.000140933
156 *12:157 *41:175 0.000103981
157 *14:237 *2793:B 5.94923e-05
158 *14:237 *41:124 0.000150358
159 *14:260 *2802:B 3.44391e-05
160 *14:260 *41:153 1.65169e-05
161 *16:222 *2523:B 0.000329603
162 *18:25 *2038:B 4.38621e-05
163 *18:25 *41:124 0.000318309
164 *18:59 *41:192 0
165 *18:65 *2593:B 0.000277986
166 *18:65 *41:256 0.000562529
167 *20:68 *41:104 9.90431e-05
168 *20:80 *41:104 2.07491e-05
169 *21:31 *41:30 5.52302e-05
170 *21:31 *41:34 3.53302e-05
171 *21:41 *41:34 1.97695e-05
172 *25:74 *41:192 0
173 *29:198 *2593:B 0.000891374
174 *29:198 *41:256 0.000655748
175 *30:102 *41:112 0.000196057
176 *30:104 *41:124 0.000117144
177 *31:7 *41:7 0.000467656
178 *31:23 *41:30 0.000235314
179 *31:23 *41:40 0
180 *31:40 *2926:B 0.000197635
181 *31:40 *41:40 0.000534573
182 *31:140 *41:112 7.83587e-05
183 *31:196 *41:112 0.00013651
184 *31:196 *41:175 0.000389154
185 *31:196 *41:192 1.02504e-05
186 *31:247 *2723:B 0
187 *32:9 *41:7 0
188 *32:23 *41:40 0.00081683
189 *32:155 *41:11 0.000171375
190 *32:155 *41:243 2.59355e-05
191 *32:163 *41:243 0.000102463
192 *32:199 *41:112 2.59355e-05
193 *32:207 *41:112 5.66157e-05
194 *38:313 *2038:B 2.39664e-05
195 *38:313 *41:124 0.000168217
196 *40:20 *41:7 0
197 *40:45 *41:175 0
198 *40:45 *41:192 0
199 *40:47 *41:112 0
200 *40:47 *41:175 0
201 *40:66 *2793:B 0.000260954
202 *40:85 *2793:B 0.00016641
*RES
1 yP[8] *41:7 5.08007 
2 *41:7 *41:9 1.1875 
3 *41:9 *41:11 9.99107 
4 *41:11 *2789:B 15.4518 
5 *41:11 *41:30 15.3304 
6 *41:30 *41:34 2.91071 
7 *41:34 *41:40 24.9107 
8 *41:40 *2922:B 14.4071 
9 *41:40 *41:55 1.35714 
10 *41:55 *2926:B 21.4607 
11 *41:55 *2860:B 22.9964 
12 *41:34 *41:87 16.3393 
13 *41:87 *2727:B 9.3 
14 *41:87 *41:104 28.4643 
15 *41:104 *41:106 4.5 
16 *41:106 *41:112 17.4643 
17 *41:112 *41:114 4.5 
18 *41:114 *41:124 21.3571 
19 *41:124 *2793:B 23.5679 
20 *41:124 *2836:B 13.8 
21 *41:114 *2038:B 14.5321 
22 *41:112 *41:153 6.69643 
23 *41:153 *2072:B 10.0321 
24 *41:153 *2802:B 27.8 
25 *41:106 *41:175 4.98214 
26 *41:175 *2660:B 13.8 
27 *41:175 *41:192 20.5357 
28 *41:192 *2460:B 9.3 
29 *41:192 *41:203 16.25 
30 *41:203 *2527:B 13.8 
31 *41:203 *2523:B 24.3714 
32 *41:104 *2456:B 9.3 
33 *41:30 *2856:B 9.3 
34 *41:9 *41:243 35.5893 
35 *41:243 *2656:B 9.3 
36 *41:243 *41:256 8.91071 
37 *41:256 *2589:B 9.3 
38 *41:256 *2593:B 28.3357 
39 *41:7 *2723:B 17.1125 
*END

*D_NET *42 0.0420257
*CONN
*P yP[9] I
*I *2663:B I *D sky130_fd_sc_hd__and2_1
*I *2530:B I *D sky130_fd_sc_hd__and2_1
*I *2533:B I *D sky130_fd_sc_hd__and2_1
*I *2463:B I *D sky130_fd_sc_hd__and2_1
*I *2466:B I *D sky130_fd_sc_hd__and2_1
*I *2138:B I *D sky130_fd_sc_hd__and2_1
*I *2105:B I *D sky130_fd_sc_hd__and2_1
*I *2599:B I *D sky130_fd_sc_hd__and2_1
*I *2666:B I *D sky130_fd_sc_hd__and2_1
*I *2866:B I *D sky130_fd_sc_hd__and2_1
*I *2799:B I *D sky130_fd_sc_hd__and2_1
*I *2932:B I *D sky130_fd_sc_hd__and2_1
*I *2929:B I *D sky130_fd_sc_hd__and2_1
*I *2863:B I *D sky130_fd_sc_hd__and2_1
*I *2733:B I *D sky130_fd_sc_hd__and2_1
*I *2902:B I *D sky130_fd_sc_hd__and2_1
*I *2869:B I *D sky130_fd_sc_hd__and2_1
*I *2596:B I *D sky130_fd_sc_hd__and2_1
*I *2730:B I *D sky130_fd_sc_hd__and2_1
*I *2796:B I *D sky130_fd_sc_hd__and2_1
*CAP
1 yP[9] 0.000401378
2 *2663:B 2.46434e-05
3 *2530:B 4.15713e-05
4 *2533:B 0
5 *2463:B 1.16062e-05
6 *2466:B 0.000221931
7 *2138:B 0.000104068
8 *2105:B 7.62936e-05
9 *2599:B 0.00047078
10 *2666:B 0
11 *2866:B 0.000406856
12 *2799:B 0.000154587
13 *2932:B 3.75339e-05
14 *2929:B 0
15 *2863:B 0.000499201
16 *2733:B 0.000751836
17 *2902:B 0.000127357
18 *2869:B 0.000207845
19 *2596:B 1.91209e-05
20 *2730:B 3.59657e-05
21 *2796:B 0.000211565
22 *42:173 0.0008904
23 *42:157 0.00112851
24 *42:140 0.00167263
25 *42:138 0.000464589
26 *42:136 0.000884526
27 *42:132 0.000783418
28 *42:120 0.00131407
29 *42:114 0.00100939
30 *42:112 0.000588603
31 *42:84 0.000757308
32 *42:80 0.00118505
33 *42:76 0.00100965
34 *42:74 0.000642787
35 *42:66 0.000682927
36 *42:60 0.000492013
37 *42:51 0.000928702
38 *42:45 0.00233041
39 *42:20 0.00180608
40 *42:9 0.000612943
41 *2530:B *2534:A 6.05161e-06
42 *2599:B *1966:A 4.98872e-05
43 *2599:B *1966:B 0.000123295
44 *2599:B *2788:A 3.47737e-05
45 *2599:B *147:10 0.000414047
46 *2733:B *541:18 0
47 *2799:B *2032:A 9.41642e-05
48 *2863:B *2867:A 0
49 *2863:B *2927:B 4.94338e-05
50 *2863:B *1015:12 0
51 *2866:B *2104:B1 9.41642e-05
52 *42:9 *2734:B 9.05914e-05
53 *42:45 *2734:A 0.000127983
54 *42:45 *2734:B 5.52238e-05
55 *42:45 *3103:A 2.89114e-05
56 *42:45 *3105:A 0.000117553
57 *42:45 *3105:B 1.21258e-05
58 *42:45 *883:6 2.59355e-05
59 *42:60 *2534:A 2.89016e-05
60 *42:60 *2534:B 1.32552e-05
61 *42:66 *2535:B 5.01117e-05
62 *42:74 *2467:A 4.57445e-05
63 *42:74 *2467:B 9.41642e-05
64 *42:74 *1455:10 0.000187733
65 *42:76 *1455:10 4.73656e-05
66 *42:80 *2881:A 0.000100823
67 *42:80 *871:12 0
68 *42:80 *1085:12 0.000428217
69 *42:80 *1453:12 0
70 *42:80 *1455:10 0.000267814
71 *42:84 *2913:A 3.79467e-05
72 *42:84 *1085:12 4.89264e-05
73 *42:84 *1457:10 0.0005261
74 *42:132 *2668:B 0.000270326
75 *42:132 *818:6 0.000136958
76 *42:136 *279:8 0.000536787
77 *42:136 *1010:8 0.000163847
78 *42:138 *2033:B 4.49293e-05
79 *42:138 *1010:8 0.000148911
80 *42:140 *2033:B 0.000148911
81 *42:140 *2035:A1 0
82 *42:140 *541:18 0
83 *42:157 *2801:A 5.71472e-05
84 *42:157 *2934:A 7.32955e-05
85 *42:173 *1379:12 0.000102053
86 *2127:A *2138:B 0
87 *2456:A *42:80 5.41797e-06
88 *2457:A *2138:B 6.86792e-05
89 *2457:A *42:114 0.000351609
90 *2457:A *42:120 6.05161e-06
91 *2463:A *2463:B 5.52302e-05
92 *2464:A *2463:B 5.52302e-05
93 *2464:A *2466:B 0.000183726
94 *2532:B *42:74 9.41642e-05
95 *2596:A *42:60 9.71197e-05
96 *2597:B *2596:B 0
97 *2598:A *2599:B 3.34366e-05
98 *2599:A *2596:B 0
99 *2599:A *42:51 0.000186662
100 *2665:A *42:120 0.000293224
101 *2666:A *42:136 1.02504e-05
102 *2726:B *42:132 0
103 *2732:B *2733:B 0.0009753
104 *2732:B *42:157 3.14193e-05
105 *2793:A *42:140 0
106 *2798:A *42:157 9.90367e-05
107 *2799:A *2799:B 6.71755e-05
108 *2853:A *42:136 0.000176234
109 *2860:B *2866:B 0.00010975
110 *2905:B *2663:B 2.84494e-05
111 *2905:B *42:45 3.69697e-05
112 *2918:B *2733:B 2.30741e-05
113 *2922:A *2863:B 0.000180111
114 *2930:A *42:173 7.51077e-05
115 *2930:B *42:173 2.89016e-05
116 *2931:A *42:157 0.000227526
117 *2931:B *2932:B 1.04232e-05
118 *2931:B *42:157 4.88637e-05
119 *2932:A *42:173 0.000100474
120 *3:151 *2869:B 0.000184745
121 *3:151 *2902:B 0.000178847
122 *3:158 *2902:B 8.36572e-05
123 *5:147 *2466:B 8.27532e-05
124 *6:134 *2530:B 4.27935e-05
125 *6:134 *42:60 0.00022266
126 *7:247 *42:51 2.44318e-05
127 *8:158 *2663:B 1.69115e-05
128 *8:158 *42:45 2.56694e-05
129 *8:175 *2663:B 4.1331e-06
130 *10:32 *42:45 0.000414762
131 *10:38 *2796:B 0.000369811
132 *10:57 *42:136 0.000551679
133 *11:39 *2796:B 0.000410191
134 *11:39 *42:9 1.18064e-05
135 *11:41 *2796:B 0.000346632
136 *11:47 *2863:B 0.000225307
137 *11:53 *2863:B 0.000202842
138 *11:72 *2866:B 0.000833732
139 *12:165 *42:80 0
140 *15:195 *42:84 0.000351657
141 *15:212 *42:80 0.000105202
142 *15:212 *42:84 0.000442032
143 *15:227 *42:80 0.000301496
144 *15:262 *42:74 9.69119e-06
145 *15:262 *42:76 1.65558e-05
146 *15:262 *42:80 0.000119267
147 *18:59 *42:66 2.00751e-05
148 *19:25 *2730:B 1.58163e-05
149 *19:25 *42:45 2.74464e-05
150 *19:45 *42:120 4.02462e-05
151 *20:21 *2796:B 2.23987e-05
152 *20:38 *2599:B 9.37977e-05
153 *20:44 *2599:B 0
154 *20:44 *42:120 4.38129e-05
155 *20:44 *42:132 1.05524e-05
156 *20:68 *42:132 5.52238e-05
157 *21:19 *42:45 0.000218123
158 *22:153 *42:173 0.000103236
159 *31:15 *2796:B 0.000367389
160 *31:15 *42:9 0.000104528
161 *31:83 *42:132 6.87245e-05
162 *31:85 *42:136 0.000161234
163 *31:91 *42:136 1.59782e-05
164 *31:91 *42:138 6.41079e-05
165 *31:91 *42:140 2.8266e-06
166 *31:136 *42:120 7.6644e-05
167 *31:136 *42:132 0.00047369
168 *31:151 *42:114 0.000227532
169 *31:218 *2466:B 5.59013e-05
170 *31:218 *42:74 0
171 *32:9 *42:9 0.000422693
172 *32:23 *2863:B 0
173 *32:38 *2863:B 0
174 *32:44 *2863:B 0
175 *32:44 *42:157 1.21289e-05
176 *32:44 *42:173 5.76121e-05
177 *32:52 *42:157 0.000277996
178 *32:155 *42:45 0.000315709
179 *32:163 *42:51 0.000458732
180 *32:174 *2530:B 0
181 *32:174 *42:51 2.77289e-05
182 *32:174 *42:60 0.00028726
183 *32:187 *42:60 5.33005e-05
184 *32:187 *42:66 5.03694e-05
185 *32:199 *2599:B 0
186 *32:199 *42:120 0
187 *32:222 *2869:B 7.09224e-05
188 *34:89 *2869:B 0.000220448
189 *34:89 *42:84 0
190 *38:313 *42:80 0
191 *40:47 *2105:B 0
192 *41:104 *42:132 0.000237013
193 *41:112 *2105:B 0.000153047
*RES
1 yP[9] *42:9 6.28287 
2 *42:9 *2796:B 23.6393 
3 *42:9 *42:20 4.5 
4 *42:20 *2730:B 9.83571 
5 *42:20 *42:45 40.75 
6 *42:45 *42:51 12.4464 
7 *42:51 *2596:B 9.72857 
8 *42:51 *42:60 7.92857 
9 *42:60 *42:66 10.9464 
10 *42:66 *42:74 15.4107 
11 *42:74 *42:76 0.732143 
12 *42:76 *42:80 19.7857 
13 *42:80 *42:84 18.8929 
14 *42:84 *2869:B 23.7643 
15 *42:84 *2902:B 11.8893 
16 *42:80 *42:112 4.5 
17 *42:112 *42:114 8.75 
18 *42:114 *42:120 13.0804 
19 *42:120 *42:132 15.8482 
20 *42:132 *42:136 19.8036 
21 *42:136 *42:138 2.55357 
22 *42:138 *42:140 4.07143 
23 *42:140 *2733:B 25.4429 
24 *42:140 *42:157 18.1786 
25 *42:157 *42:173 16.8036 
26 *42:173 *2863:B 28.675 
27 *42:173 *2929:B 9.3 
28 *42:157 *2932:B 10.0321 
29 *42:138 *2799:B 16.4071 
30 *42:136 *2866:B 22.9964 
31 *42:132 *2666:B 9.3 
32 *42:120 *2599:B 24.6304 
33 *42:114 *2105:B 20.2464 
34 *42:112 *2138:B 11.0857 
35 *42:76 *2466:B 26.1214 
36 *42:74 *2463:B 14.3357 
37 *42:66 *2533:B 9.3 
38 *42:60 *2530:B 10.2643 
39 *42:45 *2663:B 14.5321 
*END

*D_NET *43 0.00526877
*CONN
*P zN[0] O
*I *2109:X O *D sky130_fd_sc_hd__and2_1
*CAP
1 zN[0] 0.00217964
2 *2109:X 0.00217964
3 zN[0] zP[0] 0.000375849
4 zN[0] *2404:B 0.000111448
5 zN[0] *2407:B 1.83136e-05
6 zN[0] *2417:A 8.47668e-06
7 zN[0] *2418:B 2.79708e-06
8 zN[0] *2933:A 0
9 zN[0] *541:18 0.000265974
10 zN[0] *545:6 0.000126639
11 zN[0] *1081:12 0
12 *2922:A zN[0] 0
13 *11:53 zN[0] 0
*RES
1 *2109:X zN[0] 46.1868 
*END

*D_NET *44 0.00309933
*CONN
*P zN[10] O
*I *2277:X O *D sky130_fd_sc_hd__and2_1
*CAP
1 zN[10] 0.000922448
2 *2277:X 0.000922448
3 zN[10] zP[10] 0.00116241
4 zN[10] *2275:A 5.71472e-05
5 zN[10] *2275:B 3.48705e-05
*RES
1 *2277:X zN[10] 26.6366 
*END

*D_NET *45 0.0048797
*CONN
*P zN[11] O
*I *2296:X O *D sky130_fd_sc_hd__and2_1
*CAP
1 zN[11] 0.00151358
2 *2296:X 0.00151358
3 zN[11] zP[11] 0.00185254
*RES
1 *2296:X zN[11] 32.1723 
*END

*D_NET *46 0.00214514
*CONN
*P zN[12] O
*I *2313:X O *D sky130_fd_sc_hd__and2_1
*CAP
1 zN[12] 0.00105979
2 *2313:X 0.00105979
3 zN[12] zP[12] 0
4 zN[12] *2311:B 2.55587e-05
*RES
1 *2313:X zN[12] 33.7107 
*END

*D_NET *47 0.00186693
*CONN
*P zN[13] O
*I *2331:X O *D sky130_fd_sc_hd__and2_1
*CAP
1 zN[13] 0.000522672
2 *2331:X 0.000522672
3 zN[13] zP[13] 0.000671882
4 zN[13] *2329:B 5.62995e-05
5 zN[13] *2330:A 8.89385e-05
6 zN[13] *2331:B 0
7 zN[13] *473:10 4.46186e-06
*RES
1 *2331:X zN[13] 29.4607 
*END

*D_NET *48 0.00195832
*CONN
*P zN[14] O
*I *2348:X O *D sky130_fd_sc_hd__and2_1
*CAP
1 zN[14] 0.000582813
2 *2348:X 0.000582813
3 zN[14] zP[14] 0.000572523
4 zN[14] *2345:A 0.000128154
5 zN[14] *2348:B 5.71472e-05
6 zN[14] *485:6 3.48705e-05
*RES
1 *2348:X zN[14] 29.2643 
*END

*D_NET *49 0.00176619
*CONN
*P zN[15] O
*I *2366:X O *D sky130_fd_sc_hd__and2_1
*CAP
1 zN[15] 0.000521652
2 *2366:X 0.000521652
3 zN[15] zP[15] 0.00064232
4 zN[15] *2366:B 2.34204e-05
5 zN[15] *499:12 5.71472e-05
*RES
1 *2366:X zN[15] 28.4429 
*END

*D_NET *50 0.00123461
*CONN
*P zN[16] O
*I *2384:X O *D sky130_fd_sc_hd__and2_1
*CAP
1 zN[16] 0.000369525
2 *2384:X 0.000369525
3 zN[16] zP[16] 0.000245823
4 *32:9 zN[16] 0.00024974
*RES
1 *2384:X zN[16] 21.5586 
*END

*D_NET *51 0.0013736
*CONN
*P zN[17] O
*I *2402:X O *D sky130_fd_sc_hd__and2_1
*CAP
1 zN[17] 0.000462319
2 *2402:X 0.000462319
3 zN[17] zP[17] 0.000448958
*RES
1 *2402:X zN[17] 22.9349 
*END

*D_NET *52 0.00137417
*CONN
*P zN[18] O
*I *2420:X O *D sky130_fd_sc_hd__and2_1
*CAP
1 zN[18] 0.000473636
2 *2420:X 0.000473636
3 zN[18] zP[18] 0.000381937
4 zN[18] *2417:A 0
5 zN[18] *2420:B 4.49599e-05
*RES
1 *2420:X zN[18] 22.0975 
*END

*D_NET *53 0.0014837
*CONN
*P zN[19] O
*I *2429:X O *D sky130_fd_sc_hd__and2_1
*CAP
1 zN[19] 0.000686994
2 *2429:X 0.000686994
3 zN[19] zP[19] 0.000109709
4 zN[19] *2428:A 0
5 zN[19] *552:12 0
*RES
1 *2429:X zN[19] 22.919 
*END

*D_NET *54 0.00592276
*CONN
*P zN[1] O
*I *2118:X O *D sky130_fd_sc_hd__and2_1
*CAP
1 zN[1] 0.00261444
2 *2118:X 0.00261444
3 zN[1] zP[0] 0
4 zN[1] zP[18] 0
5 zN[1] *2109:B 4.35511e-05
6 zN[1] *2113:A 2.51343e-06
7 zN[1] *2118:A 2.89016e-05
8 zN[1] *284:14 0.000618913
9 zN[1] *548:10 0
*RES
1 *2118:X zN[1] 37.8004 
*END

*D_NET *55 0.00095082
*CONN
*P zN[20] O
*I *3380:LO O *D sky130_fd_sc_hd__conb_1
*CAP
1 zN[20] 0.00047541
2 *3380:LO 0.00047541
*RES
1 *3380:LO zN[20] 22.5765 
*END

*D_NET *56 0.000961227
*CONN
*P zN[21] O
*I *3382:LO O *D sky130_fd_sc_hd__conb_1
*CAP
1 zN[21] 0.000480613
2 *3382:LO 0.000480613
*RES
1 *3382:LO zN[21] 19.4037 
*END

*D_NET *57 0.00294315
*CONN
*P zN[2] O
*I *2135:X O *D sky130_fd_sc_hd__and2_1
*CAP
1 zN[2] 0.00066911
2 *2135:X 0.00066911
3 zN[2] zP[2] 0.000194113
4 zN[2] zP[3] 5.52238e-05
5 zN[2] *2150:A 1.37743e-05
6 zN[2] *2151:B 9.29472e-05
7 zN[2] *2153:B 6.10591e-05
8 *7:13 zN[2] 0
9 *15:99 zN[2] 5.52238e-05
10 *18:15 zN[2] 0.000966909
11 *24:190 zN[2] 2.44318e-05
12 *24:205 zN[2] 0.000141244
*RES
1 *2135:X zN[2] 32.925 
*END

*D_NET *58 0.00129578
*CONN
*P zN[3] O
*I *2153:X O *D sky130_fd_sc_hd__and2_1
*CAP
1 zN[3] 0.000412106
2 *2153:X 0.000412106
3 zN[3] zP[3] 0.000452276
4 zN[3] *2153:A 1.92905e-05
*RES
1 *2153:X zN[3] 24.4429 
*END

*D_NET *59 0.00203243
*CONN
*P zN[4] O
*I *2170:X O *D sky130_fd_sc_hd__and2_1
*CAP
1 zN[4] 0.000440714
2 *2170:X 0.000440714
3 zN[4] zP[4] 0.000396741
4 zN[4] *2167:A 2.14658e-05
5 zN[4] *2170:A 9.60939e-05
6 *14:25 zN[4] 4.46186e-06
7 *25:7 zN[4] 0.000448999
8 *25:25 zN[4] 0.000183237
9 *35:5 zN[4] 0
*RES
1 *2170:X zN[4] 27.6929 
*END

*D_NET *60 0.00163698
*CONN
*P zN[5] O
*I *2189:X O *D sky130_fd_sc_hd__and2_1
*CAP
1 zN[5] 0.000481984
2 *2189:X 0.000481984
3 zN[5] zP[5] 0.000463018
4 zN[5] *2187:B 0.000154762
5 zN[5] *2188:A 5.52302e-05
*RES
1 *2189:X zN[5] 26.8714 
*END

*D_NET *61 0.00173666
*CONN
*P zN[6] O
*I *2207:X O *D sky130_fd_sc_hd__and2_1
*CAP
1 zN[6] 0.000513634
2 *2207:X 0.000513634
3 zN[6] zP[6] 0.000592282
4 zN[6] *2203:A 8.37469e-05
5 zN[6] *2207:B 2.89016e-05
6 zN[6] *368:8 4.46186e-06
*RES
1 *2207:X zN[6] 28.1393 
*END

*D_NET *62 0.00293051
*CONN
*P zN[7] O
*I *2224:X O *D sky130_fd_sc_hd__and2_1
*CAP
1 zN[7] 0.000881223
2 *2224:X 0.000881223
3 zN[7] zP[7] 0.000826333
4 zN[7] *2221:A 0.000286505
5 zN[7] *379:10 5.52238e-05
*RES
1 *2224:X zN[7] 30.377 
*END

*D_NET *63 0.00199761
*CONN
*P zN[8] O
*I *2242:X O *D sky130_fd_sc_hd__and2_1
*CAP
1 zN[8] 0.000828238
2 *2242:X 0.000828238
3 zN[8] zP[8] 0.000288819
4 zN[8] *2240:B 5.23142e-05
*RES
1 *2242:X zN[8] 30.7074 
*END

*D_NET *64 0.00291811
*CONN
*P zN[9] O
*I *2259:X O *D sky130_fd_sc_hd__and2_1
*CAP
1 zN[9] 0.0011452
2 *2259:X 0.0011452
3 zN[9] zP[9] 0.000604975
4 zN[9] *2257:A 2.27416e-05
*RES
1 *2259:X zN[9] 28.8413 
*END

*D_NET *65 0.00540233
*CONN
*P zP[0] O
*I *2107:X O *D sky130_fd_sc_hd__and2_1
*CAP
1 zP[0] 0.00223834
2 *2107:X 0.00223834
3 zP[0] *2103:B 0.000242637
4 zP[0] *2109:B 2.16315e-05
5 zP[0] *2801:A 7.73758e-05
6 zP[0] *284:14 0
7 zP[0] *541:18 0.000208147
8 zN[0] zP[0] 0.000375849
9 zN[1] zP[0] 0
*RES
1 *2107:X zP[0] 31.0934 
*END

*D_NET *66 0.00352639
*CONN
*P zP[10] O
*I *2275:X O *D sky130_fd_sc_hd__and2_1
*CAP
1 zP[10] 0.00118199
2 *2275:X 0.00118199
3 zN[10] zP[10] 0.00116241
*RES
1 *2275:X zP[10] 30.2699 
*END

*D_NET *67 0.00457209
*CONN
*P zP[11] O
*I *2293:X O *D sky130_fd_sc_hd__and2_1
*CAP
1 zP[11] 0.00135978
2 *2293:X 0.00135978
3 zN[11] zP[11] 0.00185254
*RES
1 *2293:X zP[11] 40.8235 
*END

*D_NET *68 0.00206268
*CONN
*P zP[12] O
*I *2311:X O *D sky130_fd_sc_hd__and2_1
*CAP
1 zP[12] 0.00103134
2 *2311:X 0.00103134
3 zN[12] zP[12] 0
*RES
1 *2311:X zP[12] 33.3 
*END

*D_NET *69 0.00174887
*CONN
*P zP[13] O
*I *2329:X O *D sky130_fd_sc_hd__and2_1
*CAP
1 zP[13] 0.000518855
2 *2329:X 0.000518855
3 zP[13] *2331:B 3.92757e-05
4 zN[13] zP[13] 0.000671882
*RES
1 *2329:X zP[13] 28.4429 
*END

*D_NET *70 0.00227749
*CONN
*P zP[14] O
*I *2346:X O *D sky130_fd_sc_hd__and2_1
*CAP
1 zP[14] 0.000597117
2 *2346:X 0.000597117
3 zP[14] *2345:A 0.000166983
4 zP[14] *2346:B 0.000265385
5 zP[14] *493:10 7.83659e-05
6 zN[14] zP[14] 0.000572523
*RES
1 *2346:X zP[14] 30.8714 
*END

*D_NET *71 0.00237761
*CONN
*P zP[15] O
*I *2364:X O *D sky130_fd_sc_hd__and2_1
*CAP
1 zP[15] 0.000664531
2 *2364:X 0.000664531
3 zP[15] *2364:A 0.000127446
4 zP[15] *2364:B 7.83659e-05
5 zP[15] *2365:A 0.000200413
6 zP[15] *2366:B 0
7 zN[15] zP[15] 0.00064232
*RES
1 *2364:X zP[15] 31.6929 
*END

*D_NET *72 0.00124159
*CONN
*P zP[16] O
*I *2381:X O *D sky130_fd_sc_hd__and2_1
*CAP
1 zP[16] 0.000497883
2 *2381:X 0.000497883
3 zN[16] zP[16] 0.000245823
4 *19:21 zP[16] 0
5 *41:7 zP[16] 0
*RES
1 *2381:X zP[16] 22.7729 
*END

*D_NET *73 0.00125621
*CONN
*P zP[17] O
*I *2400:X O *D sky130_fd_sc_hd__and2_1
*CAP
1 zP[17] 0.000403627
2 *2400:X 0.000403627
3 zN[17] zP[17] 0.000448958
4 *21:41 zP[17] 0
*RES
1 *2400:X zP[17] 20.4725 
*END

*D_NET *74 0.00127583
*CONN
*P zP[18] O
*I *2418:X O *D sky130_fd_sc_hd__and2_1
*CAP
1 zP[18] 0.000415475
2 *2418:X 0.000415475
3 zP[18] *2418:B 0
4 zP[18] *2419:A 6.29385e-05
5 zN[18] zP[18] 0.000381937
6 zN[1] zP[18] 0
*RES
1 *2418:X zP[18] 20.8833 
*END

*D_NET *75 0.00150335
*CONN
*P zP[19] O
*I *2426:X O *D sky130_fd_sc_hd__and2_1
*CAP
1 zP[19] 0.000696822
2 *2426:X 0.000696822
3 zN[19] zP[19] 0.000109709
*RES
1 *2426:X zP[19] 26.9126 
*END

*D_NET *76 0.0106853
*CONN
*P zP[1] O
*I *2115:X O *D sky130_fd_sc_hd__and2_1
*CAP
1 zP[1] 0.0011815
2 *2115:X 0.00170666
3 *76:12 0.00288815
4 zP[1] *2166:A1 1.25366e-05
5 zP[1] *2166:A2 0.000196156
6 zP[1] *3173:B1 1.15058e-05
7 zP[1] *226:12 0.00019531
8 zP[1] *337:12 0
9 *76:12 *1949:B 5.33005e-05
10 *2338:B *76:12 2.99966e-05
11 *2478:B zP[1] 0
12 *2479:A *76:12 0.000474126
13 *2503:A *76:12 6.42095e-05
14 *3046:A *76:12 1.98839e-05
15 *3:5 zP[1] 0.000609592
16 *3:22 zP[1] 2.15047e-05
17 *3:39 *76:12 0.000573169
18 *3:48 *76:12 0.000403497
19 *5:62 zP[1] 0.00152
20 *6:269 *76:12 0.000139913
21 *23:11 zP[1] 0
22 *24:190 zP[1] 1.13345e-05
23 *24:220 *76:12 5.52302e-05
24 *24:235 *76:12 4.38128e-05
25 *33:7 zP[1] 0.000473948
*RES
1 *2115:X *76:12 41.9964 
2 *76:12 zP[1] 35.0536 
*END

*D_NET *77 0.000906524
*CONN
*P zP[20] O
*I *3379:LO O *D sky130_fd_sc_hd__conb_1
*CAP
1 zP[20] 0.000453262
2 *3379:LO 0.000453262
*RES
1 *3379:LO zP[20] 21.2921 
*END

*D_NET *78 0.00127819
*CONN
*P zP[21] O
*I *3381:LO O *D sky130_fd_sc_hd__conb_1
*CAP
1 zP[21] 0.000639097
2 *3381:LO 0.000639097
*RES
1 *3381:LO zP[21] 26.3357 
*END

*D_NET *79 0.00238326
*CONN
*P zP[2] O
*I *2133:X O *D sky130_fd_sc_hd__and2_1
*CAP
1 zP[2] 0.000921349
2 *2133:X 0.000921349
3 zP[2] zP[3] 0.000194113
4 zP[2] *2132:A 0.00015234
5 zP[2] *2134:A 0
6 zN[2] zP[2] 0.000194113
*RES
1 *2133:X zP[2] 42.9786 
*END

*D_NET *80 0.0017347
*CONN
*P zP[3] O
*I *2151:X O *D sky130_fd_sc_hd__and2_1
*CAP
1 zP[3] 0.000441235
2 *2151:X 0.000441235
3 zP[3] *2153:A 0
4 zP[3] *2153:B 0.000150618
5 zN[2] zP[3] 5.52238e-05
6 zN[3] zP[3] 0.000452276
7 zP[2] zP[3] 0.000194113
*RES
1 *2151:X zP[3] 26.8714 
*END

*D_NET *81 0.00215971
*CONN
*P zP[4] O
*I *2168:X O *D sky130_fd_sc_hd__and2_1
*CAP
1 zP[4] 0.000352571
2 *2168:X 0.000352571
3 zP[4] *2170:A 5.33005e-05
4 zP[4] *2170:B 1.58163e-05
5 zN[4] zP[4] 0.000396741
6 *3:5 zP[4] 0.000828385
7 *25:25 zP[4] 0.000160329
*RES
1 *2168:X zP[4] 28.1393 
*END

*D_NET *82 0.00125884
*CONN
*P zP[5] O
*I *2187:X O *D sky130_fd_sc_hd__and2_1
*CAP
1 zP[5] 0.00039791
2 *2187:X 0.00039791
3 zN[5] zP[5] 0.000463018
*RES
1 *2187:X zP[5] 24.4429 
*END

*D_NET *83 0.00220815
*CONN
*P zP[6] O
*I *2204:X O *D sky130_fd_sc_hd__and2_1
*CAP
1 zP[6] 0.000748317
2 *2204:X 0.000748317
3 zP[6] *2204:B 1.74352e-05
4 zP[6] *2206:A 1.61772e-05
5 zP[6] *2207:A 7.32272e-05
6 zP[6] *2207:B 1.23943e-05
7 zN[6] zP[6] 0.000592282
*RES
1 *2204:X zP[6] 30.1571 
*END

*D_NET *84 0.00245841
*CONN
*P zP[7] O
*I *2222:X O *D sky130_fd_sc_hd__and2_1
*CAP
1 zP[7] 0.000751551
2 *2222:X 0.000751551
3 zP[7] *2221:A 4.99195e-05
4 zP[7] *2222:B 7.90536e-05
5 zN[7] zP[7] 0.000826333
*RES
1 *2222:X zP[7] 28.0199 
*END

*D_NET *85 0.00196568
*CONN
*P zP[8] O
*I *2240:X O *D sky130_fd_sc_hd__and2_1
*CAP
1 zP[8] 0.000838431
2 *2240:X 0.000838431
3 zN[8] zP[8] 0.000288819
*RES
1 *2240:X zP[8] 19.724 
*END

*D_NET *86 0.00215577
*CONN
*P zP[9] O
*I *2257:X O *D sky130_fd_sc_hd__and2_1
*CAP
1 zP[9] 0.000775397
2 *2257:X 0.000775397
3 zN[9] zP[9] 0.000604975
*RES
1 *2257:X zP[9] 28.8196 
*END

*D_NET *87 0.000772272
*CONN
*I *2980:A I *D sky130_fd_sc_hd__or2_1
*I *2936:X O *D sky130_fd_sc_hd__and2_1
*CAP
1 *2980:A 8.87681e-05
2 *2936:X 8.87681e-05
3 *2936:A *2980:A 9.60875e-05
4 *2936:B *2980:A 9.75679e-05
5 *23:47 *2980:A 0.000148911
6 *23:80 *2980:A 5.41794e-05
7 *33:63 *2980:A 0.000197991
*RES
1 *2936:X *2980:A 31.1 
*END

*D_NET *88 0.00113079
*CONN
*I *3339:A1 I *D sky130_fd_sc_hd__a21o_1
*I *3338:A I *D sky130_fd_sc_hd__xor2_1
*I *3336:X O *D sky130_fd_sc_hd__xor2_1
*CAP
1 *3339:A1 0
2 *3338:A 0.000161457
3 *3336:X 8.23989e-05
4 *88:8 0.000243856
5 *3338:A *3338:B 9.71197e-05
6 *3338:A *3339:A2 0.000193125
7 *3338:A *3339:B1 7.50697e-05
8 *3338:A *1470:14 9.10431e-06
9 *88:8 *1389:10 0.0001399
10 *2552:B *3338:A 2.28598e-05
11 *2553:B *3338:A 9.90367e-05
12 *25:213 *3338:A 6.8646e-06
*RES
1 *3336:X *88:8 11.0857 
2 *88:8 *3338:A 22.5143 
3 *88:8 *3339:A1 9.3 
*END

*D_NET *89 0.0008821
*CONN
*I *3339:B1 I *D sky130_fd_sc_hd__a21o_1
*I *3337:X O *D sky130_fd_sc_hd__and2_1
*CAP
1 *3339:B1 0.000214949
2 *3337:X 0.000214949
3 *2552:B *3339:B1 0.000226507
4 *3338:A *3339:B1 7.50697e-05
5 *25:213 *3339:B1 0.000150625
*RES
1 *3337:X *3339:B1 31.725 
*END

*D_NET *90 0.00445227
*CONN
*I *2056:A I *D sky130_fd_sc_hd__xor2_1
*I *2057:A I *D sky130_fd_sc_hd__and2_1
*I *3338:X O *D sky130_fd_sc_hd__xor2_1
*CAP
1 *2056:A 0.000179626
2 *2057:A 8.46343e-05
3 *3338:X 0.00108658
4 *90:10 0.00135084
5 *2056:A *2056:B 0.00018372
6 *2056:A *2058:B 2.44318e-05
7 *2057:A *1177:14 0.000119684
8 *2057:A *1186:10 0.000227021
9 *90:10 *1996:B1 0.000128154
10 *90:10 *3333:A 1.74352e-05
11 *90:10 *3333:B 0.000151071
12 *90:10 *3334:A1 1.74352e-05
13 *90:10 *173:8 0.00010096
14 *90:10 *1177:14 3.32346e-05
15 *90:10 *1186:10 0.000202835
16 *90:10 *1477:6 0.000186662
17 *90:10 *1478:10 0.000357952
*RES
1 *3338:X *90:10 34.1393 
2 *90:10 *2057:A 16.6571 
3 *90:10 *2056:A 17.2286 
*END

*D_NET *91 0.00585179
*CONN
*I *2000:A2 I *D sky130_fd_sc_hd__a21o_1
*I *1999:B I *D sky130_fd_sc_hd__xor2_1
*I *3339:X O *D sky130_fd_sc_hd__a21o_1
*CAP
1 *2000:A2 0.000228675
2 *1999:B 0
3 *3339:X 0.00175615
4 *91:10 0.00198482
5 *2000:A2 *1999:A 0
6 *2000:A2 *245:8 0
7 *2000:A2 *1186:10 0
8 *91:10 *2062:B 3.17163e-05
9 *91:10 *2064:B 3.80445e-05
10 *91:10 *2065:A1 0.000119618
11 *91:10 *2065:B1 0
12 *91:10 *3348:A2 0.00014285
13 *91:10 *100:12 5.71472e-05
14 *91:10 *177:10 6.51946e-05
15 *91:10 *180:10 0.000525837
16 *91:10 *242:8 0.000154762
17 *91:10 *245:8 0
18 *91:10 *396:12 0
19 *91:10 *1186:10 0
20 *91:10 *1271:8 3.97543e-05
21 *91:10 *1272:12 0.000170532
22 *91:10 *1389:10 0.000536685
*RES
1 *3339:X *91:10 49.3714 
2 *91:10 *1999:B 13.8 
3 *91:10 *2000:A2 17.7107 
*END

*D_NET *92 0.000890637
*CONN
*I *3342:A I *D sky130_fd_sc_hd__xor2_1
*I *3343:A1 I *D sky130_fd_sc_hd__a21o_1
*I *3340:X O *D sky130_fd_sc_hd__xor2_1
*CAP
1 *3342:A 0.000126128
2 *3343:A1 7.72757e-05
3 *3340:X 0
4 *92:4 0.000203404
5 *3342:A *3342:B 0.000139913
6 *3342:A *1103:16 4.43157e-05
7 *3343:A1 *3343:A2 0.000197276
8 *3343:A1 *3343:B1 0.000102324
*RES
1 *3340:X *92:4 9.3 
2 *92:4 *3343:A1 20.8536 
3 *92:4 *3342:A 11.9071 
*END

*D_NET *93 0.000729786
*CONN
*I *3343:B1 I *D sky130_fd_sc_hd__a21o_1
*I *3341:X O *D sky130_fd_sc_hd__and2_1
*CAP
1 *3343:B1 0.000115893
2 *3341:X 0.000115893
3 *3343:B1 *1095:10 0.000341788
4 *3343:B1 *1403:8 5.38886e-05
5 *3343:A1 *3343:B1 0.000102324
*RES
1 *3341:X *3343:B1 31.975 
*END

*D_NET *94 0.0011652
*CONN
*I *1997:B I *D sky130_fd_sc_hd__xor2_1
*I *1998:B I *D sky130_fd_sc_hd__and2_1
*I *3342:X O *D sky130_fd_sc_hd__xor2_1
*CAP
1 *1997:B 6.42451e-05
2 *1998:B 0
3 *3342:X 0.000285135
4 *94:12 0.00034938
5 *1997:B *1997:A 0.000137944
6 *1997:B *2000:B1 0.00010096
7 *94:12 *1103:16 0.000227532
8 *94:12 *1195:12 0
*RES
1 *3342:X *94:12 22.425 
2 *94:12 *1998:B 9.3 
3 *94:12 *1997:B 11.4964 
*END

*D_NET *95 0.00176185
*CONN
*I *2002:A I *D sky130_fd_sc_hd__and2_1
*I *2001:A I *D sky130_fd_sc_hd__xor2_1
*I *3343:X O *D sky130_fd_sc_hd__a21o_1
*CAP
1 *2002:A 0
2 *2001:A 0.000210205
3 *3343:X 0.000403224
4 *95:12 0.000613429
5 *2001:A *2001:B 5.04705e-05
6 *2001:A *2002:B 2.5045e-05
7 *2001:A *2004:A1 1.3701e-05
8 *2001:A *2004:B1 9.99644e-06
9 *95:12 *3343:A2 6.19181e-05
10 *95:12 *100:12 0.000107035
11 *95:12 *1400:6 0.000160287
12 *95:12 *1403:8 0.000106542
*RES
1 *3343:X *95:12 25.3714 
2 *95:12 *2001:A 13.1571 
3 *95:12 *2002:A 9.3 
*END

*D_NET *96 0.00059582
*CONN
*I *3347:A I *D sky130_fd_sc_hd__xor2_1
*I *3348:A1 I *D sky130_fd_sc_hd__a21o_1
*I *3344:X O *D sky130_fd_sc_hd__xor2_1
*CAP
1 *3347:A 0.000104392
2 *3348:A1 8.64453e-05
3 *3344:X 6.71205e-05
4 *96:6 0.000257958
5 *3348:A1 *3348:A2 0
6 *3348:A1 *3348:B1 7.99046e-05
*RES
1 *3344:X *96:6 10.2464 
2 *96:6 *3348:A1 20.2464 
3 *96:6 *3347:A 11.0857 
*END

*D_NET *97 0.000697165
*CONN
*I *3348:B1 I *D sky130_fd_sc_hd__a21o_1
*I *3345:X O *D sky130_fd_sc_hd__and2_1
*CAP
1 *3348:B1 0.000261967
2 *3345:X 0.000261967
3 *3348:B1 *3348:A2 0
4 *3348:B1 *100:12 9.33269e-05
5 *3348:B1 *1478:10 0
6 *3348:A1 *3348:B1 7.99046e-05
*RES
1 *3345:X *3348:B1 32.6179 
*END

*D_NET *98 0.000804726
*CONN
*I *2980:B I *D sky130_fd_sc_hd__or2_1
*I *2947:X O *D sky130_fd_sc_hd__and2_1
*CAP
1 *2980:B 7.12441e-05
2 *2947:X 7.12441e-05
3 *2980:B *2111:A 9.83442e-05
4 *2980:B *2111:B 3.97677e-05
5 *2980:B *929:10 0.000143652
6 *2947:A *2980:B 0.000356857
7 *2947:B *2980:B 2.36164e-05
*RES
1 *2947:X *2980:B 22.0107 
*END

*D_NET *99 0.000760028
*CONN
*I *2062:A I *D sky130_fd_sc_hd__xor2_1
*I *2063:A I *D sky130_fd_sc_hd__and2_1
*I *3347:X O *D sky130_fd_sc_hd__xor2_1
*CAP
1 *2062:A 0.000145294
2 *2063:A 0
3 *3347:X 0.000105199
4 *99:6 0.000250493
5 *2062:A *2063:B 0.000119135
6 *2062:A *2065:B1 0.000139907
*RES
1 *3347:X *99:6 11.0679 
2 *99:6 *2063:A 9.3 
3 *99:6 *2062:A 12.7286 
*END

*D_NET *100 0.00324862
*CONN
*I *2001:B I *D sky130_fd_sc_hd__xor2_1
*I *2002:B I *D sky130_fd_sc_hd__and2_1
*I *3348:X O *D sky130_fd_sc_hd__a21o_1
*CAP
1 *2001:B 4.96066e-05
2 *2002:B 6.86674e-05
3 *3348:X 0.00111776
4 *100:12 0.00123604
5 *2001:B *2004:A1 0
6 *2001:B *2004:B1 0.00010096
7 *100:12 *3033:A 0
8 *100:12 *3034:B1 5.26184e-05
9 *100:12 *3044:B 0.000106542
10 *100:12 *3343:A2 0
11 *100:12 *3345:B 0.000104818
12 *100:12 *1095:10 0
13 *100:12 *1195:12 0
14 *100:12 *1403:8 0
15 *100:12 *1478:10 7.85777e-05
16 *2001:A *2001:B 5.04705e-05
17 *2001:A *2002:B 2.5045e-05
18 *3348:B1 *100:12 9.33269e-05
19 *91:10 *100:12 5.71472e-05
20 *95:12 *100:12 0.000107035
*RES
1 *3348:X *100:12 40.5143 
2 *100:12 *2002:B 10.5679 
3 *100:12 *2001:B 11.0857 
*END

*D_NET *101 0.00570642
*CONN
*I *3351:A I *D sky130_fd_sc_hd__xor2_1
*I *3352:A1 I *D sky130_fd_sc_hd__a21o_1
*I *3349:X O *D sky130_fd_sc_hd__xor2_1
*CAP
1 *3351:A 0.000151252
2 *3352:A1 0.00157386
3 *3349:X 0.00142261
4 *3351:A *3351:B 0.000123295
5 *3351:A *1103:16 2.15245e-05
6 *3352:A1 *3350:B 7.16452e-05
7 *3352:A1 *3352:B1 0.00175814
8 *3352:A1 *1103:16 0.00057215
9 *2498:A *3351:A 1.19402e-05
*RES
1 *3349:X *3352:A1 42.6 
2 *3352:A1 *3351:A 30.1893 
*END

*D_NET *102 0.00389681
*CONN
*I *3352:B1 I *D sky130_fd_sc_hd__a21o_1
*I *3350:X O *D sky130_fd_sc_hd__and2_1
*CAP
1 *3352:B1 0.00065108
2 *3350:X 0.00065108
3 *3352:B1 *2508:B 4.70078e-05
4 *3352:B1 *2628:A 5.71472e-05
5 *3352:B1 *2628:B 9.80173e-05
6 *3352:B1 *2954:A 6.42095e-05
7 *3352:B1 *104:10 5.33433e-05
8 *3352:B1 *673:6 9.76491e-05
9 *2504:B *3352:B1 0.000419133
10 *3352:A1 *3352:B1 0.00175814
*RES
1 *3350:X *3352:B1 39.2964 
*END

*D_NET *103 0.00696195
*CONN
*I *2003:B I *D sky130_fd_sc_hd__xor2_1
*I *2004:A2 I *D sky130_fd_sc_hd__a21o_1
*I *3351:X O *D sky130_fd_sc_hd__xor2_1
*CAP
1 *2003:B 0.000220054
2 *2004:A2 0.000243434
3 *3351:X 0.00182355
4 *103:12 0.00228704
5 *2003:B *2003:A 5.52302e-05
6 *2004:A2 *2003:A 0
7 *2004:A2 *2004:A1 0.000244835
8 *2004:A2 *2004:B1 4.20347e-05
9 *2004:A2 *185:8 0.000100823
10 *2004:A2 *1195:12 0
11 *103:12 *2948:A 1.98839e-05
12 *103:12 *2949:B 1.56e-05
13 *103:12 *3040:B 1.74352e-05
14 *103:12 *3043:B1 6.78055e-06
15 *103:12 *667:6 0.000146523
16 *103:12 *1096:8 0.00116195
17 *2498:A *103:12 8.00806e-05
18 *18:320 *103:12 0.000354111
19 *20:95 *103:12 1.16903e-05
20 *27:160 *103:12 3.92757e-05
21 *37:97 *103:12 9.16173e-05
*RES
1 *3351:X *103:12 43.2821 
2 *103:12 *2004:A2 23.5679 
3 *103:12 *2003:B 13.0321 
*END

*D_NET *104 0.00360734
*CONN
*I *2006:A I *D sky130_fd_sc_hd__xor2_1
*I *2007:A I *D sky130_fd_sc_hd__and2_1
*I *3352:X O *D sky130_fd_sc_hd__a21o_1
*CAP
1 *2006:A 0.000240683
2 *2007:A 5.14873e-05
3 *3352:X 0.0010688
4 *104:10 0.00136097
5 *2006:A *2007:B 0
6 *2006:A *110:12 0
7 *2006:A *112:6 0.000184745
8 *2006:A *1132:24 1.56e-05
9 *2007:A *1429:10 0.000142856
10 *104:10 *2755:A 0.000100831
11 *104:10 *3266:B 0.000103041
12 *104:10 *3267:A1 0
13 *104:10 *3267:B1 0
14 *104:10 *3351:B 4.72071e-05
15 *104:10 *3353:A 0
16 *104:10 *3354:B 0
17 *104:10 *904:10 7.05857e-05
18 *104:10 *1411:10 0
19 *2498:A *104:10 0
20 *3352:B1 *104:10 5.33433e-05
21 *27:149 *2006:A 0
22 *27:149 *104:10 0
23 *27:160 *104:10 0
24 *37:111 *104:10 0.000167194
*RES
1 *3352:X *104:10 33.3893 
2 *104:10 *2007:A 15.1571 
3 *104:10 *2006:A 18.5321 
*END

*D_NET *105 0.00138027
*CONN
*I *3355:A I *D sky130_fd_sc_hd__xor2_1
*I *3356:A1 I *D sky130_fd_sc_hd__a21o_1
*I *3353:X O *D sky130_fd_sc_hd__xor2_1
*CAP
1 *3355:A 0.000108897
2 *3356:A1 7.27252e-05
3 *3353:X 0.00026095
4 *105:6 0.000442572
5 *3355:A *3273:A2 3.35803e-05
6 *3355:A *3355:B 5.52238e-05
7 *3356:A1 *3355:B 0.000149904
8 *105:6 *3273:A1 8.25843e-06
9 *105:6 *3273:A2 3.69047e-06
10 *105:6 *1417:10 5.71472e-05
11 *26:196 *3356:A1 0.000175519
12 *37:97 *3356:A1 1.18064e-05
*RES
1 *3353:X *105:6 13.1214 
2 *105:6 *3356:A1 20.55 
3 *105:6 *3355:A 11.3893 
*END

*D_NET *106 0.000442097
*CONN
*I *3356:B1 I *D sky130_fd_sc_hd__a21o_1
*I *3354:X O *D sky130_fd_sc_hd__and2_1
*CAP
1 *3356:B1 0.000211403
2 *3354:X 0.000211403
3 *3356:B1 *108:10 1.92905e-05
*RES
1 *3354:X *3356:B1 22.0107 
*END

*D_NET *107 0.00445754
*CONN
*I *2066:A I *D sky130_fd_sc_hd__xor2_1
*I *2067:A I *D sky130_fd_sc_hd__and2_1
*I *3355:X O *D sky130_fd_sc_hd__xor2_1
*CAP
1 *2066:A 0
2 *2067:A 8.21445e-05
3 *3355:X 0.00150395
4 *107:16 0.00158609
5 *2067:A *2066:B 0.000191877
6 *2067:A *181:10 1.02504e-05
7 *2067:A *184:12 3.34295e-05
8 *2067:A *185:8 0
9 *2067:A *1189:14 6.16744e-05
10 *2067:A *1198:18 0
11 *2067:A *1276:10 1.00375e-05
12 *107:16 *2749:A 8.07313e-05
13 *107:16 *2749:B 2.95641e-05
14 *107:16 *3133:B 0
15 *107:16 *3271:A 0.00010096
16 *107:16 *898:12 1.40415e-05
17 *107:16 *1198:18 0
18 *107:16 *1276:10 8.58946e-05
19 *107:16 *1280:12 0.00014183
20 *107:16 *1404:10 0
21 *2745:B *107:16 0.000347187
22 *2812:A *107:16 5.30237e-05
23 *10:214 *107:16 1.98839e-05
24 *36:187 *107:16 0.000104974
*RES
1 *3355:X *107:16 48.4786 
2 *107:16 *2067:A 16.6571 
3 *107:16 *2066:A 13.8 
*END

*D_NET *108 0.000973362
*CONN
*I *2008:B I *D sky130_fd_sc_hd__xor2_1
*I *2009:A2 I *D sky130_fd_sc_hd__a21o_1
*I *3356:X O *D sky130_fd_sc_hd__a21o_1
*CAP
1 *2008:B 6.0638e-05
2 *2009:A2 3.39029e-05
3 *3356:X 0.000111052
4 *108:10 0.000205593
5 *2008:B *1417:10 0.00019117
6 *2009:A2 *1429:10 2.59355e-05
7 *108:10 *1417:10 0.000146474
8 *3356:B1 *108:10 1.92905e-05
9 *26:196 *2008:B 0.000106552
10 *26:196 *108:10 7.2754e-05
*RES
1 *3356:X *108:10 16.2821 
2 *108:10 *2009:A2 14.3357 
3 *108:10 *2008:B 16.3536 
*END

*D_NET *109 0.000533853
*CONN
*I *2991:A I *D sky130_fd_sc_hd__or2_1
*I *2958:X O *D sky130_fd_sc_hd__and2_1
*CAP
1 *2991:A 8.9658e-05
2 *2958:X 8.9658e-05
3 *2958:A *2991:A 5.33005e-05
4 *2969:A *2991:A 0.000150618
5 *33:63 *2991:A 0.000150618
*RES
1 *2958:X *2991:A 30.0821 
*END

*D_NET *110 0.000788317
*CONN
*I *3360:A I *D sky130_fd_sc_hd__xor2_1
*I *3361:A1 I *D sky130_fd_sc_hd__a21o_1
*I *3358:X O *D sky130_fd_sc_hd__xor2_1
*CAP
1 *3360:A 0
2 *3361:A1 0.000108006
3 *3358:X 0.00018477
4 *110:12 0.000292776
5 *3361:A1 *3360:B 0.000111383
6 *110:12 *3361:B1 0
7 *110:12 *1420:12 2.8266e-06
8 *110:12 *1429:10 5.71472e-05
9 *2006:A *110:12 0
10 *38:125 *3361:A1 3.14078e-05
11 *38:142 *110:12 0
*RES
1 *3358:X *110:12 21.3893 
2 *110:12 *3361:A1 11.4964 
3 *110:12 *3360:A 9.3 
*END

*D_NET *111 0.000192175
*CONN
*I *3361:B1 I *D sky130_fd_sc_hd__a21o_1
*I *3359:X O *D sky130_fd_sc_hd__and2_1
*CAP
1 *3361:B1 7.00289e-05
2 *3359:X 7.00289e-05
3 *3361:B1 *1420:12 4.1331e-06
4 *38:142 *3361:B1 4.79842e-05
5 *110:12 *3361:B1 0
*RES
1 *3359:X *3361:B1 29.2429 
*END

*D_NET *112 0.000903666
*CONN
*I *2006:B I *D sky130_fd_sc_hd__xor2_1
*I *2007:B I *D sky130_fd_sc_hd__and2_1
*I *3360:X O *D sky130_fd_sc_hd__xor2_1
*CAP
1 *2006:B 0
2 *2007:B 0.000174997
3 *3360:X 8.07836e-05
4 *112:6 0.00025578
5 *2007:B *190:10 0
6 *2007:B *1429:10 3.18676e-05
7 *112:6 *1132:24 0.000175493
8 *2006:A *2007:B 0
9 *2006:A *112:6 0.000184745
10 *27:149 *2007:B 0
*RES
1 *3360:X *112:6 12.3 
2 *112:6 *2007:B 21.3893 
3 *112:6 *2006:B 9.3 
*END

*D_NET *113 0.00415998
*CONN
*I *2011:A I *D sky130_fd_sc_hd__and2_1
*I *2010:A I *D sky130_fd_sc_hd__xor2_1
*I *3361:X O *D sky130_fd_sc_hd__a21o_1
*CAP
1 *2011:A 0
2 *2010:A 9.91928e-05
3 *3361:X 0.00100001
4 *113:10 0.0010992
5 *2010:A *2010:B 0.000194149
6 *113:10 *2641:B 5.24274e-05
7 *113:10 *3276:B 0
8 *113:10 *3277:A1 0
9 *113:10 *3367:B 0
10 *113:10 *3369:B 0
11 *113:10 *121:12 0.000102315
12 *113:10 *685:12 0.000816123
13 *113:10 *794:8 0
14 *113:10 *1124:12 0
15 *113:10 *1199:18 0
16 *113:10 *1420:12 0
17 *113:10 *1426:18 0.000141791
18 *113:10 *1433:10 0
19 *2638:B *113:10 0
20 *27:112 *2010:A 0.000312222
21 *27:112 *113:10 2.19778e-05
22 *28:123 *113:10 0
23 *28:133 *113:10 0.000273564
24 *37:62 *2010:A 4.70078e-05
*RES
1 *3361:X *113:10 41.8 
2 *113:10 *2010:A 13.1571 
3 *113:10 *2011:A 9.3 
*END

*D_NET *114 0.00107467
*CONN
*I *3364:A I *D sky130_fd_sc_hd__xor2_1
*I *3365:A1 I *D sky130_fd_sc_hd__a21o_1
*I *3362:X O *D sky130_fd_sc_hd__xor2_1
*CAP
1 *3364:A 9.84628e-05
2 *3365:A1 0.000158713
3 *3362:X 0
4 *114:4 0.000257176
5 *3364:A *3362:A 0
6 *3364:A *3362:B 0
7 *3364:A *3364:B 0.000148826
8 *3364:A *1132:34 1.74352e-05
9 *3365:A1 *3362:A 2.27416e-05
10 *3365:A1 *3362:B 5.90899e-05
11 *3365:A1 *3364:B 0.000312222
*RES
1 *3362:X *114:4 9.3 
2 *114:4 *3365:A1 13.4429 
3 *114:4 *3364:A 11.8 
*END

*D_NET *115 0.000584329
*CONN
*I *3365:B1 I *D sky130_fd_sc_hd__a21o_1
*I *3363:X O *D sky130_fd_sc_hd__and2_1
*CAP
1 *3365:B1 0.000155086
2 *3363:X 0.000155086
3 *3365:B1 *3363:B 0.000176504
4 *3365:B1 *1417:10 3.34295e-05
5 *26:196 *3365:B1 6.42242e-05
*RES
1 *3363:X *3365:B1 30.6 
*END

*D_NET *116 0.00280299
*CONN
*I *2070:A I *D sky130_fd_sc_hd__xor2_1
*I *2071:A I *D sky130_fd_sc_hd__and2_1
*I *3364:X O *D sky130_fd_sc_hd__xor2_1
*CAP
1 *2070:A 9.0782e-05
2 *2071:A 4.06652e-05
3 *3364:X 0.000832324
4 *116:8 0.000963772
5 *2070:A *2073:A 0
6 *2071:A *2071:B 0.000153054
7 *2071:A *3056:B 1.02504e-05
8 *2071:A *1119:10 0.000153054
9 *116:8 *2687:A 9.60875e-05
10 *116:8 *2687:B 5.52302e-05
11 *116:8 *2972:A 9.7659e-05
12 *116:8 *2972:B 1.74352e-05
13 *116:8 *3364:B 0
14 *116:8 *1119:10 5.03772e-05
15 *116:8 *1132:34 0.0002423
*RES
1 *3364:X *116:8 23.7107 
2 *116:8 *2071:A 20.2464 
3 *116:8 *2070:A 10.675 
*END

*D_NET *117 0.00508059
*CONN
*I *2012:B I *D sky130_fd_sc_hd__xor2_1
*I *2013:A2 I *D sky130_fd_sc_hd__a21o_1
*I *3365:X O *D sky130_fd_sc_hd__a21o_1
*CAP
1 *2012:B 0
2 *2013:A2 0.000124927
3 *3365:X 0.000934745
4 *117:14 0.00105967
5 *2013:A2 *2012:A 0.000270264
6 *117:14 *2762:A 0.000290279
7 *117:14 *2762:B 0.000104974
8 *117:14 *3279:B 7.26935e-05
9 *117:14 *3363:B 4.57445e-05
10 *117:14 *190:10 0.000440783
11 *117:14 *1111:14 0
12 *2631:A *117:14 0.000339316
13 *2697:A *117:14 8.50152e-05
14 *2697:B *117:14 0
15 *9:168 *2013:A2 0.000272371
16 *9:183 *2013:A2 0.000269422
17 *9:183 *117:14 4.08637e-05
18 *9:203 *117:14 0.00017591
19 *19:286 *2013:A2 1.21258e-05
20 *19:286 *117:14 1.21258e-05
21 *20:238 *117:14 1.98839e-05
22 *20:244 *117:14 0
23 *26:196 *117:14 0
24 *27:149 *117:14 0.000509479
25 *37:89 *117:14 0
26 *37:97 *117:14 0
*RES
1 *3365:X *117:14 43.6929 
2 *117:14 *2013:A2 14.7821 
3 *117:14 *2012:B 9.3 
*END

*D_NET *118 0.000831709
*CONN
*I *3369:A I *D sky130_fd_sc_hd__xor2_1
*I *3370:A1 I *D sky130_fd_sc_hd__a21o_1
*I *3366:X O *D sky130_fd_sc_hd__xor2_1
*CAP
1 *3369:A 5.01069e-05
2 *3370:A1 0.000101886
3 *3366:X 0.000151993
4 *3369:A *3366:B 3.99614e-06
5 *3369:A *3369:B 5.71472e-05
6 *3369:A *1426:18 4.29414e-05
7 *3370:A1 *3369:B 0.000137939
8 *3370:A1 *3370:B1 7.73758e-05
9 *3370:A1 *1426:18 5.33005e-05
10 *3370:A1 *1433:10 1.02504e-05
11 *11:218 *3369:A 0.000144773
*RES
1 *3366:X *3370:A1 30.0821 
2 *3366:X *3369:A 20.3857 
*END

*D_NET *119 0.0011345
*CONN
*I *3370:B1 I *D sky130_fd_sc_hd__a21o_1
*I *3367:X O *D sky130_fd_sc_hd__and2_1
*CAP
1 *3370:B1 0.000238727
2 *3367:X 0.000238727
3 *3370:B1 *3367:A 0.000127446
4 *3370:B1 *3367:B 0.000173804
5 *3370:B1 *3369:B 4.97121e-06
6 *3370:B1 *1421:10 0.000224592
7 *3370:A1 *3370:B1 7.73758e-05
8 *20:232 *3370:B1 4.88515e-05
*RES
1 *3367:X *3370:B1 33.3321 
*END

*D_NET *120 0.00079682
*CONN
*I *2991:B I *D sky130_fd_sc_hd__or2_1
*I *2969:X O *D sky130_fd_sc_hd__and2_1
*CAP
1 *2991:B 0.000183575
2 *2969:X 0.000183575
3 *2991:B *2113:B 3.27461e-05
4 *2958:A *2991:B 0.000139202
5 *2969:A *2991:B 0.000150618
6 *2969:B *2991:B 1.59373e-05
7 *23:80 *2991:B 9.11653e-05
*RES
1 *2969:X *2991:B 31.3143 
*END

*D_NET *121 0.000850829
*CONN
*I *2010:B I *D sky130_fd_sc_hd__xor2_1
*I *2011:B I *D sky130_fd_sc_hd__and2_1
*I *3369:X O *D sky130_fd_sc_hd__xor2_1
*CAP
1 *2010:B 6.14349e-05
2 *2011:B 0
3 *3369:X 0.000120408
4 *121:12 0.000181843
5 *121:12 *1124:12 6.41079e-05
6 *2010:A *2010:B 0.000194149
7 *11:218 *121:12 2.89016e-05
8 *37:62 *2010:B 9.76689e-05
9 *113:10 *121:12 0.000102315
*RES
1 *3369:X *121:12 21.3893 
2 *121:12 *2011:B 9.3 
3 *121:12 *2010:B 11.4964 
*END

*D_NET *122 0.00311459
*CONN
*I *2014:A I *D sky130_fd_sc_hd__xor2_1
*I *2015:A I *D sky130_fd_sc_hd__and2_1
*I *3370:X O *D sky130_fd_sc_hd__a21o_1
*CAP
1 *2014:A 0.000176231
2 *2015:A 2.76557e-05
3 *3370:X 0.000812457
4 *122:8 0.00101634
5 *2014:A *2015:B 0
6 *2014:A *2018:B1 5.26184e-05
7 *2014:A *126:12 0
8 *2014:A *195:10 1.19309e-05
9 *2015:A *1293:6 2.89016e-05
10 *122:8 *3367:A 0.000166983
11 *122:8 *3371:A 0
12 *122:8 *126:12 0
13 *122:8 *1421:10 0.000154762
14 *122:8 *1430:16 0.000300352
15 *122:8 *1436:10 0.00017309
16 *122:8 *1438:10 0
17 *122:8 *1439:10 0
18 *10:179 *122:8 0.000119706
19 *20:232 *122:8 0
20 *27:112 *122:8 0
21 *37:62 *122:8 7.35585e-05
*RES
1 *3370:X *122:8 32.4429 
2 *122:8 *2015:A 14.3357 
3 *122:8 *2014:A 17.1929 
*END

*D_NET *123 0.000553944
*CONN
*I *3373:A I *D sky130_fd_sc_hd__xor2_1
*I *3374:A1 I *D sky130_fd_sc_hd__a21o_1
*I *3371:X O *D sky130_fd_sc_hd__xor2_1
*CAP
1 *3373:A 7.47033e-05
2 *3374:A1 0.000113164
3 *3371:X 0
4 *123:4 0.000187867
5 *3373:A *3371:B 0
6 *3373:A *1229:16 8.07313e-05
7 *3374:A1 *3373:B 0
8 *3374:A1 *3374:B1 7.8327e-05
9 *3374:A1 *126:12 1.91512e-05
*RES
1 *3371:X *123:4 9.3 
2 *123:4 *3374:A1 20.8536 
3 *123:4 *3373:A 11.0857 
*END

*D_NET *124 0.000812566
*CONN
*I *3374:B1 I *D sky130_fd_sc_hd__a21o_1
*I *3372:X O *D sky130_fd_sc_hd__and2_1
*CAP
1 *3374:B1 0.000235263
2 *3372:X 0.000235263
3 *3374:B1 *3372:A 0.00014285
4 *3374:B1 *126:12 7.6644e-05
5 *3374:B1 *1229:16 6.13757e-06
6 *3374:B1 *1438:10 3.80808e-05
7 *3374:A1 *3374:B1 7.8327e-05
*RES
1 *3372:X *3374:B1 31.725 
*END

*D_NET *125 0.00148315
*CONN
*I *2075:A I *D sky130_fd_sc_hd__xor2_1
*I *2076:A I *D sky130_fd_sc_hd__and2_1
*I *3373:X O *D sky130_fd_sc_hd__xor2_1
*CAP
1 *2075:A 0.000118258
2 *2076:A 0
3 *3373:X 0.000348457
4 *125:6 0.000466714
5 *2075:A *2075:B 0.000162375
6 *2075:A *2078:B1 0.000144773
7 *2075:A *3212:A1 5.30637e-06
8 *125:6 *3212:A1 4.01768e-05
9 *125:6 *1229:16 0.000197094
*RES
1 *3373:X *125:6 16.8179 
2 *125:6 *2076:A 9.3 
3 *125:6 *2075:A 12.7286 
*END

*D_NET *126 0.00190939
*CONN
*I *2017:B I *D sky130_fd_sc_hd__xor2_1
*I *2018:A2 I *D sky130_fd_sc_hd__a21o_1
*I *3374:X O *D sky130_fd_sc_hd__a21o_1
*CAP
1 *2017:B 0
2 *2018:A2 7.5642e-05
3 *3374:X 0.000460546
4 *126:12 0.000536188
5 *2018:A2 *2017:A 2.89114e-05
6 *2018:A2 *2018:A1 7.77652e-05
7 *2018:A2 *134:10 0.000230475
8 *126:12 *2018:B1 0
9 *126:12 *2082:B1 0
10 *126:12 *3371:A 5.83304e-05
11 *126:12 *194:10 0
12 *126:12 *195:10 9.56968e-05
13 *126:12 *262:14 9.56968e-05
14 *126:12 *1217:10 5.52302e-05
15 *126:12 *1438:10 9.91086e-05
16 *2014:A *126:12 0
17 *3374:A1 *126:12 1.91512e-05
18 *3374:B1 *126:12 7.6644e-05
19 *122:8 *126:12 0
*RES
1 *3374:X *126:12 28.0679 
2 *126:12 *2018:A2 11.9071 
3 *126:12 *2017:B 9.3 
*END

*D_NET *127 0.000991748
*CONN
*I *3378:A1 I *D sky130_fd_sc_hd__a21o_1
*I *3377:A I *D sky130_fd_sc_hd__xor2_1
*I *3375:X O *D sky130_fd_sc_hd__xor2_1
*CAP
1 *3378:A1 0
2 *3377:A 0.000141067
3 *3375:X 0.000173611
4 *127:12 0.000314678
5 *3377:A *1954:A2 5.7661e-06
6 *3377:A *3378:A2 0.000175755
7 *127:12 *1953:B 2.84398e-05
8 *127:12 *1293:6 9.90431e-05
9 *127:12 *1439:10 0
10 *127:12 *1443:8 5.33882e-05
*RES
1 *3375:X *127:12 21.1929 
2 *127:12 *3377:A 12.7464 
3 *127:12 *3378:A1 9.3 
*END

*D_NET *128 0.00099478
*CONN
*I *3378:B1 I *D sky130_fd_sc_hd__a21o_1
*I *3376:X O *D sky130_fd_sc_hd__and2_1
*CAP
1 *3378:B1 0.000296254
2 *3376:X 0.000296254
3 *3378:B1 *1953:B 2.16719e-05
4 *3378:B1 *1954:A2 9.71197e-05
5 *3378:B1 *1954:B1 0
6 *3378:B1 *1293:6 0.000232399
7 *3378:B1 *1443:8 5.10822e-05
*RES
1 *3376:X *3378:B1 32.6714 
*END

*D_NET *129 0.000749971
*CONN
*I *2014:B I *D sky130_fd_sc_hd__xor2_1
*I *2015:B I *D sky130_fd_sc_hd__and2_1
*I *3377:X O *D sky130_fd_sc_hd__xor2_1
*CAP
1 *2014:B 6.48872e-05
2 *2015:B 0.000146254
3 *3377:X 8.61686e-05
4 *129:6 0.00029731
5 *2015:B *2018:B1 0.000126439
6 *2015:B *1293:6 2.89114e-05
7 *2015:B *1439:10 0
8 *2014:A *2015:B 0
*RES
1 *3377:X *129:6 10.6571 
2 *129:6 *2015:B 21.3893 
3 *129:6 *2014:B 10.2464 
*END

*D_NET *130 0.00222166
*CONN
*I *2019:B I *D sky130_fd_sc_hd__xor2_1
*I *2020:B I *D sky130_fd_sc_hd__and2_1
*I *3378:X O *D sky130_fd_sc_hd__a21o_1
*CAP
1 *2019:B 0.000116003
2 *2020:B 0
3 *3378:X 0.000799412
4 *130:8 0.000915415
5 *2019:B *2019:A 0.000177941
6 *2019:B *2022:B1 9.47456e-05
7 *2019:B *1447:10 0
8 *2019:B *1455:10 0
9 *130:8 *1954:A2 5.52238e-05
10 *130:8 *2022:B1 2.27416e-05
11 *130:8 *135:12 4.01768e-05
*RES
1 *3378:X *130:8 22.0232 
2 *130:8 *2020:B 9.3 
3 *130:8 *2019:B 21.5589 
*END

*D_NET *131 0.00140579
*CONN
*I *2110:B I *D sky130_fd_sc_hd__xor2_1
*I *2111:B I *D sky130_fd_sc_hd__and2_1
*I *2980:X O *D sky130_fd_sc_hd__or2_1
*CAP
1 *2110:B 0
2 *2111:B 0.000181419
3 *2980:X 9.35326e-05
4 *131:6 0.000274951
5 *2111:B *2111:A 0.000161364
6 *2111:B *288:14 5.41794e-05
7 *2111:B *929:10 4.33899e-05
8 *131:6 *929:10 0.000204779
9 *2947:B *2111:B 0.000223461
10 *2947:B *131:6 0.000128946
11 *2980:B *2111:B 3.97677e-05
12 *23:47 *2111:B 0
*RES
1 *2980:X *131:6 11.8893 
2 *131:6 *2111:B 23.0321 
3 *131:6 *2110:B 9.3 
*END

*D_NET *132 0.000661987
*CONN
*I *1953:A I *D sky130_fd_sc_hd__xor2_1
*I *1954:A1 I *D sky130_fd_sc_hd__a21o_1
*I *1951:X O *D sky130_fd_sc_hd__xor2_1
*CAP
1 *1953:A 7.80029e-05
2 *1954:A1 8.73945e-05
3 *1951:X 6.66453e-05
4 *132:8 0.000232043
5 *1953:A *1361:12 9.92409e-05
6 *1954:A1 *1953:B 0
7 *1954:A1 *1954:B1 3.92757e-05
8 *1954:A1 *135:12 0
9 *132:8 *1951:A 0
10 *132:8 *1951:B 0
11 *132:8 *1954:B1 6.05161e-06
12 *132:8 *1361:12 5.33334e-05
*RES
1 *1951:X *132:8 10.675 
2 *132:8 *1954:A1 19.9429 
3 *132:8 *1953:A 11.0679 
*END

*D_NET *133 0.000938321
*CONN
*I *1954:B1 I *D sky130_fd_sc_hd__a21o_1
*I *1952:X O *D sky130_fd_sc_hd__and2_1
*CAP
1 *1954:B1 0.000330405
2 *1952:X 0.000330405
3 *1954:B1 *1951:A 0.000186662
4 *1954:B1 *1953:B 0
5 *1954:B1 *135:12 0
6 *1954:B1 *1361:12 4.55215e-05
7 *1954:B1 *1451:12 0
8 *1954:A1 *1954:B1 3.92757e-05
9 *3378:B1 *1954:B1 0
10 *132:8 *1954:B1 6.05161e-06
*RES
1 *1952:X *1954:B1 32.6536 
*END

*D_NET *134 0.00250099
*CONN
*I *2079:A I *D sky130_fd_sc_hd__xor2_1
*I *2080:A I *D sky130_fd_sc_hd__and2_1
*I *1953:X O *D sky130_fd_sc_hd__xor2_1
*CAP
1 *2079:A 0
2 *2080:A 0.000100758
3 *1953:X 0.000558886
4 *134:10 0.000659644
5 *2080:A *2080:B 0.00021614
6 *2080:A *2082:B1 7.60306e-05
7 *2080:A *194:10 3.34366e-05
8 *2080:A *262:14 0
9 *2080:A *1361:16 5.33005e-05
10 *134:10 *2017:A 5.7661e-06
11 *134:10 *2018:A1 1.74352e-05
12 *134:10 *2087:A2 0.000232399
13 *134:10 *198:6 9.7659e-05
14 *134:10 *199:6 0.000219064
15 *2018:A2 *134:10 0.000230475
*RES
1 *1953:X *134:10 21.3714 
2 *134:10 *2080:A 21.3893 
3 *134:10 *2079:A 9.3 
*END

*D_NET *135 0.00165106
*CONN
*I *2084:A I *D sky130_fd_sc_hd__xor2_1
*I *2085:A I *D sky130_fd_sc_hd__and2_1
*I *1954:X O *D sky130_fd_sc_hd__a21o_1
*CAP
1 *2084:A 0.000131909
2 *2085:A 3.72884e-05
3 *1954:X 0.000445353
4 *135:12 0.00061455
5 *2084:A *2084:B 0.000133464
6 *2084:A *202:18 5.33005e-05
7 *135:12 *1953:B 0
8 *135:12 *2346:B 0
9 *135:12 *202:18 0.000195017
10 *135:12 *1451:12 0
11 *1954:A1 *135:12 0
12 *1954:B1 *135:12 0
13 *130:8 *135:12 4.01768e-05
*RES
1 *1954:X *135:12 26.3536 
2 *135:12 *2085:A 9.83571 
3 *135:12 *2084:A 12.3179 
*END

*D_NET *136 0.00104426
*CONN
*I *1957:A I *D sky130_fd_sc_hd__xor2_1
*I *1958:A1 I *D sky130_fd_sc_hd__a21o_1
*I *1955:X O *D sky130_fd_sc_hd__xor2_1
*CAP
1 *1957:A 0.000264894
2 *1958:A1 5.47952e-05
3 *1955:X 7.78368e-05
4 *136:6 0.000397526
5 *1957:A *275:12 7.02903e-05
6 *1957:A *1150:10 0.000147332
7 *38:64 *1957:A 1.96078e-05
8 *38:64 *136:6 1.1979e-05
*RES
1 *1955:X *136:6 10.2464 
2 *136:6 *1958:A1 10.3357 
3 *136:6 *1957:A 22.425 
*END

*D_NET *137 0.000724221
*CONN
*I *1958:B1 I *D sky130_fd_sc_hd__a21o_1
*I *1956:X O *D sky130_fd_sc_hd__and2_1
*CAP
1 *1958:B1 0.000299287
2 *1956:X 0.000299287
3 *1958:B1 *1955:B 0
4 *1958:B1 *1958:A2 2.83284e-06
5 *1958:B1 *275:12 0.000122814
*RES
1 *1956:X *1958:B1 31.8321 
*END

*D_NET *138 0.00593376
*CONN
*I *2020:A I *D sky130_fd_sc_hd__and2_1
*I *2019:A I *D sky130_fd_sc_hd__xor2_1
*I *1957:X O *D sky130_fd_sc_hd__xor2_1
*CAP
1 *2020:A 0
2 *2019:A 0.0001575
3 *1957:X 0.00148118
4 *138:14 0.00163868
5 *2019:A *1361:12 4.87953e-05
6 *2019:A *1447:10 0
7 *2019:A *1455:10 0
8 *138:14 *3079:B1 0
9 *138:14 *1042:12 0
10 *138:14 *1225:16 0
11 *138:14 *1455:10 0.00116397
12 *2019:B *2019:A 0.000177941
13 *2822:B *138:14 0.000186307
14 *2889:A *138:14 5.59013e-05
15 *10:162 *138:14 4.85033e-05
16 *39:76 *138:14 0.000112995
17 *39:95 *138:14 0.000861997
*RES
1 *1957:X *138:14 49.5679 
2 *138:14 *2019:A 21.8 
3 *138:14 *2020:A 9.3 
*END

*D_NET *139 0.00424513
*CONN
*I *2024:A I *D sky130_fd_sc_hd__and2_1
*I *2023:A I *D sky130_fd_sc_hd__xor2_1
*I *1958:X O *D sky130_fd_sc_hd__a21o_1
*CAP
1 *2024:A 0
2 *2023:A 0.000174043
3 *1958:X 0.000635675
4 *139:8 0.000809719
5 *2023:A *275:12 0.000153047
6 *139:8 *275:12 0.00165891
7 *139:8 *697:14 0
8 *139:8 *751:12 4.25716e-05
9 *139:8 *1150:10 0.000359486
10 *2598:A *2023:A 0.000123912
11 *2598:A *139:8 9.24299e-05
12 *2599:A *2023:A 0
13 *2884:B *139:8 0
14 *8:139 *139:8 0
15 *17:283 *139:8 8.56812e-05
16 *17:294 *139:8 0.000109659
17 *25:74 *139:8 0
*RES
1 *1958:X *139:8 35.175 
2 *139:8 *2023:A 18.0143 
3 *139:8 *2024:A 13.8 
*END

*D_NET *140 0.000685642
*CONN
*I *1962:A I *D sky130_fd_sc_hd__xor2_1
*I *1963:A1 I *D sky130_fd_sc_hd__a21o_1
*I *1959:X O *D sky130_fd_sc_hd__xor2_1
*CAP
1 *1962:A 0.000135321
2 *1963:A1 0
3 *1959:X 0.000114779
4 *140:12 0.0002501
5 *1962:A *1963:A2 5.73295e-05
6 *1962:A *1361:12 3.30352e-05
7 *140:12 *1963:B1 3.92854e-05
8 *140:12 *206:24 0
9 *140:12 *1448:16 0
10 *140:12 *1455:10 5.57914e-05
*RES
1 *1959:X *140:12 20.7821 
2 *140:12 *1963:A1 9.3 
3 *140:12 *1962:A 11.925 
*END

*D_NET *141 0.000751011
*CONN
*I *1963:B1 I *D sky130_fd_sc_hd__a21o_1
*I *1960:X O *D sky130_fd_sc_hd__and2_1
*CAP
1 *1963:B1 0.000284435
2 *1960:X 0.000284435
3 *1963:B1 *1960:A 0.000142856
4 *1963:B1 *206:24 0
5 *1963:B1 *1455:10 0
6 *140:12 *1963:B1 3.92854e-05
*RES
1 *1960:X *1963:B1 31.8321 
*END

*D_NET *142 0.00103118
*CONN
*I *2113:B I *D sky130_fd_sc_hd__and2_1
*I *2112:B I *D sky130_fd_sc_hd__xor2_1
*I *2991:X O *D sky130_fd_sc_hd__or2_1
*CAP
1 *2113:B 0.000143127
2 *2112:B 3.39029e-05
3 *2991:X 0.000117375
4 *142:6 0.000294405
5 *2112:B *940:6 2.59355e-05
6 *2113:B *291:10 5.45307e-05
7 *142:6 *940:6 0.000111511
8 *2969:A *2113:B 1.67953e-05
9 *2991:B *2113:B 3.27461e-05
10 *23:80 *2113:B 0.000200849
*RES
1 *2991:X *142:6 11.4786 
2 *142:6 *2112:B 9.83571 
3 *142:6 *2113:B 21.8 
*END

*D_NET *143 0.00152053
*CONN
*I *2022:A2 I *D sky130_fd_sc_hd__a21o_1
*I *2021:B I *D sky130_fd_sc_hd__xor2_1
*I *1962:X O *D sky130_fd_sc_hd__xor2_1
*CAP
1 *2022:A2 0
2 *2021:B 9.78228e-05
3 *1962:X 0.000306527
4 *143:12 0.00040435
5 *2021:B *2022:A1 4.83217e-05
6 *2021:B *2022:B1 2.51721e-05
7 *2021:B *200:12 5.52302e-05
8 *2021:B *267:12 1.74352e-05
9 *143:12 *2022:B1 0.000126439
10 *143:12 *200:12 7.83366e-05
11 *143:12 *1361:12 0.000360894
*RES
1 *1962:X *143:12 23.6571 
2 *143:12 *2021:B 11.4964 
3 *143:12 *2022:A2 9.3 
*END

*D_NET *144 0.00113448
*CONN
*I *2088:A I *D sky130_fd_sc_hd__xor2_1
*I *2089:A I *D sky130_fd_sc_hd__and2_1
*I *1963:X O *D sky130_fd_sc_hd__a21o_1
*CAP
1 *2088:A 1.22324e-05
2 *2089:A 7.29633e-05
3 *1963:X 0.000249426
4 *144:10 0.000334622
5 *2088:A *2088:B 5.52302e-05
6 *2088:A *2091:B1 2.28598e-05
7 *2089:A *2088:B 0.000188463
8 *2089:A *2091:B1 0.00010096
9 *2089:A *494:22 9.77274e-05
10 *144:10 *2091:B1 0
11 *144:10 *206:24 0
*RES
1 *1963:X *144:10 22.3714 
2 *144:10 *2089:A 12.3179 
3 *144:10 *2088:A 9.83571 
*END

*D_NET *145 0.00112495
*CONN
*I *1967:A1 I *D sky130_fd_sc_hd__a21o_1
*I *1966:A I *D sky130_fd_sc_hd__xor2_1
*I *1964:X O *D sky130_fd_sc_hd__xor2_1
*CAP
1 *1967:A1 0
2 *1966:A 9.43092e-05
3 *1964:X 6.25384e-05
4 *145:8 0.000156848
5 *1966:A *1966:B 0.00012501
6 *145:8 *1967:B1 0.000144773
7 *2599:B *1966:A 4.98872e-05
8 *10:91 *145:8 0.000227526
9 *12:157 *145:8 4.43256e-05
10 *20:38 *1966:A 0.000219734
*RES
1 *1964:X *145:8 11.9071 
2 *145:8 *1966:A 21.1571 
3 *145:8 *1967:A1 9.3 
*END

*D_NET *146 0.00068186
*CONN
*I *1967:B1 I *D sky130_fd_sc_hd__a21o_1
*I *1965:X O *D sky130_fd_sc_hd__and2_1
*CAP
1 *1967:B1 8.67936e-05
2 *1965:X 8.67936e-05
3 *1967:B1 *148:10 2.79092e-05
4 *10:91 *1967:B1 2.14757e-05
5 *12:157 *1967:B1 0.000186669
6 *20:38 *1967:B1 0
7 *22:207 *1967:B1 0.000127446
8 *145:8 *1967:B1 0.000144773
*RES
1 *1965:X *1967:B1 31.0107 
*END

*D_NET *147 0.0025297
*CONN
*I *2024:B I *D sky130_fd_sc_hd__and2_1
*I *2023:B I *D sky130_fd_sc_hd__xor2_1
*I *1966:X O *D sky130_fd_sc_hd__xor2_1
*CAP
1 *2024:B 0.000165159
2 *2023:B 0
3 *1966:X 0.000454331
4 *147:10 0.00061949
5 *2024:B *2026:A1 4.1331e-06
6 *2024:B *2026:B1 0.000133712
7 *147:10 *2026:A1 5.80217e-05
8 *147:10 *2026:B1 0.000202128
9 *147:10 *151:12 0.00015234
10 *2598:A *2024:B 4.00025e-05
11 *2598:A *147:10 0.000200276
12 *2599:B *147:10 0.000414047
13 *8:139 *2024:B 0
14 *8:143 *147:10 5.71472e-05
15 *32:193 *2024:B 0
16 *32:193 *147:10 0
17 *32:199 *147:10 0
18 *40:45 *147:10 2.89114e-05
*RES
1 *1966:X *147:10 26.9071 
2 *147:10 *2023:B 13.8 
3 *147:10 *2024:B 17.3 
*END

*D_NET *148 0.00164128
*CONN
*I *2029:B I *D sky130_fd_sc_hd__and2_1
*I *2028:B I *D sky130_fd_sc_hd__xor2_1
*I *1967:X O *D sky130_fd_sc_hd__a21o_1
*CAP
1 *2029:B 0
2 *2028:B 0.000156972
3 *1967:X 0.000222594
4 *148:10 0.000379566
5 *2028:B *2028:A 9.71197e-05
6 *2028:B *2029:A 0.000170124
7 *2028:B *2031:B1 0.000150632
8 *2028:B *209:8 1.33343e-05
9 *2028:B *211:12 1.98839e-05
10 *2028:B *1063:10 3.17148e-05
11 *1967:B1 *148:10 2.79092e-05
12 *12:157 *148:10 5.52238e-05
13 *20:38 *148:10 5.84171e-05
14 *20:44 *2028:B 3.80445e-05
15 *20:44 *148:10 0.000219741
16 *22:207 *148:10 0
*RES
1 *1967:X *148:10 18.7107 
2 *148:10 *2028:B 18.3714 
3 *148:10 *2029:B 13.8 
*END

*D_NET *149 0.00117662
*CONN
*I *1970:A I *D sky130_fd_sc_hd__xor2_1
*I *1971:A1 I *D sky130_fd_sc_hd__a21o_1
*I *1968:X O *D sky130_fd_sc_hd__xor2_1
*CAP
1 *1970:A 0.000191354
2 *1971:A1 0
3 *1968:X 0.000186694
4 *149:12 0.000378049
5 *1970:A *1971:A2 0.000239879
6 *1970:A *1456:8 1.74352e-05
7 *149:12 *1971:B1 8.16036e-05
8 *2599:A *149:12 8.16036e-05
*RES
1 *1968:X *149:12 22.0143 
2 *149:12 *1971:A1 9.3 
3 *149:12 *1970:A 13.1571 
*END

*D_NET *150 0.00110563
*CONN
*I *1971:B1 I *D sky130_fd_sc_hd__a21o_1
*I *1969:X O *D sky130_fd_sc_hd__and2_1
*CAP
1 *1971:B1 0.000260651
2 *1969:X 0.000260651
3 *1971:B1 *211:12 0.000320031
4 *2599:A *1971:B1 0
5 *39:184 *1971:B1 0.000182694
6 *149:12 *1971:B1 8.16036e-05
*RES
1 *1969:X *1971:B1 33.4393 
*END

*D_NET *151 0.00128653
*CONN
*I *2025:B I *D sky130_fd_sc_hd__xor2_1
*I *2026:A2 I *D sky130_fd_sc_hd__a21o_1
*I *1970:X O *D sky130_fd_sc_hd__xor2_1
*CAP
1 *2025:B 0.000231233
2 *2026:A2 0
3 *1970:X 7.07827e-05
4 *151:12 0.000302015
5 *2025:B *2026:A1 3.18676e-05
6 *151:12 *2026:A1 2.89114e-05
7 *18:59 *2025:B 0
8 *19:71 *2025:B 0.000254036
9 *19:71 *151:12 5.52302e-05
10 *25:74 *2025:B 0.000107503
11 *32:193 *151:12 5.26091e-05
12 *147:10 *151:12 0.00015234
*RES
1 *1970:X *151:12 20.7821 
2 *151:12 *2026:A2 9.3 
3 *151:12 *2025:B 23.4429 
*END

*D_NET *152 0.000702744
*CONN
*I *2093:A I *D sky130_fd_sc_hd__and2_1
*I *2092:A I *D sky130_fd_sc_hd__xor2_1
*I *1971:X O *D sky130_fd_sc_hd__a21o_1
*CAP
1 *2093:A 0.000103685
2 *2092:A 0
3 *1971:X 8.34677e-05
4 *152:8 0.000187153
5 *2093:A *2093:B 0.000150625
6 *2093:A *2095:A 0
7 *2093:A *2096:B1 2.79092e-05
8 *152:8 *2093:B 2.48938e-05
9 *152:8 *211:12 0.00012501
10 *2905:B *2093:A 0
11 *2905:B *152:8 0
*RES
1 *1971:X *152:8 15.7464 
2 *152:8 *2092:A 13.8 
3 *152:8 *2093:A 16.05 
*END

*D_NET *153 0.00101168
*CONN
*I *3047:A I *D sky130_fd_sc_hd__or2_1
*I *3002:X O *D sky130_fd_sc_hd__and2_1
*CAP
1 *3047:A 0.000166555
2 *3002:X 0.000166555
3 *3047:A *197:10 0.000127446
4 *3047:A *302:12 0.000270236
5 *3047:A *306:18 0.000188077
6 *3013:A *3047:A 5.52238e-05
7 *24:205 *3047:A 3.47641e-06
8 *24:220 *3047:A 3.41117e-05
*RES
1 *3002:X *3047:A 32.5107 
*END

*D_NET *154 0.00147515
*CONN
*I *1975:A I *D sky130_fd_sc_hd__xor2_1
*I *1976:A1 I *D sky130_fd_sc_hd__a21o_1
*I *1973:X O *D sky130_fd_sc_hd__xor2_1
*CAP
1 *1975:A 0.00023577
2 *1976:A1 0
3 *1973:X 0.000299814
4 *154:12 0.000535584
5 *1975:A *156:12 3.34295e-05
6 *154:12 *1974:A 9.90367e-05
7 *19:45 *1975:A 0.000112926
8 *19:45 *154:12 7.8327e-05
9 *25:74 *1975:A 0
10 *25:74 *154:12 0
11 *29:125 *1975:A 8.02593e-05
*RES
1 *1973:X *154:12 19.0679 
2 *154:12 *1976:A1 13.8 
3 *154:12 *1975:A 18.8357 
*END

*D_NET *155 0.000527747
*CONN
*I *1976:B1 I *D sky130_fd_sc_hd__a21o_1
*I *1974:X O *D sky130_fd_sc_hd__and2_1
*CAP
1 *1976:B1 8.82878e-05
2 *1974:X 8.82878e-05
3 *1976:B1 *157:6 5.52302e-05
4 *2852:A *1976:B1 4.58976e-05
5 *2853:A *1976:B1 0.000140933
6 *19:45 *1976:B1 4.25716e-05
7 *20:44 *1976:B1 6.65398e-05
*RES
1 *1974:X *1976:B1 30.6 
*END

*D_NET *156 0.00110856
*CONN
*I *2030:B I *D sky130_fd_sc_hd__xor2_1
*I *2031:A2 I *D sky130_fd_sc_hd__a21o_1
*I *1975:X O *D sky130_fd_sc_hd__xor2_1
*CAP
1 *2030:B 7.70907e-05
2 *2031:A2 5.92025e-05
3 *1975:X 0.000196539
4 *156:12 0.000332832
5 *2030:B *2031:A1 6.58195e-05
6 *1975:A *156:12 3.34295e-05
7 *19:45 *2030:B 0.000202842
8 *19:45 *156:12 6.16864e-05
9 *20:44 *2030:B 0
10 *25:74 *156:12 6.98669e-05
11 *32:199 *156:12 9.25014e-06
*RES
1 *1975:X *156:12 22.6214 
2 *156:12 *2031:A2 10.2464 
3 *156:12 *2030:B 20.8536 
*END

*D_NET *157 0.00170311
*CONN
*I *2098:A I *D sky130_fd_sc_hd__and2_1
*I *2097:A I *D sky130_fd_sc_hd__xor2_1
*I *1976:X O *D sky130_fd_sc_hd__a21o_1
*CAP
1 *2098:A 0
2 *2097:A 8.28145e-05
3 *1976:X 0.000131119
4 *157:6 0.000213933
5 *2097:A *2097:B 9.24395e-05
6 *2097:A *277:10 0
7 *1976:B1 *157:6 5.52302e-05
8 *2852:A *157:6 0.000703595
9 *2853:A *157:6 0.000351281
10 *9:78 *2097:A 7.26935e-05
*RES
1 *1976:X *157:6 15.9964 
2 *157:6 *2097:A 20.8536 
3 *157:6 *2098:A 9.3 
*END

*D_NET *158 0.0010793
*CONN
*I *2145:A I *D sky130_fd_sc_hd__xor2_1
*I *2146:A I *D sky130_fd_sc_hd__and2_1
*I *1977:X O *D sky130_fd_sc_hd__xor2_1
*CAP
1 *2145:A 0
2 *2146:A 0.000180911
3 *1977:X 0.000130638
4 *158:10 0.000311549
5 *2146:A *2145:B 0.000223756
6 *2146:A *2148:B1 0.000166956
7 *158:10 *1977:A 0
8 *18:15 *158:10 6.54849e-05
*RES
1 *1977:X *158:10 20.8536 
2 *158:10 *2146:A 13.675 
3 *158:10 *2145:A 9.3 
*END

*D_NET *159 0.000829189
*CONN
*I *2043:A I *D sky130_fd_sc_hd__xor2_1
*I *2044:A I *D sky130_fd_sc_hd__and2_1
*I *1978:X O *D sky130_fd_sc_hd__and2_1
*CAP
1 *2043:A 0.000113271
2 *2044:A 0.000103847
3 *1978:X 0
4 *159:4 0.000217117
5 *2043:A *2043:B 9.90431e-05
6 *2044:A *1978:B 0.000177948
7 *2044:A *2044:B 7.7311e-05
8 *2044:A *1458:8 7.79781e-06
9 *6:269 *2044:A 2.68029e-05
10 *13:116 *2044:A 6.05161e-06
*RES
1 *1978:X *159:4 9.3 
2 *159:4 *2044:A 21.6929 
3 *159:4 *2043:A 11.4786 
*END

*D_NET *160 0.000989656
*CONN
*I *1981:A I *D sky130_fd_sc_hd__xor2_1
*I *1982:A1 I *D sky130_fd_sc_hd__a21o_1
*I *1979:X O *D sky130_fd_sc_hd__xor2_1
*CAP
1 *1981:A 4.591e-05
2 *1982:A1 9.46391e-05
3 *1979:X 4.88997e-05
4 *160:8 0.000189449
5 *1982:A1 *1981:B 0.000120368
6 *1982:A1 *1982:B1 0.000120368
7 *1982:A1 *2542:B 5.50052e-05
8 *160:8 *1981:B 3.32801e-05
9 *160:8 *1982:B1 0.000142018
10 *16:58 *1981:A 9.58689e-05
11 *23:275 *160:8 4.38511e-05
*RES
1 *1979:X *160:8 15.7464 
2 *160:8 *1982:A1 15.9786 
3 *160:8 *1981:A 14.7464 
*END

*D_NET *161 0.00162071
*CONN
*I *1982:B1 I *D sky130_fd_sc_hd__a21o_1
*I *1980:X O *D sky130_fd_sc_hd__and2_1
*CAP
1 *1982:B1 0.000380483
2 *1980:X 0.000380483
3 *1982:B1 *1979:A 1.21258e-05
4 *1982:B1 *1979:B 9.90367e-05
5 *1982:B1 *1981:B 2.07809e-05
6 *1982:B1 *1982:A2 5.23735e-05
7 *1982:B1 *2542:B 9.67754e-05
8 *1982:B1 *704:6 6.05161e-06
9 *1982:A1 *1982:B1 0.000120368
10 *34:136 *1982:B1 0.000310214
11 *160:8 *1982:B1 0.000142018
*RES
1 *1980:X *1982:B1 35.2071 
*END

*D_NET *162 0.00179097
*CONN
*I *2045:B I *D sky130_fd_sc_hd__xor2_1
*I *2046:A2 I *D sky130_fd_sc_hd__a21o_1
*I *1981:X O *D sky130_fd_sc_hd__xor2_1
*CAP
1 *2045:B 0
2 *2046:A2 0.000141286
3 *1981:X 0.000307772
4 *162:12 0.000449058
5 *2046:A2 *2045:A 7.31843e-05
6 *2046:A2 *227:20 3.00089e-05
7 *162:12 *226:12 9.84729e-05
8 *162:12 *227:20 0.00023864
9 *2478:B *162:12 0.000100165
10 *16:58 *162:12 0.000352381
*RES
1 *1981:X *162:12 17.3893 
2 *162:12 *2046:A2 12.3536 
3 *162:12 *2045:B 9.3 
*END

*D_NET *163 0.00122898
*CONN
*I *2048:A I *D sky130_fd_sc_hd__and2_1
*I *2047:A I *D sky130_fd_sc_hd__xor2_1
*I *1982:X O *D sky130_fd_sc_hd__a21o_1
*CAP
1 *2048:A 0
2 *2047:A 0.000151353
3 *1982:X 0.000175702
4 *163:6 0.000327055
5 *2047:A *2048:B 0.000170893
6 *2047:A *1462:12 5.33005e-05
7 *163:6 *2542:B 2.85321e-05
8 *163:6 *704:6 0.000226279
9 *16:58 *2047:A 9.58689e-05
*RES
1 *1982:X *163:6 13.1214 
2 *163:6 *2047:A 21.8 
3 *163:6 *2048:A 9.3 
*END

*D_NET *164 0.000104357
*CONN
*I *3047:B I *D sky130_fd_sc_hd__or2_1
*I *3013:X O *D sky130_fd_sc_hd__and2_1
*CAP
1 *3047:B 2.36049e-05
2 *3013:X 2.36049e-05
3 *3013:B *3047:B 5.71472e-05
*RES
1 *3013:X *3047:B 19.1357 
*END

*D_NET *165 0.000812921
*CONN
*I *1987:A1 I *D sky130_fd_sc_hd__a21o_1
*I *1986:A I *D sky130_fd_sc_hd__xor2_1
*I *1984:X O *D sky130_fd_sc_hd__xor2_1
*CAP
1 *1987:A1 0
2 *1986:A 0.000178825
3 *1984:X 0.000123157
4 *165:12 0.000301982
5 *1986:A *1987:A2 0.000125057
6 *165:12 *1987:B1 8.39e-05
7 *4:138 *165:12 0
*RES
1 *1984:X *165:12 20.7821 
2 *165:12 *1986:A 12.7464 
3 *165:12 *1987:A1 9.3 
*END

*D_NET *166 0.000784916
*CONN
*I *1987:B1 I *D sky130_fd_sc_hd__a21o_1
*I *1985:X O *D sky130_fd_sc_hd__and2_1
*CAP
1 *1987:B1 0.000187284
2 *1985:X 0.000187284
3 *4:138 *1987:B1 0
4 *27:197 *1987:B1 4.00276e-06
5 *36:316 *1987:B1 0.000322446
6 *165:12 *1987:B1 8.39e-05
*RES
1 *1985:X *1987:B1 32.2071 
*END

*D_NET *167 0.000964908
*CONN
*I *2050:B I *D sky130_fd_sc_hd__xor2_1
*I *2051:A2 I *D sky130_fd_sc_hd__a21o_1
*I *1986:X O *D sky130_fd_sc_hd__xor2_1
*CAP
1 *2050:B 0.000115403
2 *2051:A2 3.86836e-05
3 *1986:X 0.000132743
4 *167:10 0.00028683
5 *2050:B *2050:A 1.42249e-05
6 *2050:B *2051:B1 4.97705e-05
7 *2050:B *227:20 0.000150508
8 *167:10 *2051:B1 2.18087e-05
9 *4:138 *167:10 4.72266e-05
10 *36:39 *2050:B 0.000100165
11 *36:316 *2051:A2 7.54369e-06
12 *36:316 *167:10 0
*RES
1 *1986:X *167:10 16.4339 
2 *167:10 *2051:A2 14.6125 
3 *167:10 *2050:B 17.1482 
*END

*D_NET *168 0.0091568
*CONN
*I *2053:B I *D sky130_fd_sc_hd__and2_1
*I *2052:B I *D sky130_fd_sc_hd__xor2_1
*I *1987:X O *D sky130_fd_sc_hd__a21o_1
*CAP
1 *2053:B 7.08055e-05
2 *2052:B 7.37344e-05
3 *1987:X 0.000899302
4 *168:16 0.00197088
5 *168:14 0.00272565
6 *2052:B *2053:A 0.000153054
7 *2052:B *2054:B 1.99099e-05
8 *2052:B *2055:B1 0
9 *2052:B *235:10 0
10 *168:14 *1462:12 0
11 *168:16 *2616:A 4.84073e-05
12 *168:16 *2616:B 2.59355e-05
13 *168:16 *3018:B 0.00010096
14 *168:16 *3019:A2 0.000188586
15 *168:16 *3320:B 0.000186669
16 *168:16 *3321:A 1.98839e-05
17 *168:16 *3329:B 7.69499e-05
18 *168:16 *232:12 3.51009e-05
19 *168:16 *1465:6 0.00021456
20 *168:16 *1474:14 0.000315158
21 *2551:B *168:16 0.000271352
22 *16:58 *168:14 0.000681663
23 *16:58 *168:16 0.000231236
24 *35:75 *168:16 9.14454e-05
25 *35:88 *168:16 0.000357048
26 *36:58 *168:16 0.000320144
27 *36:316 *168:14 7.83659e-05
*RES
1 *1987:X *168:14 31.3893 
2 *168:14 *168:16 34.625 
3 *168:16 *2052:B 20.2464 
4 *168:16 *2053:B 10.5679 
*END

*D_NET *169 0.0032111
*CONN
*I *1990:A I *D sky130_fd_sc_hd__xor2_1
*I *1991:A1 I *D sky130_fd_sc_hd__a21o_1
*I *1988:X O *D sky130_fd_sc_hd__xor2_1
*CAP
1 *1990:A 0.000183176
2 *1991:A1 0.000165078
3 *1988:X 0.000702444
4 *169:10 0.0010507
5 *1990:A *1990:B 4.87953e-05
6 *1990:A *1991:B1 0.000228558
7 *1990:A *3325:A 4.38128e-05
8 *1990:A *3325:B 1.74352e-05
9 *1990:A *1466:8 5.52302e-05
10 *1991:A1 *1991:A2 5.71472e-05
11 *1991:A1 *1089:18 2.65105e-05
12 *169:10 *1991:B1 7.04949e-05
13 *169:10 *2435:A 1.58163e-05
14 *169:10 *2435:B 4.70078e-05
15 *169:10 *3322:A 4.87953e-05
16 *169:10 *3326:A1 5.66157e-05
17 *169:10 *608:6 7.02611e-05
18 *169:10 *1466:8 9.7659e-05
19 *7:68 *1991:A1 5.24274e-05
20 *7:68 *169:10 3.67452e-05
21 *37:127 *169:10 9.46929e-05
22 *37:135 *169:10 4.16984e-05
*RES
1 *1988:X *169:10 26.05 
2 *169:10 *1991:A1 16.4964 
3 *169:10 *1990:A 18.05 
*END

*D_NET *170 0.00384131
*CONN
*I *1991:B1 I *D sky130_fd_sc_hd__a21o_1
*I *1989:X O *D sky130_fd_sc_hd__and2_1
*CAP
1 *1991:B1 0.0012881
2 *1989:X 0.0012881
3 *1991:B1 *1988:B 0.000188586
4 *1991:B1 *1991:A2 0.000101545
5 *1991:B1 *2435:A 5.33005e-05
6 *1991:B1 *2435:B 0.000226513
7 *1991:B1 *3322:A 4.43256e-05
8 *1991:B1 *608:6 7.3237e-05
9 *1991:B1 *1466:8 9.16074e-05
10 *1990:A *1991:B1 0.000228558
11 *7:68 *1991:B1 0
12 *17:103 *1991:B1 9.10431e-06
13 *37:127 *1991:B1 3.98559e-05
14 *37:135 *1991:B1 0.000137983
15 *169:10 *1991:B1 7.04949e-05
*RES
1 *1989:X *1991:B1 45.3857 
*END

*D_NET *171 0.00476566
*CONN
*I *2055:A2 I *D sky130_fd_sc_hd__a21o_1
*I *2054:B I *D sky130_fd_sc_hd__xor2_1
*I *1990:X O *D sky130_fd_sc_hd__xor2_1
*CAP
1 *2055:A2 0
2 *2054:B 0.000264032
3 *1990:X 0.00143108
4 *171:10 0.00169511
5 *2054:B *2053:A 7.79781e-06
6 *2054:B *2054:A 9.61553e-05
7 *2054:B *2055:A1 0.000253799
8 *2054:B *2055:B1 2.78822e-05
9 *2054:B *235:10 5.52238e-05
10 *2054:B *1474:14 0
11 *171:10 *2055:B1 4.1331e-06
12 *171:10 *2682:A 0.00010096
13 *171:10 *2682:B 5.71472e-05
14 *171:10 *3039:A2 0.000182849
15 *171:10 *3187:B 0
16 *171:10 *3188:A 0
17 *171:10 *3334:B1 5.52302e-05
18 *171:10 *1173:10 0.000150625
19 *171:10 *1267:14 0
20 *171:10 *1474:14 0
21 *2052:B *2054:B 1.99099e-05
22 *2678:A *171:10 9.90431e-05
23 *2678:B *171:10 2.95726e-05
24 *2679:A *171:10 0.000180777
25 *2679:B *171:10 4.58976e-05
26 *24:99 *171:10 8.43535e-06
*RES
1 *1990:X *171:10 38.7464 
2 *171:10 *2054:B 20.0857 
3 *171:10 *2055:A2 13.8 
*END

*D_NET *172 0.00607232
*CONN
*I *2056:B I *D sky130_fd_sc_hd__xor2_1
*I *2057:B I *D sky130_fd_sc_hd__and2_1
*I *1991:X O *D sky130_fd_sc_hd__a21o_1
*CAP
1 *2056:B 9.49448e-05
2 *2057:B 0
3 *1991:X 0.00159753
4 *172:26 0.00169247
5 *2056:B *2058:B 5.52302e-05
6 *2056:B *176:6 9.71197e-05
7 *2056:B *1186:10 0.000194299
8 *2056:B *1271:8 0.000202835
9 *172:26 *2675:A 9.90367e-05
10 *172:26 *3036:B 0.000413416
11 *172:26 *3039:A1 9.90367e-05
12 *172:26 *3039:B1 6.24482e-05
13 *172:26 *1089:18 0.000590129
14 *172:26 *1177:14 0
15 *172:26 *1186:10 0.000362286
16 *172:26 *1271:8 0.000227736
17 *2056:A *2056:B 0.00018372
18 *2672:A *172:26 0.000100084
*RES
1 *1991:X *172:26 42.4071 
2 *172:26 *2057:B 13.8 
3 *172:26 *2056:B 18.1214 
*END

*D_NET *173 0.000854182
*CONN
*I *1996:A1 I *D sky130_fd_sc_hd__a21o_1
*I *1995:A I *D sky130_fd_sc_hd__xor2_1
*I *1992:X O *D sky130_fd_sc_hd__xor2_1
*CAP
1 *1996:A1 0
2 *1995:A 8.64879e-05
3 *1992:X 6.17406e-05
4 *173:8 0.000148229
5 *1995:A *1995:B 5.52238e-05
6 *1995:A *1996:A2 0.000177227
7 *1995:A *1996:B1 4.87953e-05
8 *1995:A *1177:14 0.000175519
9 *90:10 *173:8 0.00010096
*RES
1 *1992:X *173:8 10.675 
2 *173:8 *1995:A 21.4964 
3 *173:8 *1996:A1 9.3 
*END

*D_NET *174 0.000859722
*CONN
*I *1996:B1 I *D sky130_fd_sc_hd__a21o_1
*I *1993:X O *D sky130_fd_sc_hd__and2_1
*CAP
1 *1996:B1 0.000243243
2 *1993:X 0.000243243
3 *1996:B1 *1995:B 1.39841e-05
4 *1996:B1 *1177:14 0.000128154
5 *1996:B1 *1474:14 5.41494e-05
6 *1995:A *1996:B1 4.87953e-05
7 *90:10 *1996:B1 0.000128154
*RES
1 *1993:X *1996:B1 31.8321 
*END

*D_NET *175 0.000258897
*CONN
*I *3058:A I *D sky130_fd_sc_hd__or2_1
*I *3024:X O *D sky130_fd_sc_hd__and2_1
*CAP
1 *3058:A 4.41077e-05
2 *3024:X 4.41077e-05
3 *3169:A *3058:A 7.16452e-05
4 *13:57 *3058:A 9.90367e-05
*RES
1 *3024:X *3058:A 19.9571 
*END

*D_NET *176 0.00135714
*CONN
*I *2058:B I *D sky130_fd_sc_hd__xor2_1
*I *2059:A2 I *D sky130_fd_sc_hd__a21o_1
*I *1995:X O *D sky130_fd_sc_hd__xor2_1
*CAP
1 *2058:B 0.0001911
2 *2059:A2 5.69763e-05
3 *1995:X 5.1491e-05
4 *176:6 0.000299568
5 *2058:B *2058:A 0.000102207
6 *2058:B *2059:A1 0.000228558
7 *2059:A2 *2059:A1 0.000154762
8 *2059:A2 *1271:8 9.56968e-05
9 *2059:A2 *1335:14 0
10 *2056:A *2058:B 2.44318e-05
11 *2056:B *2058:B 5.52302e-05
12 *2056:B *176:6 9.71197e-05
*RES
1 *1995:X *176:6 10.2464 
2 *176:6 *2059:A2 20.55 
3 *176:6 *2058:B 13.9607 
*END

*D_NET *177 0.00147192
*CONN
*I *2062:B I *D sky130_fd_sc_hd__xor2_1
*I *2063:B I *D sky130_fd_sc_hd__and2_1
*I *1996:X O *D sky130_fd_sc_hd__a21o_1
*CAP
1 *2062:B 1.5574e-05
2 *2063:B 0.000174863
3 *1996:X 0.000261044
4 *177:10 0.000451481
5 *2062:B *1271:8 4.73656e-05
6 *2063:B *2065:B1 1.21258e-05
7 *177:10 *1271:8 0.000293422
8 *2062:A *2063:B 0.000119135
9 *91:10 *2062:B 3.17163e-05
10 *91:10 *177:10 6.51946e-05
*RES
1 *1996:X *177:10 18.925 
2 *177:10 *2063:B 16.8179 
3 *177:10 *2062:B 14.5321 
*END

*D_NET *178 0.0010628
*CONN
*I *2000:A1 I *D sky130_fd_sc_hd__a21o_1
*I *1999:A I *D sky130_fd_sc_hd__xor2_1
*I *1997:X O *D sky130_fd_sc_hd__xor2_1
*CAP
1 *2000:A1 0
2 *1999:A 0.000227844
3 *1997:X 0.000111347
4 *178:8 0.000339191
5 *1999:A *180:10 3.69047e-06
6 *1999:A *1186:10 0.000179656
7 *178:8 *2000:B1 0.000144773
8 *178:8 *181:10 5.62995e-05
9 *2000:A2 *1999:A 0
*RES
1 *1997:X *178:8 11.9071 
2 *178:8 *1999:A 22.7286 
3 *178:8 *2000:A1 9.3 
*END

*D_NET *179 0.000730536
*CONN
*I *2000:B1 I *D sky130_fd_sc_hd__a21o_1
*I *1998:X O *D sky130_fd_sc_hd__and2_1
*CAP
1 *2000:B1 0.000232286
2 *1998:X 0.000232286
3 *2000:B1 *1997:A 2.02303e-05
4 *1997:B *2000:B1 0.00010096
5 *178:8 *2000:B1 0.000144773
*RES
1 *1998:X *2000:B1 23.3857 
*END

*D_NET *180 0.00212424
*CONN
*I *2065:A2 I *D sky130_fd_sc_hd__a21o_1
*I *2064:B I *D sky130_fd_sc_hd__xor2_1
*I *1999:X O *D sky130_fd_sc_hd__xor2_1
*CAP
1 *2065:A2 0
2 *2064:B 0.000158034
3 *1999:X 0.000417724
4 *180:10 0.000575758
5 *2064:B *2064:A 0.000139913
6 *2064:B *2065:A1 0.000126439
7 *2064:B *2065:B1 0.000101243
8 *2064:B *242:8 3.34295e-05
9 *180:10 *2065:B1 4.1331e-06
10 *180:10 *245:8 0
11 *180:10 *396:12 0
12 *1999:A *180:10 3.69047e-06
13 *91:10 *2064:B 3.80445e-05
14 *91:10 *180:10 0.000525837
*RES
1 *1999:X *180:10 22.3714 
2 *180:10 *2064:B 18.3714 
3 *180:10 *2065:A2 13.8 
*END

*D_NET *181 0.00190185
*CONN
*I *2066:B I *D sky130_fd_sc_hd__xor2_1
*I *2067:B I *D sky130_fd_sc_hd__and2_1
*I *2000:X O *D sky130_fd_sc_hd__a21o_1
*CAP
1 *2066:B 5.69022e-05
2 *2067:B 0
3 *2000:X 0.000342582
4 *181:10 0.000399485
5 *2066:B *1276:10 0.000108848
6 *181:10 *3128:B 0.000198698
7 *181:10 *3129:A 0
8 *181:10 *3130:A2 0
9 *181:10 *3130:B1 6.74911e-05
10 *181:10 *184:12 0.000106299
11 *181:10 *1186:10 0.000128154
12 *181:10 *1189:14 5.88692e-05
13 *181:10 *1276:10 0.000176096
14 *2067:A *2066:B 0.000191877
15 *2067:A *181:10 1.02504e-05
16 *178:8 *181:10 5.62995e-05
*RES
1 *2000:X *181:10 23.675 
2 *181:10 *2067:B 13.8 
3 *181:10 *2066:B 16.3536 
*END

*D_NET *182 0.00122543
*CONN
*I *2003:A I *D sky130_fd_sc_hd__xor2_1
*I *2004:A1 I *D sky130_fd_sc_hd__a21o_1
*I *2001:X O *D sky130_fd_sc_hd__xor2_1
*CAP
1 *2003:A 0.000215211
2 *2004:A1 0.000439343
3 *2001:X 0.000224132
4 *2003:A *3127:A 0
5 *2003:A *3128:B 0
6 *2003:A *185:8 0
7 *2003:A *1189:14 0
8 *2004:A1 *2004:B1 3.298e-05
9 *2001:A *2004:A1 1.3701e-05
10 *2001:B *2004:A1 0
11 *2003:B *2003:A 5.52302e-05
12 *2004:A2 *2003:A 0
13 *2004:A2 *2004:A1 0.000244835
*RES
1 *2001:X *2004:A1 22.8857 
2 *2004:A1 *2003:A 30.9929 
*END

*D_NET *183 0.000939904
*CONN
*I *2004:B1 I *D sky130_fd_sc_hd__a21o_1
*I *2002:X O *D sky130_fd_sc_hd__and2_1
*CAP
1 *2004:B1 0.000376967
2 *2002:X 0.000376967
3 *2001:A *2004:B1 9.99644e-06
4 *2001:B *2004:B1 0.00010096
5 *2004:A1 *2004:B1 3.298e-05
6 *2004:A2 *2004:B1 4.20347e-05
*RES
1 *2002:X *2004:B1 23.8679 
*END

*D_NET *184 0.00158101
*CONN
*I *2069:A2 I *D sky130_fd_sc_hd__a21o_1
*I *2068:B I *D sky130_fd_sc_hd__xor2_1
*I *2003:X O *D sky130_fd_sc_hd__xor2_1
*CAP
1 *2069:A2 0.000156884
2 *2068:B 0
3 *2003:X 0.000281188
4 *184:12 0.000438073
5 *2069:A2 *2068:A 0
6 *2069:A2 *2069:B1 5.26184e-05
7 *2069:A2 *2253:A 9.57064e-05
8 *2069:A2 *1340:12 1.00375e-05
9 *184:12 *2068:A 5.52302e-05
10 *184:12 *2069:B1 0.000122101
11 *184:12 *1189:14 0.000229443
12 *2067:A *184:12 3.34295e-05
13 *181:10 *184:12 0.000106299
*RES
1 *2003:X *184:12 25.3893 
2 *184:12 *2068:B 9.3 
3 *184:12 *2069:A2 21.8 
*END

*D_NET *185 0.00323614
*CONN
*I *2071:B I *D sky130_fd_sc_hd__and2_1
*I *2070:B I *D sky130_fd_sc_hd__xor2_1
*I *2004:X O *D sky130_fd_sc_hd__a21o_1
*CAP
1 *2071:B 9.9572e-05
2 *2070:B 0
3 *2004:X 0.00106323
4 *185:8 0.0011628
5 *2071:B *254:14 0.000106542
6 *2071:B *1119:10 2.04866e-05
7 *185:8 *2074:B1 2.6949e-05
8 *185:8 *3134:A1 2.91887e-05
9 *185:8 *3134:B1 0.000150618
10 *185:8 *3199:B1 0
11 *185:8 *254:14 6.97972e-05
12 *185:8 *1106:12 0.000248617
13 *185:8 *1119:10 4.46186e-06
14 *185:8 *1187:12 0
15 *185:8 *1189:14 0
16 *185:8 *1195:12 0
17 *185:8 *1198:18 0
18 *185:8 *1279:12 0
19 *185:8 *1280:12 0
20 *185:8 *1344:10 0
21 *2003:A *185:8 0
22 *2004:A2 *185:8 0.000100823
23 *2067:A *185:8 0
24 *2071:A *2071:B 0.000153054
*RES
1 *2004:X *185:8 35.175 
2 *185:8 *2070:B 13.8 
3 *185:8 *2071:B 16.8893 
*END

*D_NET *186 0.000235729
*CONN
*I *3058:B I *D sky130_fd_sc_hd__or2_1
*I *3035:X O *D sky130_fd_sc_hd__and2_1
*CAP
1 *3058:B 4.03783e-05
2 *3035:X 4.03783e-05
3 *13:57 *3058:B 0.000102545
4 *34:70 *3058:B 5.24274e-05
*RES
1 *3035:X *3058:B 28.9393 
*END

*D_NET *187 0.00077221
*CONN
*I *2008:A I *D sky130_fd_sc_hd__xor2_1
*I *2009:A1 I *D sky130_fd_sc_hd__a21o_1
*I *2006:X O *D sky130_fd_sc_hd__xor2_1
*CAP
1 *2008:A 7.91885e-05
2 *2009:A1 4.65372e-05
3 *2006:X 0.000120247
4 *187:8 0.000245973
5 *2008:A *1132:24 4.35421e-05
6 *2009:A1 *1417:10 0.000128154
7 *187:8 *1132:24 6.28241e-05
8 *27:149 *2009:A1 4.57445e-05
*RES
1 *2006:X *187:8 11.4964 
2 *187:8 *2009:A1 19.9429 
3 *187:8 *2008:A 10.6571 
*END

*D_NET *188 0.000261037
*CONN
*I *2009:B1 I *D sky130_fd_sc_hd__a21o_1
*I *2007:X O *D sky130_fd_sc_hd__and2_1
*CAP
1 *2009:B1 8.02061e-05
2 *2007:X 8.02061e-05
3 *2009:B1 *1429:10 0.000100625
*RES
1 *2007:X *2009:B1 20.3679 
*END

*D_NET *189 0.00374725
*CONN
*I *2073:B I *D sky130_fd_sc_hd__xor2_1
*I *2074:A2 I *D sky130_fd_sc_hd__a21o_1
*I *2008:X O *D sky130_fd_sc_hd__xor2_1
*CAP
1 *2073:B 0.000109418
2 *2074:A2 3.82418e-05
3 *2008:X 0.0013324
4 *189:6 0.00148006
5 *2073:B *2074:A1 5.33978e-05
6 *2073:B *2074:B1 0
7 *2073:B *1344:10 5.57914e-05
8 *189:6 *254:14 5.71472e-05
9 *189:6 *1117:12 9.90431e-05
10 *189:6 *1132:24 0.000315165
11 *2683:B *189:6 2.59355e-05
12 *2684:A *189:6 5.33005e-05
13 *25:258 *189:6 6.94273e-05
14 *25:269 *189:6 2.89016e-05
15 *35:169 *189:6 2.90184e-05
*RES
1 *2008:X *189:6 31.1929 
2 *189:6 *2074:A2 10.0321 
3 *189:6 *2073:B 20.7821 
*END

*D_NET *190 0.00672179
*CONN
*I *2075:B I *D sky130_fd_sc_hd__xor2_1
*I *2076:B I *D sky130_fd_sc_hd__and2_1
*I *2009:X O *D sky130_fd_sc_hd__a21o_1
*CAP
1 *2075:B 0.000170094
2 *2076:B 0
3 *2009:X 0
4 *190:10 0.00155118
5 *190:6 0.00138109
6 *2075:B *2078:B1 1.39726e-05
7 *2075:B *255:8 1.3701e-05
8 *190:10 *2078:B1 0
9 *190:10 *2762:A 0.000294415
10 *190:10 *2964:B1 0
11 *190:10 *3212:A2 4.1331e-06
12 *190:10 *258:12 0
13 *190:10 *733:12 0
14 *190:10 *1216:14 0.000175519
15 *2007:B *190:10 0
16 *2075:A *2075:B 0.000162375
17 *2630:A *190:10 0.000370808
18 *2697:A *190:10 4.66511e-05
19 *2756:A *190:10 0
20 *2757:A *190:10 0
21 *9:203 *190:10 0.000177735
22 *10:192 *190:10 0.000941179
23 *10:202 *190:10 8.07951e-05
24 *27:149 *190:10 0.000897363
25 *117:14 *190:10 0.000440783
*RES
1 *2009:X *190:6 13.8 
2 *190:6 *190:10 42.875 
3 *190:10 *2076:B 9.3 
4 *190:10 *2075:B 13.05 
*END

*D_NET *191 0.00143279
*CONN
*I *2012:A I *D sky130_fd_sc_hd__xor2_1
*I *2013:A1 I *D sky130_fd_sc_hd__a21o_1
*I *2010:X O *D sky130_fd_sc_hd__xor2_1
*CAP
1 *2012:A 0.000118872
2 *2013:A1 0
3 *2010:X 0.000103635
4 *191:10 0.000222508
5 *191:10 *1124:12 0
6 *191:10 *1136:18 0.000173083
7 *2013:A2 *2012:A 0.000270264
8 *9:168 *2012:A 1.21258e-05
9 *19:286 *2012:A 0.000532299
*RES
1 *2010:X *191:10 20.55 
2 *191:10 *2013:A1 9.3 
3 *191:10 *2012:A 14.7821 
*END

*D_NET *192 0.00075762
*CONN
*I *2013:B1 I *D sky130_fd_sc_hd__a21o_1
*I *2011:X O *D sky130_fd_sc_hd__and2_1
*CAP
1 *2013:B1 0.000114876
2 *2011:X 0.000114876
3 *2013:B1 *1124:12 0.000148189
4 *9:168 *2013:B1 0.000122091
5 *19:286 *2013:B1 0.000208151
6 *36:238 *2013:B1 4.94362e-05
*RES
1 *2011:X *2013:B1 31.725 
*END

*D_NET *193 0.00239342
*CONN
*I *2077:B I *D sky130_fd_sc_hd__xor2_1
*I *2078:A2 I *D sky130_fd_sc_hd__a21o_1
*I *2012:X O *D sky130_fd_sc_hd__xor2_1
*CAP
1 *2077:B 0.000144312
2 *2078:A2 0
3 *2012:X 0.000594999
4 *193:10 0.000739311
5 *2077:B *2077:A 1.33343e-05
6 *2077:B *2078:A1 0.000166976
7 *2077:B *255:8 3.99614e-06
8 *193:10 *2078:A1 1.02504e-05
9 *193:10 *2700:B 9.71197e-05
10 *193:10 *2761:A 0
11 *2696:A *193:10 5.52302e-05
12 *2696:B *193:10 6.57815e-05
13 *2697:A *193:10 5.62995e-05
14 *2697:B *193:10 2.59355e-05
15 *2757:A *193:10 0
16 *19:286 *193:10 3.98307e-05
17 *19:288 *193:10 9.69119e-06
18 *20:238 *193:10 0.000183713
19 *26:228 *193:10 0.000186641
*RES
1 *2012:X *193:10 25.3357 
2 *193:10 *2078:A2 13.8 
3 *193:10 *2077:B 17.0143 
*END

*D_NET *194 0.00349897
*CONN
*I *2080:B I *D sky130_fd_sc_hd__and2_1
*I *2079:B I *D sky130_fd_sc_hd__xor2_1
*I *2013:X O *D sky130_fd_sc_hd__a21o_1
*CAP
1 *2080:B 0.000210465
2 *2079:B 0
3 *2013:X 0.000931496
4 *194:10 0.00114196
5 *2080:B *2082:A2 3.34295e-05
6 *2080:B *2320:B 0
7 *2080:B *262:14 0
8 *2080:B *470:16 0
9 *2080:B *1361:16 2.28499e-05
10 *194:10 *2082:A2 0.000200413
11 *194:10 *2082:B1 6.2993e-05
12 *194:10 *3071:A2 0
13 *194:10 *3071:B1 0
14 *194:10 *3373:B 0.00020042
15 *194:10 *917:14 5.01117e-05
16 *194:10 *1124:12 6.4973e-05
17 *194:10 *1438:10 0
18 *2080:A *2080:B 0.00021614
19 *2080:A *194:10 3.34366e-05
20 *19:286 *194:10 0.000229456
21 *36:238 *194:10 0.000100823
22 *126:12 *194:10 0
*RES
1 *2013:X *194:10 32.4964 
2 *194:10 *2079:B 13.8 
3 *194:10 *2080:B 18.0321 
*END

*D_NET *195 0.000682462
*CONN
*I *2017:A I *D sky130_fd_sc_hd__xor2_1
*I *2018:A1 I *D sky130_fd_sc_hd__a21o_1
*I *2014:X O *D sky130_fd_sc_hd__xor2_1
*CAP
1 *2017:A 4.54467e-05
2 *2018:A1 8.91561e-05
3 *2014:X 8.78755e-05
4 *195:10 0.000222478
5 *195:10 *2018:B1 0
6 *2014:A *195:10 1.19309e-05
7 *2018:A2 *2017:A 2.89114e-05
8 *2018:A2 *2018:A1 7.77652e-05
9 *126:12 *195:10 9.56968e-05
10 *134:10 *2017:A 5.7661e-06
11 *134:10 *2018:A1 1.74352e-05
*RES
1 *2014:X *195:10 20.55 
2 *195:10 *2018:A1 11.0679 
3 *195:10 *2017:A 10.2643 
*END

*D_NET *196 0.000779834
*CONN
*I *2018:B1 I *D sky130_fd_sc_hd__a21o_1
*I *2015:X O *D sky130_fd_sc_hd__and2_1
*CAP
1 *2018:B1 0.00025138
2 *2015:X 0.00025138
3 *2018:B1 *1293:6 9.80173e-05
4 *2014:A *2018:B1 5.26184e-05
5 *2015:B *2018:B1 0.000126439
6 *126:12 *2018:B1 0
7 *195:10 *2018:B1 0
*RES
1 *2015:X *2018:B1 32.6179 
*END

*D_NET *197 0.000701224
*CONN
*I *3168:B I *D sky130_fd_sc_hd__and2_1
*I *3167:B I *D sky130_fd_sc_hd__xor2_1
*I *3047:X O *D sky130_fd_sc_hd__or2_1
*CAP
1 *3168:B 5.87722e-05
2 *3167:B 0
3 *3047:X 4.0782e-05
4 *197:10 9.95543e-05
5 *3168:B *3167:A 8.45319e-05
6 *3168:B *3168:A 5.7661e-06
7 *3168:B *995:6 5.62995e-05
8 *197:10 *306:18 0.000127446
9 *3047:A *197:10 0.000127446
10 *14:147 *3168:B 0.000100625
*RES
1 *3047:X *197:10 19.9429 
2 *197:10 *3167:B 9.3 
3 *197:10 *3168:B 11.4964 
*END

*D_NET *198 0.00130819
*CONN
*I *2081:B I *D sky130_fd_sc_hd__xor2_1
*I *2082:A2 I *D sky130_fd_sc_hd__a21o_1
*I *2017:X O *D sky130_fd_sc_hd__xor2_1
*CAP
1 *2081:B 0.000123606
2 *2082:A2 0.000115971
3 *2017:X 0.000165446
4 *198:6 0.000405023
5 *2081:B *2081:A 5.91094e-05
6 *2082:A2 *2082:A1 0.000107529
7 *2080:B *2082:A2 3.34295e-05
8 *134:10 *198:6 9.7659e-05
9 *194:10 *2082:A2 0.000200413
*RES
1 *2017:X *198:6 11.8893 
2 *198:6 *2082:A2 21.6929 
3 *198:6 *2081:B 11.4964 
*END

*D_NET *199 0.00196492
*CONN
*I *2086:B I *D sky130_fd_sc_hd__xor2_1
*I *2087:A2 I *D sky130_fd_sc_hd__a21o_1
*I *2018:X O *D sky130_fd_sc_hd__a21o_1
*CAP
1 *2086:B 0.000237259
2 *2087:A2 0.000295401
3 *2018:X 0.000142761
4 *199:6 0.000675421
5 *2086:B *2087:A1 0
6 *2086:B *2087:B1 0
7 *2086:B *2333:A 0
8 *2086:B *1361:12 0
9 *2087:A2 *2087:B1 4.1331e-06
10 *2087:A2 *1361:12 0.000158484
11 *134:10 *2087:A2 0.000232399
12 *134:10 *199:6 0.000219064
*RES
1 *2018:X *199:6 11.4786 
2 *199:6 *2087:A2 23.2464 
3 *199:6 *2086:B 22.675 
*END

*D_NET *200 0.000660952
*CONN
*I *2022:A1 I *D sky130_fd_sc_hd__a21o_1
*I *2021:A I *D sky130_fd_sc_hd__xor2_1
*I *2019:X O *D sky130_fd_sc_hd__xor2_1
*CAP
1 *2022:A1 8.59782e-05
2 *2021:A 0
3 *2019:X 0.000100048
4 *200:12 0.000186026
5 *2022:A1 *2022:B1 6.05161e-06
6 *2022:A1 *267:12 0.00010096
7 *2021:B *2022:A1 4.83217e-05
8 *2021:B *200:12 5.52302e-05
9 *143:12 *200:12 7.83366e-05
*RES
1 *2019:X *200:12 20.7821 
2 *200:12 *2021:A 9.3 
3 *200:12 *2022:A1 11.4964 
*END

*D_NET *201 0.000894596
*CONN
*I *2022:B1 I *D sky130_fd_sc_hd__a21o_1
*I *2020:X O *D sky130_fd_sc_hd__and2_1
*CAP
1 *2022:B1 0.000281827
2 *2020:X 0.000281827
3 *2022:B1 *2091:A2 0
4 *2022:B1 *1447:10 5.57914e-05
5 *2019:B *2022:B1 9.47456e-05
6 *2021:B *2022:B1 2.51721e-05
7 *2022:A1 *2022:B1 6.05161e-06
8 *130:8 *2022:B1 2.27416e-05
9 *143:12 *2022:B1 0.000126439
*RES
1 *2020:X *2022:B1 34.0107 
*END

*D_NET *202 0.00186919
*CONN
*I *2085:B I *D sky130_fd_sc_hd__and2_1
*I *2084:B I *D sky130_fd_sc_hd__xor2_1
*I *2021:X O *D sky130_fd_sc_hd__xor2_1
*CAP
1 *2085:B 0
2 *2084:B 0.000116782
3 *2021:X 0.000414181
4 *202:18 0.000530963
5 *2084:B *2087:B1 0.000188586
6 *2084:B *264:8 1.3701e-05
7 *202:18 *2087:A1 0
8 *202:18 *2087:B1 0
9 *202:18 *267:12 0.000223192
10 *2084:A *2084:B 0.000133464
11 *2084:A *202:18 5.33005e-05
12 *135:12 *202:18 0.000195017
*RES
1 *2021:X *202:18 27.5143 
2 *202:18 *2084:B 13.05 
3 *202:18 *2085:B 9.3 
*END

*D_NET *203 0.000801075
*CONN
*I *2090:B I *D sky130_fd_sc_hd__xor2_1
*I *2091:A2 I *D sky130_fd_sc_hd__a21o_1
*I *2022:X O *D sky130_fd_sc_hd__a21o_1
*CAP
1 *2090:B 0.000121305
2 *2091:A2 0.000164996
3 *2022:X 0.000114236
4 *203:6 0.000400538
5 *2090:B *2091:A1 0
6 *2090:B *2346:A 0
7 *2090:B *267:12 0
8 *2022:B1 *2091:A2 0
*RES
1 *2022:X *203:6 10.6571 
2 *203:6 *2091:A2 12.2107 
3 *203:6 *2090:B 20.2464 
*END

*D_NET *204 0.000902652
*CONN
*I *2025:A I *D sky130_fd_sc_hd__xor2_1
*I *2026:A1 I *D sky130_fd_sc_hd__a21o_1
*I *2023:X O *D sky130_fd_sc_hd__xor2_1
*CAP
1 *2025:A 0.000123624
2 *2026:A1 0.000122091
3 *2023:X 0
4 *204:4 0.000245714
5 *2024:B *2026:A1 4.1331e-06
6 *2025:B *2026:A1 3.18676e-05
7 *32:193 *2025:A 0.000136958
8 *32:193 *2026:A1 0.000151333
9 *147:10 *2026:A1 5.80217e-05
10 *151:12 *2026:A1 2.89114e-05
*RES
1 *2023:X *204:4 9.3 
2 *204:4 *2026:A1 21.1929 
3 *204:4 *2025:A 11.4964 
*END

*D_NET *205 0.000919178
*CONN
*I *2026:B1 I *D sky130_fd_sc_hd__a21o_1
*I *2024:X O *D sky130_fd_sc_hd__and2_1
*CAP
1 *2026:B1 0.000130797
2 *2024:X 0.000130797
3 *2024:B *2026:B1 0.000133712
4 *2598:A *2026:B1 0.000321745
5 *147:10 *2026:B1 0.000202128
*RES
1 *2024:X *2026:B1 32.2071 
*END

*D_NET *206 0.00935458
*CONN
*I *2088:B I *D sky130_fd_sc_hd__xor2_1
*I *2089:B I *D sky130_fd_sc_hd__and2_1
*I *2025:X O *D sky130_fd_sc_hd__xor2_1
*CAP
1 *2088:B 0.000161385
2 *2089:B 0
3 *2025:X 0.00121789
4 *206:24 0.00135531
5 *206:14 0.00241181
6 *2088:B *2090:A 0
7 *2088:B *2091:B1 1.74352e-05
8 *206:14 *2534:A 0
9 *206:14 *2534:B 0
10 *206:14 *1035:12 3.9745e-05
11 *206:14 *1146:16 0
12 *206:24 *2835:B 7.83659e-05
13 *206:24 *3216:B 0
14 *206:24 *3305:A 0
15 *206:24 *3305:B 6.58195e-05
16 *206:24 *865:14 3.06882e-05
17 *206:24 *924:10 4.57445e-05
18 *206:24 *1294:10 0
19 *206:24 *1448:16 0.000145686
20 *206:24 *1452:10 0.000167266
21 *1963:B1 *206:24 0
22 *2088:A *2088:B 5.52302e-05
23 *2089:A *2088:B 0.000188463
24 *2531:A *206:14 5.59013e-05
25 *2533:A *206:14 0.000126439
26 *2593:B *206:14 0.0001008
27 *2711:A *206:14 2.06178e-05
28 *2711:B *206:14 0
29 *2772:B *206:14 0.00111364
30 *2884:B *206:14 0
31 *7:225 *206:14 0.000117196
32 *7:237 *206:14 0.000177948
33 *11:180 *206:14 0
34 *21:138 *206:14 0.000145594
35 *22:82 *206:24 0.000529363
36 *25:74 *206:14 0.000465904
37 *29:198 *206:14 9.6422e-05
38 *32:187 *206:14 0.00031345
39 *32:193 *206:14 5.52238e-05
40 *32:258 *206:14 5.52302e-05
41 *140:12 *206:24 0
42 *144:10 *206:24 0
*RES
1 *2025:X *206:14 45.5857 
2 *206:14 *206:24 36.2857 
3 *206:24 *2089:B 9.3 
4 *206:24 *2088:B 13.175 
*END

*D_NET *207 0.0014495
*CONN
*I *2095:B I *D sky130_fd_sc_hd__xor2_1
*I *2096:A2 I *D sky130_fd_sc_hd__a21o_1
*I *2026:X O *D sky130_fd_sc_hd__a21o_1
*CAP
1 *2095:B 4.88029e-05
2 *2096:A2 0.000213267
3 *2026:X 0.000195745
4 *207:6 0.000457815
5 *2095:B *2095:A 0.000129868
6 *2096:A2 *2096:A1 0.000136864
7 *2096:A2 *2096:B1 1.91004e-05
8 *2599:A *2095:B 0.000153047
9 *19:71 *2096:A2 1.32552e-05
10 *19:71 *207:6 8.1737e-05
*RES
1 *2026:X *207:6 11.8893 
2 *207:6 *2096:A2 13.6929 
3 *207:6 *2095:B 20.2464 
*END

*D_NET *208 0.00114066
*CONN
*I *2037:B I *D sky130_fd_sc_hd__and2_1
*I *2036:B I *D sky130_fd_sc_hd__xor2_1
*I *3058:X O *D sky130_fd_sc_hd__or2_1
*CAP
1 *2037:B 0.00010702
2 *2036:B 0.000109218
3 *3058:X 7.31114e-05
4 *208:6 0.00028935
5 *2036:B *2036:A 1.17968e-05
6 *2036:B *2458:A 0.000100831
7 *2036:B *2458:B 0.000174797
8 *2037:B *1006:6 8.46829e-05
9 *208:6 *1006:6 0.00014285
10 *3169:A *2037:B 2.95726e-05
11 *3169:A *208:6 1.74352e-05
12 *13:57 *2036:B 0
*RES
1 *3058:X *208:6 11.0679 
2 *208:6 *2036:B 21.1571 
3 *208:6 *2037:B 11.4964 
*END

*D_NET *209 0.000822812
*CONN
*I *2030:A I *D sky130_fd_sc_hd__xor2_1
*I *2031:A1 I *D sky130_fd_sc_hd__a21o_1
*I *2028:X O *D sky130_fd_sc_hd__xor2_1
*CAP
1 *2030:A 9.57982e-05
2 *2031:A1 5.61912e-05
3 *2028:X 0.000123883
4 *209:8 0.000275872
5 *2030:A *211:12 0
6 *209:8 *211:12 1.39726e-05
7 *2028:B *209:8 1.33343e-05
8 *2030:B *2031:A1 6.58195e-05
9 *20:44 *2031:A1 0.000177941
*RES
1 *2028:X *209:8 11.0857 
2 *209:8 *2031:A1 20.55 
3 *209:8 *2030:A 10.9786 
*END

*D_NET *210 0.00108067
*CONN
*I *2031:B1 I *D sky130_fd_sc_hd__a21o_1
*I *2029:X O *D sky130_fd_sc_hd__and2_1
*CAP
1 *2031:B1 0.000247702
2 *2029:X 0.000247702
3 *2031:B1 *1063:10 6.07232e-05
4 *2028:B *2031:B1 0.000150632
5 *2665:A *2031:B1 3.14163e-05
6 *20:44 *2031:B1 0.000342495
7 *22:207 *2031:B1 0
*RES
1 *2029:X *2031:B1 32.9214 
*END

*D_NET *211 0.00450471
*CONN
*I *2093:B I *D sky130_fd_sc_hd__and2_1
*I *2092:B I *D sky130_fd_sc_hd__xor2_1
*I *2030:X O *D sky130_fd_sc_hd__xor2_1
*CAP
1 *2093:B 0.000160944
2 *2092:B 0
3 *2030:X 0.000828935
4 *211:12 0.000989879
5 *2093:B *2095:A 6.26559e-05
6 *211:12 *1964:A 0.000173097
7 *211:12 *1965:B 1.17968e-05
8 *211:12 *2028:A 0.000139907
9 *211:12 *2095:A 4.1331e-06
10 *1971:B1 *211:12 0.000320031
11 *2028:B *211:12 1.98839e-05
12 *2030:A *211:12 0
13 *2093:A *2093:B 0.000150625
14 *2599:A *211:12 0
15 *2905:B *211:12 0
16 *20:38 *211:12 0
17 *22:201 *211:12 1.46624e-05
18 *22:207 *211:12 0.000161798
19 *29:108 *211:12 0.00130249
20 *152:8 *2093:B 2.48938e-05
21 *152:8 *211:12 0.00012501
22 *209:8 *211:12 1.39726e-05
*RES
1 *2030:X *211:12 36.4786 
2 *211:12 *2092:B 13.8 
3 *211:12 *2093:B 17.425 
*END

*D_NET *212 0.00124359
*CONN
*I *2099:B I *D sky130_fd_sc_hd__xor2_1
*I *2100:A2 I *D sky130_fd_sc_hd__a21o_1
*I *2031:X O *D sky130_fd_sc_hd__a21o_1
*CAP
1 *2099:B 0
2 *2100:A2 0.000142055
3 *2031:X 0.000314399
4 *212:6 0.000456454
5 *2100:A2 *2099:A 6.09899e-05
6 *2100:A2 *2100:A1 0.000107951
7 *212:6 *2915:B 2.89114e-05
8 *212:6 *1063:10 3.18676e-05
9 *2912:A *212:6 0.00010096
*RES
1 *2031:X *212:6 14.7643 
2 *212:6 *2100:A2 12.4429 
3 *212:6 *2099:B 9.3 
*END

*D_NET *213 0.000790491
*CONN
*I *2034:A I *D sky130_fd_sc_hd__xor2_1
*I *2035:A1 I *D sky130_fd_sc_hd__a21o_1
*I *2032:X O *D sky130_fd_sc_hd__xor2_1
*CAP
1 *2034:A 5.77293e-05
2 *2035:A1 8.09172e-05
3 *2032:X 4.23234e-05
4 *213:8 0.00018097
5 *2793:A *2034:A 2.59355e-05
6 *2793:A *2035:A1 0.000125724
7 *2793:A *213:8 5.33334e-05
8 *31:91 *2034:A 0.000124521
9 *31:91 *2035:A1 0
10 *31:91 *213:8 9.90367e-05
11 *42:140 *2035:A1 0
*RES
1 *2032:X *213:8 10.675 
2 *213:8 *2035:A1 19.9429 
3 *213:8 *2034:A 10.6571 
*END

*D_NET *214 0.000253282
*CONN
*I *2035:B1 I *D sky130_fd_sc_hd__a21o_1
*I *2033:X O *D sky130_fd_sc_hd__and2_1
*CAP
1 *2035:B1 4.59098e-05
2 *2033:X 4.59098e-05
3 *2035:B1 *216:6 5.62995e-05
4 *2919:A *2035:B1 0.000105163
*RES
1 *2033:X *2035:B1 20.3679 
*END

*D_NET *215 0.00087314
*CONN
*I *2097:B I *D sky130_fd_sc_hd__xor2_1
*I *2098:B I *D sky130_fd_sc_hd__and2_1
*I *2034:X O *D sky130_fd_sc_hd__xor2_1
*CAP
1 *2097:B 0.000149404
2 *2098:B 0
3 *2034:X 0.000238043
4 *215:8 0.000387447
5 *2097:B *277:10 5.80706e-06
6 *2097:A *2097:B 9.24395e-05
7 *9:78 *2097:B 0
8 *9:78 *215:8 0
9 *31:85 *2097:B 0
10 *31:91 *215:8 0
*RES
1 *2034:X *215:8 17.8714 
2 *215:8 *2098:B 13.8 
3 *215:8 *2097:B 16.8893 
*END

*D_NET *216 0.0019369
*CONN
*I *2103:B I *D sky130_fd_sc_hd__xor2_1
*I *2104:A2 I *D sky130_fd_sc_hd__a21o_1
*I *2035:X O *D sky130_fd_sc_hd__a21o_1
*CAP
1 *2103:B 0.000229737
2 *2104:A2 0.000124253
3 *2035:X 0.000266633
4 *216:6 0.000620623
5 *2103:B *2104:B1 0
6 *216:6 *2033:B 2.89016e-05
7 *216:6 *950:8 0.00022459
8 zP[0] *2103:B 0.000242637
9 *2035:B1 *216:6 5.62995e-05
10 *2919:A *2104:A2 0.000101134
11 *2919:A *216:6 4.20959e-05
*RES
1 *2035:X *216:6 14.3536 
2 *216:6 *2104:A2 11.8 
3 *216:6 *2103:B 22.8179 
*END

*D_NET *217 0.0020187
*CONN
*I *2129:B I *D sky130_fd_sc_hd__and2_1
*I *2128:B I *D sky130_fd_sc_hd__xor2_1
*I *2036:X O *D sky130_fd_sc_hd__xor2_1
*CAP
1 *2129:B 0
2 *2128:B 0.000198978
3 *2036:X 0.000585978
4 *217:10 0.000784956
5 *2128:B *2129:A 0.000160011
6 *2128:B *304:8 5.33005e-05
7 *2128:B *307:8 1.48252e-05
8 *217:10 *2131:B1 6.44649e-05
9 *217:10 *2458:B 0
10 *217:10 *307:8 1.33329e-05
11 *2935:B *217:10 0
12 *4:38 *217:10 0
13 *13:43 *217:10 0
14 *13:57 *217:10 0.000142856
15 *24:220 *217:10 0
16 *35:299 *217:10 0
*RES
1 *2036:X *217:10 24.3893 
2 *217:10 *2128:B 17.55 
3 *217:10 *2129:B 13.8 
*END

*D_NET *218 0.00105575
*CONN
*I *2042:A2 I *D sky130_fd_sc_hd__a21o_1
*I *2041:B I *D sky130_fd_sc_hd__xor2_1
*I *2037:X O *D sky130_fd_sc_hd__and2_1
*CAP
1 *2042:A2 0.000110457
2 *2041:B 0
3 *2037:X 0.000176641
4 *218:12 0.000287098
5 *2042:A2 *2041:A 0.000109466
6 *2042:A2 *2042:A1 1.74352e-05
7 *15:137 *218:12 4.25716e-05
8 *25:70 *218:12 0.000185643
9 *25:74 *218:12 0.000126439
*RES
1 *2037:X *218:12 21.7107 
2 *218:12 *2041:B 9.3 
3 *218:12 *2042:A2 11.4964 
*END

*D_NET *219 0.00025133
*CONN
*I *3113:A I *D sky130_fd_sc_hd__or2_1
*I *3069:X O *D sky130_fd_sc_hd__and2_1
*CAP
1 *3113:A 4.73447e-05
2 *3069:X 4.73447e-05
3 *3113:A *1061:14 9.90431e-05
4 *3069:B *3113:A 1.24368e-05
5 *35:22 *3113:A 4.51611e-05
*RES
1 *3069:X *3113:A 19.9571 
*END

*D_NET *220 0.000889731
*CONN
*I *2042:A1 I *D sky130_fd_sc_hd__a21o_1
*I *2041:A I *D sky130_fd_sc_hd__xor2_1
*I *2039:X O *D sky130_fd_sc_hd__xor2_1
*CAP
1 *2042:A1 7.26914e-05
2 *2041:A 7.35214e-05
3 *2039:X 0.000164514
4 *220:10 0.000310727
5 *220:10 *2042:B1 0
6 *2042:A2 *2041:A 0.000109466
7 *2042:A2 *2042:A1 1.74352e-05
8 *25:74 *220:10 0.000141375
*RES
1 *2039:X *220:10 21.7643 
2 *220:10 *2041:A 10.9786 
3 *220:10 *2042:A1 10.2464 
*END

*D_NET *221 0.0014541
*CONN
*I *2042:B1 I *D sky130_fd_sc_hd__a21o_1
*I *2040:X O *D sky130_fd_sc_hd__and2_1
*CAP
1 *2042:B1 0.00042931
2 *2040:X 0.00042931
3 *2042:B1 *2039:A 0.000144773
4 *2042:B1 *2040:B 1.21289e-05
5 *2042:B1 *644:6 0.000315158
6 *3:125 *2042:B1 6.48957e-05
7 *3:140 *2042:B1 5.85228e-05
8 *25:74 *2042:B1 0
9 *220:10 *2042:B1 0
*RES
1 *2040:X *2042:B1 36.6179 
*END

*D_NET *222 0.00362945
*CONN
*I *2145:B I *D sky130_fd_sc_hd__xor2_1
*I *2146:B I *D sky130_fd_sc_hd__and2_1
*I *2041:X O *D sky130_fd_sc_hd__xor2_1
*CAP
1 *2145:B 0.000252762
2 *2146:B 0
3 *2041:X 0.000548244
4 *222:12 0.000801006
5 *2145:B *2148:B1 1.62025e-05
6 *222:12 *2036:A 8.68665e-05
7 *222:12 *2458:B 1.40849e-05
8 *2146:A *2145:B 0.000223756
9 *2338:B *222:12 5.58941e-05
10 *13:43 *222:12 6.1684e-05
11 *15:137 *222:12 3.15645e-05
12 *25:42 *222:12 0.00036226
13 *25:55 *222:12 0.000400661
14 *25:70 *222:12 0.000211913
15 *35:288 *222:12 0.000175274
16 *35:299 *222:12 0.000387282
*RES
1 *2041:X *222:12 33.4429 
2 *222:12 *2146:B 9.3 
3 *222:12 *2145:B 13.8714 
*END

*D_NET *223 0.00430803
*CONN
*I *2163:A I *D sky130_fd_sc_hd__xor2_1
*I *2164:A I *D sky130_fd_sc_hd__and2_1
*I *2042:X O *D sky130_fd_sc_hd__a21o_1
*CAP
1 *2163:A 0.000136731
2 *2164:A 0.00098889
3 *2042:X 0.000852159
4 *2163:A *2164:B 0.000128818
5 *2163:A *2166:B1 0.000138432
6 *2164:A *2154:A 7.17726e-05
7 *2164:A *2591:A 7.17836e-05
8 *2164:A *2591:B 6.92434e-05
9 *2164:A *322:6 5.49995e-05
10 *2472:A *2164:A 0.00101474
11 *6:269 *2164:A 0.000321759
12 *14:196 *2164:A 0.000315187
13 *14:207 *2164:A 1.50181e-05
14 *16:19 *2164:A 0.000128504
*RES
1 *2042:X *2164:A 49.4036 
2 *2164:A *2163:A 22.0464 
*END

*D_NET *224 0.000940135
*CONN
*I *2045:A I *D sky130_fd_sc_hd__xor2_1
*I *2046:A1 I *D sky130_fd_sc_hd__a21o_1
*I *2043:X O *D sky130_fd_sc_hd__xor2_1
*CAP
1 *2045:A 3.26257e-05
2 *2046:A1 0.000103869
3 *2043:X 9.86065e-05
4 *224:8 0.000235101
5 *2045:A *227:20 9.41642e-05
6 *2046:A1 *227:20 9.84673e-05
7 *224:8 *2044:B 0
8 *2046:A2 *2045:A 7.31843e-05
9 *5:62 *2046:A1 5.36422e-05
10 *5:62 *224:8 0.000150476
*RES
1 *2043:X *224:8 15.7464 
2 *224:8 *2046:A1 15.4786 
3 *224:8 *2045:A 14.7464 
*END

*D_NET *225 0.000216773
*CONN
*I *2046:B1 I *D sky130_fd_sc_hd__a21o_1
*I *2044:X O *D sky130_fd_sc_hd__and2_1
*CAP
1 *2046:B1 5.83043e-05
2 *2044:X 5.83043e-05
3 *2046:B1 *227:20 0.000100165
*RES
1 *2044:X *2046:B1 19.9571 
*END

*D_NET *226 0.0012766
*CONN
*I *2163:B I *D sky130_fd_sc_hd__xor2_1
*I *2164:B I *D sky130_fd_sc_hd__and2_1
*I *2045:X O *D sky130_fd_sc_hd__xor2_1
*CAP
1 *2163:B 0
2 *2164:B 0.000144843
3 *2045:X 0.000268193
4 *226:12 0.000413035
5 *2164:B *2166:B1 1.62025e-05
6 *226:12 *335:10 2.53112e-06
7 zP[1] *226:12 0.00019531
8 *2163:A *2164:B 0.000128818
9 *2478:B *226:12 9.19611e-06
10 *162:12 *226:12 9.84729e-05
*RES
1 *2045:X *226:12 24.2286 
2 *226:12 *2164:B 12.3179 
3 *226:12 *2163:B 9.3 
*END

*D_NET *227 0.00590482
*CONN
*I *2181:A I *D sky130_fd_sc_hd__xor2_1
*I *2182:A I *D sky130_fd_sc_hd__and2_1
*I *2046:X O *D sky130_fd_sc_hd__a21o_1
*CAP
1 *2181:A 0
2 *2182:A 9.96287e-05
3 *2046:X 0.00156365
4 *227:20 0.00166328
5 *2182:A *2182:B 0.000171355
6 *227:20 *2051:B1 0.000139337
7 *227:20 *2182:B 2.59355e-05
8 *227:20 *228:8 5.49995e-05
9 *227:20 *231:6 5.23735e-05
10 *2045:A *227:20 9.41642e-05
11 *2046:A1 *227:20 9.84673e-05
12 *2046:A2 *227:20 3.00089e-05
13 *2046:B1 *227:20 0.000100165
14 *2050:B *227:20 0.000150508
15 *2478:B *227:20 0.000100165
16 *14:54 *2182:A 0.000195126
17 *16:58 *227:20 0.00098527
18 *17:17 *2182:A 2.85321e-05
19 *36:39 *227:20 8.41587e-05
20 *36:316 *227:20 2.90501e-05
21 *162:12 *227:20 0.00023864
*RES
1 *2046:X *227:20 44.6929 
2 *227:20 *2182:A 21.3893 
3 *227:20 *2181:A 9.3 
*END

*D_NET *228 0.00088869
*CONN
*I *2050:A I *D sky130_fd_sc_hd__xor2_1
*I *2051:A1 I *D sky130_fd_sc_hd__a21o_1
*I *2047:X O *D sky130_fd_sc_hd__xor2_1
*CAP
1 *2050:A 0.00013368
2 *2051:A1 0
3 *2047:X 5.92002e-05
4 *228:8 0.00019288
5 *2050:A *2051:B1 0.000100248
6 *2050:B *2050:A 1.42249e-05
7 *4:138 *2050:A 0.000148376
8 *16:58 *2050:A 6.96806e-05
9 *16:58 *228:8 0.000115401
10 *227:20 *228:8 5.49995e-05
*RES
1 *2047:X *228:8 10.9786 
2 *228:8 *2051:A1 9.3 
3 *228:8 *2050:A 21.6036 
*END

*D_NET *229 0.000853184
*CONN
*I *2051:B1 I *D sky130_fd_sc_hd__a21o_1
*I *2048:X O *D sky130_fd_sc_hd__and2_1
*CAP
1 *2051:B1 0.000248362
2 *2048:X 0.000248362
3 *2050:A *2051:B1 0.000100248
4 *2050:B *2051:B1 4.97705e-05
5 *4:138 *2051:B1 1.25366e-05
6 *36:39 *2051:B1 3.27592e-05
7 *167:10 *2051:B1 2.18087e-05
8 *227:20 *2051:B1 0.000139337
*RES
1 *2048:X *2051:B1 31.8321 
*END

*D_NET *230 0.000543298
*CONN
*I *3113:B I *D sky130_fd_sc_hd__or2_1
*I *3080:X O *D sky130_fd_sc_hd__and2_1
*CAP
1 *3113:B 0.000145856
2 *3080:X 0.000145856
3 *3080:A *3113:B 0.000150625
4 *15:19 *3113:B 0.00010096
5 *36:22 *3113:B 0
*RES
1 *3080:X *3113:B 30.4929 
*END

*D_NET *231 0.000774913
*CONN
*I *2182:B I *D sky130_fd_sc_hd__and2_1
*I *2181:B I *D sky130_fd_sc_hd__xor2_1
*I *2050:X O *D sky130_fd_sc_hd__xor2_1
*CAP
1 *2182:B 0.000143995
2 *2181:B 0
3 *2050:X 2.04327e-05
4 *231:6 0.000164427
5 *2182:B *2185:A2 3.67279e-06
6 *2182:A *2182:B 0.000171355
7 *14:54 *2182:B 1.25275e-05
8 *36:39 *2182:B 8.17274e-05
9 *36:39 *231:6 9.84673e-05
10 *227:20 *2182:B 2.59355e-05
11 *227:20 *231:6 5.23735e-05
*RES
1 *2050:X *231:6 10.2464 
2 *231:6 *2181:B 9.3 
3 *231:6 *2182:B 21.8 
*END

*D_NET *232 0.00869611
*CONN
*I *2199:A I *D sky130_fd_sc_hd__xor2_1
*I *2200:A I *D sky130_fd_sc_hd__and2_1
*I *2051:X O *D sky130_fd_sc_hd__a21o_1
*CAP
1 *2199:A 0.000147029
2 *2200:A 0
3 *2051:X 0.00162794
4 *232:14 0.00117714
5 *232:12 0.00265806
6 *2199:A *2200:B 0.0001871
7 *2199:A *2202:A1 0
8 *2199:A *2202:B1 2.38501e-05
9 *232:12 *2416:A 5.49995e-05
10 *232:12 *2416:B 9.84729e-05
11 *232:12 *3320:B 2.97489e-05
12 *232:12 *3321:A 7.2266e-05
13 *232:12 *710:12 7.58841e-05
14 *232:14 *3028:B 0.000141935
15 *232:14 *3030:B1 0.000119969
16 *2551:B *232:12 0.000111802
17 *7:40 *232:14 0.000119969
18 *16:58 *232:12 0.000999141
19 *17:57 *232:14 1.98839e-05
20 *25:161 *232:12 3.29297e-05
21 *25:169 *232:14 0.000916555
22 *36:58 *232:12 4.63305e-05
23 *168:16 *232:12 3.51009e-05
*RES
1 *2051:X *232:12 41.3179 
2 *232:12 *232:14 21.0714 
3 *232:14 *2200:A 9.3 
4 *232:14 *2199:A 12.7286 
*END

*D_NET *233 0.00083811
*CONN
*I *2054:A I *D sky130_fd_sc_hd__xor2_1
*I *2055:A1 I *D sky130_fd_sc_hd__a21o_1
*I *2052:X O *D sky130_fd_sc_hd__xor2_1
*CAP
1 *2054:A 0.000121897
2 *2055:A1 8.13795e-05
3 *2052:X 0
4 *233:4 0.000203276
5 *2054:A *1473:8 0
6 *2055:A1 *2055:B1 8.16036e-05
7 *2054:B *2054:A 9.61553e-05
8 *2054:B *2055:A1 0.000253799
*RES
1 *2052:X *233:4 9.3 
2 *233:4 *2055:A1 21.1929 
3 *233:4 *2054:A 11.9071 
*END

*D_NET *234 0.000706725
*CONN
*I *2055:B1 I *D sky130_fd_sc_hd__a21o_1
*I *2053:X O *D sky130_fd_sc_hd__and2_1
*CAP
1 *2055:B1 0.00027691
2 *2053:X 0.00027691
3 *2055:B1 *235:10 3.92854e-05
4 *2055:B1 *1177:12 0
5 *2055:B1 *1177:14 0
6 *2052:B *2055:B1 0
7 *2054:B *2055:B1 2.78822e-05
8 *2055:A1 *2055:B1 8.16036e-05
9 *171:10 *2055:B1 4.1331e-06
*RES
1 *2053:X *2055:B1 32.6179 
*END

*D_NET *235 0.00122931
*CONN
*I *2199:B I *D sky130_fd_sc_hd__xor2_1
*I *2200:B I *D sky130_fd_sc_hd__and2_1
*I *2054:X O *D sky130_fd_sc_hd__xor2_1
*CAP
1 *2199:B 3.18438e-05
2 *2200:B 0.0001254
3 *2054:X 0.000250078
4 *235:10 0.000407322
5 *2199:B *2202:A2 3.45899e-05
6 *2200:B *2202:B1 9.84673e-05
7 *235:10 *2053:A 0
8 *235:10 *1177:12 0
9 *2052:B *235:10 0
10 *2054:B *235:10 5.52238e-05
11 *2055:B1 *235:10 3.92854e-05
12 *2199:A *2200:B 0.0001871
*RES
1 *2054:X *235:10 18.2554 
2 *235:10 *2200:B 16.7911 
3 *235:10 *2199:B 14.3804 
*END

*D_NET *236 0.00199585
*CONN
*I *2217:A I *D sky130_fd_sc_hd__xor2_1
*I *2218:A I *D sky130_fd_sc_hd__and2_1
*I *2055:X O *D sky130_fd_sc_hd__a21o_1
*CAP
1 *2217:A 8.4372e-05
2 *2218:A 0.000700611
3 *2055:X 0.000616238
4 *2217:A *2218:B 0.000188128
5 *2217:A *2220:B1 0.00014183
6 *2217:A *3190:B1 0
7 *2217:A *1335:14 0.000117956
8 *2218:A *3190:A2 4.46186e-06
9 *2218:A *1177:14 0
10 *2218:A *1334:10 0.000126439
11 *2218:A *1335:14 1.58163e-05
*RES
1 *2055:X *2218:A 35.6536 
2 *2218:A *2217:A 22.1714 
*END

*D_NET *237 0.00119577
*CONN
*I *2058:A I *D sky130_fd_sc_hd__xor2_1
*I *2059:A1 I *D sky130_fd_sc_hd__a21o_1
*I *2056:X O *D sky130_fd_sc_hd__xor2_1
*CAP
1 *2058:A 0.000111339
2 *2059:A1 0.000227847
3 *2056:X 0.000339186
4 *2058:A *396:12 3.18676e-05
5 *2059:A1 *1335:14 0
6 *2058:B *2058:A 0.000102207
7 *2058:B *2059:A1 0.000228558
8 *2059:A2 *2059:A1 0.000154762
*RES
1 *2056:X *2059:A1 31.725 
2 *2056:X *2058:A 21.2071 
*END

*D_NET *238 0.00027386
*CONN
*I *2059:B1 I *D sky130_fd_sc_hd__a21o_1
*I *2057:X O *D sky130_fd_sc_hd__and2_1
*CAP
1 *2059:B1 0.00013693
2 *2057:X 0.00013693
*RES
1 *2057:X *2059:B1 20.7964 
*END

*D_NET *239 0.00176967
*CONN
*I *2217:B I *D sky130_fd_sc_hd__xor2_1
*I *2218:B I *D sky130_fd_sc_hd__and2_1
*I *2058:X O *D sky130_fd_sc_hd__xor2_1
*CAP
1 *2217:B 0
2 *2218:B 8.74121e-05
3 *2058:X 0.000374801
4 *239:10 0.000462213
5 *239:10 *2226:B 0
6 *239:10 *240:10 0
7 *239:10 *380:12 0
8 *239:10 *1334:10 0
9 *239:10 *1335:14 0.000657113
10 *2217:A *2218:B 0.000188128
*RES
1 *2058:X *239:10 27.5321 
2 *239:10 *2218:B 11.4964 
3 *239:10 *2217:B 9.3 
*END

*D_NET *240 0.00264851
*CONN
*I *2234:A I *D sky130_fd_sc_hd__xor2_1
*I *2235:A I *D sky130_fd_sc_hd__and2_1
*I *2059:X O *D sky130_fd_sc_hd__a21o_1
*CAP
1 *2234:A 2.27977e-06
2 *2235:A 0.000152399
3 *2059:X 0.000684137
4 *240:10 0.000838815
5 *2234:A *1339:10 1.28585e-05
6 *2235:A *2234:B 0.000153047
7 *2235:A *2235:B 0.000193592
8 *2235:A *396:12 0.000225456
9 *2235:A *1339:10 1.27784e-05
10 *240:10 *2233:A1 0
11 *240:10 *2233:B1 0
12 *240:10 *389:14 0
13 *240:10 *392:10 0
14 *240:10 *396:12 0.000178193
15 *240:10 *1335:14 0
16 *240:10 *1339:10 0.000194954
17 *239:10 *240:10 0
*RES
1 *2059:X *240:10 25.9875 
2 *240:10 *2235:A 19.4696 
3 *240:10 *2234:A 14.0768 
*END

*D_NET *241 0.000279881
*CONN
*I *3124:A I *D sky130_fd_sc_hd__or2_1
*I *3091:X O *D sky130_fd_sc_hd__and2_1
*CAP
1 *3124:A 5.55352e-05
2 *3091:X 5.55352e-05
3 *3091:B *3124:A 6.05161e-06
4 *13:30 *3124:A 2.47753e-05
5 *14:196 *3124:A 0.000137983
*RES
1 *3091:X *3124:A 19.9571 
*END

*D_NET *242 0.00113208
*CONN
*I *2065:A1 I *D sky130_fd_sc_hd__a21o_1
*I *2064:A I *D sky130_fd_sc_hd__xor2_1
*I *2062:X O *D sky130_fd_sc_hd__xor2_1
*CAP
1 *2065:A1 9.10148e-05
2 *2064:A 0.000119491
3 *2062:X 4.65279e-05
4 *242:8 0.000257034
5 *242:8 *2065:B1 4.38511e-05
6 *2064:B *2064:A 0.000139913
7 *2064:B *2065:A1 0.000126439
8 *2064:B *242:8 3.34295e-05
9 *91:10 *2065:A1 0.000119618
10 *91:10 *242:8 0.000154762
*RES
1 *2062:X *242:8 15.7464 
2 *242:8 *2064:A 15.9786 
3 *242:8 *2065:A1 15.9786 
*END

*D_NET *243 0.00125197
*CONN
*I *2065:B1 I *D sky130_fd_sc_hd__a21o_1
*I *2063:X O *D sky130_fd_sc_hd__and2_1
*CAP
1 *2065:B1 0.000475358
2 *2063:X 0.000475358
3 *2065:B1 *396:12 0
4 *2062:A *2065:B1 0.000139907
5 *2063:B *2065:B1 1.21258e-05
6 *2064:B *2065:B1 0.000101243
7 *91:10 *2065:B1 0
8 *180:10 *2065:B1 4.1331e-06
9 *242:8 *2065:B1 4.38511e-05
*RES
1 *2063:X *2065:B1 36.2071 
*END

*D_NET *244 0.00105806
*CONN
*I *2235:B I *D sky130_fd_sc_hd__and2_1
*I *2234:B I *D sky130_fd_sc_hd__xor2_1
*I *2064:X O *D sky130_fd_sc_hd__xor2_1
*CAP
1 *2235:B 4.79204e-05
2 *2234:B 0.000112029
3 *2064:X 7.00238e-05
4 *244:8 0.000229973
5 *2234:B *2236:A 0
6 *2234:B *1339:10 8.15939e-05
7 *2235:B *400:8 0.000129868
8 *2235:B *1339:10 4.00121e-05
9 *2235:A *2234:B 0.000153047
10 *2235:A *2235:B 0.000193592
*RES
1 *2064:X *244:8 14.7464 
2 *244:8 *2234:B 16.7107 
3 *244:8 *2235:B 16.3536 
*END

*D_NET *245 0.00351641
*CONN
*I *2253:A I *D sky130_fd_sc_hd__and2_1
*I *2252:A I *D sky130_fd_sc_hd__xor2_1
*I *2065:X O *D sky130_fd_sc_hd__a21o_1
*CAP
1 *2253:A 0.000107247
2 *2252:A 8.83207e-05
3 *2065:X 0.000718174
4 *245:8 0.000913741
5 *2252:A *248:6 0.000139907
6 *2253:A *1340:12 0.000198698
7 *245:8 *3129:A 0
8 *245:8 *3130:A2 0.000109809
9 *245:8 *3195:B1 8.15939e-05
10 *245:8 *396:12 0.000162003
11 *245:8 *1276:10 0
12 *245:8 *1340:12 0.000901207
13 *2000:A2 *245:8 0
14 *2069:A2 *2253:A 9.57064e-05
15 *91:10 *245:8 0
16 *180:10 *245:8 0
*RES
1 *2065:X *245:8 32.4429 
2 *245:8 *2252:A 15.5679 
3 *245:8 *2253:A 16.8893 
*END

*D_NET *246 0.000871526
*CONN
*I *2069:A1 I *D sky130_fd_sc_hd__a21o_1
*I *2068:A I *D sky130_fd_sc_hd__xor2_1
*I *2066:X O *D sky130_fd_sc_hd__xor2_1
*CAP
1 *2069:A1 0.000111713
2 *2068:A 0.000147047
3 *2066:X 8.61686e-05
4 *246:6 0.000344929
5 *2068:A *2069:B1 0.000126439
6 *2068:A *1276:10 0
7 *2069:A2 *2068:A 0
8 *184:12 *2068:A 5.52302e-05
*RES
1 *2066:X *246:6 10.6571 
2 *246:6 *2068:A 21.3893 
3 *246:6 *2069:A1 11.0857 
*END

*D_NET *247 0.000753988
*CONN
*I *2069:B1 I *D sky130_fd_sc_hd__a21o_1
*I *2067:X O *D sky130_fd_sc_hd__and2_1
*CAP
1 *2069:B1 0.000226415
2 *2067:X 0.000226415
3 *2069:B1 *1276:10 0
4 *2068:A *2069:B1 0.000126439
5 *2069:A2 *2069:B1 5.26184e-05
6 *184:12 *2069:B1 0.000122101
*RES
1 *2067:X *2069:B1 31.725 
*END

*D_NET *248 0.000652986
*CONN
*I *2252:B I *D sky130_fd_sc_hd__xor2_1
*I *2253:B I *D sky130_fd_sc_hd__and2_1
*I *2068:X O *D sky130_fd_sc_hd__xor2_1
*CAP
1 *2252:B 0
2 *2253:B 8.66544e-05
3 *2068:X 9.37321e-05
4 *248:6 0.000180387
5 *2253:B *2255:B1 4.57538e-05
6 *2253:B *416:10 0
7 *2253:B *1340:12 0.000106552
8 *2252:A *248:6 0.000139907
*RES
1 *2068:X *248:6 11.0679 
2 *248:6 *2253:B 20.8536 
3 *248:6 *2252:B 9.3 
*END

*D_NET *249 0.00262877
*CONN
*I *2269:A I *D sky130_fd_sc_hd__xor2_1
*I *2270:A I *D sky130_fd_sc_hd__and2_1
*I *2069:X O *D sky130_fd_sc_hd__a21o_1
*CAP
1 *2269:A 3.52049e-05
2 *2270:A 0.000240695
3 *2069:X 0.000696252
4 *249:8 0.000972151
5 *2269:A *421:8 0
6 *2269:A *432:12 0
7 *2269:A *1202:10 1.59782e-05
8 *2270:A *2269:B 1.88585e-05
9 *2270:A *2273:B1 0.000140933
10 *2270:A *253:12 2.89016e-05
11 *249:8 *3196:A 9.84638e-05
12 *249:8 *421:8 0
13 *249:8 *1202:10 0.000193663
14 *249:8 *1276:10 0.000187672
15 *249:8 *1340:12 0
16 *249:8 *1343:10 0
*RES
1 *2069:X *249:8 29.4071 
2 *249:8 *2270:A 17.1214 
3 *249:8 *2269:A 14.5321 
*END

*D_NET *250 0.000529594
*CONN
*I *2073:A I *D sky130_fd_sc_hd__xor2_1
*I *2074:A1 I *D sky130_fd_sc_hd__a21o_1
*I *2070:X O *D sky130_fd_sc_hd__xor2_1
*CAP
1 *2073:A 0.000110431
2 *2074:A1 8.73457e-05
3 *2070:X 0.000197777
4 *2074:A1 *2074:B1 8.06427e-05
5 *2074:A1 *1344:10 0
6 *2070:A *2073:A 0
7 *2073:B *2074:A1 5.33978e-05
*RES
1 *2070:X *2074:A1 29.5464 
2 *2070:X *2073:A 20.3857 
*END

*D_NET *251 0.00067791
*CONN
*I *2074:B1 I *D sky130_fd_sc_hd__a21o_1
*I *2071:X O *D sky130_fd_sc_hd__and2_1
*CAP
1 *2074:B1 0.000148826
2 *2071:X 0.000148826
3 *2074:B1 *254:14 0.000272665
4 *2074:B1 *1344:10 0
5 *2073:B *2074:B1 0
6 *2074:A1 *2074:B1 8.06427e-05
7 *185:8 *2074:B1 2.6949e-05
*RES
1 *2071:X *2074:B1 31.975 
*END

*D_NET *252 0.000405087
*CONN
*I *3124:B I *D sky130_fd_sc_hd__or2_1
*I *3102:X O *D sky130_fd_sc_hd__and2_1
*CAP
1 *3124:B 4.67966e-05
2 *3102:X 4.67966e-05
3 *15:137 *3124:B 0.000152333
4 *25:42 *3124:B 0.000125724
5 *25:55 *3124:B 3.34366e-05
*RES
1 *3102:X *3124:B 29.5464 
*END

*D_NET *253 0.000760051
*CONN
*I *2269:B I *D sky130_fd_sc_hd__xor2_1
*I *2270:B I *D sky130_fd_sc_hd__and2_1
*I *2073:X O *D sky130_fd_sc_hd__xor2_1
*CAP
1 *2269:B 0.000100872
2 *2270:B 0
3 *2073:X 7.39795e-05
4 *253:12 0.000174852
5 *2269:B *2273:B1 5.33433e-05
6 *253:12 *1202:10 0.000200406
7 *253:12 *1344:10 0.000108839
8 *2270:A *2269:B 1.88585e-05
9 *2270:A *253:12 2.89016e-05
*RES
1 *2073:X *253:12 21.3893 
2 *253:12 *2270:B 9.3 
3 *253:12 *2269:B 11.4964 
*END

*D_NET *254 0.00561128
*CONN
*I *2288:A I *D sky130_fd_sc_hd__xor2_1
*I *2289:A I *D sky130_fd_sc_hd__and2_1
*I *2074:X O *D sky130_fd_sc_hd__a21o_1
*CAP
1 *2288:A 0
2 *2289:A 0.000132778
3 *2074:X 0.00138126
4 *254:18 0.000157845
5 *254:14 0.00140633
6 *2289:A *2288:B 0.000111048
7 *2289:A *2291:B1 0.000144773
8 *254:14 *2265:A 0
9 *254:14 *2279:B 0
10 *254:14 *2285:A 0.000201127
11 *254:14 *2285:B 0
12 *254:14 *2286:B 1.50181e-05
13 *254:14 *2287:A1 9.80029e-05
14 *254:14 *2291:A1 1.69115e-05
15 *254:14 *2291:B1 0.000128146
16 *254:14 *3056:A 0
17 *254:14 *3056:B 0
18 *254:14 *3203:A 0.000197269
19 *254:14 *3204:A2 1.41029e-05
20 *254:14 *436:10 5.5782e-05
21 *254:14 *438:8 0
22 *254:14 *443:10 0
23 *254:14 *447:10 0
24 *254:14 *1280:12 0
25 *254:14 *1344:10 0
26 *254:14 *1348:10 0
27 *254:14 *1349:10 0.00102326
28 *254:18 *2291:B1 2.14658e-05
29 *2071:B *254:14 0.000106542
30 *2074:B1 *254:14 0.000272665
31 *185:8 *254:14 6.97972e-05
32 *189:6 *254:14 5.71472e-05
*RES
1 *2074:X *254:14 48.2107 
2 *254:14 *254:18 5.03571 
3 *254:18 *2289:A 12.7464 
4 *254:18 *2288:A 9.3 
*END

*D_NET *255 0.000721793
*CONN
*I *2077:A I *D sky130_fd_sc_hd__xor2_1
*I *2078:A1 I *D sky130_fd_sc_hd__a21o_1
*I *2075:X O *D sky130_fd_sc_hd__xor2_1
*CAP
1 *2077:A 3.12096e-05
2 *2078:A1 9.03244e-05
3 *2075:X 8.16486e-05
4 *255:8 0.000203183
5 *2078:A1 *2078:B1 2.78822e-05
6 *2078:A1 *1289:16 7.92879e-05
7 *2075:B *255:8 1.3701e-05
8 *2077:B *2077:A 1.33343e-05
9 *2077:B *2078:A1 0.000166976
10 *2077:B *255:8 3.99614e-06
11 *193:10 *2078:A1 1.02504e-05
*RES
1 *2075:X *255:8 10.675 
2 *255:8 *2078:A1 21.1571 
3 *255:8 *2077:A 9.83571 
*END

*D_NET *256 0.000887396
*CONN
*I *2078:B1 I *D sky130_fd_sc_hd__a21o_1
*I *2076:X O *D sky130_fd_sc_hd__and2_1
*CAP
1 *2078:B1 0.000241986
2 *2076:X 0.000241986
3 *2078:B1 *258:12 5.10822e-05
4 *2078:B1 *1216:14 5.71472e-05
5 *2078:B1 *1289:16 0.000108566
6 *2075:A *2078:B1 0.000144773
7 *2075:B *2078:B1 1.39726e-05
8 *2078:A1 *2078:B1 2.78822e-05
9 *190:10 *2078:B1 0
*RES
1 *2076:X *2078:B1 32.975 
*END

*D_NET *257 0.00298703
*CONN
*I *2288:B I *D sky130_fd_sc_hd__xor2_1
*I *2289:B I *D sky130_fd_sc_hd__and2_1
*I *2077:X O *D sky130_fd_sc_hd__xor2_1
*CAP
1 *2288:B 0.000102718
2 *2289:B 0
3 *2077:X 0.00107892
4 *257:12 0.00118164
5 *257:12 *2297:A 6.87574e-05
6 *257:12 *2299:A 0.000202601
7 *257:12 *443:10 6.58195e-05
8 *257:12 *447:10 0.000175519
9 *2289:A *2288:B 0.000111048
*RES
1 *2077:X *257:12 36.6929 
2 *257:12 *2289:B 9.3 
3 *257:12 *2288:B 11.4964 
*END

*D_NET *258 0.00158848
*CONN
*I *2306:A I *D sky130_fd_sc_hd__xor2_1
*I *2307:A I *D sky130_fd_sc_hd__and2_1
*I *2078:X O *D sky130_fd_sc_hd__a21o_1
*CAP
1 *2306:A 0.000170749
2 *2307:A 2.10932e-05
3 *2078:X 0.000421992
4 *258:12 0.000613834
5 *2306:A *2306:B 0.000133464
6 *2306:A *2309:B1 1.32552e-05
7 *2306:A *261:14 2.28598e-05
8 *2307:A *261:14 5.52238e-05
9 *258:12 *3212:A1 0
10 *258:12 *3212:A2 0
11 *258:12 *1216:14 1.72894e-05
12 *258:12 *1289:16 6.76365e-05
13 *2078:B1 *258:12 5.10822e-05
14 *190:10 *258:12 0
*RES
1 *2078:X *258:12 25.3357 
2 *258:12 *2307:A 9.83571 
3 *258:12 *2306:A 13.05 
*END

*D_NET *259 0.000872611
*CONN
*I *2082:A1 I *D sky130_fd_sc_hd__a21o_1
*I *2081:A I *D sky130_fd_sc_hd__xor2_1
*I *2079:X O *D sky130_fd_sc_hd__xor2_1
*CAP
1 *2082:A1 0.000264154
2 *2081:A 8.88322e-05
3 *2079:X 0
4 *259:4 0.000352986
5 *2081:B *2081:A 5.91094e-05
6 *2082:A2 *2082:A1 0.000107529
*RES
1 *2079:X *259:4 9.3 
2 *259:4 *2081:A 11.0857 
3 *259:4 *2082:A1 22.0143 
*END

*D_NET *260 0.000650148
*CONN
*I *2082:B1 I *D sky130_fd_sc_hd__a21o_1
*I *2080:X O *D sky130_fd_sc_hd__and2_1
*CAP
1 *2082:B1 0.000174692
2 *2080:X 0.000174692
3 *2082:B1 *262:14 0.000106516
4 *2082:B1 *1361:16 5.52238e-05
5 *2080:A *2082:B1 7.60306e-05
6 *126:12 *2082:B1 0
7 *194:10 *2082:B1 6.2993e-05
*RES
1 *2080:X *2082:B1 32.2071 
*END

*D_NET *261 0.00165244
*CONN
*I *2306:B I *D sky130_fd_sc_hd__xor2_1
*I *2307:B I *D sky130_fd_sc_hd__and2_1
*I *2081:X O *D sky130_fd_sc_hd__xor2_1
*CAP
1 *2306:B 6.19121e-05
2 *2307:B 0
3 *2081:X 0.000615933
4 *261:14 0.000677845
5 *2306:B *2309:B1 5.62995e-05
6 *261:14 *2315:A 0
7 *261:14 *2318:B 2.89016e-05
8 *2306:A *2306:B 0.000133464
9 *2306:A *261:14 2.28598e-05
10 *2307:A *261:14 5.52238e-05
*RES
1 *2081:X *261:14 28.9071 
2 *261:14 *2307:B 9.3 
3 *261:14 *2306:B 11.4964 
*END

*D_NET *262 0.00211741
*CONN
*I *2323:A I *D sky130_fd_sc_hd__xor2_1
*I *2324:A I *D sky130_fd_sc_hd__and2_1
*I *2082:X O *D sky130_fd_sc_hd__a21o_1
*CAP
1 *2323:A 0
2 *2324:A 0.000148291
3 *2082:X 0.000500267
4 *262:14 0.000648558
5 *2324:A *2323:B 0.000240905
6 *2324:A *2325:A 0
7 *262:14 *2323:B 2.44318e-05
8 *262:14 *2324:B 0
9 *262:14 *2326:A1 0.000202128
10 *262:14 *2326:B1 0.000150618
11 *262:14 *266:10 0
12 *2080:A *262:14 0
13 *2080:B *262:14 0
14 *2082:B1 *262:14 0.000106516
15 *126:12 *262:14 9.56968e-05
*RES
1 *2082:X *262:14 29.3179 
2 *262:14 *2324:A 12.7286 
3 *262:14 *2323:A 9.3 
*END

*D_NET *263 0.000744853
*CONN
*I *3108:B I *D sky130_fd_sc_hd__and2_1
*I *3107:B I *D sky130_fd_sc_hd__xor2_1
*I *3113:X O *D sky130_fd_sc_hd__or2_1
*CAP
1 *3108:B 5.35463e-05
2 *3107:B 1.1624e-05
3 *3113:X 8.08204e-05
4 *263:10 0.000145991
5 *3107:B *3108:A 5.52238e-05
6 *3107:B *1321:18 5.52238e-05
7 *3108:B *3108:A 4.27935e-05
8 *3108:B *1321:18 0.000139913
9 *263:10 *1061:14 4.03318e-05
10 *3080:A *263:10 0
11 *5:209 *3108:B 4.43256e-05
12 *36:22 *263:10 7.50601e-05
*RES
1 *3113:X *263:10 20.2464 
2 *263:10 *3107:B 9.83571 
3 *263:10 *3108:B 11.0857 
*END

*D_NET *264 0.000698987
*CONN
*I *2086:A I *D sky130_fd_sc_hd__xor2_1
*I *2087:A1 I *D sky130_fd_sc_hd__a21o_1
*I *2084:X O *D sky130_fd_sc_hd__xor2_1
*CAP
1 *2086:A 0.000169313
2 *2087:A1 8.87307e-05
3 *2084:X 5.35907e-05
4 *264:8 0.000311634
5 *2086:A *2335:B 2.27416e-05
6 *2087:A1 *2087:B1 3.92757e-05
7 *2084:B *264:8 1.3701e-05
8 *2086:B *2087:A1 0
9 *202:18 *2087:A1 0
*RES
1 *2084:X *264:8 10.2643 
2 *264:8 *2087:A1 19.9429 
3 *264:8 *2086:A 12.3 
*END

*D_NET *265 0.000776799
*CONN
*I *2087:B1 I *D sky130_fd_sc_hd__a21o_1
*I *2085:X O *D sky130_fd_sc_hd__and2_1
*CAP
1 *2087:B1 0.000272402
2 *2085:X 0.000272402
3 *2084:B *2087:B1 0.000188586
4 *2086:B *2087:B1 0
5 *2087:A1 *2087:B1 3.92757e-05
6 *2087:A2 *2087:B1 4.1331e-06
7 *202:18 *2087:B1 0
*RES
1 *2085:X *2087:B1 31.8321 
*END

*D_NET *266 0.00149615
*CONN
*I *2324:B I *D sky130_fd_sc_hd__and2_1
*I *2323:B I *D sky130_fd_sc_hd__xor2_1
*I *2086:X O *D sky130_fd_sc_hd__xor2_1
*CAP
1 *2324:B 3.91901e-05
2 *2323:B 8.37847e-05
3 *2086:X 0.000197774
4 *266:10 0.000320749
5 *2323:B *2325:A 3.99614e-06
6 *2323:B *2326:B1 0.000186662
7 *2324:B *2332:A 0
8 *266:10 *2326:B1 0
9 *266:10 *2333:A 1.66955e-05
10 *266:10 *2335:B 7.86048e-05
11 *266:10 *474:10 0.000116697
12 *266:10 *478:10 0.000186662
13 *2324:A *2323:B 0.000240905
14 *262:14 *2323:B 2.44318e-05
15 *262:14 *2324:B 0
16 *262:14 *266:10 0
*RES
1 *2086:X *266:10 18.4429 
2 *266:10 *2323:B 16.8179 
3 *266:10 *2324:B 14.5321 
*END

*D_NET *267 0.00312827
*CONN
*I *2342:A I *D sky130_fd_sc_hd__and2_1
*I *2341:A I *D sky130_fd_sc_hd__xor2_1
*I *2087:X O *D sky130_fd_sc_hd__a21o_1
*CAP
1 *2342:A 0.000168856
2 *2341:A 0
3 *2087:X 0.00102933
4 *267:12 0.00119819
5 *2342:A *2341:B 0.000194143
6 *2342:A *2343:A 0
7 *2342:A *483:8 2.9561e-05
8 *267:12 *2344:A1 1.59782e-05
9 *267:12 *2344:B1 0.000150618
10 *267:12 *2346:A 0
11 *267:12 *2346:B 0
12 *267:12 *2347:A 0
13 *2021:B *267:12 1.74352e-05
14 *2022:A1 *267:12 0.00010096
15 *2090:B *267:12 0
16 *202:18 *267:12 0.000223192
*RES
1 *2087:X *267:12 33.0679 
2 *267:12 *2341:A 9.3 
3 *267:12 *2342:A 12.7464 
*END

*D_NET *268 0.000713054
*CONN
*I *2091:A1 I *D sky130_fd_sc_hd__a21o_1
*I *2090:A I *D sky130_fd_sc_hd__xor2_1
*I *2088:X O *D sky130_fd_sc_hd__xor2_1
*CAP
1 *2091:A1 9.29679e-05
2 *2090:A 0.00011387
3 *2088:X 1.98341e-05
4 *268:6 0.000226672
5 *2090:A *494:22 0.000120587
6 *2091:A1 *2091:B1 8.39e-05
7 *268:6 *494:22 5.52238e-05
8 *2088:B *2090:A 0
9 *2090:B *2091:A1 0
*RES
1 *2088:X *268:6 9.83571 
2 *268:6 *2090:A 11.9071 
3 *268:6 *2091:A1 20.2464 
*END

*D_NET *269 0.00088563
*CONN
*I *2091:B1 I *D sky130_fd_sc_hd__a21o_1
*I *2089:X O *D sky130_fd_sc_hd__and2_1
*CAP
1 *2091:B1 0.000193093
2 *2089:X 0.000193093
3 *2091:B1 *494:22 0.000274288
4 *2088:A *2091:B1 2.28598e-05
5 *2088:B *2091:B1 1.74352e-05
6 *2089:A *2091:B1 0.00010096
7 *2091:A1 *2091:B1 8.39e-05
8 *144:10 *2091:B1 0
*RES
1 *2089:X *2091:B1 33.0464 
*END

*D_NET *270 0.000886897
*CONN
*I *2341:B I *D sky130_fd_sc_hd__xor2_1
*I *2342:B I *D sky130_fd_sc_hd__and2_1
*I *2090:X O *D sky130_fd_sc_hd__xor2_1
*CAP
1 *2341:B 6.14561e-05
2 *2342:B 0
3 *2090:X 0.000134281
4 *270:12 0.000195737
5 *2341:B *2343:A 0
6 *2341:B *483:8 9.7659e-05
7 *270:12 *2346:A 7.6644e-05
8 *270:12 *2347:A 6.98302e-05
9 *270:12 *494:22 5.71472e-05
10 *2342:A *2341:B 0.000194143
*RES
1 *2090:X *270:12 20.7821 
2 *270:12 *2342:B 9.3 
3 *270:12 *2341:B 11.4964 
*END

*D_NET *271 0.00212988
*CONN
*I *2359:A I *D sky130_fd_sc_hd__and2_1
*I *2358:A I *D sky130_fd_sc_hd__xor2_1
*I *2091:X O *D sky130_fd_sc_hd__a21o_1
*CAP
1 *2359:A 0
2 *2358:A 0.00010805
3 *2091:X 0.000690952
4 *271:6 0.000799003
5 *2358:A *2358:B 0.000179656
6 *2358:A *275:14 1.02504e-05
7 *2358:A *1365:10 3.18676e-05
8 *271:6 *1365:10 0.0003101
*RES
1 *2091:X *271:6 22.1571 
2 *271:6 *2358:A 21.0857 
3 *271:6 *2359:A 9.3 
*END

*D_NET *272 0.00115463
*CONN
*I *2095:A I *D sky130_fd_sc_hd__xor2_1
*I *2096:A1 I *D sky130_fd_sc_hd__a21o_1
*I *2092:X O *D sky130_fd_sc_hd__xor2_1
*CAP
1 *2095:A 7.87132e-05
2 *2096:A1 0.00011325
3 *2092:X 0
4 *272:4 0.000191964
5 *2096:A1 *2096:B1 2.8829e-05
6 *2093:A *2095:A 0
7 *2093:B *2095:A 6.26559e-05
8 *2095:B *2095:A 0.000129868
9 *2096:A2 *2096:A1 0.000136864
10 *2599:A *2095:A 3.90513e-05
11 *19:71 *2096:A1 0.000369298
12 *211:12 *2095:A 4.1331e-06
*RES
1 *2092:X *272:4 9.3 
2 *272:4 *2096:A1 14.1214 
3 *272:4 *2095:A 20.8536 
*END

*D_NET *273 0.000422089
*CONN
*I *2096:B1 I *D sky130_fd_sc_hd__a21o_1
*I *2093:X O *D sky130_fd_sc_hd__and2_1
*CAP
1 *2096:B1 0.000157144
2 *2093:X 0.000157144
3 *2093:A *2096:B1 2.79092e-05
4 *2096:A1 *2096:B1 2.8829e-05
5 *2096:A2 *2096:B1 1.91004e-05
6 *2905:B *2096:B1 0
7 *19:71 *2096:B1 3.19626e-05
*RES
1 *2093:X *2096:B1 30.85 
*END

*D_NET *274 0.00163131
*CONN
*I *1978:B I *D sky130_fd_sc_hd__and2_1
*I *1977:B I *D sky130_fd_sc_hd__xor2_1
*I *3124:X O *D sky130_fd_sc_hd__or2_1
*CAP
1 *1978:B 0.000328865
2 *1977:B 2.23854e-05
3 *3124:X 0.000253192
4 *274:12 0.000604442
5 *274:12 *1977:A 0
6 *2044:A *1978:B 0.000177948
7 *6:269 *1978:B 0.000177948
8 *18:15 *274:12 6.65302e-05
*RES
1 *3124:X *274:12 22.5321 
2 *274:12 *1977:B 9.72857 
3 *274:12 *1978:B 24.3714 
*END

*D_NET *275 0.00772977
*CONN
*I *2358:B I *D sky130_fd_sc_hd__xor2_1
*I *2359:B I *D sky130_fd_sc_hd__and2_1
*I *2095:X O *D sky130_fd_sc_hd__xor2_1
*CAP
1 *2358:B 9.82364e-05
2 *2359:B 0
3 *2095:X 0.00142178
4 *275:14 0.000771693
5 *275:12 0.00209524
6 *2358:B *2362:B1 0
7 *275:12 *1955:B 0
8 *275:12 *1958:A2 0
9 *275:12 *2600:A 7.50697e-05
10 *275:12 *2654:A 0
11 *275:12 *2901:B 6.22321e-05
12 *275:12 *805:10 0
13 *275:12 *982:12 0
14 *275:12 *1147:10 0.000197276
15 *275:12 *1150:10 0.000198729
16 *275:12 *1151:12 0
17 *275:14 *3084:B1 0
18 *275:14 *3150:B 0.000106542
19 *275:14 *3152:A1 0.00015304
20 *275:14 *3152:A2 0.000173797
21 *275:14 *982:12 0
22 *275:14 *1150:10 0
23 *275:14 *1151:12 0
24 *275:14 *1225:16 4.8542e-05
25 *275:14 *1230:12 0
26 *275:14 *1298:12 0
27 *1957:A *275:12 7.02903e-05
28 *1958:B1 *275:12 0.000122814
29 *2023:A *275:12 0.000153047
30 *2358:A *2358:B 0.000179656
31 *2358:A *275:14 1.02504e-05
32 *2599:A *275:12 0.000106488
33 *7:237 *275:12 2.61337e-05
34 *7:247 *275:12 0
35 *37:27 *275:12 0
36 *139:8 *275:12 0.00165891
*RES
1 *2095:X *275:12 47.7375 
2 *275:12 *275:14 13.3304 
3 *275:14 *2359:B 13.8 
4 *275:14 *2358:B 16.3536 
*END

*D_NET *276 0.000885659
*CONN
*I *2377:A I *D sky130_fd_sc_hd__and2_1
*I *2376:A I *D sky130_fd_sc_hd__xor2_1
*I *2096:X O *D sky130_fd_sc_hd__a21o_1
*CAP
1 *2377:A 0
2 *2376:A 4.14096e-05
3 *2096:X 0.000128941
4 *276:6 0.000170351
5 *276:6 *2377:B 9.41642e-05
6 *8:158 *2376:A 0.000177948
7 *19:71 *276:6 9.31893e-05
8 *29:89 *2376:A 0.000179656
*RES
1 *2096:X *276:6 11.8893 
2 *276:6 *2376:A 20.55 
3 *276:6 *2377:A 9.3 
*END

*D_NET *277 0.00099162
*CONN
*I *2099:A I *D sky130_fd_sc_hd__xor2_1
*I *2100:A1 I *D sky130_fd_sc_hd__a21o_1
*I *2097:X O *D sky130_fd_sc_hd__xor2_1
*CAP
1 *2099:A 7.83475e-05
2 *2100:A1 0.000203593
3 *2097:X 8.57039e-05
4 *277:10 0.000367644
5 *2097:A *277:10 0
6 *2097:B *277:10 5.80706e-06
7 *2100:A2 *2099:A 6.09899e-05
8 *2100:A2 *2100:A1 0.000107951
9 *9:78 *277:10 0
10 *31:85 *277:10 8.15843e-05
*RES
1 *2097:X *277:10 20.2464 
2 *277:10 *2100:A1 11.8893 
3 *277:10 *2099:A 11.1036 
*END

*D_NET *278 0.00150586
*CONN
*I *2100:B1 I *D sky130_fd_sc_hd__a21o_1
*I *2098:X O *D sky130_fd_sc_hd__and2_1
*CAP
1 *2100:B1 0.000348097
2 *2098:X 0.000348097
3 *2100:B1 *2395:B 0
4 *2100:B1 *541:18 0.000272658
5 *2852:A *2100:B1 5.71472e-05
6 *10:57 *2100:B1 0.000322453
7 *21:62 *2100:B1 0.000157409
*RES
1 *2098:X *2100:B1 35.0821 
*END

*D_NET *279 0.00410417
*CONN
*I *2376:B I *D sky130_fd_sc_hd__xor2_1
*I *2377:B I *D sky130_fd_sc_hd__and2_1
*I *2099:X O *D sky130_fd_sc_hd__xor2_1
*CAP
1 *2376:B 0.000155431
2 *2377:B 7.06571e-05
3 *2099:X 0.000848192
4 *279:8 0.00107428
5 *279:8 *2729:A 3.0285e-05
6 *279:8 *2908:A 0.000153047
7 *2666:A *279:8 0.000159217
8 *2905:B *2376:B 0
9 *2905:B *279:8 0
10 *8:158 *2376:B 0.000214342
11 *8:158 *279:8 0.000334555
12 *12:124 *279:8 0
13 *19:71 *2377:B 0.000137983
14 *31:83 *279:8 4.75715e-05
15 *31:85 *279:8 0.000247655
16 *42:136 *279:8 0.000536787
17 *276:6 *2377:B 9.41642e-05
*RES
1 *2099:X *279:8 34.8714 
2 *279:8 *2377:B 15.5857 
3 *279:8 *2376:B 17.1929 
*END

*D_NET *280 0.000585594
*CONN
*I *2395:A I *D sky130_fd_sc_hd__xor2_1
*I *2396:A I *D sky130_fd_sc_hd__and2_1
*I *2100:X O *D sky130_fd_sc_hd__a21o_1
*CAP
1 *2395:A 0
2 *2396:A 9.48758e-05
3 *2100:X 6.61546e-05
4 *280:6 0.00016103
5 *2396:A *2395:B 0.000172085
6 *2396:A *2396:B 9.11048e-06
7 *2396:A *2398:A2 9.11048e-06
8 *280:6 *541:18 7.32272e-05
*RES
1 *2100:X *280:6 10.6571 
2 *280:6 *2396:A 20.55 
3 *280:6 *2395:A 9.3 
*END

*D_NET *281 0.000503302
*CONN
*I *2103:A I *D sky130_fd_sc_hd__xor2_1
*I *2104:A1 I *D sky130_fd_sc_hd__a21o_1
*I *2101:X O *D sky130_fd_sc_hd__xor2_1
*CAP
1 *2103:A 0
2 *2104:A1 0.00010103
3 *2101:X 7.61412e-05
4 *281:8 0.000177172
5 *2104:A1 *2104:B1 6.97972e-05
6 *281:8 *2101:A 2.39313e-05
7 *281:8 *2102:B 5.52302e-05
*RES
1 *2101:X *281:8 11.0857 
2 *281:8 *2104:A1 20.4786 
3 *281:8 *2103:A 9.3 
*END

*D_NET *282 0.000868451
*CONN
*I *2104:B1 I *D sky130_fd_sc_hd__a21o_1
*I *2102:X O *D sky130_fd_sc_hd__and2_1
*CAP
1 *2104:B1 0.000301484
2 *2102:X 0.000301484
3 *2104:B1 *2101:A 0
4 *2104:B1 *2102:B 9.8045e-05
5 *2103:B *2104:B1 0
6 *2104:A1 *2104:B1 6.97972e-05
7 *2866:B *2104:B1 9.41642e-05
8 *2931:A *2104:B1 0
9 *11:72 *2104:B1 3.47641e-06
10 *22:129 *2104:B1 0
*RES
1 *2102:X *2104:B1 32.6179 
*END

*D_NET *283 0.0014412
*CONN
*I *2395:B I *D sky130_fd_sc_hd__xor2_1
*I *2396:B I *D sky130_fd_sc_hd__and2_1
*I *2103:X O *D sky130_fd_sc_hd__xor2_1
*CAP
1 *2395:B 0.000121342
2 *2396:B 8.31954e-05
3 *2103:X 0.000373022
4 *283:8 0.000577559
5 *2395:B *2398:A2 1.21398e-05
6 *2395:B *541:18 6.07915e-05
7 *283:8 *2862:B 3.19595e-05
8 *283:8 *2868:B 0
9 *2100:B1 *2395:B 0
10 *2396:A *2395:B 0.000172085
11 *2396:A *2396:B 9.11048e-06
12 *10:57 *2395:B 0
*RES
1 *2103:X *283:8 20.1482 
2 *283:8 *2396:B 15.4518 
3 *283:8 *2395:B 17.3446 
*END

*D_NET *284 0.00301961
*CONN
*I *2412:B I *D sky130_fd_sc_hd__xor2_1
*I *2413:B I *D sky130_fd_sc_hd__and2_1
*I *2104:X O *D sky130_fd_sc_hd__a21o_1
*CAP
1 *2412:B 0
2 *2413:B 0.000187479
3 *2104:X 0.000490449
4 *284:14 0.000677928
5 *2413:B *2413:A 0.000228757
6 *2413:B *1082:14 4.33899e-05
7 *284:14 *1082:14 0.000697221
8 zN[1] *284:14 0.000618913
9 zP[0] *284:14 0
10 *2919:A *284:14 7.54696e-05
*RES
1 *2104:X *284:14 31.0679 
2 *284:14 *2413:B 13.1393 
3 *284:14 *2412:B 9.3 
*END

*D_NET *285 0.000285915
*CONN
*I *3180:A I *D sky130_fd_sc_hd__or2_1
*I *3135:X O *D sky130_fd_sc_hd__and2_1
*CAP
1 *3180:A 1.89428e-05
2 *3135:X 1.89428e-05
3 *3180:A *3180:B 5.66971e-05
4 *3180:A *345:8 0.000143633
5 *14:54 *3180:A 4.77002e-05
*RES
1 *3135:X *3180:A 19.9571 
*END

*D_NET *286 0.000320469
*CONN
*I *2107:B I *D sky130_fd_sc_hd__and2_1
*I *2106:Y O *D sky130_fd_sc_hd__inv_1
*CAP
1 *2107:B 9.61576e-05
2 *2106:Y 9.61576e-05
3 *2107:B *2106:A 0.000128154
*RES
1 *2106:Y *2107:B 29.5732 
*END

*D_NET *287 0.000687472
*CONN
*I *2109:B I *D sky130_fd_sc_hd__and2_1
*I *2108:Y O *D sky130_fd_sc_hd__inv_1
*CAP
1 *2109:B 0.000311145
2 *2108:Y 0.000311145
3 zN[1] *2109:B 4.35511e-05
4 zP[0] *2109:B 2.16315e-05
*RES
1 *2108:Y *2109:B 31.9304 
*END

*D_NET *288 0.00156643
*CONN
*I *2117:A I *D sky130_fd_sc_hd__inv_1
*I *2115:A I *D sky130_fd_sc_hd__and2_1
*I *2110:X O *D sky130_fd_sc_hd__xor2_1
*CAP
1 *2117:A 0.000209593
2 *2115:A 0
3 *2110:X 0.000280841
4 *288:14 0.000490434
5 *2117:A *2113:A 5.65955e-05
6 *2117:A *2114:A 2.524e-05
7 *2117:A *2115:B 6.24469e-05
8 *2117:A *291:10 0.000238358
9 *288:14 *2111:A 7.70035e-05
10 *288:14 *2115:B 1.84368e-05
11 *2111:B *288:14 5.41794e-05
12 *2947:B *288:14 5.33005e-05
*RES
1 *2110:X *288:14 18.8714 
2 *288:14 *2115:A 13.8 
3 *288:14 *2117:A 18.9384 
*END

*D_NET *289 0.00107955
*CONN
*I *2121:A I *D sky130_fd_sc_hd__inv_1
*I *2120:A I *D sky130_fd_sc_hd__and2_1
*I *2111:X O *D sky130_fd_sc_hd__and2_1
*CAP
1 *2121:A 8.16856e-05
2 *2120:A 0.000263896
3 *2111:X 9.46035e-05
4 *289:8 0.000440185
5 *2121:A *2122:A 0.000199183
*RES
1 *2111:X *289:8 15.4429 
2 *289:8 *2120:A 18.0857 
3 *289:8 *2121:A 15.7241 
*END

*D_NET *290 0.000520639
*CONN
*I *2114:A I *D sky130_fd_sc_hd__inv_1
*I *2118:A I *D sky130_fd_sc_hd__and2_1
*I *2112:X O *D sky130_fd_sc_hd__xor2_1
*CAP
1 *2114:A 0.000111317
2 *2118:A 2.61224e-05
3 *2112:X 0
4 *290:4 0.000137439
5 *2114:A *2113:A 0.000153054
6 *2114:A *2118:B 3.85645e-05
7 zN[1] *2118:A 2.89016e-05
8 *2117:A *2114:A 2.524e-05
9 *23:80 *2114:A 0
*RES
1 *2112:X *290:4 9.3 
2 *290:4 *2118:A 9.83571 
3 *290:4 *2114:A 21.0902 
*END

*D_NET *291 0.0041283
*CONN
*I *2122:A I *D sky130_fd_sc_hd__and2_1
*I *2119:A I *D sky130_fd_sc_hd__inv_1
*I *2113:X O *D sky130_fd_sc_hd__and2_1
*CAP
1 *2122:A 0.000280438
2 *2119:A 0.000543515
3 *2113:X 0.000792542
4 *291:10 0.0016165
5 *2119:A *2120:B 0.000111423
6 *2122:A *2122:B 7.82904e-05
7 *291:10 *2115:B 0.000204359
8 *291:10 *2118:B 9.16015e-06
9 *2113:B *291:10 5.45307e-05
10 *2117:A *291:10 0.000238358
11 *2121:A *2122:A 0.000199183
*RES
1 *2113:X *291:10 28.8 
2 *291:10 *2119:A 23.233 
3 *291:10 *2122:A 18.8536 
*END

*D_NET *292 0.000772745
*CONN
*I *2115:B I *D sky130_fd_sc_hd__and2_1
*I *2114:Y O *D sky130_fd_sc_hd__inv_1
*CAP
1 *2115:B 0.000205998
2 *2114:Y 0.000205998
3 *2117:A *2115:B 6.24469e-05
4 *23:80 *2115:B 7.55063e-05
5 *288:14 *2115:B 1.84368e-05
6 *291:10 *2115:B 0.000204359
*RES
1 *2114:Y *2115:B 31.5196 
*END

*D_NET *293 0.000609925
*CONN
*I *3180:B I *D sky130_fd_sc_hd__or2_1
*I *3146:X O *D sky130_fd_sc_hd__and2_1
*CAP
1 *3180:B 6.57201e-05
2 *3146:X 6.57201e-05
3 *3180:B *345:8 0.000201095
4 *3180:A *3180:B 5.66971e-05
5 *14:42 *3180:B 5.66971e-05
6 *14:54 *3180:B 0.000163996
*RES
1 *3146:X *3180:B 21.7429 
*END

*D_NET *294 0.0002661
*CONN
*I *2118:B I *D sky130_fd_sc_hd__and2_1
*I *2117:Y O *D sky130_fd_sc_hd__inv_1
*CAP
1 *2118:B 0.000109187
2 *2117:Y 0.000109187
3 *2114:A *2118:B 3.85645e-05
4 *291:10 *2118:B 9.16015e-06
*RES
1 *2117:Y *2118:B 29.5732 
*END

*D_NET *295 0.000660625
*CONN
*I *2120:B I *D sky130_fd_sc_hd__and2_1
*I *2119:Y O *D sky130_fd_sc_hd__inv_1
*CAP
1 *2120:B 0.000211393
2 *2119:Y 0.000211393
3 *2119:A *2120:B 0.000111423
4 *2205:A *2120:B 0.000126416
*RES
1 *2119:Y *2120:B 31.2161 
*END

*D_NET *296 0.00295383
*CONN
*I *2125:B I *D sky130_fd_sc_hd__xor2_1
*I *2126:A2 I *D sky130_fd_sc_hd__a21o_1
*I *2120:X O *D sky130_fd_sc_hd__and2_1
*CAP
1 *2125:B 0
2 *2126:A2 0.00023983
3 *2120:X 0.000403601
4 *296:10 0.000643431
5 *2126:A2 *2126:A1 5.49489e-05
6 *2126:A2 *302:12 2.59355e-05
7 *296:10 *2227:B 0.000139281
8 *2205:A *296:10 3.01673e-05
9 *2205:B *296:10 7.86699e-06
10 *23:36 *2126:A2 0.000171375
11 *23:36 *296:10 0.000526668
12 *33:39 *2126:A2 0.000173097
13 *33:39 *296:10 0.000537625
*RES
1 *2120:X *296:10 24.0143 
2 *296:10 *2126:A2 19.0679 
3 *296:10 *2125:B 13.8 
*END

*D_NET *297 0.000232475
*CONN
*I *2122:B I *D sky130_fd_sc_hd__and2_1
*I *2121:Y O *D sky130_fd_sc_hd__inv_1
*CAP
1 *2122:B 7.70925e-05
2 *2121:Y 7.70925e-05
3 *2122:A *2122:B 7.82904e-05
*RES
1 *2121:Y *2122:B 20.1625 
*END

*D_NET *298 0.00181096
*CONN
*I *2131:A2 I *D sky130_fd_sc_hd__a21o_1
*I *2130:B I *D sky130_fd_sc_hd__xor2_1
*I *2122:X O *D sky130_fd_sc_hd__and2_1
*CAP
1 *2131:A2 0.000147889
2 *2130:B 0.000120953
3 *2122:X 0.000373253
4 *298:8 0.000642096
5 *2130:B *2130:A 3.61917e-05
6 *2130:B *306:18 8.47008e-05
7 *2131:A2 *2130:A 1.06172e-05
8 *2131:A2 *2131:A1 4.92239e-05
9 *298:8 *584:12 0.00015716
10 *24:220 *2130:B 7.7939e-05
11 *24:220 *2131:A2 0.000110938
*RES
1 *2122:X *298:8 19.675 
2 *298:8 *2130:B 16.6929 
3 *298:8 *2131:A2 17.1929 
*END

*D_NET *299 0.000773303
*CONN
*I *2125:A I *D sky130_fd_sc_hd__xor2_1
*I *2126:A1 I *D sky130_fd_sc_hd__a21o_1
*I *2123:X O *D sky130_fd_sc_hd__xor2_1
*CAP
1 *2125:A 9.3156e-05
2 *2126:A1 0.000118014
3 *2123:X 0.00021117
4 *2125:A *2123:B 9.58126e-05
5 *2125:A *1312:6 5.33005e-05
6 *2126:A1 *2126:B1 0.000146901
7 *2126:A1 *583:10 0
8 *2126:A2 *2126:A1 5.49489e-05
*RES
1 *2123:X *2126:A1 30.0821 
2 *2123:X *2125:A 20.3857 
*END

*D_NET *300 0.000847684
*CONN
*I *2126:B1 I *D sky130_fd_sc_hd__a21o_1
*I *2124:X O *D sky130_fd_sc_hd__and2_1
*CAP
1 *2126:B1 0.000212141
2 *2124:X 0.000212141
3 *2126:B1 *2124:B 0.00019651
4 *2126:A1 *2126:B1 0.000146901
5 *23:36 *2126:B1 7.99908e-05
*RES
1 *2124:X *2126:B1 32.5107 
*END

*D_NET *301 0.00182213
*CONN
*I *2133:A I *D sky130_fd_sc_hd__and2_1
*I *2134:A I *D sky130_fd_sc_hd__inv_1
*I *2125:X O *D sky130_fd_sc_hd__xor2_1
*CAP
1 *2133:A 3.4396e-05
2 *2134:A 0.000302245
3 *2125:X 0.000397184
4 *301:10 0.000733824
5 *2134:A *2132:A 0
6 *301:10 *1312:6 0.000274288
7 zP[2] *2134:A 0
8 *2194:A *301:10 0
9 *24:205 *301:10 3.6474e-05
10 *24:220 *301:10 4.37204e-05
11 *33:30 *2134:A 0
*RES
1 *2125:X *301:10 20.4607 
2 *301:10 *2134:A 18.8312 
3 *301:10 *2133:A 14.3357 
*END

*D_NET *302 0.00260639
*CONN
*I *2137:A I *D sky130_fd_sc_hd__and2_1
*I *2139:A I *D sky130_fd_sc_hd__inv_1
*I *2126:X O *D sky130_fd_sc_hd__a21o_1
*CAP
1 *2137:A 2.57588e-05
2 *2139:A 6.38404e-05
3 *2126:X 0.000635716
4 *302:12 0.000725315
5 *2137:A *2140:B 2.24804e-05
6 *2139:A *2140:B 3.45733e-05
7 *302:12 *306:18 0.00012573
8 *2126:A2 *302:12 2.59355e-05
9 *3013:A *302:12 0.000169383
10 *3047:A *302:12 0.000270236
11 *24:220 *302:12 0.000507426
*RES
1 *2126:X *302:12 30.675 
2 *302:12 *2139:A 10.4473 
3 *302:12 *2137:A 9.83571 
*END

*D_NET *303 0.000502241
*CONN
*I *3191:A I *D sky130_fd_sc_hd__or2_1
*I *3158:X O *D sky130_fd_sc_hd__and2_1
*CAP
1 *3191:A 8.12817e-05
2 *3158:X 8.12817e-05
3 *3191:A *3315:A 5.80706e-06
4 *3191:A *1138:10 7.14714e-05
5 *2473:A *3191:A 0.000147474
6 *18:25 *3191:A 9.91086e-05
7 *36:339 *3191:A 1.58163e-05
*RES
1 *3158:X *3191:A 30.0821 
*END

*D_NET *304 0.00115316
*CONN
*I *2131:A1 I *D sky130_fd_sc_hd__a21o_1
*I *2130:A I *D sky130_fd_sc_hd__xor2_1
*I *2128:X O *D sky130_fd_sc_hd__xor2_1
*CAP
1 *2131:A1 0.000170826
2 *2130:A 7.92678e-05
3 *2128:X 1.69531e-05
4 *304:8 0.000267047
5 *2130:A *306:18 2.71964e-05
6 *2130:A *307:8 0.000197516
7 *2131:A1 *2131:B1 2.85234e-05
8 *2131:A1 *307:8 0.000146991
9 *304:8 *2129:A 5.33005e-05
10 *2128:B *304:8 5.33005e-05
11 *2130:B *2130:A 3.61917e-05
12 *2131:A2 *2130:A 1.06172e-05
13 *2131:A2 *2131:A1 4.92239e-05
14 *4:38 *2131:A1 1.62025e-05
*RES
1 *2128:X *304:8 14.3357 
2 *304:8 *2130:A 16.3536 
3 *304:8 *2131:A1 17.1036 
*END

*D_NET *305 0.000532157
*CONN
*I *2131:B1 I *D sky130_fd_sc_hd__a21o_1
*I *2129:X O *D sky130_fd_sc_hd__and2_1
*CAP
1 *2131:B1 0.000109149
2 *2129:X 0.000109149
3 *2131:B1 *307:8 7.89362e-05
4 *2131:A1 *2131:B1 2.85234e-05
5 *4:38 *2131:B1 0.000141935
6 *217:10 *2131:B1 6.44649e-05
*RES
1 *2129:X *2131:B1 30.6 
*END

*D_NET *306 0.00271718
*CONN
*I *2135:A I *D sky130_fd_sc_hd__and2_1
*I *2132:A I *D sky130_fd_sc_hd__inv_1
*I *2130:X O *D sky130_fd_sc_hd__xor2_1
*CAP
1 *2135:A 0
2 *2132:A 9.80867e-05
3 *2130:X 0.000650771
4 *306:18 0.000748858
5 *2132:A *2133:B 0.000125243
6 *2132:A *2135:B 2.22908e-05
7 *2132:A *2153:A 0
8 *306:18 *2133:B 3.10819e-05
9 *306:18 *2136:A 2.97838e-05
10 *306:18 *2137:B 0.00015244
11 *306:18 *307:8 5.03582e-05
12 *306:18 *321:10 0
13 zP[2] *2132:A 0.00015234
14 *2130:A *306:18 2.71964e-05
15 *2130:B *306:18 8.47008e-05
16 *2134:A *2132:A 0
17 *3047:A *306:18 0.000188077
18 *24:205 *306:18 3.4579e-05
19 *24:220 *306:18 6.81974e-05
20 *197:10 *306:18 0.000127446
21 *302:12 *306:18 0.00012573
*RES
1 *2130:X *306:18 28.9429 
2 *306:18 *2132:A 16.5902 
3 *306:18 *2135:A 13.8 
*END

*D_NET *307 0.00152486
*CONN
*I *2140:A I *D sky130_fd_sc_hd__and2_1
*I *2136:A I *D sky130_fd_sc_hd__inv_1
*I *2131:X O *D sky130_fd_sc_hd__a21o_1
*CAP
1 *2140:A 1.58368e-05
2 *2136:A 0.000131298
3 *2131:X 0.000261047
4 *307:8 0.000408182
5 *2136:A *2137:B 7.80183e-05
6 *2136:A *321:10 0
7 *2140:A *2140:B 5.50052e-05
8 *2140:A *311:12 1.84865e-05
9 *2128:B *307:8 1.48252e-05
10 *2130:A *307:8 0.000197516
11 *2131:A1 *307:8 0.000146991
12 *2131:B1 *307:8 7.89362e-05
13 *34:32 *2136:A 2.524e-05
14 *217:10 *307:8 1.33329e-05
15 *306:18 *2136:A 2.97838e-05
16 *306:18 *307:8 5.03582e-05
*RES
1 *2131:X *307:8 20.3 
2 *307:8 *2136:A 16.8937 
3 *307:8 *2140:A 14.3357 
*END

*D_NET *308 0.000947374
*CONN
*I *2133:B I *D sky130_fd_sc_hd__and2_1
*I *2132:Y O *D sky130_fd_sc_hd__inv_1
*CAP
1 *2133:B 0.000192448
2 *2132:Y 0.000192448
3 *2133:B *2135:B 0.000222439
4 *2132:A *2133:B 0.000125243
5 *24:205 *2133:B 0.000183713
6 *306:18 *2133:B 3.10819e-05
*RES
1 *2132:Y *2133:B 32.0554 
*END

*D_NET *309 0.000686171
*CONN
*I *2135:B I *D sky130_fd_sc_hd__and2_1
*I *2134:Y O *D sky130_fd_sc_hd__inv_1
*CAP
1 *2135:B 0.000220721
2 *2134:Y 0.000220721
3 *2135:B *2153:A 0
4 *2132:A *2135:B 2.22908e-05
5 *2133:B *2135:B 0.000222439
*RES
1 *2134:Y *2135:B 31.8232 
*END

*D_NET *310 0.00045842
*CONN
*I *2137:B I *D sky130_fd_sc_hd__and2_1
*I *2136:Y O *D sky130_fd_sc_hd__inv_1
*CAP
1 *2137:B 0.000102023
2 *2136:Y 0.000102023
3 *2136:A *2137:B 7.80183e-05
4 *34:32 *2137:B 2.3917e-05
5 *306:18 *2137:B 0.00015244
*RES
1 *2136:Y *2137:B 30.2875 
*END

*D_NET *311 0.00215386
*CONN
*I *2144:A2 I *D sky130_fd_sc_hd__a21o_1
*I *2143:B I *D sky130_fd_sc_hd__xor2_1
*I *2137:X O *D sky130_fd_sc_hd__and2_1
*CAP
1 *2144:A2 0.000222386
2 *2143:B 0
3 *2137:X 0.000541783
4 *311:12 0.000764168
5 *2144:A2 *2143:A 0.00024426
6 *2144:A2 *315:8 3.57366e-05
7 *311:12 *2140:B 2.33087e-05
8 *311:12 *314:12 3.56923e-05
9 *2140:A *311:12 1.84865e-05
10 *15:137 *311:12 0.000125371
11 *25:42 *311:12 0.000127079
12 *34:32 *2144:A2 1.55885e-05
*RES
1 *2137:X *311:12 25.8179 
2 *311:12 *2143:B 9.3 
3 *311:12 *2144:A2 14.3714 
*END

*D_NET *312 0.000578531
*CONN
*I *3191:B I *D sky130_fd_sc_hd__or2_1
*I *3169:X O *D sky130_fd_sc_hd__and2_1
*CAP
1 *3191:B 0.000134439
2 *3169:X 0.000134439
3 *3191:B *2591:B 3.32631e-05
4 *3191:B *1138:10 1.58163e-05
5 *36:339 *3191:B 0.000260574
*RES
1 *3169:X *3191:B 21.6179 
*END

*D_NET *313 0.000618485
*CONN
*I *2140:B I *D sky130_fd_sc_hd__and2_1
*I *2139:Y O *D sky130_fd_sc_hd__inv_1
*CAP
1 *2140:B 0.000241559
2 *2139:Y 0.000241559
3 *2137:A *2140:B 2.24804e-05
4 *2139:A *2140:B 3.45733e-05
5 *2140:A *2140:B 5.50052e-05
6 *311:12 *2140:B 2.33087e-05
*RES
1 *2139:Y *2140:B 22.6446 
*END

*D_NET *314 0.00150094
*CONN
*I *2148:A2 I *D sky130_fd_sc_hd__a21o_1
*I *2147:B I *D sky130_fd_sc_hd__xor2_1
*I *2140:X O *D sky130_fd_sc_hd__and2_1
*CAP
1 *2148:A2 0.000142999
2 *2147:B 0
3 *2140:X 0.000377346
4 *314:12 0.000520345
5 *2148:A2 *2147:A 5.33005e-05
6 *2148:A2 *2148:A1 7.10898e-05
7 *15:137 *314:12 0.00014925
8 *25:42 *314:12 0.000150917
9 *311:12 *314:12 3.56923e-05
*RES
1 *2140:X *314:12 24.0679 
2 *314:12 *2147:B 9.3 
3 *314:12 *2148:A2 11.9071 
*END

*D_NET *315 0.00126813
*CONN
*I *2144:A1 I *D sky130_fd_sc_hd__a21o_1
*I *2143:A I *D sky130_fd_sc_hd__xor2_1
*I *2141:X O *D sky130_fd_sc_hd__xor2_1
*CAP
1 *2144:A1 0
2 *2143:A 0.00020565
3 *2141:X 0.000149618
4 *315:8 0.000355268
5 *315:8 *2144:B1 9.29966e-05
6 *2144:A2 *2143:A 0.00024426
7 *2144:A2 *315:8 3.57366e-05
8 *34:32 *2143:A 0.000184598
*RES
1 *2141:X *315:8 12.2107 
2 *315:8 *2143:A 14.3714 
3 *315:8 *2144:A1 9.3 
*END

*D_NET *316 0.000758667
*CONN
*I *2144:B1 I *D sky130_fd_sc_hd__a21o_1
*I *2142:X O *D sky130_fd_sc_hd__and2_1
*CAP
1 *2144:B1 0.000263823
2 *2142:X 0.000263823
3 *2144:B1 *2141:A 2.14757e-05
4 *2144:B1 *2141:B 1.55885e-05
5 *2144:B1 *2142:B 0.00010096
6 *315:8 *2144:B1 9.29966e-05
*RES
1 *2142:X *2144:B1 23.2607 
*END

*D_NET *317 0.00204521
*CONN
*I *2152:A I *D sky130_fd_sc_hd__inv_1
*I *2151:A I *D sky130_fd_sc_hd__and2_1
*I *2143:X O *D sky130_fd_sc_hd__xor2_1
*CAP
1 *2152:A 0.000196833
2 *2151:A 0.000141234
3 *2143:X 0.000298571
4 *317:10 0.000636638
5 *2151:A *2153:A 8.08476e-06
6 *2151:A *2153:B 0
7 *2151:A *321:10 4.10831e-05
8 *2152:A *2153:B 0.000107764
9 *317:10 *321:10 0.000148079
10 *2171:B *317:10 4.46689e-05
11 *2249:A *2151:A 0
12 *2282:A *2152:A 6.12123e-05
13 *3013:A *2152:A 7.67916e-05
14 *4:17 *2152:A 7.02194e-05
15 *4:30 *317:10 0.000116363
16 *15:137 *2151:A 0
17 *25:42 *317:10 0
18 *34:32 *317:10 9.76689e-05
*RES
1 *2143:X *317:10 21.1571 
2 *317:10 *2151:A 16.05 
3 *317:10 *2152:A 18.2866 
*END

*D_NET *318 0.0012363
*CONN
*I *2156:A I *D sky130_fd_sc_hd__inv_1
*I *2155:A I *D sky130_fd_sc_hd__and2_1
*I *2144:X O *D sky130_fd_sc_hd__a21o_1
*CAP
1 *2156:A 0.000289726
2 *2155:A 0
3 *2144:X 5.42352e-05
4 *318:10 0.000343961
5 *2156:A *2157:A 9.58689e-05
6 *2156:A *2157:B 0.000165366
7 *2156:A *327:12 2.74737e-05
8 *2156:A *329:6 4.9209e-05
9 *318:10 *2155:B 1.00887e-05
10 *6:269 *318:10 4.79282e-05
11 *16:19 *318:10 0.00015244
*RES
1 *2144:X *318:10 20.2464 
2 *318:10 *2155:A 9.3 
3 *318:10 *2156:A 15.0813 
*END

*D_NET *319 0.000811028
*CONN
*I *2148:A1 I *D sky130_fd_sc_hd__a21o_1
*I *2147:A I *D sky130_fd_sc_hd__xor2_1
*I *2145:X O *D sky130_fd_sc_hd__xor2_1
*CAP
1 *2148:A1 0.000117698
2 *2147:A 2.4218e-05
3 *2145:X 5.28829e-05
4 *319:10 0.000194798
5 *2148:A2 *2147:A 5.33005e-05
6 *2148:A2 *2148:A1 7.10898e-05
7 *15:137 *319:10 0.00014852
8 *18:15 *319:10 0.00014852
*RES
1 *2145:X *319:10 20.2464 
2 *319:10 *2147:A 9.83571 
3 *319:10 *2148:A1 11.4964 
*END

*D_NET *320 0.000774674
*CONN
*I *2148:B1 I *D sky130_fd_sc_hd__a21o_1
*I *2146:X O *D sky130_fd_sc_hd__and2_1
*CAP
1 *2148:B1 0.000295758
2 *2146:X 0.000295758
3 *2145:B *2148:B1 1.62025e-05
4 *2146:A *2148:B1 0.000166956
*RES
1 *2146:X *2148:B1 32.85 
*END

*D_NET *321 0.00288345
*CONN
*I *2150:A I *D sky130_fd_sc_hd__inv_1
*I *2153:A I *D sky130_fd_sc_hd__and2_1
*I *2147:X O *D sky130_fd_sc_hd__xor2_1
*CAP
1 *2150:A 1.03918e-05
2 *2153:A 0.000442919
3 *2147:X 0.000859217
4 *321:10 0.00131253
5 *2153:A *2153:B 0
6 zN[2] *2150:A 1.37743e-05
7 zN[3] *2153:A 1.92905e-05
8 zP[3] *2153:A 0
9 *2132:A *2153:A 0
10 *2135:B *2153:A 0
11 *2136:A *321:10 0
12 *2151:A *2153:A 8.08476e-06
13 *2151:A *321:10 4.10831e-05
14 *4:30 *321:10 0
15 *24:205 *2150:A 2.80853e-05
16 *306:18 *321:10 0
17 *317:10 *321:10 0.000148079
*RES
1 *2147:X *321:10 29.0679 
2 *321:10 *2153:A 20.9964 
3 *321:10 *2150:A 14.0813 
*END

*D_NET *322 0.00127508
*CONN
*I *2154:A I *D sky130_fd_sc_hd__inv_1
*I *2157:A I *D sky130_fd_sc_hd__and2_1
*I *2148:X O *D sky130_fd_sc_hd__a21o_1
*CAP
1 *2154:A 3.10492e-05
2 *2157:A 9.59602e-05
3 *2148:X 0.000212521
4 *322:6 0.000339531
5 *2154:A *2155:B 9.94194e-06
6 *2157:A *2155:B 0.000124012
7 *2157:A *327:12 2.85321e-05
8 *322:6 *2155:B 2.59355e-05
9 *2156:A *2157:A 9.58689e-05
10 *2164:A *2154:A 7.17726e-05
11 *2164:A *322:6 5.49995e-05
12 *6:269 *2157:A 0.000169095
13 *16:19 *2157:A 1.58559e-05
*RES
1 *2148:X *322:6 12.7107 
2 *322:6 *2157:A 21.4964 
3 *322:6 *2154:A 10.0188 
*END

*D_NET *323 0.00111731
*CONN
*I *3015:B I *D sky130_fd_sc_hd__and2_1
*I *3014:B I *D sky130_fd_sc_hd__xor2_1
*I *3180:X O *D sky130_fd_sc_hd__or2_1
*CAP
1 *3015:B 6.53728e-05
2 *3014:B 0
3 *3180:X 0.000146842
4 *323:12 0.000212215
5 *3015:B *3015:A 0.000142856
6 *3015:B *343:18 7.32955e-05
7 *323:12 *1127:12 0.000120755
8 *323:12 *1161:8 4.1331e-06
9 *4:138 *323:12 5.66971e-05
10 *14:54 *323:12 2.12647e-05
11 *23:144 *323:12 2.53112e-06
12 *33:141 *3015:B 0.000271345
13 *36:22 *323:12 0
*RES
1 *3180:X *323:12 20.8893 
2 *323:12 *3014:B 9.3 
3 *323:12 *3015:B 12.3179 
*END

*D_NET *324 0.000309585
*CONN
*I *2151:B I *D sky130_fd_sc_hd__and2_1
*I *2150:Y O *D sky130_fd_sc_hd__inv_1
*CAP
1 *2151:B 2.64507e-05
2 *2150:Y 2.64507e-05
3 zN[2] *2151:B 9.29472e-05
4 *24:205 *2151:B 0.000163737
*RES
1 *2150:Y *2151:B 20.1625 
*END

*D_NET *325 0.00101752
*CONN
*I *2153:B I *D sky130_fd_sc_hd__and2_1
*I *2152:Y O *D sky130_fd_sc_hd__inv_1
*CAP
1 *2153:B 0.000264869
2 *2152:Y 0.000264869
3 zN[2] *2153:B 6.10591e-05
4 zP[3] *2153:B 0.000150618
5 *2151:A *2153:B 0
6 *2152:A *2153:B 0.000107764
7 *2153:A *2153:B 0
8 *2249:A *2153:B 0.000106894
9 *15:99 *2153:B 2.07728e-05
10 *15:137 *2153:B 4.06693e-05
*RES
1 *2152:Y *2153:B 33.1268 
*END

*D_NET *326 0.000471737
*CONN
*I *2155:B I *D sky130_fd_sc_hd__and2_1
*I *2154:Y O *D sky130_fd_sc_hd__inv_1
*CAP
1 *2155:B 0.000120313
2 *2154:Y 0.000120313
3 *2154:A *2155:B 9.94194e-06
4 *2157:A *2155:B 0.000124012
5 *16:19 *2155:B 6.11331e-05
6 *318:10 *2155:B 1.00887e-05
7 *322:6 *2155:B 2.59355e-05
*RES
1 *2154:Y *2155:B 29.9839 
*END

*D_NET *327 0.00329581
*CONN
*I *2162:A2 I *D sky130_fd_sc_hd__a21o_1
*I *2161:B I *D sky130_fd_sc_hd__xor2_1
*I *2155:X O *D sky130_fd_sc_hd__and2_1
*CAP
1 *2162:A2 0
2 *2161:B 4.8512e-05
3 *2155:X 0.000680846
4 *327:12 0.000729358
5 *2161:B *2161:A 6.37237e-05
6 *2161:B *2162:A1 4.48598e-05
7 *327:12 *2157:B 4.77002e-05
8 *327:12 *2165:B 0.000125202
9 *327:12 *2166:A1 2.24804e-05
10 *327:12 *329:6 0.000441001
11 *327:12 *330:10 3.17148e-05
12 *327:12 *337:12 0.000139337
13 *327:12 *338:14 0.000311517
14 *2156:A *327:12 2.74737e-05
15 *2157:A *327:12 2.85321e-05
16 *4:117 *2161:B 5.88686e-05
17 *7:13 *327:12 0.000157925
18 *33:127 *327:12 0.000148196
19 *33:249 *327:12 0.000188558
*RES
1 *2155:X *327:12 34.3 
2 *327:12 *2161:B 10.675 
3 *327:12 *2162:A2 9.3 
*END

*D_NET *328 0.000334428
*CONN
*I *2157:B I *D sky130_fd_sc_hd__and2_1
*I *2156:Y O *D sky130_fd_sc_hd__inv_1
*CAP
1 *2157:B 2.14654e-05
2 *2156:Y 2.14654e-05
3 *2157:B *329:6 7.84309e-05
4 *2156:A *2157:B 0.000165366
5 *327:12 *2157:B 4.77002e-05
*RES
1 *2156:Y *2157:B 20.1625 
*END

*D_NET *329 0.0016617
*CONN
*I *2165:B I *D sky130_fd_sc_hd__xor2_1
*I *2166:A2 I *D sky130_fd_sc_hd__a21o_1
*I *2157:X O *D sky130_fd_sc_hd__and2_1
*CAP
1 *2165:B 4.24181e-05
2 *2166:A2 6.0629e-05
3 *2157:X 0.00013634
4 *329:6 0.000239387
5 *2165:B *2166:A1 9.67754e-05
6 *2166:A2 *2166:A1 0.000196156
7 zP[1] *2166:A2 0.000196156
8 *2156:A *329:6 4.9209e-05
9 *2157:B *329:6 7.84309e-05
10 *327:12 *2165:B 0.000125202
11 *327:12 *329:6 0.000441001
*RES
1 *2157:X *329:6 13.5321 
2 *329:6 *2166:A2 20.8536 
3 *329:6 *2165:B 10.6571 
*END

*D_NET *330 0.000844376
*CONN
*I *2162:A1 I *D sky130_fd_sc_hd__a21o_1
*I *2161:A I *D sky130_fd_sc_hd__xor2_1
*I *2158:X O *D sky130_fd_sc_hd__xor2_1
*CAP
1 *2162:A1 7.17161e-05
2 *2161:A 7.88113e-05
3 *2158:X 6.31073e-05
4 *330:10 0.000213635
5 *2161:B *2161:A 6.37237e-05
6 *2161:B *2162:A1 4.48598e-05
7 *4:117 *2161:A 1.58711e-05
8 *4:117 *2162:A1 1.39726e-05
9 *7:13 *330:10 0.00017309
10 *33:127 *330:10 7.38748e-05
11 *327:12 *330:10 3.17148e-05
*RES
1 *2158:X *330:10 20.55 
2 *330:10 *2161:A 10.675 
3 *330:10 *2162:A1 10.675 
*END

*D_NET *331 0.000826625
*CONN
*I *2162:B1 I *D sky130_fd_sc_hd__a21o_1
*I *2159:X O *D sky130_fd_sc_hd__and2_1
*CAP
1 *2162:B1 0.000217235
2 *2159:X 0.000217235
3 *2162:B1 *1253:12 4.16984e-05
4 *8:21 *2162:B1 0.000128146
5 *33:141 *2162:B1 9.41642e-05
6 *34:136 *2162:B1 0.000128146
*RES
1 *2159:X *2162:B1 31.4214 
*END

*D_NET *332 0.000869891
*CONN
*I *3314:B I *D sky130_fd_sc_hd__xor2_1
*I *3315:B I *D sky130_fd_sc_hd__and2_1
*I *3191:X O *D sky130_fd_sc_hd__or2_1
*CAP
1 *3314:B 0
2 *3315:B 0.000120797
3 *3191:X 0.000198868
4 *332:10 0.000319665
5 *3315:B *3315:A 0
6 *3315:B *1458:8 0
7 *332:10 *3315:A 0
8 *2569:B *332:10 9.91086e-05
9 *5:62 *3315:B 7.17696e-05
10 *5:62 *332:10 1.91418e-05
11 *36:339 *332:10 4.05411e-05
*RES
1 *3191:X *332:10 17.1036 
2 *332:10 *3315:B 16.3536 
3 *332:10 *3314:B 13.8 
*END

*D_NET *333 0.00122258
*CONN
*I *2169:A I *D sky130_fd_sc_hd__inv_1
*I *2168:A I *D sky130_fd_sc_hd__and2_1
*I *2161:X O *D sky130_fd_sc_hd__xor2_1
*CAP
1 *2169:A 3.56261e-05
2 *2168:A 0
3 *2161:X 0.000196884
4 *333:12 0.00023251
5 *2169:A *2167:A 0.000151011
6 *2169:A *2168:B 0.000149088
7 *333:12 *2159:A 0.000148903
8 *333:12 *337:12 0.000153472
9 *4:117 *333:12 2.89016e-05
10 *14:25 *333:12 0.000115935
11 *35:271 *333:12 1.02532e-05
*RES
1 *2161:X *333:12 22.9071 
2 *333:12 *2168:A 9.3 
3 *333:12 *2169:A 10.7688 
*END

*D_NET *334 0.000887186
*CONN
*I *2174:A I *D sky130_fd_sc_hd__and2_1
*I *2175:A I *D sky130_fd_sc_hd__inv_1
*I *2162:X O *D sky130_fd_sc_hd__a21o_1
*CAP
1 *2174:A 0
2 *2175:A 3.34823e-05
3 *2162:X 0.000163924
4 *334:12 0.000197406
5 *2175:A *1253:12 0.000105268
6 *4:117 *334:12 3.38171e-05
7 *23:128 *334:12 0.00012401
8 *26:21 *334:12 0.00012401
9 *33:141 *2175:A 0.000105268
*RES
1 *2162:X *334:12 21.3 
2 *334:12 *2175:A 10.358 
3 *334:12 *2174:A 9.3 
*END

*D_NET *335 0.00110161
*CONN
*I *2165:A I *D sky130_fd_sc_hd__xor2_1
*I *2166:A1 I *D sky130_fd_sc_hd__a21o_1
*I *2163:X O *D sky130_fd_sc_hd__xor2_1
*CAP
1 *2165:A 0
2 *2166:A1 0.000150333
3 *2163:X 0.000117541
4 *335:10 0.000267874
5 *2166:A1 *2166:B1 0.000110638
6 *335:10 *2166:B1 0.000124749
7 zP[1] *2166:A1 1.25366e-05
8 *2165:B *2166:A1 9.67754e-05
9 *2166:A2 *2166:A1 0.000196156
10 *226:12 *335:10 2.53112e-06
11 *327:12 *2166:A1 2.24804e-05
*RES
1 *2163:X *335:10 20.8536 
2 *335:10 *2166:A1 22.5143 
3 *335:10 *2165:A 9.3 
*END

*D_NET *336 0.00121836
*CONN
*I *2166:B1 I *D sky130_fd_sc_hd__a21o_1
*I *2164:X O *D sky130_fd_sc_hd__and2_1
*CAP
1 *2166:B1 0.00036833
2 *2164:X 0.00036833
3 *2166:B1 *337:12 7.85994e-05
4 *2166:B1 *338:14 1.30833e-05
5 *2163:A *2166:B1 0.000138432
6 *2164:B *2166:B1 1.62025e-05
7 *2166:A1 *2166:B1 0.000110638
8 *335:10 *2166:B1 0.000124749
*RES
1 *2164:X *2166:B1 34.5643 
*END

*D_NET *337 0.00292282
*CONN
*I *2167:A I *D sky130_fd_sc_hd__inv_1
*I *2170:A I *D sky130_fd_sc_hd__and2_1
*I *2165:X O *D sky130_fd_sc_hd__xor2_1
*CAP
1 *2167:A 0.000132753
2 *2170:A 0.000173884
3 *2165:X 0.000484157
4 *337:12 0.000790794
5 *2167:A *2168:B 6.88578e-05
6 *2167:A *2170:B 1.39841e-05
7 *2170:A *2170:B 2.72695e-05
8 *337:12 *2159:A 8.54415e-05
9 *337:12 *338:14 7.58841e-05
10 zN[4] *2167:A 2.14658e-05
11 zN[4] *2170:A 9.60939e-05
12 zP[1] *337:12 0
13 zP[4] *2170:A 5.33005e-05
14 *2166:B1 *337:12 7.85994e-05
15 *2169:A *2167:A 0.000151011
16 *3:22 *337:12 1.85539e-05
17 *7:13 *337:12 0
18 *14:25 *2167:A 4.43256e-05
19 *14:25 *337:12 7.80714e-06
20 *24:190 *2170:A 3.99614e-06
21 *25:25 *337:12 0.00017467
22 *35:9 *2167:A 0.000127165
23 *327:12 *337:12 0.000139337
24 *333:12 *337:12 0.000153472
*RES
1 *2165:X *337:12 28.8893 
2 *337:12 *2170:A 12.7464 
3 *337:12 *2167:A 13.3759 
*END

*D_NET *338 0.0016172
*CONN
*I *2176:A I *D sky130_fd_sc_hd__and2_1
*I *2173:A I *D sky130_fd_sc_hd__inv_1
*I *2166:X O *D sky130_fd_sc_hd__a21o_1
*CAP
1 *2176:A 2.76578e-05
2 *2173:A 2.97053e-05
3 *2166:X 0.000465571
4 *338:14 0.000522934
5 *338:14 *1253:12 2.89114e-05
6 *2166:B1 *338:14 1.30833e-05
7 *23:144 *2176:A 8.69355e-05
8 *23:144 *338:14 5.50052e-05
9 *327:12 *338:14 0.000311517
10 *337:12 *338:14 7.58841e-05
*RES
1 *2166:X *338:14 26.7643 
2 *338:14 *2173:A 9.96518 
3 *338:14 *2176:A 10.2464 
*END

*D_NET *339 0.000714011
*CONN
*I *2168:B I *D sky130_fd_sc_hd__and2_1
*I *2167:Y O *D sky130_fd_sc_hd__inv_1
*CAP
1 *2168:B 0.000167863
2 *2167:Y 0.000167863
3 *2168:B *2170:B 0.000160339
4 *2167:A *2168:B 6.88578e-05
5 *2169:A *2168:B 0.000149088
*RES
1 *2167:Y *2168:B 22.3768 
*END

*D_NET *340 0.000881006
*CONN
*I *2170:B I *D sky130_fd_sc_hd__and2_1
*I *2169:Y O *D sky130_fd_sc_hd__inv_1
*CAP
1 *2170:B 0.000331799
2 *2169:Y 0.000331799
3 zP[4] *2170:B 1.58163e-05
4 *2167:A *2170:B 1.39841e-05
5 *2168:B *2170:B 0.000160339
6 *2170:A *2170:B 2.72695e-05
*RES
1 *2169:Y *2170:B 22.9482 
*END

*D_NET *341 0.000390965
*CONN
*I *3246:A I *D sky130_fd_sc_hd__or2_1
*I *3202:X O *D sky130_fd_sc_hd__and2_1
*CAP
1 *3246:A 2.81946e-05
2 *3202:X 2.81946e-05
3 *3246:A *3246:B 9.90431e-05
4 *27:191 *3246:A 0.000186669
5 *37:143 *3246:A 4.88637e-05
*RES
1 *3202:X *3246:A 20.3679 
*END

*D_NET *342 0.000541878
*CONN
*I *2174:B I *D sky130_fd_sc_hd__and2_1
*I *2173:Y O *D sky130_fd_sc_hd__inv_1
*CAP
1 *2174:B 0.000118322
2 *2173:Y 0.000118322
3 *14:42 *2174:B 0.000144934
4 *23:128 *2174:B 2.76714e-05
5 *23:144 *2174:B 7.67334e-05
6 *26:21 *2174:B 5.58941e-05
*RES
1 *2173:Y *2174:B 30.2875 
*END

*D_NET *343 0.00664861
*CONN
*I *2180:A2 I *D sky130_fd_sc_hd__a21o_1
*I *2179:B I *D sky130_fd_sc_hd__xor2_1
*I *2174:X O *D sky130_fd_sc_hd__and2_1
*CAP
1 *2180:A2 0
2 *2179:B 0.000407364
3 *2174:X 0.00157994
4 *343:18 0.0019873
5 *2179:B *2177:A 0.000186669
6 *2179:B *2178:B 0.000202842
7 *2179:B *2179:A 4.35732e-05
8 *2179:B *2180:A1 0.000130143
9 *2179:B *3181:A 0
10 *2179:B *3182:B1 0
11 *2179:B *346:10 2.21972e-05
12 *343:18 *2180:A1 1.02504e-05
13 *343:18 *2541:A 0.00014285
14 *343:18 *3015:A 0.000144773
15 *343:18 *353:10 0
16 *2476:A *2179:B 0
17 *2537:A *343:18 2.89016e-05
18 *2537:B *343:18 5.71472e-05
19 *3015:B *343:18 7.32955e-05
20 *25:151 *343:18 0
21 *33:141 *343:18 0.000689988
22 *33:162 *343:18 0.000941371
*RES
1 *2174:X *343:18 44.0857 
2 *343:18 *2179:B 22.4071 
3 *343:18 *2180:A2 13.8 
*END

*D_NET *344 0.000886766
*CONN
*I *2176:B I *D sky130_fd_sc_hd__and2_1
*I *2175:Y O *D sky130_fd_sc_hd__inv_1
*CAP
1 *2176:B 0.000255582
2 *2175:Y 0.000255582
3 *2176:B *1253:12 5.42675e-05
4 *4:130 *2176:B 3.79779e-05
5 *14:42 *2176:B 0.000146398
6 *26:21 *2176:B 0.000136958
*RES
1 *2175:Y *2176:B 31.9304 
*END

*D_NET *345 0.0033919
*CONN
*I *2185:A2 I *D sky130_fd_sc_hd__a21o_1
*I *2184:B I *D sky130_fd_sc_hd__xor2_1
*I *2176:X O *D sky130_fd_sc_hd__and2_1
*CAP
1 *2185:A2 7.34602e-05
2 *2184:B 0.000145248
3 *2176:X 0.000743016
4 *345:8 0.000961725
5 *2184:B *2184:A 0.000239668
6 *2185:A2 *2184:A 0.000121897
7 *2182:B *2185:A2 3.67279e-06
8 *3180:A *345:8 0.000143633
9 *3180:B *345:8 0.000201095
10 *14:42 *345:8 0.000203692
11 *14:54 *345:8 9.85599e-06
12 *23:144 *2184:B 2.12733e-05
13 *23:144 *345:8 0.000523662
*RES
1 *2176:X *345:8 24.6036 
2 *345:8 *2184:B 17.0143 
3 *345:8 *2185:A2 15.4429 
*END

*D_NET *346 0.00200012
*CONN
*I *2179:A I *D sky130_fd_sc_hd__xor2_1
*I *2180:A1 I *D sky130_fd_sc_hd__a21o_1
*I *2177:X O *D sky130_fd_sc_hd__xor2_1
*CAP
1 *2179:A 0.000165918
2 *2180:A1 4.5356e-05
3 *2177:X 0.000214865
4 *346:10 0.000426139
5 *2179:A *2177:A 0.000123985
6 *2179:A *2178:B 0.000198698
7 *2179:A *2180:B1 0.000236406
8 *2180:A1 *2180:B1 6.84568e-05
9 *346:10 *1262:12 0.000314132
10 *2179:B *2179:A 4.35732e-05
11 *2179:B *2180:A1 0.000130143
12 *2179:B *346:10 2.21972e-05
13 *343:18 *2180:A1 1.02504e-05
*RES
1 *2177:X *346:10 17.0768 
2 *346:10 *2180:A1 15.5946 
3 *346:10 *2179:A 19.0054 
*END

*D_NET *347 0.000930582
*CONN
*I *2180:B1 I *D sky130_fd_sc_hd__a21o_1
*I *2178:X O *D sky130_fd_sc_hd__and2_1
*CAP
1 *2180:B1 0.000239693
2 *2178:X 0.000239693
3 *2180:B1 *2177:A 0.000140282
4 *2180:B1 *2178:B 6.05161e-06
5 *2180:B1 *353:10 0
6 *2179:A *2180:B1 0.000236406
7 *2180:A1 *2180:B1 6.84568e-05
*RES
1 *2178:X *2180:B1 32.9214 
*END

*D_NET *348 0.000992445
*CONN
*I *2188:A I *D sky130_fd_sc_hd__inv_1
*I *2187:A I *D sky130_fd_sc_hd__and2_1
*I *2179:X O *D sky130_fd_sc_hd__xor2_1
*CAP
1 *2188:A 0.000176237
2 *2187:A 8.55438e-05
3 *2179:X 5.69272e-05
4 *348:6 0.000318708
5 *2187:A *2187:B 0.000177941
6 *2188:A *2189:B 8.9991e-05
7 *348:6 *2189:A 3.18676e-05
8 zN[5] *2188:A 5.52302e-05
*RES
1 *2179:X *348:6 10.2464 
2 *348:6 *2187:A 20.55 
3 *348:6 *2188:A 12.9027 
*END

*D_NET *349 0.00550608
*CONN
*I *2191:A I *D sky130_fd_sc_hd__and2_1
*I *2192:A I *D sky130_fd_sc_hd__inv_1
*I *2180:X O *D sky130_fd_sc_hd__a21o_1
*CAP
1 *2191:A 0
2 *2192:A 5.66299e-05
3 *2180:X 0.00150634
4 *349:16 0.00156297
5 *2192:A *2193:B 2.79966e-05
6 *349:16 *2191:B 4.46186e-06
7 *349:16 *2195:A 1.32552e-05
8 *349:16 *2196:A 0.00191393
9 *349:16 *2196:B 3.48705e-05
10 *349:16 *2197:A 9.25014e-06
11 *349:16 *2197:B 3.80904e-05
12 *349:16 *2198:B1 0.000274288
13 *349:16 *358:10 6.39901e-05
14 *349:16 *365:10 0
15 *349:16 *1330:10 0
*RES
1 *2180:X *349:16 44.3179 
2 *349:16 *2192:A 10.358 
3 *349:16 *2191:A 9.3 
*END

*D_NET *350 0.00126545
*CONN
*I *2185:A1 I *D sky130_fd_sc_hd__a21o_1
*I *2184:A I *D sky130_fd_sc_hd__xor2_1
*I *2181:X O *D sky130_fd_sc_hd__xor2_1
*CAP
1 *2185:A1 0
2 *2184:A 0.000136382
3 *2181:X 0.000127234
4 *350:10 0.000263617
5 *2184:B *2184:A 0.000239668
6 *2185:A2 *2184:A 0.000121897
7 *2382:A *2184:A 5.02276e-05
8 *2382:A *350:10 4.6845e-05
9 *23:144 *2184:A 0.000224582
10 *36:39 *350:10 5.49995e-05
*RES
1 *2181:X *350:10 16.2821 
2 *350:10 *2184:A 18.2286 
3 *350:10 *2185:A1 13.8 
*END

*D_NET *351 0.000308066
*CONN
*I *2185:B1 I *D sky130_fd_sc_hd__a21o_1
*I *2182:X O *D sky130_fd_sc_hd__and2_1
*CAP
1 *2185:B1 0.000106664
2 *2182:X 0.000106664
3 *17:17 *2185:B1 9.47378e-05
*RES
1 *2182:X *2185:B1 20.7964 
*END

*D_NET *352 0.000706777
*CONN
*I *3246:B I *D sky130_fd_sc_hd__or2_1
*I *3213:X O *D sky130_fd_sc_hd__and2_1
*CAP
1 *3246:B 8.92665e-05
2 *3213:X 8.92665e-05
3 *3213:B *3246:B 0
4 *3246:A *3246:B 9.90431e-05
5 *14:54 *3246:B 2.89114e-05
6 *14:62 *3246:B 2.95641e-05
7 *27:191 *3246:B 0.000197545
8 *37:143 *3246:B 0.00017318
*RES
1 *3213:X *3246:B 22.1536 
*END

*D_NET *353 0.00391122
*CONN
*I *2186:A I *D sky130_fd_sc_hd__inv_1
*I *2189:A I *D sky130_fd_sc_hd__and2_1
*I *2184:X O *D sky130_fd_sc_hd__xor2_1
*CAP
1 *2186:A 1.74659e-05
2 *2189:A 0.00013318
3 *2184:X 0.0011594
4 *353:10 0.00131005
5 *2186:A *1262:12 1.37743e-05
6 *2189:A *2177:A 0
7 *2189:A *2187:B 4.57538e-05
8 *353:10 *2487:B 2.56723e-05
9 *353:10 *2541:B 5.50052e-05
10 *2180:B1 *353:10 0
11 *2483:A *353:10 9.72199e-05
12 *2544:A *353:10 0.000173914
13 *2544:B *353:10 0.000173914
14 *23:144 *353:10 5.35386e-05
15 *23:155 *353:10 0.000174259
16 *25:157 *353:10 0.000446215
17 *343:18 *353:10 0
18 *348:6 *2189:A 3.18676e-05
*RES
1 *2184:X *353:10 36.2286 
2 *353:10 *2189:A 16.5857 
3 *353:10 *2186:A 14.0813 
*END

*D_NET *354 0.00743909
*CONN
*I *2193:A I *D sky130_fd_sc_hd__and2_1
*I *2190:A I *D sky130_fd_sc_hd__inv_1
*I *2185:X O *D sky130_fd_sc_hd__a21o_1
*CAP
1 *2193:A 4.78917e-05
2 *2190:A 0
3 *2185:X 0.0016591
4 *354:14 0.000227019
5 *354:6 0.00183823
6 *2193:A *2191:B 4.30339e-05
7 *2193:A *2213:A 9.69682e-05
8 *354:6 *2488:B 0.000184503
9 *354:6 *2615:A 1.51881e-05
10 *354:6 *3027:B 9.84673e-05
11 *354:6 *3030:A1 9.84729e-05
12 *354:6 *1177:12 0.000487985
13 *354:14 *2213:A 2.80741e-05
14 *2605:A *354:6 5.50052e-05
15 *2610:A *354:6 5.49995e-05
16 *2610:B *354:6 2.85234e-05
17 *6:28 *354:6 0.000188942
18 *6:32 *354:6 8.43535e-06
19 *7:19 *354:6 2.81855e-05
20 *8:56 *354:6 0.000226274
21 *17:17 *354:6 4.68201e-05
22 *24:44 *354:6 8.25843e-06
23 *24:59 *354:6 0.000615784
24 *24:80 *354:6 0.000420779
25 *35:45 *354:6 1.98839e-05
26 *35:56 *354:6 0.000912268
*RES
1 *2185:X *354:6 45.9786 
2 *354:6 *354:14 12.1384 
3 *354:14 *2190:A 9.3 
4 *354:14 *2193:A 11.0545 
*END

*D_NET *355 0.000833853
*CONN
*I *2187:B I *D sky130_fd_sc_hd__and2_1
*I *2186:Y O *D sky130_fd_sc_hd__inv_1
*CAP
1 *2187:B 0.000217369
2 *2186:Y 0.000217369
3 *2187:B *1262:12 2.06583e-05
4 zN[5] *2187:B 0.000154762
5 *2187:A *2187:B 0.000177941
6 *2189:A *2187:B 4.57538e-05
7 *2605:A *2187:B 0
*RES
1 *2186:Y *2187:B 32.7161 
*END

*D_NET *356 0.000227326
*CONN
*I *2189:B I *D sky130_fd_sc_hd__and2_1
*I *2188:Y O *D sky130_fd_sc_hd__inv_1
*CAP
1 *2189:B 6.86677e-05
2 *2188:Y 6.86677e-05
3 *2188:A *2189:B 8.9991e-05
*RES
1 *2188:Y *2189:B 20.1625 
*END

*D_NET *357 0.000581767
*CONN
*I *2191:B I *D sky130_fd_sc_hd__and2_1
*I *2190:Y O *D sky130_fd_sc_hd__inv_1
*CAP
1 *2191:B 0.000217821
2 *2190:Y 0.000217821
3 *2191:B *2193:B 9.17004e-05
4 *2191:B *2213:A 6.92966e-06
5 *2191:B *365:10 0
6 *2191:B *1330:10 0
7 *2193:A *2191:B 4.30339e-05
8 *349:16 *2191:B 4.46186e-06
*RES
1 *2190:Y *2191:B 31.1089 
*END

*D_NET *358 0.000899695
*CONN
*I *2198:A2 I *D sky130_fd_sc_hd__a21o_1
*I *2197:B I *D sky130_fd_sc_hd__xor2_1
*I *2191:X O *D sky130_fd_sc_hd__and2_1
*CAP
1 *2198:A2 0
2 *2197:B 0.000150181
3 *2191:X 0.000155119
4 *358:10 0.0003053
5 *2197:B *2197:A 0.000187015
6 *2197:B *365:10 0
7 *2197:B *368:8 0
8 *358:10 *365:10 0
9 *349:16 *2197:B 3.80904e-05
10 *349:16 *358:10 6.39901e-05
*RES
1 *2191:X *358:10 16.3893 
2 *358:10 *2197:B 16.8893 
3 *358:10 *2198:A2 13.8 
*END

*D_NET *359 0.000621538
*CONN
*I *2193:B I *D sky130_fd_sc_hd__and2_1
*I *2192:Y O *D sky130_fd_sc_hd__inv_1
*CAP
1 *2193:B 0.000223418
2 *2192:Y 0.000223418
3 *2193:B *2213:A 5.50052e-05
4 *2191:B *2193:B 9.17004e-05
5 *2192:A *2193:B 2.79966e-05
*RES
1 *2192:Y *2193:B 31.2339 
*END

*D_NET *360 0.000960066
*CONN
*I *2202:A2 I *D sky130_fd_sc_hd__a21o_1
*I *2201:B I *D sky130_fd_sc_hd__xor2_1
*I *2193:X O *D sky130_fd_sc_hd__and2_1
*CAP
1 *2202:A2 0.000157739
2 *2201:B 4.07487e-05
3 *2193:X 0.000103395
4 *360:8 0.000301883
5 *2201:B *1177:12 5.23822e-05
6 *2202:A2 *2201:A 4.68532e-05
7 *2202:A2 *2202:A1 1.32293e-05
8 *2202:A2 *2202:B1 0.000141941
9 *2202:A2 *366:6 5.66971e-05
10 *360:8 *2201:A 1.0609e-05
11 *2199:B *2202:A2 3.45899e-05
*RES
1 *2193:X *360:8 15.7464 
2 *360:8 *2201:B 14.7464 
3 *360:8 *2202:A2 17.7107 
*END

*D_NET *361 0.000429449
*CONN
*I *3257:A I *D sky130_fd_sc_hd__or2_1
*I *3224:X O *D sky130_fd_sc_hd__and2_1
*CAP
1 *3257:A 9.97973e-05
2 *3224:X 9.97973e-05
3 *3257:A *2658:B 0
4 *3257:A *1204:6 5.33005e-05
5 *2625:B *3257:A 2.59355e-05
6 *5:81 *3257:A 0.000150618
*RES
1 *3224:X *3257:A 30.0821 
*END

*D_NET *362 0.000731365
*CONN
*I *2198:A1 I *D sky130_fd_sc_hd__a21o_1
*I *2197:A I *D sky130_fd_sc_hd__xor2_1
*I *2195:X O *D sky130_fd_sc_hd__xor2_1
*CAP
1 *2198:A1 5.59249e-05
2 *2197:A 0.000152731
3 *2195:X 0.000208656
4 *2197:A *364:10 0
5 *2198:A1 *2195:A 0
6 *2198:A1 *2198:B1 0.000117787
7 *2197:B *2197:A 0.000187015
8 *349:16 *2197:A 9.25014e-06
*RES
1 *2195:X *2197:A 30.9036 
2 *2195:X *2198:A1 19.975 
*END

*D_NET *363 0.000940272
*CONN
*I *2198:B1 I *D sky130_fd_sc_hd__a21o_1
*I *2196:X O *D sky130_fd_sc_hd__and2_1
*CAP
1 *2198:B1 0.000221093
2 *2196:X 0.000221093
3 *2198:B1 *2195:A 2.44318e-05
4 *2198:B1 *2195:B 5.71472e-05
5 *2198:B1 *2196:B 2.44318e-05
6 *2198:A1 *2198:B1 0.000117787
7 *349:16 *2198:B1 0.000274288
*RES
1 *2196:X *2198:B1 23.975 
*END

*D_NET *364 0.00142403
*CONN
*I *2206:A I *D sky130_fd_sc_hd__inv_1
*I *2204:A I *D sky130_fd_sc_hd__and2_1
*I *2197:X O *D sky130_fd_sc_hd__xor2_1
*CAP
1 *2206:A 0.000268025
2 *2204:A 0.000106205
3 *2197:X 0.000125358
4 *364:10 0.000499587
5 *2204:A *2204:B 0.000144773
6 *2204:A *2207:B 0
7 *2206:A *2204:B 2.14658e-05
8 *2206:A *2207:A 1.02936e-05
9 *2206:A *2207:B 0.000169503
10 *364:10 *368:8 6.26466e-05
11 zP[6] *2206:A 1.61772e-05
12 *2197:A *364:10 0
*RES
1 *2197:X *364:10 20.55 
2 *364:10 *2204:A 11.4964 
3 *364:10 *2206:A 13.742 
*END

*D_NET *365 0.0029048
*CONN
*I *2209:A I *D sky130_fd_sc_hd__and2_1
*I *2210:A I *D sky130_fd_sc_hd__inv_1
*I *2198:X O *D sky130_fd_sc_hd__a21o_1
*CAP
1 *2209:A 0.000429363
2 *2210:A 0.000293719
3 *2198:X 0.000346838
4 *365:10 0.00106992
5 *2209:A *2201:A 0.000164593
6 *2209:A *2213:A 3.72685e-05
7 *2209:A *1177:12 0.000311309
8 *2210:A *1177:12 1.84865e-05
9 *365:10 *2201:A 1.00887e-05
10 *365:10 *2213:A 7.57318e-05
11 *365:10 *368:8 0.000147486
12 *2191:B *365:10 0
13 *2197:B *365:10 0
14 *349:16 *365:10 0
15 *358:10 *365:10 0
*RES
1 *2198:X *365:10 21.4429 
2 *365:10 *2210:A 18.5991 
3 *365:10 *2209:A 22.6036 
*END

*D_NET *366 0.00063971
*CONN
*I *2202:A1 I *D sky130_fd_sc_hd__a21o_1
*I *2201:A I *D sky130_fd_sc_hd__xor2_1
*I *2199:X O *D sky130_fd_sc_hd__xor2_1
*CAP
1 *2202:A1 4.19312e-05
2 *2201:A 9.10195e-05
3 *2199:X 2.25049e-05
4 *366:6 0.000155456
5 *2202:A1 *2202:B1 2.67285e-05
6 *2199:A *2202:A1 0
7 *2202:A2 *2201:A 4.68532e-05
8 *2202:A2 *2202:A1 1.32293e-05
9 *2202:A2 *366:6 5.66971e-05
10 *2209:A *2201:A 0.000164593
11 *360:8 *2201:A 1.0609e-05
12 *365:10 *2201:A 1.00887e-05
*RES
1 *2199:X *366:6 9.83571 
2 *366:6 *2201:A 20.9786 
3 *366:6 *2202:A1 10.2643 
*END

*D_NET *367 0.000877319
*CONN
*I *2202:B1 I *D sky130_fd_sc_hd__a21o_1
*I *2200:X O *D sky130_fd_sc_hd__and2_1
*CAP
1 *2202:B1 0.000293166
2 *2200:X 0.000293166
3 *2199:A *2202:B1 2.38501e-05
4 *2200:B *2202:B1 9.84673e-05
5 *2202:A1 *2202:B1 2.67285e-05
6 *2202:A2 *2202:B1 0.000141941
*RES
1 *2200:X *2202:B1 23.6714 
*END

*D_NET *368 0.00217697
*CONN
*I *2207:A I *D sky130_fd_sc_hd__and2_1
*I *2203:A I *D sky130_fd_sc_hd__inv_1
*I *2201:X O *D sky130_fd_sc_hd__xor2_1
*CAP
1 *2207:A 4.01285e-05
2 *2203:A 0.000114893
3 *2201:X 0.000577651
4 *368:8 0.000732673
5 *2203:A *2204:B 6.19181e-05
6 *2207:A *2204:B 5.52238e-05
7 *2207:A *2207:B 2.89016e-05
8 *368:8 *2204:B 1.08359e-05
9 *368:8 *2213:A 0.000172884
10 zN[6] *2203:A 8.37469e-05
11 zN[6] *368:8 4.46186e-06
12 zP[6] *2207:A 7.32272e-05
13 *2197:B *368:8 0
14 *2206:A *2207:A 1.02936e-05
15 *364:10 *368:8 6.26466e-05
16 *365:10 *368:8 0.000147486
*RES
1 *2201:X *368:8 26.3714 
2 *368:8 *2203:A 16.5902 
3 *368:8 *2207:A 15.1571 
*END

*D_NET *369 0.000454518
*CONN
*I *2211:A I *D sky130_fd_sc_hd__and2_1
*I *2208:A I *D sky130_fd_sc_hd__inv_1
*I *2202:X O *D sky130_fd_sc_hd__a21o_1
*CAP
1 *2211:A 5.88549e-05
2 *2208:A 0
3 *2202:X 0.000158812
4 *369:6 0.000217667
5 *2211:A *2209:B 1.91838e-05
*RES
1 *2202:X *369:6 12.0455 
2 *369:6 *2208:A 9.3 
3 *369:6 *2211:A 10.5009 
*END

*D_NET *370 0.000744625
*CONN
*I *2204:B I *D sky130_fd_sc_hd__and2_1
*I *2203:Y O *D sky130_fd_sc_hd__inv_1
*CAP
1 *2204:B 0.000216487
2 *2203:Y 0.000216487
3 zP[6] *2204:B 1.74352e-05
4 *2203:A *2204:B 6.19181e-05
5 *2204:A *2204:B 0.000144773
6 *2206:A *2204:B 2.14658e-05
7 *2207:A *2204:B 5.52238e-05
8 *368:8 *2204:B 1.08359e-05
*RES
1 *2203:Y *2204:B 32.0554 
*END

*D_NET *371 0.00042932
*CONN
*I *3257:B I *D sky130_fd_sc_hd__or2_1
*I *3235:X O *D sky130_fd_sc_hd__and2_1
*CAP
1 *3257:B 0.000141044
2 *3235:X 0.000141044
3 *2472:B *3257:B 9.71197e-05
4 *5:81 *3257:B 5.01117e-05
5 *38:313 *3257:B 0
*RES
1 *3235:X *3257:B 29.8857 
*END

*D_NET *372 0.000361089
*CONN
*I *2207:B I *D sky130_fd_sc_hd__and2_1
*I *2206:Y O *D sky130_fd_sc_hd__inv_1
*CAP
1 *2207:B 6.06944e-05
2 *2206:Y 6.06944e-05
3 zN[6] *2207:B 2.89016e-05
4 zP[6] *2207:B 1.23943e-05
5 *2204:A *2207:B 0
6 *2206:A *2207:B 0.000169503
7 *2207:A *2207:B 2.89016e-05
*RES
1 *2206:Y *2207:B 20.5911 
*END

*D_NET *373 0.000259435
*CONN
*I *2209:B I *D sky130_fd_sc_hd__and2_1
*I *2208:Y O *D sky130_fd_sc_hd__inv_1
*CAP
1 *2209:B 0.000120125
2 *2208:Y 0.000120125
3 *2211:A *2209:B 1.91838e-05
*RES
1 *2208:Y *2209:B 29.5732 
*END

*D_NET *374 0.000994729
*CONN
*I *2214:B I *D sky130_fd_sc_hd__xor2_1
*I *2215:A2 I *D sky130_fd_sc_hd__a21o_1
*I *2209:X O *D sky130_fd_sc_hd__and2_1
*CAP
1 *2214:B 0.000186851
2 *2215:A2 2.18506e-05
3 *2209:X 3.13818e-05
4 *374:6 0.000240084
5 *2214:B *2214:A 0.000186669
6 *2214:B *2215:A1 0.000175519
7 *2214:B *2215:B1 0.000152374
8 *2214:B *380:12 0
*RES
1 *2209:X *374:6 9.83571 
2 *374:6 *2215:A2 9.72857 
3 *374:6 *2214:B 23.2643 
*END

*D_NET *375 0.000417607
*CONN
*I *2211:B I *D sky130_fd_sc_hd__and2_1
*I *2210:Y O *D sky130_fd_sc_hd__inv_1
*CAP
1 *2211:B 0.000208803
2 *2210:Y 0.000208803
*RES
1 *2210:Y *2211:B 30.6982 
*END

*D_NET *376 0.00190199
*CONN
*I *2219:B I *D sky130_fd_sc_hd__xor2_1
*I *2220:A2 I *D sky130_fd_sc_hd__a21o_1
*I *2211:X O *D sky130_fd_sc_hd__and2_1
*CAP
1 *2219:B 0
2 *2220:A2 0.000179531
3 *2211:X 0.000562084
4 *376:12 0.000741615
5 *2220:A2 *2219:A 4.06782e-05
6 *2220:A2 *380:12 0.00020212
7 *376:12 *2215:B1 0
8 *376:12 *2219:A 3.34295e-05
9 *376:12 *2224:B 0
10 *376:12 *380:12 0.000142533
11 *376:12 *384:12 0
*RES
1 *2211:X *376:12 28.1036 
2 *376:12 *2220:A2 21.8 
3 *376:12 *2219:B 9.3 
*END

*D_NET *377 0.00091998
*CONN
*I *2214:A I *D sky130_fd_sc_hd__xor2_1
*I *2215:A1 I *D sky130_fd_sc_hd__a21o_1
*I *2212:X O *D sky130_fd_sc_hd__xor2_1
*CAP
1 *2214:A 0.000144698
2 *2215:A1 0.000121785
3 *2212:X 0
4 *377:4 0.000266483
5 *2214:A *2212:A 0
6 *2214:A *2213:B 0
7 *2214:A *2215:B1 1.21258e-05
8 *2215:A1 *2215:B1 1.27e-05
9 *2215:A1 *1334:10 0
10 *2214:B *2214:A 0.000186669
11 *2214:B *2215:A1 0.000175519
*RES
1 *2212:X *377:4 9.3 
2 *377:4 *2215:A1 20.8536 
3 *377:4 *2214:A 12.3179 
*END

*D_NET *378 0.00108969
*CONN
*I *2215:B1 I *D sky130_fd_sc_hd__a21o_1
*I *2213:X O *D sky130_fd_sc_hd__and2_1
*CAP
1 *2215:B1 0.000420811
2 *2213:X 0.000420811
3 *2215:B1 *2212:A 1.32552e-05
4 *2215:B1 *2213:B 5.76121e-05
5 *2215:B1 *380:12 0
6 *2214:A *2215:B1 1.21258e-05
7 *2214:B *2215:B1 0.000152374
8 *2215:A1 *2215:B1 1.27e-05
9 *376:12 *2215:B1 0
*RES
1 *2213:X *2215:B1 33.7786 
*END

*D_NET *379 0.00102986
*CONN
*I *2222:A I *D sky130_fd_sc_hd__and2_1
*I *2223:A I *D sky130_fd_sc_hd__inv_1
*I *2214:X O *D sky130_fd_sc_hd__xor2_1
*CAP
1 *2222:A 0
2 *2223:A 0.000158719
3 *2214:X 0.000254516
4 *379:10 0.000413235
5 *2223:A *2224:B 4.03318e-05
6 *379:10 *2221:A 0.000107833
7 zN[7] *379:10 5.52238e-05
*RES
1 *2214:X *379:10 14.0857 
2 *379:10 *2223:A 21.1348 
3 *379:10 *2222:A 9.3 
*END

*D_NET *380 0.00185673
*CONN
*I *2228:A I *D sky130_fd_sc_hd__inv_1
*I *2226:A I *D sky130_fd_sc_hd__and2_1
*I *2215:X O *D sky130_fd_sc_hd__a21o_1
*CAP
1 *2228:A 7.48046e-05
2 *2226:A 0
3 *2215:X 0.000606808
4 *380:12 0.000681613
5 *2228:A *2229:B 7.90536e-05
6 *380:12 *2226:B 6.97972e-05
7 *380:12 *2229:A 0
8 *380:12 *385:10 0
9 *2214:B *380:12 0
10 *2215:B1 *380:12 0
11 *2220:A2 *380:12 0.00020212
12 *239:10 *380:12 0
13 *376:12 *380:12 0.000142533
*RES
1 *2215:X *380:12 31.2107 
2 *380:12 *2226:A 9.3 
3 *380:12 *2228:A 10.8804 
*END

*D_NET *381 0.000609721
*CONN
*I *3016:B I *D sky130_fd_sc_hd__xor2_1
*I *3017:B I *D sky130_fd_sc_hd__and2_1
*I *3246:X O *D sky130_fd_sc_hd__or2_1
*CAP
1 *3016:B 0
2 *3017:B 9.31596e-05
3 *3246:X 0.000139452
4 *381:12 0.000232612
5 *3017:B *3016:A 0.000115586
6 *381:12 *3017:A 0
7 *37:143 *381:12 2.89114e-05
*RES
1 *3246:X *381:12 20.4786 
2 *381:12 *3017:B 11.4964 
3 *381:12 *3016:B 9.3 
*END

*D_NET *382 0.000710786
*CONN
*I *2219:A I *D sky130_fd_sc_hd__xor2_1
*I *2220:A1 I *D sky130_fd_sc_hd__a21o_1
*I *2217:X O *D sky130_fd_sc_hd__xor2_1
*CAP
1 *2219:A 0.000155622
2 *2220:A1 5.20568e-05
3 *2217:X 8.29838e-05
4 *382:6 0.000290663
5 *2219:A *2220:B1 2.72859e-05
6 *2219:A *384:12 0
7 *2220:A1 *2220:B1 5.7661e-06
8 *382:6 *2220:B1 2.22999e-05
9 *2220:A2 *2219:A 4.06782e-05
10 *376:12 *2219:A 3.34295e-05
*RES
1 *2217:X *382:6 10.2464 
2 *382:6 *2220:A1 10.3357 
3 *382:6 *2219:A 21.1929 
*END

*D_NET *383 0.000813591
*CONN
*I *2220:B1 I *D sky130_fd_sc_hd__a21o_1
*I *2218:X O *D sky130_fd_sc_hd__and2_1
*CAP
1 *2220:B1 0.000279631
2 *2218:X 0.000279631
3 *2220:B1 *1335:14 5.71472e-05
4 *2217:A *2220:B1 0.00014183
5 *2219:A *2220:B1 2.72859e-05
6 *2220:A1 *2220:B1 5.7661e-06
7 *382:6 *2220:B1 2.22999e-05
*RES
1 *2218:X *2220:B1 23.6714 
*END

*D_NET *384 0.00148333
*CONN
*I *2221:A I *D sky130_fd_sc_hd__inv_1
*I *2224:A I *D sky130_fd_sc_hd__and2_1
*I *2219:X O *D sky130_fd_sc_hd__xor2_1
*CAP
1 *2221:A 0.000236125
2 *2224:A 0
3 *2219:X 0.00019717
4 *384:12 0.000433295
5 *2221:A *2222:B 0.000166679
6 *384:12 *2224:B 5.80706e-06
7 zN[7] *2221:A 0.000286505
8 zP[7] *2221:A 4.99195e-05
9 *2219:A *384:12 0
10 *376:12 *384:12 0
11 *379:10 *2221:A 0.000107833
*RES
1 *2219:X *384:12 21.3893 
2 *384:12 *2224:A 9.3 
3 *384:12 *2221:A 16.3491 
*END

*D_NET *385 0.000715794
*CONN
*I *2229:A I *D sky130_fd_sc_hd__and2_1
*I *2225:A I *D sky130_fd_sc_hd__inv_1
*I *2220:X O *D sky130_fd_sc_hd__a21o_1
*CAP
1 *2229:A 0.000118788
2 *2225:A 7.10264e-05
3 *2220:X 0.00014521
4 *385:10 0.000335025
5 *2229:A *2226:B 4.57445e-05
6 *380:12 *2229:A 0
7 *380:12 *385:10 0
*RES
1 *2220:X *385:10 15.9786 
2 *385:10 *2225:A 14.9027 
3 *385:10 *2229:A 16.3536 
*END

*D_NET *386 0.000324581
*CONN
*I *2222:B I *D sky130_fd_sc_hd__and2_1
*I *2221:Y O *D sky130_fd_sc_hd__inv_1
*CAP
1 *2222:B 3.9424e-05
2 *2221:Y 3.9424e-05
3 zP[7] *2222:B 7.90536e-05
4 *2221:A *2222:B 0.000166679
*RES
1 *2221:Y *2222:B 20.1625 
*END

*D_NET *387 0.000404259
*CONN
*I *2224:B I *D sky130_fd_sc_hd__and2_1
*I *2223:Y O *D sky130_fd_sc_hd__inv_1
*CAP
1 *2224:B 0.00017906
2 *2223:Y 0.00017906
3 *2223:A *2224:B 4.03318e-05
4 *376:12 *2224:B 0
5 *384:12 *2224:B 5.80706e-06
*RES
1 *2223:Y *2224:B 30.2875 
*END

*D_NET *388 0.000323708
*CONN
*I *2226:B I *D sky130_fd_sc_hd__and2_1
*I *2225:Y O *D sky130_fd_sc_hd__inv_1
*CAP
1 *2226:B 0.000104083
2 *2225:Y 0.000104083
3 *2229:A *2226:B 4.57445e-05
4 *239:10 *2226:B 0
5 *380:12 *2226:B 6.97972e-05
*RES
1 *2225:Y *2226:B 29.8768 
*END

*D_NET *389 0.00180927
*CONN
*I *2232:B I *D sky130_fd_sc_hd__xor2_1
*I *2233:A2 I *D sky130_fd_sc_hd__a21o_1
*I *2226:X O *D sky130_fd_sc_hd__and2_1
*CAP
1 *2232:B 0.000218456
2 *2233:A2 0
3 *2226:X 0.000297985
4 *389:14 0.000516441
5 *2232:B *2232:A 5.33005e-05
6 *2232:B *392:10 0.000222885
7 *2232:B *393:8 3.99614e-06
8 *389:14 *2229:B 0.000144773
9 *389:14 *2233:B1 5.80706e-06
10 *389:14 *392:10 0.000345632
11 *240:10 *389:14 0
*RES
1 *2226:X *389:14 24.5679 
2 *389:14 *2233:A2 9.3 
3 *389:14 *2232:B 22.6571 
*END

*D_NET *390 0.000737809
*CONN
*I *3316:B I *D sky130_fd_sc_hd__xor2_1
*I *3317:B I *D sky130_fd_sc_hd__and2_1
*I *3257:X O *D sky130_fd_sc_hd__or2_1
*CAP
1 *3316:B 4.3349e-05
2 *3317:B 0
3 *3257:X 3.63024e-05
4 *390:6 7.96514e-05
5 *3316:B *3316:A 0.000186316
6 *390:6 *3316:A 9.80173e-05
7 *390:6 *1204:6 5.52302e-05
8 *2394:A *3316:B 0.000142856
9 *2625:B *3316:B 2.28499e-05
10 *2625:B *390:6 7.3237e-05
*RES
1 *3257:X *390:6 10.6571 
2 *390:6 *3317:B 9.3 
3 *390:6 *3316:B 11.4964 
*END

*D_NET *391 0.000640993
*CONN
*I *2229:B I *D sky130_fd_sc_hd__and2_1
*I *2228:Y O *D sky130_fd_sc_hd__inv_1
*CAP
1 *2229:B 0.000208583
2 *2228:Y 0.000208583
3 *2228:A *2229:B 7.90536e-05
4 *389:14 *2229:B 0.000144773
*RES
1 *2228:Y *2229:B 22.6446 
*END

*D_NET *392 0.00229919
*CONN
*I *2237:A2 I *D sky130_fd_sc_hd__a21o_1
*I *2236:B I *D sky130_fd_sc_hd__xor2_1
*I *2229:X O *D sky130_fd_sc_hd__and2_1
*CAP
1 *2237:A2 0.000210919
2 *2236:B 0
3 *2229:X 0.000553368
4 *392:10 0.000764287
5 *2237:A2 *2237:A1 5.80013e-05
6 *2237:A2 *1339:10 0
7 *392:10 *2233:A1 0.000128154
8 *392:10 *2233:B1 1.5942e-05
9 *392:10 *1339:10 0
10 *2232:B *392:10 0.000222885
11 *240:10 *392:10 0
12 *389:14 *392:10 0.000345632
*RES
1 *2229:X *392:10 26.3 
2 *392:10 *2236:B 13.8 
3 *392:10 *2237:A2 17.9607 
*END

*D_NET *393 0.000569859
*CONN
*I *2232:A I *D sky130_fd_sc_hd__xor2_1
*I *2233:A1 I *D sky130_fd_sc_hd__a21o_1
*I *2230:X O *D sky130_fd_sc_hd__xor2_1
*CAP
1 *2232:A 5.80303e-05
2 *2233:A1 5.66365e-05
3 *2230:X 5.78996e-05
4 *393:8 0.000172566
5 *2233:A1 *2233:B1 3.92757e-05
6 *393:8 *2230:A 0
7 *2232:B *2232:A 5.33005e-05
8 *2232:B *393:8 3.99614e-06
9 *240:10 *2233:A1 0
10 *392:10 *2233:A1 0.000128154
*RES
1 *2230:X *393:8 10.2643 
2 *393:8 *2233:A1 19.9429 
3 *393:8 *2232:A 10.2464 
*END

*D_NET *394 0.000772191
*CONN
*I *2233:B1 I *D sky130_fd_sc_hd__a21o_1
*I *2231:X O *D sky130_fd_sc_hd__and2_1
*CAP
1 *2233:B1 0.00027595
2 *2231:X 0.00027595
3 *2233:B1 *2230:A 0.00014183
4 *2233:B1 *2231:B 1.74352e-05
5 *2233:A1 *2233:B1 3.92757e-05
6 *240:10 *2233:B1 0
7 *389:14 *2233:B1 5.80706e-06
8 *392:10 *2233:B1 1.5942e-05
*RES
1 *2231:X *2233:B1 31.8321 
*END

*D_NET *395 0.00163088
*CONN
*I *2240:A I *D sky130_fd_sc_hd__and2_1
*I *2241:A I *D sky130_fd_sc_hd__inv_1
*I *2232:X O *D sky130_fd_sc_hd__xor2_1
*CAP
1 *2240:A 0.000132446
2 *2241:A 0.000124591
3 *2232:X 0.000515076
4 *395:10 0.000772113
5 *2240:A *2242:B 4.25716e-05
6 *2241:A *2242:B 4.40835e-05
*RES
1 *2232:X *395:10 20.3893 
2 *395:10 *2241:A 16.0902 
3 *395:10 *2240:A 16.05 
*END

*D_NET *396 0.00371465
*CONN
*I *2244:A I *D sky130_fd_sc_hd__and2_1
*I *2245:A I *D sky130_fd_sc_hd__inv_1
*I *2233:X O *D sky130_fd_sc_hd__a21o_1
*CAP
1 *2244:A 1.46617e-05
2 *2245:A 4.69336e-05
3 *2233:X 0.00107395
4 *396:12 0.00113554
5 *2244:A *2246:B 2.28598e-05
6 *2244:A *1275:10 2.89114e-05
7 *2245:A *2246:B 3.52408e-05
8 *2245:A *1275:10 2.28507e-05
9 *396:12 *2244:B 1.69115e-05
10 *396:12 *3195:A1 0.000227736
11 *396:12 *3195:B1 0.000153047
12 *396:12 *400:8 0
13 *396:12 *1275:10 0.000167973
14 *396:12 *1335:14 0
15 *396:12 *1340:12 0.000170523
16 *2058:A *396:12 3.18676e-05
17 *2065:B1 *396:12 0
18 *2235:A *396:12 0.000225456
19 *91:10 *396:12 0
20 *180:10 *396:12 0
21 *240:10 *396:12 0.000178193
22 *245:8 *396:12 0.000162003
*RES
1 *2233:X *396:12 43.9786 
2 *396:12 *2245:A 10.4473 
3 *396:12 *2244:A 9.83571 
*END

*D_NET *397 0.000555085
*CONN
*I *2237:A1 I *D sky130_fd_sc_hd__a21o_1
*I *2236:A I *D sky130_fd_sc_hd__xor2_1
*I *2234:X O *D sky130_fd_sc_hd__xor2_1
*CAP
1 *2237:A1 9.23123e-05
2 *2236:A 0.000126382
3 *2234:X 0.000218694
4 *2237:A1 *2237:B1 5.80706e-06
5 *2237:A1 *1339:10 5.38886e-05
6 *2234:B *2236:A 0
7 *2237:A2 *2237:A1 5.80013e-05
*RES
1 *2234:X *2236:A 20.7964 
2 *2234:X *2237:A1 30.0821 
*END

*D_NET *398 0.000374981
*CONN
*I *2237:B1 I *D sky130_fd_sc_hd__a21o_1
*I *2235:X O *D sky130_fd_sc_hd__and2_1
*CAP
1 *2237:B1 0.000120514
2 *2235:X 0.000120514
3 *2237:B1 *1339:10 0.000128146
4 *2237:A1 *2237:B1 5.80706e-06
*RES
1 *2235:X *2237:B1 29.7786 
*END

*D_NET *399 0.000370492
*CONN
*I *2242:A I *D sky130_fd_sc_hd__and2_1
*I *2239:A I *D sky130_fd_sc_hd__inv_1
*I *2236:X O *D sky130_fd_sc_hd__xor2_1
*CAP
1 *2242:A 3.97066e-05
2 *2239:A 3.1233e-05
3 *2236:X 9.85766e-05
4 *399:6 0.000169516
5 *2242:A *2240:B 3.14592e-05
*RES
1 *2236:X *399:6 11.0679 
2 *399:6 *2239:A 9.96518 
3 *399:6 *2242:A 10.2464 
*END

*D_NET *400 0.00226267
*CONN
*I *2246:A I *D sky130_fd_sc_hd__and2_1
*I *2243:A I *D sky130_fd_sc_hd__inv_1
*I *2237:X O *D sky130_fd_sc_hd__a21o_1
*CAP
1 *2246:A 0.000141846
2 *2243:A 1.88585e-05
3 *2237:X 0.000393209
4 *400:8 0.000553913
5 *2246:A *2244:B 0.000128154
6 *2246:A *2246:B 9.90431e-05
7 *2246:A *1275:10 3.65015e-05
8 *400:8 *3194:B 0.000112106
9 *400:8 *3195:A1 7.80714e-06
10 *400:8 *1275:10 9.80029e-05
11 *400:8 *1339:10 0.000543361
12 *2235:B *400:8 0.000129868
13 *396:12 *400:8 0
*RES
1 *2237:X *400:8 25.1571 
2 *400:8 *2243:A 14.0366 
3 *400:8 *2246:A 17.3 
*END

*D_NET *401 0.000306054
*CONN
*I *3313:A I *D sky130_fd_sc_hd__or2_1
*I *3269:X O *D sky130_fd_sc_hd__and2_1
*CAP
1 *3313:A 6.6748e-05
2 *3269:X 6.6748e-05
3 *3313:A *3313:B 0.000104974
4 *3313:A *1259:14 3.18676e-05
5 *14:62 *3313:A 3.57163e-05
*RES
1 *3269:X *3313:A 29.475 
*END

*D_NET *402 0.00074415
*CONN
*I *2240:B I *D sky130_fd_sc_hd__and2_1
*I *2239:Y O *D sky130_fd_sc_hd__inv_1
*CAP
1 *2240:B 0.000330188
2 *2239:Y 0.000330188
3 zN[8] *2240:B 5.23142e-05
4 *2242:A *2240:B 3.14592e-05
*RES
1 *2239:Y *2240:B 22.9482 
*END

*D_NET *403 0.000360356
*CONN
*I *2242:B I *D sky130_fd_sc_hd__and2_1
*I *2241:Y O *D sky130_fd_sc_hd__inv_1
*CAP
1 *2242:B 0.00013685
2 *2241:Y 0.00013685
3 *2240:A *2242:B 4.25716e-05
4 *2241:A *2242:B 4.40835e-05
*RES
1 *2241:Y *2242:B 29.9839 
*END

*D_NET *404 0.000405873
*CONN
*I *2244:B I *D sky130_fd_sc_hd__and2_1
*I *2243:Y O *D sky130_fd_sc_hd__inv_1
*CAP
1 *2244:B 9.12246e-05
2 *2243:Y 9.12246e-05
3 *2244:B *1275:10 7.83587e-05
4 *2244:B *1340:12 0
5 *2246:A *2244:B 0.000128154
6 *396:12 *2244:B 1.69115e-05
*RES
1 *2243:Y *2244:B 29.8768 
*END

*D_NET *405 0.00248445
*CONN
*I *2251:A2 I *D sky130_fd_sc_hd__a21o_1
*I *2250:B I *D sky130_fd_sc_hd__xor2_1
*I *2244:X O *D sky130_fd_sc_hd__and2_1
*CAP
1 *2251:A2 0.000172385
2 *2250:B 3.72704e-05
3 *2244:X 0.00052502
4 *405:10 0.000734675
5 *2251:A2 *2250:A 7.92975e-05
6 *2251:A2 *408:10 8.89723e-05
7 *2251:A2 *416:10 5.38886e-05
8 *405:10 *2246:B 2.44318e-05
9 *405:10 *2250:A 1.76039e-05
10 *405:10 *2254:B 0.000200406
11 *405:10 *2256:A 0
12 *405:10 *2258:A 0
13 *405:10 *407:10 0.000402577
14 *405:10 *415:10 0
15 *405:10 *416:10 0.000147927
*RES
1 *2244:X *405:10 26.4071 
2 *405:10 *2250:B 14.3357 
3 *405:10 *2251:A2 17.8357 
*END

*D_NET *406 0.00067464
*CONN
*I *2246:B I *D sky130_fd_sc_hd__and2_1
*I *2245:Y O *D sky130_fd_sc_hd__inv_1
*CAP
1 *2246:B 0.000191054
2 *2245:Y 0.000191054
3 *2246:B *407:10 0.00010096
4 *2246:B *1275:10 9.99644e-06
5 *2244:A *2246:B 2.28598e-05
6 *2245:A *2246:B 3.52408e-05
7 *2246:A *2246:B 9.90431e-05
8 *405:10 *2246:B 2.44318e-05
*RES
1 *2245:Y *2246:B 22.7696 
*END

*D_NET *407 0.00169637
*CONN
*I *2254:B I *D sky130_fd_sc_hd__xor2_1
*I *2255:A2 I *D sky130_fd_sc_hd__a21o_1
*I *2246:X O *D sky130_fd_sc_hd__and2_1
*CAP
1 *2254:B 0.000102146
2 *2255:A2 0
3 *2246:X 0.000260279
4 *407:10 0.000362425
5 *2254:B *2254:A 9.60939e-05
6 *2254:B *2255:A1 0.00015234
7 *2254:B *2255:B1 1.50087e-05
8 *407:10 *2255:B1 4.1331e-06
9 *407:10 *1340:12 0
10 *2246:B *407:10 0.00010096
11 *405:10 *2254:B 0.000200406
12 *405:10 *407:10 0.000402577
*RES
1 *2246:X *407:10 20.2464 
2 *407:10 *2255:A2 13.8 
3 *407:10 *2254:B 17.3 
*END

*D_NET *408 0.000870373
*CONN
*I *2251:A1 I *D sky130_fd_sc_hd__a21o_1
*I *2250:A I *D sky130_fd_sc_hd__xor2_1
*I *2247:X O *D sky130_fd_sc_hd__xor2_1
*CAP
1 *2251:A1 0
2 *2250:A 0.000158574
3 *2247:X 0.000126919
4 *408:10 0.000285494
5 *2250:A *2256:A 0
6 *2250:A *411:10 0
7 *2250:A *416:10 0
8 *408:10 *2251:B1 0.000113512
9 *2251:A2 *2250:A 7.92975e-05
10 *2251:A2 *408:10 8.89723e-05
11 *405:10 *2250:A 1.76039e-05
*RES
1 *2247:X *408:10 12.3357 
2 *408:10 *2250:A 21.4607 
3 *408:10 *2251:A1 9.3 
*END

*D_NET *409 0.000793301
*CONN
*I *2251:B1 I *D sky130_fd_sc_hd__a21o_1
*I *2248:X O *D sky130_fd_sc_hd__and2_1
*CAP
1 *2251:B1 0.000275437
2 *2248:X 0.000275437
3 *2251:B1 *2247:A 1.74352e-05
4 *2251:B1 *2247:B 9.90431e-05
5 *2251:B1 *2248:B 1.24368e-05
6 *408:10 *2251:B1 0.000113512
*RES
1 *2248:X *2251:B1 23.6893 
*END

*D_NET *410 0.000266582
*CONN
*I *3313:B I *D sky130_fd_sc_hd__or2_1
*I *3280:X O *D sky130_fd_sc_hd__and2_1
*CAP
1 *3313:B 2.83166e-05
2 *3280:X 2.83166e-05
3 *3313:B *1259:14 0.000104974
4 *3313:A *3313:B 0.000104974
*RES
1 *3280:X *3313:B 28.9393 
*END

*D_NET *411 0.00127948
*CONN
*I *2257:A I *D sky130_fd_sc_hd__and2_1
*I *2258:A I *D sky130_fd_sc_hd__inv_1
*I *2250:X O *D sky130_fd_sc_hd__xor2_1
*CAP
1 *2257:A 5.22309e-05
2 *2258:A 0.000185917
3 *2250:X 0.00020619
4 *411:10 0.000444338
5 *2258:A *2259:B 0.000181055
6 *411:10 *2256:A 0.000187009
7 *411:10 *2257:B 0
8 zN[9] *2257:A 2.27416e-05
9 *2250:A *411:10 0
10 *405:10 *2258:A 0
*RES
1 *2250:X *411:10 18.1214 
2 *411:10 *2258:A 17.7152 
3 *411:10 *2257:A 14.7464 
*END

*D_NET *412 0.00152766
*CONN
*I *2263:A I *D sky130_fd_sc_hd__inv_1
*I *2262:A I *D sky130_fd_sc_hd__and2_1
*I *2251:X O *D sky130_fd_sc_hd__a21o_1
*CAP
1 *2263:A 4.59106e-05
2 *2262:A 6.29365e-05
3 *2251:X 0.000238688
4 *412:10 0.000347535
5 *2262:A *2261:A 3.18345e-05
6 *2262:A *2264:A 0.00014285
7 *2262:A *2264:B 0.00011357
8 *2263:A *2261:A 1.04232e-05
9 *2263:A *2264:B 3.52408e-05
10 *412:10 *2261:A 3.17148e-05
11 *412:10 *416:10 0.000466957
*RES
1 *2251:X *412:10 24.4964 
2 *412:10 *2262:A 11.4964 
3 *412:10 *2263:A 10.4473 
*END

*D_NET *413 0.000776517
*CONN
*I *2255:A1 I *D sky130_fd_sc_hd__a21o_1
*I *2254:A I *D sky130_fd_sc_hd__xor2_1
*I *2252:X O *D sky130_fd_sc_hd__xor2_1
*CAP
1 *2255:A1 5.94345e-05
2 *2254:A 0.000128084
3 *2252:X 0
4 *413:4 0.000187518
5 *2255:A1 *416:10 0.000153047
6 *2254:B *2254:A 9.60939e-05
7 *2254:B *2255:A1 0.00015234
*RES
1 *2252:X *413:4 9.3 
2 *413:4 *2254:A 11.4964 
3 *413:4 *2255:A1 20.2464 
*END

*D_NET *414 0.00072322
*CONN
*I *2255:B1 I *D sky130_fd_sc_hd__a21o_1
*I *2253:X O *D sky130_fd_sc_hd__and2_1
*CAP
1 *2255:B1 0.000193691
2 *2253:X 0.000193691
3 *2255:B1 *416:10 0.000270943
4 *2255:B1 *1340:12 0
5 *2253:B *2255:B1 4.57538e-05
6 *2254:B *2255:B1 1.50087e-05
7 *407:10 *2255:B1 4.1331e-06
*RES
1 *2253:X *2255:B1 32.2071 
*END

*D_NET *415 0.00100321
*CONN
*I *2256:A I *D sky130_fd_sc_hd__inv_1
*I *2259:A I *D sky130_fd_sc_hd__and2_1
*I *2254:X O *D sky130_fd_sc_hd__xor2_1
*CAP
1 *2256:A 0.000169972
2 *2259:A 0
3 *2254:X 0.00015648
4 *415:10 0.000326452
5 *2256:A *2259:B 1.02504e-05
6 *415:10 *2259:B 0.000153047
7 *2250:A *2256:A 0
8 *405:10 *2256:A 0
9 *405:10 *415:10 0
10 *411:10 *2256:A 0.000187009
*RES
1 *2254:X *415:10 16.6929 
2 *415:10 *2259:A 13.8 
3 *415:10 *2256:A 17.5634 
*END

*D_NET *416 0.00387263
*CONN
*I *2261:A I *D sky130_fd_sc_hd__inv_1
*I *2264:A I *D sky130_fd_sc_hd__and2_1
*I *2255:X O *D sky130_fd_sc_hd__a21o_1
*CAP
1 *2261:A 5.71373e-05
2 *2264:A 0.000346151
3 *2255:X 0.000701918
4 *416:10 0.00110521
5 *2261:A *2264:B 2.856e-05
6 *2264:A *2264:B 0.000324077
7 *416:10 *1340:12 0
8 *416:10 *1343:10 0
9 *2250:A *416:10 0
10 *2251:A2 *416:10 5.38886e-05
11 *2253:B *416:10 0
12 *2255:A1 *416:10 0.000153047
13 *2255:B1 *416:10 0.000270943
14 *2262:A *2261:A 3.18345e-05
15 *2262:A *2264:A 0.00014285
16 *2263:A *2261:A 1.04232e-05
17 *405:10 *416:10 0.000147927
18 *412:10 *2261:A 3.17148e-05
19 *412:10 *416:10 0.000466957
*RES
1 *2255:X *416:10 30.7643 
2 *416:10 *2264:A 19.175 
3 *416:10 *2261:A 14.9429 
*END

*D_NET *417 0.00034061
*CONN
*I *2257:B I *D sky130_fd_sc_hd__and2_1
*I *2256:Y O *D sky130_fd_sc_hd__inv_1
*CAP
1 *2257:B 0.000170305
2 *2256:Y 0.000170305
3 *411:10 *2257:B 0
*RES
1 *2256:Y *2257:B 29.9839 
*END

*D_NET *418 0.000615931
*CONN
*I *2259:B I *D sky130_fd_sc_hd__and2_1
*I *2258:Y O *D sky130_fd_sc_hd__inv_1
*CAP
1 *2259:B 0.000135789
2 *2258:Y 0.000135789
3 *2256:A *2259:B 1.02504e-05
4 *2258:A *2259:B 0.000181055
5 *415:10 *2259:B 0.000153047
*RES
1 *2258:Y *2259:B 30.6982 
*END

*D_NET *419 0.00019119
*CONN
*I *3324:A I *D sky130_fd_sc_hd__or2_1
*I *3291:X O *D sky130_fd_sc_hd__and2_1
*CAP
1 *3324:A 6.70213e-05
2 *3291:X 6.70213e-05
3 *3324:A *3324:B 5.71472e-05
*RES
1 *3291:X *3324:A 19.9571 
*END

*D_NET *420 0.000399918
*CONN
*I *2262:B I *D sky130_fd_sc_hd__and2_1
*I *2261:Y O *D sky130_fd_sc_hd__inv_1
*CAP
1 *2262:B 8.33661e-05
2 *2261:Y 8.33661e-05
3 *2262:B *2264:B 0.000176038
4 *2262:B *423:10 5.71472e-05
*RES
1 *2261:Y *2262:B 20.8946 
*END

*D_NET *421 0.00198107
*CONN
*I *2268:A2 I *D sky130_fd_sc_hd__a21o_1
*I *2267:B I *D sky130_fd_sc_hd__xor2_1
*I *2262:X O *D sky130_fd_sc_hd__and2_1
*CAP
1 *2268:A2 8.87003e-05
2 *2267:B 7.33141e-05
3 *2262:X 0.000462467
4 *421:8 0.000624482
5 *2267:B *2267:A 6.56534e-05
6 *2267:B *426:8 3.99614e-06
7 *2268:A2 *2267:A 9.71197e-05
8 *2268:A2 *432:12 2.26327e-05
9 *421:8 *2272:A 0.000122951
10 *421:8 *423:10 0.000112411
11 *421:8 *431:12 0
12 *421:8 *432:12 0.000307343
13 *2269:A *421:8 0
14 *249:8 *421:8 0
*RES
1 *2262:X *421:8 25.1571 
2 *421:8 *2267:B 15.175 
3 *421:8 *2268:A2 15.4786 
*END

*D_NET *422 0.00102762
*CONN
*I *2264:B I *D sky130_fd_sc_hd__and2_1
*I *2263:Y O *D sky130_fd_sc_hd__inv_1
*CAP
1 *2264:B 0.000155184
2 *2263:Y 0.000155184
3 *2264:B *423:10 3.97657e-05
4 *2261:A *2264:B 2.856e-05
5 *2262:A *2264:B 0.00011357
6 *2262:B *2264:B 0.000176038
7 *2263:A *2264:B 3.52408e-05
8 *2264:A *2264:B 0.000324077
*RES
1 *2263:Y *2264:B 24.7339 
*END

*D_NET *423 0.00121101
*CONN
*I *2272:B I *D sky130_fd_sc_hd__xor2_1
*I *2273:A2 I *D sky130_fd_sc_hd__a21o_1
*I *2264:X O *D sky130_fd_sc_hd__and2_1
*CAP
1 *2272:B 9.08388e-05
2 *2273:A2 0
3 *2264:X 0.000306871
4 *423:10 0.00039771
5 *2272:B *2272:A 0.000191877
6 *2272:B *431:12 4.1331e-06
7 *423:10 *2272:A 1.02504e-05
8 *2262:B *423:10 5.71472e-05
9 *2264:B *423:10 3.97657e-05
10 *421:8 *423:10 0.000112411
*RES
1 *2264:X *423:10 19.6393 
2 *423:10 *2273:A2 13.8 
3 *423:10 *2272:B 16.3536 
*END

*D_NET *424 0.000719321
*CONN
*I *2267:A I *D sky130_fd_sc_hd__xor2_1
*I *2268:A1 I *D sky130_fd_sc_hd__a21o_1
*I *2265:X O *D sky130_fd_sc_hd__xor2_1
*CAP
1 *2267:A 9.1641e-05
2 *2268:A1 2.23854e-05
3 *2265:X 0.000152877
4 *424:6 0.000266903
5 *2267:A *426:8 0
6 *424:6 *427:14 2.27416e-05
7 *2267:B *2267:A 6.56534e-05
8 *2268:A2 *2267:A 9.71197e-05
*RES
1 *2265:X *424:6 11.8893 
2 *424:6 *2268:A1 9.72857 
3 *424:6 *2267:A 11.4964 
*END

*D_NET *425 0.000403515
*CONN
*I *2268:B1 I *D sky130_fd_sc_hd__a21o_1
*I *2266:X O *D sky130_fd_sc_hd__and2_1
*CAP
1 *2268:B1 0.000175448
2 *2266:X 0.000175448
3 *2268:B1 *2266:B 0
4 *2268:B1 *432:12 5.26184e-05
5 *2268:B1 *1348:10 0
*RES
1 *2266:X *2268:B1 30.4929 
*END

*D_NET *426 0.00125099
*CONN
*I *2275:A I *D sky130_fd_sc_hd__and2_1
*I *2276:A I *D sky130_fd_sc_hd__inv_1
*I *2267:X O *D sky130_fd_sc_hd__xor2_1
*CAP
1 *2275:A 0.000117486
2 *2276:A 0.000178467
3 *2267:X 0.000150145
4 *426:8 0.000446098
5 *2275:A *2274:A 0
6 *2275:A *2275:B 9.61657e-05
7 *2276:A *2277:B 7.73758e-05
8 *2276:A *431:12 0
9 *426:8 *2274:A 3.8941e-05
10 *426:8 *2277:A 4.58976e-05
11 *426:8 *431:12 3.92684e-05
12 zN[10] *2275:A 5.71472e-05
13 *2267:A *426:8 0
14 *2267:B *426:8 3.99614e-06
*RES
1 *2267:X *426:8 12.2107 
2 *426:8 *2276:A 21.6973 
3 *426:8 *2275:A 12.0321 
*END

*D_NET *427 0.00197288
*CONN
*I *2280:A I *D sky130_fd_sc_hd__inv_1
*I *2279:A I *D sky130_fd_sc_hd__and2_1
*I *2268:X O *D sky130_fd_sc_hd__a21o_1
*CAP
1 *2280:A 0
2 *2279:A 0.00022324
3 *2268:X 0.000664501
4 *427:14 0.000887742
5 *2279:A *2281:B 0.00011199
6 *427:14 *2281:A 6.26653e-05
7 *427:14 *432:12 0
8 *427:14 *1348:10 0
9 *424:6 *427:14 2.27416e-05
*RES
1 *2268:X *427:14 30.4741 
2 *427:14 *2279:A 13.5366 
3 *427:14 *2280:A 9.3 
*END

*D_NET *428 0.000853493
*CONN
*I *2273:A1 I *D sky130_fd_sc_hd__a21o_1
*I *2272:A I *D sky130_fd_sc_hd__xor2_1
*I *2269:X O *D sky130_fd_sc_hd__xor2_1
*CAP
1 *2273:A1 0
2 *2272:A 8.34768e-05
3 *2269:X 0.000138964
4 *428:8 0.000222441
5 *2272:A *431:12 0
6 *428:8 *2273:B1 8.35313e-05
7 *2272:B *2272:A 0.000191877
8 *421:8 *2272:A 0.000122951
9 *423:10 *2272:A 1.02504e-05
*RES
1 *2269:X *428:8 11.9071 
2 *428:8 *2272:A 21.1571 
3 *428:8 *2273:A1 9.3 
*END

*D_NET *429 0.000737369
*CONN
*I *2273:B1 I *D sky130_fd_sc_hd__a21o_1
*I *2270:X O *D sky130_fd_sc_hd__and2_1
*CAP
1 *2273:B1 0.000229781
2 *2270:X 0.000229781
3 *2269:B *2273:B1 5.33433e-05
4 *2270:A *2273:B1 0.000140933
5 *428:8 *2273:B1 8.35313e-05
*RES
1 *2270:X *2273:B1 23.2607 
*END

*D_NET *430 0.000455357
*CONN
*I *3324:B I *D sky130_fd_sc_hd__or2_1
*I *3302:X O *D sky130_fd_sc_hd__and2_1
*CAP
1 *3324:B 0.000141003
2 *3302:X 0.000141003
3 *3235:B *3324:B 9.22103e-06
4 *3291:B *3324:B 5.52302e-05
5 *3324:A *3324:B 5.71472e-05
6 *14:77 *3324:B 4.43157e-05
7 *39:245 *3324:B 7.43578e-06
*RES
1 *3302:X *3324:B 21.1893 
*END

*D_NET *431 0.000929209
*CONN
*I *2277:A I *D sky130_fd_sc_hd__and2_1
*I *2274:A I *D sky130_fd_sc_hd__inv_1
*I *2272:X O *D sky130_fd_sc_hd__xor2_1
*CAP
1 *2277:A 2.0943e-05
2 *2274:A 1.76924e-05
3 *2272:X 0.000323284
4 *431:12 0.000361919
5 *2277:A *2275:B 7.71303e-05
6 *2272:A *431:12 0
7 *2272:B *431:12 4.1331e-06
8 *2275:A *2274:A 0
9 *2276:A *431:12 0
10 *421:8 *431:12 0
11 *426:8 *2274:A 3.8941e-05
12 *426:8 *2277:A 4.58976e-05
13 *426:8 *431:12 3.92684e-05
*RES
1 *2272:X *431:12 24.2286 
2 *431:12 *2274:A 9.96518 
3 *431:12 *2277:A 10.2464 
*END

*D_NET *432 0.00276235
*CONN
*I *2281:A I *D sky130_fd_sc_hd__and2_1
*I *2278:A I *D sky130_fd_sc_hd__inv_1
*I *2273:X O *D sky130_fd_sc_hd__a21o_1
*CAP
1 *2281:A 0.00010716
2 *2278:A 0
3 *2273:X 0.00105139
4 *432:12 0.00115855
5 *2281:A *2279:B 0
6 *432:12 *2266:B 0
7 *432:12 *1202:10 0
8 *432:12 *1348:10 0
9 *2268:A2 *432:12 2.26327e-05
10 *2268:B1 *432:12 5.26184e-05
11 *2269:A *432:12 0
12 *421:8 *432:12 0.000307343
13 *427:14 *2281:A 6.26653e-05
14 *427:14 *432:12 0
*RES
1 *2273:X *432:12 38.8848 
2 *432:12 *2278:A 9.3 
3 *432:12 *2281:A 20.55 
*END

*D_NET *433 0.000661784
*CONN
*I *2275:B I *D sky130_fd_sc_hd__and2_1
*I *2274:Y O *D sky130_fd_sc_hd__inv_1
*CAP
1 *2275:B 0.000226809
2 *2274:Y 0.000226809
3 zN[10] *2275:B 3.48705e-05
4 *2275:A *2275:B 9.61657e-05
5 *2277:A *2275:B 7.71303e-05
*RES
1 *2274:Y *2275:B 22.9482 
*END

*D_NET *434 0.000391503
*CONN
*I *2277:B I *D sky130_fd_sc_hd__and2_1
*I *2276:Y O *D sky130_fd_sc_hd__inv_1
*CAP
1 *2277:B 0.000157064
2 *2276:Y 0.000157064
3 *2276:A *2277:B 7.73758e-05
*RES
1 *2276:Y *2277:B 30.2875 
*END

*D_NET *435 0.000640587
*CONN
*I *2279:B I *D sky130_fd_sc_hd__and2_1
*I *2278:Y O *D sky130_fd_sc_hd__inv_1
*CAP
1 *2279:B 0.000320293
2 *2278:Y 0.000320293
3 *2281:A *2279:B 0
4 *254:14 *2279:B 0
*RES
1 *2278:Y *2279:B 31.7518 
*END

*D_NET *436 0.0010126
*CONN
*I *2286:B I *D sky130_fd_sc_hd__xor2_1
*I *2287:A2 I *D sky130_fd_sc_hd__a21o_1
*I *2279:X O *D sky130_fd_sc_hd__and2_1
*CAP
1 *2286:B 0.000166008
2 *2287:A2 0
3 *2279:X 0.00013514
4 *436:10 0.000301148
5 *2286:B *2286:A 0.000184745
6 *2286:B *2287:A1 0.000154762
7 *2286:B *438:8 0
8 *436:10 *438:8 0
9 *254:14 *2286:B 1.50181e-05
10 *254:14 *436:10 5.5782e-05
*RES
1 *2279:X *436:10 16.2821 
2 *436:10 *2287:A2 13.8 
3 *436:10 *2286:B 18.1214 
*END

*D_NET *437 0.000284236
*CONN
*I *2281:B I *D sky130_fd_sc_hd__and2_1
*I *2280:Y O *D sky130_fd_sc_hd__inv_1
*CAP
1 *2281:B 8.6123e-05
2 *2280:Y 8.6123e-05
3 *2279:A *2281:B 0.00011199
*RES
1 *2280:Y *2281:B 20.5911 
*END

*D_NET *438 0.0013444
*CONN
*I *2290:B I *D sky130_fd_sc_hd__xor2_1
*I *2291:A2 I *D sky130_fd_sc_hd__a21o_1
*I *2281:X O *D sky130_fd_sc_hd__and2_1
*CAP
1 *2290:B 0.000162965
2 *2291:A2 8.61686e-05
3 *2281:X 0.00039545
4 *438:8 0.000644583
5 *2290:B *2290:A 5.52302e-05
6 *2290:B *2291:A1 0
7 *2290:B *2291:B1 0
8 *2290:B *2293:B 0
9 *438:8 *2287:A1 0
10 *438:8 *2291:B1 0
11 *438:8 *2293:A 0
12 *2286:B *438:8 0
13 *254:14 *438:8 0
14 *436:10 *438:8 0
*RES
1 *2281:X *438:8 20.6036 
2 *438:8 *2291:A2 15.1571 
3 *438:8 *2290:B 16.8893 
*END

*D_NET *439 0.000595651
*CONN
*I *2941:B I *D sky130_fd_sc_hd__xor2_1
*I *2942:B I *D sky130_fd_sc_hd__and2_1
*I *3313:X O *D sky130_fd_sc_hd__or2_1
*CAP
1 *2941:B 8.37502e-05
2 *2942:B 0
3 *3313:X 7.33899e-05
4 *439:6 0.00015714
5 *2941:B *2941:A 0.000133464
6 *439:6 *2941:A 4.88637e-05
7 *439:6 *1259:14 9.90431e-05
*RES
1 *3313:X *439:6 11.0679 
2 *439:6 *2942:B 9.3 
3 *439:6 *2941:B 11.4964 
*END

*D_NET *440 0.000919201
*CONN
*I *2286:A I *D sky130_fd_sc_hd__xor2_1
*I *2287:A1 I *D sky130_fd_sc_hd__a21o_1
*I *2284:X O *D sky130_fd_sc_hd__xor2_1
*CAP
1 *2286:A 0.000186725
2 *2287:A1 5.41199e-05
3 *2284:X 0
4 *440:4 0.000240845
5 *2286:A *442:8 0
6 *2286:B *2286:A 0.000184745
7 *2286:B *2287:A1 0.000154762
8 *254:14 *2287:A1 9.80029e-05
9 *438:8 *2287:A1 0
*RES
1 *2284:X *440:4 9.3 
2 *440:4 *2287:A1 20.55 
3 *440:4 *2286:A 12.6214 
*END

*D_NET *441 0.000810455
*CONN
*I *2287:B1 I *D sky130_fd_sc_hd__a21o_1
*I *2285:X O *D sky130_fd_sc_hd__and2_1
*CAP
1 *2287:B1 0.000209647
2 *2285:X 0.000209647
3 *2287:B1 *2285:A 0.000143804
4 *2287:B1 *2285:B 6.75007e-05
5 *2287:B1 *443:10 6.05161e-06
6 *2287:B1 *1212:14 0
7 *2287:B1 *1349:10 0.000173804
*RES
1 *2285:X *2287:B1 32.6179 
*END

*D_NET *442 0.000649317
*CONN
*I *2295:A I *D sky130_fd_sc_hd__inv_1
*I *2293:A I *D sky130_fd_sc_hd__and2_1
*I *2286:X O *D sky130_fd_sc_hd__xor2_1
*CAP
1 *2295:A 0.000113431
2 *2293:A 0.000154079
3 *2286:X 5.71478e-05
4 *442:8 0.000324658
5 *2293:A *2296:B 0
6 *2286:A *442:8 0
7 *438:8 *2293:A 0
*RES
1 *2286:X *442:8 10.2643 
2 *442:8 *2293:A 20.8536 
3 *442:8 *2295:A 11.2241 
*END

*D_NET *443 0.00266621
*CONN
*I *2298:A I *D sky130_fd_sc_hd__and2_1
*I *2299:A I *D sky130_fd_sc_hd__inv_1
*I *2287:X O *D sky130_fd_sc_hd__a21o_1
*CAP
1 *2298:A 0.000126384
2 *2299:A 7.01264e-05
3 *2287:X 0.000684137
4 *443:10 0.000880648
5 *2298:A *2298:B 4.57445e-05
6 *2298:A *2300:B 7.92975e-05
7 *2298:A *454:12 2.89016e-05
8 *2298:A *1353:12 0
9 *2299:A *2297:A 7.18918e-05
10 *2299:A *2300:B 0.000111187
11 *443:10 *2285:B 0
12 *443:10 *3208:A1 0
13 *443:10 *3208:B1 0
14 *443:10 *447:10 0
15 *443:10 *1212:14 0.000293422
16 *443:10 *1353:12 0
17 *2287:B1 *443:10 6.05161e-06
18 *254:14 *443:10 0
19 *257:12 *2299:A 0.000202601
20 *257:12 *443:10 6.58195e-05
*RES
1 *2287:X *443:10 25.7286 
2 *443:10 *2299:A 16.7152 
3 *443:10 *2298:A 16.8893 
*END

*D_NET *444 0.000744044
*CONN
*I *2290:A I *D sky130_fd_sc_hd__xor2_1
*I *2291:A1 I *D sky130_fd_sc_hd__a21o_1
*I *2288:X O *D sky130_fd_sc_hd__xor2_1
*CAP
1 *2290:A 0.000204528
2 *2291:A1 0.000111786
3 *2288:X 0
4 *444:4 0.000316313
5 *2290:A *446:8 0
6 *2291:A1 *2291:B1 3.92757e-05
7 *2291:A1 *447:10 0
8 *2290:B *2290:A 5.52302e-05
9 *2290:B *2291:A1 0
10 *254:14 *2291:A1 1.69115e-05
*RES
1 *2288:X *444:4 9.3 
2 *444:4 *2291:A1 20.55 
3 *444:4 *2290:A 12.6214 
*END

*D_NET *445 0.000766791
*CONN
*I *2291:B1 I *D sky130_fd_sc_hd__a21o_1
*I *2289:X O *D sky130_fd_sc_hd__and2_1
*CAP
1 *2291:B1 0.000216565
2 *2289:X 0.000216565
3 *2289:A *2291:B1 0.000144773
4 *2290:B *2291:B1 0
5 *2291:A1 *2291:B1 3.92757e-05
6 *254:14 *2291:B1 0.000128146
7 *254:18 *2291:B1 2.14658e-05
8 *438:8 *2291:B1 0
*RES
1 *2289:X *2291:B1 31.4214 
*END

*D_NET *446 0.000627533
*CONN
*I *2296:A I *D sky130_fd_sc_hd__and2_1
*I *2292:A I *D sky130_fd_sc_hd__inv_1
*I *2290:X O *D sky130_fd_sc_hd__xor2_1
*CAP
1 *2296:A 0.000110474
2 *2292:A 0
3 *2290:X 0.000145088
4 *446:8 0.000255562
5 *2296:A *2293:B 4.57352e-05
6 *2296:A *2296:B 5.80706e-06
7 *446:8 *2293:B 6.48671e-05
8 *2290:A *446:8 0
*RES
1 *2290:X *446:8 12.0188 
2 *446:8 *2292:A 9.3 
3 *446:8 *2296:A 20.55 
*END

*D_NET *447 0.00169737
*CONN
*I *2300:A I *D sky130_fd_sc_hd__and2_1
*I *2297:A I *D sky130_fd_sc_hd__inv_1
*I *2291:X O *D sky130_fd_sc_hd__a21o_1
*CAP
1 *2300:A 9.69661e-05
2 *2297:A 8.01293e-05
3 *2291:X 0.000360312
4 *447:10 0.000537407
5 *2297:A *2300:B 0.000158498
6 *2300:A *2300:B 8.16036e-05
7 *447:10 *2285:A 6.62868e-05
8 *2291:A1 *447:10 0
9 *2299:A *2297:A 7.18918e-05
10 *254:14 *447:10 0
11 *257:12 *2297:A 6.87574e-05
12 *257:12 *447:10 0.000175519
13 *443:10 *447:10 0
*RES
1 *2291:X *447:10 19.9429 
2 *447:10 *2297:A 16.1348 
3 *447:10 *2300:A 16.05 
*END

*D_NET *448 0.000443165
*CONN
*I *2293:B I *D sky130_fd_sc_hd__and2_1
*I *2292:Y O *D sky130_fd_sc_hd__inv_1
*CAP
1 *2293:B 0.000166281
2 *2292:Y 0.000166281
3 *2290:B *2293:B 0
4 *2296:A *2293:B 4.57352e-05
5 *446:8 *2293:B 6.48671e-05
*RES
1 *2292:Y *2293:B 30.3946 
*END

*D_NET *449 0.00073143
*CONN
*I *3241:B I *D sky130_fd_sc_hd__and2_1
*I *3240:B I *D sky130_fd_sc_hd__xor2_1
*I *3324:X O *D sky130_fd_sc_hd__or2_1
*CAP
1 *3241:B 0.000251552
2 *3240:B 0
3 *3324:X 5.31131e-05
4 *449:6 0.000304665
5 *3241:B *3241:A 0.000122101
*RES
1 *3324:X *449:6 10.2464 
2 *449:6 *3240:B 9.3 
3 *449:6 *3241:B 13.8714 
*END

*D_NET *450 0.000352707
*CONN
*I *2296:B I *D sky130_fd_sc_hd__and2_1
*I *2295:Y O *D sky130_fd_sc_hd__inv_1
*CAP
1 *2296:B 0.00017345
2 *2295:Y 0.00017345
3 *2293:A *2296:B 0
4 *2296:A *2296:B 5.80706e-06
*RES
1 *2295:Y *2296:B 30.5911 
*END

*D_NET *451 0.000281975
*CONN
*I *2298:B I *D sky130_fd_sc_hd__and2_1
*I *2297:Y O *D sky130_fd_sc_hd__inv_1
*CAP
1 *2298:B 0.000100495
2 *2297:Y 0.000100495
3 *2298:B *2300:B 3.52408e-05
4 *2298:B *1353:12 0
5 *2298:A *2298:B 4.57445e-05
*RES
1 *2297:Y *2298:B 29.5732 
*END

*D_NET *452 0.00165199
*CONN
*I *2303:B I *D sky130_fd_sc_hd__xor2_1
*I *2304:A2 I *D sky130_fd_sc_hd__a21o_1
*I *2298:X O *D sky130_fd_sc_hd__and2_1
*CAP
1 *2303:B 0
2 *2304:A2 0.000111825
3 *2298:X 0.000379535
4 *452:12 0.00049136
5 *2304:A2 *2304:A1 5.12779e-05
6 *2304:A2 *455:12 5.52302e-05
7 *452:12 *454:12 0.000495276
8 *452:12 *455:12 6.74911e-05
*RES
1 *2298:X *452:12 24.5857 
2 *452:12 *2304:A2 11.4964 
3 *452:12 *2303:B 9.3 
*END

*D_NET *453 0.000826552
*CONN
*I *2300:B I *D sky130_fd_sc_hd__and2_1
*I *2299:Y O *D sky130_fd_sc_hd__inv_1
*CAP
1 *2300:B 0.000180363
2 *2299:Y 0.000180363
3 *2297:A *2300:B 0.000158498
4 *2298:A *2300:B 7.92975e-05
5 *2298:B *2300:B 3.52408e-05
6 *2299:A *2300:B 0.000111187
7 *2300:A *2300:B 8.16036e-05
*RES
1 *2299:Y *2300:B 32.3411 
*END

*D_NET *454 0.00308074
*CONN
*I *2308:B I *D sky130_fd_sc_hd__xor2_1
*I *2309:A2 I *D sky130_fd_sc_hd__a21o_1
*I *2300:X O *D sky130_fd_sc_hd__and2_1
*CAP
1 *2308:B 0
2 *2309:A2 0.000142677
3 *2300:X 0.00066558
4 *454:12 0.000808257
5 *2309:A2 *2308:A 0.000211173
6 *2309:A2 *458:16 1.39726e-05
7 *454:12 *2301:B 0.000188586
8 *454:12 *2302:A 1.21289e-05
9 *454:12 *2304:B1 0.00010096
10 *454:12 *2309:B1 0
11 *454:12 *458:16 5.33786e-05
12 *454:12 *460:12 0
13 *454:12 *1353:12 0.000346515
14 *454:12 *1356:6 1.33343e-05
15 *2298:A *454:12 2.89016e-05
16 *452:12 *454:12 0.000495276
*RES
1 *2300:X *454:12 34.1929 
2 *454:12 *2309:A2 12.8536 
3 *454:12 *2308:B 9.3 
*END

*D_NET *455 0.00059604
*CONN
*I *2304:A1 I *D sky130_fd_sc_hd__a21o_1
*I *2303:A I *D sky130_fd_sc_hd__xor2_1
*I *2301:X O *D sky130_fd_sc_hd__xor2_1
*CAP
1 *2304:A1 0.000110081
2 *2303:A 0
3 *2301:X 0.000100939
4 *455:12 0.00021102
5 *455:12 *2304:B1 0
6 *2304:A2 *2304:A1 5.12779e-05
7 *2304:A2 *455:12 5.52302e-05
8 *452:12 *455:12 6.74911e-05
*RES
1 *2301:X *455:12 20.7821 
2 *455:12 *2303:A 9.3 
3 *455:12 *2304:A1 11.4964 
*END

*D_NET *456 0.000448328
*CONN
*I *2304:B1 I *D sky130_fd_sc_hd__a21o_1
*I *2302:X O *D sky130_fd_sc_hd__and2_1
*CAP
1 *2304:B1 0.000173684
2 *2302:X 0.000173684
3 *454:12 *2304:B1 0.00010096
4 *455:12 *2304:B1 0
*RES
1 *2302:X *2304:B1 30.4929 
*END

*D_NET *457 0.000816113
*CONN
*I *2311:A I *D sky130_fd_sc_hd__and2_1
*I *2312:A I *D sky130_fd_sc_hd__inv_1
*I *2303:X O *D sky130_fd_sc_hd__xor2_1
*CAP
1 *2311:A 0.000131802
2 *2312:A 7.10264e-05
3 *2303:X 0.000183938
4 *457:10 0.000386766
5 *2311:A *2313:B 4.25809e-05
*RES
1 *2303:X *457:10 16.8893 
2 *457:10 *2312:A 14.9027 
3 *457:10 *2311:A 16.3536 
*END

*D_NET *458 0.00201106
*CONN
*I *2315:A I *D sky130_fd_sc_hd__and2_1
*I *2317:A I *D sky130_fd_sc_hd__inv_1
*I *2304:X O *D sky130_fd_sc_hd__a21o_1
*CAP
1 *2315:A 0.000123224
2 *2317:A 0
3 *2304:X 0.000643678
4 *458:16 0.000766902
5 *2315:A *2318:B 0
6 *2315:A *463:10 4.79842e-05
7 *458:16 *2308:A 0.00030669
8 *458:16 *460:12 5.52302e-05
9 *2309:A2 *458:16 1.39726e-05
10 *261:14 *2315:A 0
11 *454:12 *458:16 5.33786e-05
*RES
1 *2304:X *458:16 27.7598 
2 *458:16 *2317:A 9.3 
3 *458:16 *2315:A 20.8536 
*END

*D_NET *459 0.000262446
*CONN
*I *1950:A I *D sky130_fd_sc_hd__or2_1
*I *3335:X O *D sky130_fd_sc_hd__and2_1
*CAP
1 *1950:A 5.9795e-05
2 *3335:X 5.9795e-05
3 *1950:A *1325:10 0.000142856
*RES
1 *3335:X *1950:A 19.9571 
*END

*D_NET *460 0.00107579
*CONN
*I *2308:A I *D sky130_fd_sc_hd__xor2_1
*I *2309:A1 I *D sky130_fd_sc_hd__a21o_1
*I *2306:X O *D sky130_fd_sc_hd__xor2_1
*CAP
1 *2308:A 6.78199e-05
2 *2309:A1 0
3 *2306:X 0.000133115
4 *460:12 0.000200935
5 *460:12 *2309:B1 0.000100831
6 *2309:A2 *2308:A 0.000211173
7 *454:12 *460:12 0
8 *458:16 *2308:A 0.00030669
9 *458:16 *460:12 5.52302e-05
*RES
1 *2306:X *460:12 21.0857 
2 *460:12 *2309:A1 9.3 
3 *460:12 *2308:A 12.7286 
*END

*D_NET *461 0.000731017
*CONN
*I *2309:B1 I *D sky130_fd_sc_hd__a21o_1
*I *2307:X O *D sky130_fd_sc_hd__and2_1
*CAP
1 *2309:B1 0.000280316
2 *2307:X 0.000280316
3 *2306:A *2309:B1 1.32552e-05
4 *2306:B *2309:B1 5.62995e-05
5 *454:12 *2309:B1 0
6 *460:12 *2309:B1 0.000100831
*RES
1 *2307:X *2309:B1 31.8321 
*END

*D_NET *462 0.000655162
*CONN
*I *2313:A I *D sky130_fd_sc_hd__and2_1
*I *2310:A I *D sky130_fd_sc_hd__inv_1
*I *2308:X O *D sky130_fd_sc_hd__xor2_1
*CAP
1 *2313:A 3.06113e-05
2 *2310:A 2.98429e-05
3 *2308:X 0.0002276
4 *462:12 0.000288054
5 *2313:A *2311:B 7.90536e-05
6 *462:12 *2313:B 0
*RES
1 *2308:X *462:12 22.1214 
2 *462:12 *2310:A 9.96518 
3 *462:12 *2313:A 10.2464 
*END

*D_NET *463 0.000907921
*CONN
*I *2318:A I *D sky130_fd_sc_hd__and2_1
*I *2314:A I *D sky130_fd_sc_hd__inv_1
*I *2309:X O *D sky130_fd_sc_hd__a21o_1
*CAP
1 *2318:A 0.000210696
2 *2314:A 1.29534e-05
3 *2309:X 9.44062e-05
4 *463:10 0.000318055
5 *2318:A *2315:B 0.000166679
6 *2318:A *467:10 5.71472e-05
7 *463:10 *2318:B 0
8 *2315:A *463:10 4.79842e-05
*RES
1 *2309:X *463:10 20.2464 
2 *463:10 *2314:A 9.58125 
3 *463:10 *2318:A 13.5679 
*END

*D_NET *464 0.000628018
*CONN
*I *2311:B I *D sky130_fd_sc_hd__and2_1
*I *2310:Y O *D sky130_fd_sc_hd__inv_1
*CAP
1 *2311:B 0.000261703
2 *2310:Y 0.000261703
3 zN[12] *2311:B 2.55587e-05
4 *2313:A *2311:B 7.90536e-05
*RES
1 *2310:Y *2311:B 22.9482 
*END

*D_NET *465 0.000295619
*CONN
*I *2313:B I *D sky130_fd_sc_hd__and2_1
*I *2312:Y O *D sky130_fd_sc_hd__inv_1
*CAP
1 *2313:B 0.000126519
2 *2312:Y 0.000126519
3 *2311:A *2313:B 4.25809e-05
4 *462:12 *2313:B 0
*RES
1 *2312:Y *2313:B 29.8768 
*END

*D_NET *466 0.000281327
*CONN
*I *2315:B I *D sky130_fd_sc_hd__and2_1
*I *2314:Y O *D sky130_fd_sc_hd__inv_1
*CAP
1 *2315:B 5.73238e-05
2 *2314:Y 5.73238e-05
3 *2318:A *2315:B 0.000166679
*RES
1 *2314:Y *2315:B 20.1625 
*END

*D_NET *467 0.00198826
*CONN
*I *2321:B I *D sky130_fd_sc_hd__xor2_1
*I *2322:A2 I *D sky130_fd_sc_hd__a21o_1
*I *2315:X O *D sky130_fd_sc_hd__and2_1
*CAP
1 *2321:B 3.10525e-05
2 *2322:A2 0.000114133
3 *2315:X 0.000459588
4 *467:10 0.000604773
5 *2321:B *2322:B1 0
6 *2321:B *471:12 3.17148e-05
7 *2322:A2 *2322:A1 0.000172192
8 *2322:A2 *470:16 0
9 *2322:A2 *471:12 5.52238e-05
10 *467:10 *2322:B1 0
11 *467:10 *470:16 0.000360894
12 *467:10 *471:12 0.000101545
13 *2318:A *467:10 5.71472e-05
*RES
1 *2315:X *467:10 20.6036 
2 *467:10 *2322:A2 16.5321 
3 *467:10 *2321:B 14.5321 
*END

*D_NET *468 0.00021169
*CONN
*I *1950:B I *D sky130_fd_sc_hd__or2_1
*I *3346:X O *D sky130_fd_sc_hd__and2_1
*CAP
1 *1950:B 5.33579e-05
2 *3346:X 5.33579e-05
3 *1950:B *2944:A 0
4 *28:172 *1950:B 0.000104974
*RES
1 *3346:X *1950:B 28.9393 
*END

*D_NET *469 0.000656322
*CONN
*I *2318:B I *D sky130_fd_sc_hd__and2_1
*I *2317:Y O *D sky130_fd_sc_hd__inv_1
*CAP
1 *2318:B 0.00031371
2 *2317:Y 0.00031371
3 *2318:B *471:12 0
4 *2315:A *2318:B 0
5 *261:14 *2318:B 2.89016e-05
6 *463:10 *2318:B 0
*RES
1 *2317:Y *2318:B 31.9304 
*END

*D_NET *470 0.00267975
*CONN
*I *2325:B I *D sky130_fd_sc_hd__xor2_1
*I *2326:A2 I *D sky130_fd_sc_hd__a21o_1
*I *2318:X O *D sky130_fd_sc_hd__and2_1
*CAP
1 *2325:B 0.000133933
2 *2326:A2 9.88235e-05
3 *2318:X 0.00047695
4 *470:16 0.000709707
5 *2325:B *2326:A1 0
6 *2326:A2 *474:10 0.000230475
7 *470:16 *2319:B 4.88637e-05
8 *470:16 *2320:A 0.000144773
9 *470:16 *2322:A1 1.3701e-05
10 *470:16 *2322:B1 0.00015849
11 *470:16 *474:10 0.000186669
12 *470:16 *1357:12 9.90367e-05
13 *470:16 *1361:16 1.74352e-05
14 *2080:B *470:16 0
15 *2322:A2 *470:16 0
16 *467:10 *470:16 0.000360894
*RES
1 *2318:X *470:16 29.9607 
2 *470:16 *2326:A2 11.9071 
3 *470:16 *2325:B 20.55 
*END

*D_NET *471 0.000987819
*CONN
*I *2322:A1 I *D sky130_fd_sc_hd__a21o_1
*I *2321:A I *D sky130_fd_sc_hd__xor2_1
*I *2319:X O *D sky130_fd_sc_hd__xor2_1
*CAP
1 *2322:A1 0.000118906
2 *2321:A 0
3 *2319:X 0.000179013
4 *471:12 0.000297919
5 *471:12 *1357:12 1.76039e-05
6 *2318:B *471:12 0
7 *2321:B *471:12 3.17148e-05
8 *2322:A2 *2322:A1 0.000172192
9 *2322:A2 *471:12 5.52238e-05
10 *467:10 *471:12 0.000101545
11 *470:16 *2322:A1 1.3701e-05
*RES
1 *2319:X *471:12 21.8 
2 *471:12 *2321:A 9.3 
3 *471:12 *2322:A1 12.3357 
*END

*D_NET *472 0.000480528
*CONN
*I *2322:B1 I *D sky130_fd_sc_hd__a21o_1
*I *2320:X O *D sky130_fd_sc_hd__and2_1
*CAP
1 *2322:B1 0.000154392
2 *2320:X 0.000154392
3 *2322:B1 *1361:16 1.32552e-05
4 *2321:B *2322:B1 0
5 *467:10 *2322:B1 0
6 *470:16 *2322:B1 0.00015849
*RES
1 *2320:X *2322:B1 30.1893 
*END

*D_NET *473 0.000807541
*CONN
*I *2330:A I *D sky130_fd_sc_hd__inv_1
*I *2329:A I *D sky130_fd_sc_hd__and2_1
*I *2321:X O *D sky130_fd_sc_hd__xor2_1
*CAP
1 *2330:A 0.000197369
2 *2329:A 0
3 *2321:X 0.000159702
4 *473:10 0.00035707
5 zN[13] *2330:A 8.89385e-05
6 zN[13] *473:10 4.46186e-06
*RES
1 *2321:X *473:10 16.2821 
2 *473:10 *2329:A 13.8 
3 *473:10 *2330:A 17.5634 
*END

*D_NET *474 0.00205918
*CONN
*I *2334:A I *D sky130_fd_sc_hd__inv_1
*I *2333:A I *D sky130_fd_sc_hd__and2_1
*I *2322:X O *D sky130_fd_sc_hd__a21o_1
*CAP
1 *2334:A 0
2 *2333:A 0.000141308
3 *2322:X 0.000497217
4 *474:10 0.000638525
5 *2333:A *2332:A 2.41865e-05
6 *2333:A *2335:B 0
7 *2333:A *478:10 0.00010326
8 *474:10 *478:10 0.000104147
9 *2086:B *2333:A 0
10 *2326:A2 *474:10 0.000230475
11 *266:10 *2333:A 1.66955e-05
12 *266:10 *474:10 0.000116697
13 *470:16 *474:10 0.000186669
*RES
1 *2322:X *474:10 19.5232 
2 *474:10 *2333:A 21.1839 
3 *474:10 *2334:A 9.3 
*END

*D_NET *475 0.000721969
*CONN
*I *2325:A I *D sky130_fd_sc_hd__xor2_1
*I *2326:A1 I *D sky130_fd_sc_hd__a21o_1
*I *2323:X O *D sky130_fd_sc_hd__xor2_1
*CAP
1 *2325:A 0.000122311
2 *2326:A1 0.000135611
3 *2323:X 0
4 *475:4 0.000257923
5 *2323:B *2325:A 3.99614e-06
6 *2324:A *2325:A 0
7 *2325:B *2326:A1 0
8 *262:14 *2326:A1 0.000202128
*RES
1 *2323:X *475:4 9.3 
2 *475:4 *2326:A1 21.3893 
3 *475:4 *2325:A 11.4964 
*END

*D_NET *476 0.000743196
*CONN
*I *2326:B1 I *D sky130_fd_sc_hd__a21o_1
*I *2324:X O *D sky130_fd_sc_hd__and2_1
*CAP
1 *2326:B1 0.000202958
2 *2324:X 0.000202958
3 *2323:B *2326:B1 0.000186662
4 *262:14 *2326:B1 0.000150618
5 *266:10 *2326:B1 0
*RES
1 *2324:X *2326:B1 31.3143 
*END

*D_NET *477 0.000351015
*CONN
*I *2331:A I *D sky130_fd_sc_hd__and2_1
*I *2328:A I *D sky130_fd_sc_hd__inv_1
*I *2325:X O *D sky130_fd_sc_hd__xor2_1
*CAP
1 *2331:A 3.06113e-05
2 *2328:A 2.98429e-05
3 *2325:X 7.55266e-05
4 *477:6 0.000135981
5 *2331:A *2329:B 7.90536e-05
*RES
1 *2325:X *477:6 10.6571 
2 *477:6 *2328:A 9.96518 
3 *477:6 *2331:A 10.2464 
*END

*D_NET *478 0.00183344
*CONN
*I *2332:A I *D sky130_fd_sc_hd__inv_1
*I *2335:A I *D sky130_fd_sc_hd__and2_1
*I *2326:X O *D sky130_fd_sc_hd__a21o_1
*CAP
1 *2332:A 0.000180078
2 *2335:A 0.000182152
3 *2326:X 0.000293922
4 *478:10 0.000656152
5 *2332:A *2333:B 4.57352e-05
6 *2332:A *2335:B 0
7 *2335:A *483:8 5.71472e-05
8 *2324:B *2332:A 0
9 *2333:A *2332:A 2.41865e-05
10 *2333:A *478:10 0.00010326
11 *266:10 *478:10 0.000186662
12 *474:10 *478:10 0.000104147
*RES
1 *2326:X *478:10 18.55 
2 *478:10 *2335:A 16.9429 
3 *478:10 *2332:A 17.3491 
*END

*D_NET *479 0.000275942
*CONN
*I *1961:A I *D sky130_fd_sc_hd__or2_1
*I *3357:X O *D sky130_fd_sc_hd__and2_1
*CAP
1 *1961:A 3.7011e-05
2 *3357:X 3.7011e-05
3 *1961:A *1961:B 5.71472e-05
4 *1961:A *1336:6 0.000144773
*RES
1 *3357:X *1961:A 19.9571 
*END

*D_NET *480 0.000615325
*CONN
*I *2329:B I *D sky130_fd_sc_hd__and2_1
*I *2328:Y O *D sky130_fd_sc_hd__inv_1
*CAP
1 *2329:B 0.000239986
2 *2328:Y 0.000239986
3 zN[13] *2329:B 5.62995e-05
4 *2331:A *2329:B 7.90536e-05
*RES
1 *2328:Y *2329:B 22.9482 
*END

*D_NET *481 0.000344248
*CONN
*I *2331:B I *D sky130_fd_sc_hd__and2_1
*I *2330:Y O *D sky130_fd_sc_hd__inv_1
*CAP
1 *2331:B 0.000152486
2 *2330:Y 0.000152486
3 zN[13] *2331:B 0
4 zP[13] *2331:B 3.92757e-05
*RES
1 *2330:Y *2331:B 29.9839 
*END

*D_NET *482 0.000266485
*CONN
*I *2333:B I *D sky130_fd_sc_hd__and2_1
*I *2332:Y O *D sky130_fd_sc_hd__inv_1
*CAP
1 *2333:B 0.000110375
2 *2332:Y 0.000110375
3 *2333:B *2335:B 0
4 *2332:A *2333:B 4.57352e-05
*RES
1 *2332:Y *2333:B 29.5732 
*END

*D_NET *483 0.00481914
*CONN
*I *2339:B I *D sky130_fd_sc_hd__xor2_1
*I *2340:A2 I *D sky130_fd_sc_hd__a21o_1
*I *2333:X O *D sky130_fd_sc_hd__and2_1
*CAP
1 *2339:B 0
2 *2340:A2 0.000138333
3 *2333:X 0.00108931
4 *483:8 0.00122765
5 *2340:A2 *2339:A 0.000178459
6 *2340:A2 *494:22 0
7 *483:8 *2339:A 1.74352e-05
8 *483:8 *2343:A 1.54142e-05
9 *483:8 *2344:A1 5.52302e-05
10 *483:8 *2344:A2 0.000142856
11 *483:8 *2344:B1 0.000183713
12 *483:8 *485:6 0.00108648
13 *483:8 *489:8 0.00044659
14 *483:8 *493:10 5.33005e-05
15 *2335:A *483:8 5.71472e-05
16 *2341:B *483:8 9.7659e-05
17 *2342:A *483:8 2.9561e-05
*RES
1 *2333:X *483:8 33.2643 
2 *483:8 *2340:A2 12.7286 
3 *483:8 *2339:B 9.3 
*END

*D_NET *484 0.000784648
*CONN
*I *2335:B I *D sky130_fd_sc_hd__and2_1
*I *2334:Y O *D sky130_fd_sc_hd__inv_1
*CAP
1 *2335:B 0.000341651
2 *2334:Y 0.000341651
3 *2086:A *2335:B 2.27416e-05
4 *2332:A *2335:B 0
5 *2333:A *2335:B 0
6 *2333:B *2335:B 0
7 *266:10 *2335:B 7.86048e-05
*RES
1 *2334:Y *2335:B 32.3411 
*END

*D_NET *485 0.00263055
*CONN
*I *2343:B I *D sky130_fd_sc_hd__xor2_1
*I *2344:A2 I *D sky130_fd_sc_hd__a21o_1
*I *2335:X O *D sky130_fd_sc_hd__and2_1
*CAP
1 *2343:B 0
2 *2344:A2 0.000172978
3 *2335:X 0.000323442
4 *485:6 0.00049642
5 *2344:A2 *2343:A 9.90431e-05
6 *2344:A2 *2344:A1 0.000103275
7 *2344:A2 *2346:A 5.52238e-05
8 *2344:A2 *2346:B 0
9 *485:6 *2348:B 0.000115961
10 zN[14] *485:6 3.48705e-05
11 *483:8 *2344:A2 0.000142856
12 *483:8 *485:6 0.00108648
*RES
1 *2335:X *485:6 19.6929 
2 *485:6 *2344:A2 22.7464 
3 *485:6 *2343:B 9.3 
*END

*D_NET *486 0.0011239
*CONN
*I *2339:A I *D sky130_fd_sc_hd__xor2_1
*I *2340:A1 I *D sky130_fd_sc_hd__a21o_1
*I *2336:X O *D sky130_fd_sc_hd__xor2_1
*CAP
1 *2339:A 0.000207117
2 *2340:A1 0
3 *2336:X 0.00010453
4 *486:12 0.000311647
5 *486:12 *2340:B1 0.000150625
6 *486:12 *494:22 0.000154089
7 *2340:A2 *2339:A 0.000178459
8 *483:8 *2339:A 1.74352e-05
*RES
1 *2336:X *486:12 21.0857 
2 *486:12 *2340:A1 9.3 
3 *486:12 *2339:A 13.55 
*END

*D_NET *487 0.000897751
*CONN
*I *2340:B1 I *D sky130_fd_sc_hd__a21o_1
*I *2337:X O *D sky130_fd_sc_hd__and2_1
*CAP
1 *2340:B1 0.00027927
2 *2337:X 0.00027927
3 *2340:B1 *2336:B 0.000188586
4 *486:12 *2340:B1 0.000150625
*RES
1 *2337:X *2340:B1 32.1357 
*END

*D_NET *488 0.000483601
*CONN
*I *1961:B I *D sky130_fd_sc_hd__or2_1
*I *3368:X O *D sky130_fd_sc_hd__and2_1
*CAP
1 *1961:B 0.000129577
2 *3368:X 0.000129577
3 *1961:B *1336:6 5.68519e-05
4 *1961:A *1961:B 5.71472e-05
5 *3357:A *1961:B 5.33005e-05
6 *3357:B *1961:B 5.71472e-05
*RES
1 *3368:X *1961:B 21.1893 
*END

*D_NET *489 0.00303362
*CONN
*I *2347:A I *D sky130_fd_sc_hd__inv_1
*I *2346:A I *D sky130_fd_sc_hd__and2_1
*I *2339:X O *D sky130_fd_sc_hd__xor2_1
*CAP
1 *2347:A 0.000465365
2 *2346:A 0.000369349
3 *2339:X 0.000286525
4 *489:8 0.00112124
5 *2346:A *494:22 0.000142856
6 *2090:B *2346:A 0
7 *2344:A2 *2346:A 5.52238e-05
8 *267:12 *2346:A 0
9 *267:12 *2347:A 0
10 *270:12 *2346:A 7.6644e-05
11 *270:12 *2347:A 6.98302e-05
12 *483:8 *489:8 0.00044659
*RES
1 *2339:X *489:8 18.0321 
2 *489:8 *2346:A 20.4964 
3 *489:8 *2347:A 21.7598 
*END

*D_NET *490 0.000871941
*CONN
*I *2351:A I *D sky130_fd_sc_hd__and2_1
*I *2352:A I *D sky130_fd_sc_hd__inv_1
*I *2340:X O *D sky130_fd_sc_hd__a21o_1
*CAP
1 *2351:A 0
2 *2352:A 0.000206385
3 *2340:X 0.000100338
4 *490:6 0.000306723
5 *2352:A *2353:B 0
6 *490:6 *2350:A 3.00023e-05
7 *490:6 *2351:B 7.71367e-05
8 *490:6 *2353:A 1.99173e-05
9 *490:6 *494:22 0.000131439
*RES
1 *2340:X *490:6 11.8893 
2 *490:6 *2352:A 21.5455 
3 *490:6 *2351:A 9.3 
*END

*D_NET *491 0.000730377
*CONN
*I *2343:A I *D sky130_fd_sc_hd__xor2_1
*I *2344:A1 I *D sky130_fd_sc_hd__a21o_1
*I *2341:X O *D sky130_fd_sc_hd__xor2_1
*CAP
1 *2343:A 7.77737e-05
2 *2344:A1 0.000103781
3 *2341:X 0
4 *491:4 0.000181554
5 *2344:A1 *2344:B1 7.8327e-05
6 *2341:B *2343:A 0
7 *2342:A *2343:A 0
8 *2344:A2 *2343:A 9.90431e-05
9 *2344:A2 *2344:A1 0.000103275
10 *267:12 *2344:A1 1.59782e-05
11 *483:8 *2343:A 1.54142e-05
12 *483:8 *2344:A1 5.52302e-05
*RES
1 *2341:X *491:4 9.3 
2 *491:4 *2344:A1 21.3893 
3 *491:4 *2343:A 11.0857 
*END

*D_NET *492 0.000773005
*CONN
*I *2344:B1 I *D sky130_fd_sc_hd__a21o_1
*I *2342:X O *D sky130_fd_sc_hd__and2_1
*CAP
1 *2344:B1 0.000180173
2 *2342:X 0.000180173
3 *2344:A1 *2344:B1 7.8327e-05
4 *267:12 *2344:B1 0.000150618
5 *483:8 *2344:B1 0.000183713
*RES
1 *2342:X *2344:B1 31.3143 
*END

*D_NET *493 0.000768789
*CONN
*I *2345:A I *D sky130_fd_sc_hd__inv_1
*I *2348:A I *D sky130_fd_sc_hd__and2_1
*I *2343:X O *D sky130_fd_sc_hd__xor2_1
*CAP
1 *2345:A 8.05555e-05
2 *2348:A 0
3 *2343:X 9.04376e-05
4 *493:10 0.000170993
5 zN[14] *2345:A 0.000128154
6 zP[14] *2345:A 0.000166983
7 zP[14] *493:10 7.83659e-05
8 *483:8 *493:10 5.33005e-05
*RES
1 *2343:X *493:10 15.3714 
2 *493:10 *2348:A 13.8 
3 *493:10 *2345:A 16.3312 
*END

*D_NET *494 0.00355501
*CONN
*I *2353:A I *D sky130_fd_sc_hd__and2_1
*I *2350:A I *D sky130_fd_sc_hd__inv_1
*I *2344:X O *D sky130_fd_sc_hd__a21o_1
*CAP
1 *2353:A 0.000209997
2 *2350:A 3.30481e-06
3 *2344:X 0.000912124
4 *494:22 0.00112543
5 *2353:A *2351:B 0.000163737
6 *2353:A *499:12 5.71472e-05
7 *2089:A *494:22 9.77274e-05
8 *2090:A *494:22 0.000120587
9 *2091:B1 *494:22 0.000274288
10 *2340:A2 *494:22 0
11 *2346:A *494:22 0.000142856
12 *268:6 *494:22 5.52238e-05
13 *270:12 *494:22 5.71472e-05
14 *486:12 *494:22 0.000154089
15 *490:6 *2350:A 3.00023e-05
16 *490:6 *2353:A 1.99173e-05
17 *490:6 *494:22 0.000131439
*RES
1 *2344:X *494:22 34.8536 
2 *494:22 *2350:A 9.58125 
3 *494:22 *2353:A 13.5679 
*END

*D_NET *495 0.000790885
*CONN
*I *2346:B I *D sky130_fd_sc_hd__and2_1
*I *2345:Y O *D sky130_fd_sc_hd__inv_1
*CAP
1 *2346:B 0.000211977
2 *2345:Y 0.000211977
3 *2346:B *2348:B 0.000101545
4 zP[14] *2346:B 0.000265385
5 *2344:A2 *2346:B 0
6 *135:12 *2346:B 0
7 *267:12 *2346:B 0
*RES
1 *2345:Y *2346:B 32.3054 
*END

*D_NET *496 0.000737849
*CONN
*I *2348:B I *D sky130_fd_sc_hd__and2_1
*I *2347:Y O *D sky130_fd_sc_hd__inv_1
*CAP
1 *2348:B 0.000231598
2 *2347:Y 0.000231598
3 zN[14] *2348:B 5.71472e-05
4 *2346:B *2348:B 0.000101545
5 *485:6 *2348:B 0.000115961
*RES
1 *2347:Y *2348:B 31.8768 
*END

*D_NET *497 0.000721304
*CONN
*I *2944:B I *D sky130_fd_sc_hd__and2_1
*I *2943:B I *D sky130_fd_sc_hd__xor2_1
*I *1950:X O *D sky130_fd_sc_hd__or2_1
*CAP
1 *2944:B 0.000164866
2 *2943:B 0
3 *1950:X 3.53903e-05
4 *497:6 0.000200256
5 *2944:B *2944:A 0.000177941
6 *2944:B *2946:B1 0
7 *2944:B *1325:10 4.18895e-05
8 *497:6 *1325:10 0.00010096
9 *2438:A *2944:B 0
*RES
1 *1950:X *497:6 10.2464 
2 *497:6 *2943:B 9.3 
3 *497:6 *2944:B 21.8 
*END

*D_NET *498 0.000327386
*CONN
*I *2351:B I *D sky130_fd_sc_hd__and2_1
*I *2350:Y O *D sky130_fd_sc_hd__inv_1
*CAP
1 *2351:B 4.32566e-05
2 *2350:Y 4.32566e-05
3 *2353:A *2351:B 0.000163737
4 *490:6 *2351:B 7.71367e-05
*RES
1 *2350:Y *2351:B 20.1625 
*END

*D_NET *499 0.00337736
*CONN
*I *2356:B I *D sky130_fd_sc_hd__xor2_1
*I *2357:A2 I *D sky130_fd_sc_hd__a21o_1
*I *2351:X O *D sky130_fd_sc_hd__and2_1
*CAP
1 *2356:B 0
2 *2357:A2 6.55785e-05
3 *2351:X 0.000980708
4 *499:12 0.00104629
5 *2357:A2 *2356:A 7.17235e-05
6 *2357:A2 *2357:A1 2.84026e-05
7 *2357:A2 *2369:A 0
8 *2357:A2 *510:10 0.000229181
9 *499:12 *2356:A 3.57366e-05
10 *499:12 *2361:A 0.000186669
11 *499:12 *2362:A1 9.90367e-05
12 *499:12 *2362:A2 1.74352e-05
13 *499:12 *501:6 5.76121e-05
14 *499:12 *509:10 5.51774e-05
15 *499:12 *510:10 0.000389515
16 zN[15] *499:12 5.71472e-05
17 *2353:A *499:12 5.71472e-05
*RES
1 *2351:X *499:12 24.675 
2 *499:12 *2357:A2 11.9071 
3 *499:12 *2356:B 9.3 
*END

*D_NET *500 0.000559558
*CONN
*I *2353:B I *D sky130_fd_sc_hd__and2_1
*I *2352:Y O *D sky130_fd_sc_hd__inv_1
*CAP
1 *2353:B 0.000279779
2 *2352:Y 0.000279779
3 *2353:B *506:12 0
4 *2352:A *2353:B 0
*RES
1 *2352:Y *2353:B 31.2161 
*END

*D_NET *501 0.000606092
*CONN
*I *2361:B I *D sky130_fd_sc_hd__xor2_1
*I *2362:A2 I *D sky130_fd_sc_hd__a21o_1
*I *2353:X O *D sky130_fd_sc_hd__and2_1
*CAP
1 *2361:B 0
2 *2362:A2 0.000122578
3 *2353:X 5.28039e-05
4 *501:6 0.000175382
5 *2362:A2 *2361:A 9.61553e-05
6 *2362:A2 *2362:A1 2.89016e-05
7 *2362:A2 *509:10 5.52238e-05
8 *499:12 *2362:A2 1.74352e-05
9 *499:12 *501:6 5.76121e-05
*RES
1 *2353:X *501:6 10.6571 
2 *501:6 *2362:A2 12.3179 
3 *501:6 *2361:B 9.3 
*END

*D_NET *502 0.000709247
*CONN
*I *2356:A I *D sky130_fd_sc_hd__xor2_1
*I *2357:A1 I *D sky130_fd_sc_hd__a21o_1
*I *2354:X O *D sky130_fd_sc_hd__xor2_1
*CAP
1 *2356:A 8.05759e-05
2 *2357:A1 5.24234e-05
3 *2354:X 0.000145724
4 *502:10 0.000278723
5 *2357:A1 *510:10 1.59373e-05
6 *502:10 *2357:B1 0
7 *502:10 *2364:A 0
8 *502:10 *2365:A 0
9 *2357:A2 *2356:A 7.17235e-05
10 *2357:A2 *2357:A1 2.84026e-05
11 *499:12 *2356:A 3.57366e-05
*RES
1 *2354:X *502:10 20.55 
2 *502:10 *2357:A1 10.2464 
3 *502:10 *2356:A 11.0857 
*END

*D_NET *503 0.000578673
*CONN
*I *2357:B1 I *D sky130_fd_sc_hd__a21o_1
*I *2355:X O *D sky130_fd_sc_hd__and2_1
*CAP
1 *2357:B1 0.000139072
2 *2355:X 0.000139072
3 *2357:B1 *2367:A 4.96113e-05
4 *2357:B1 *2368:A 7.83587e-05
5 *2357:B1 *2369:A 5.49544e-05
6 *2357:B1 *2370:A 1.08359e-05
7 *2357:B1 *2370:B 7.83587e-05
8 *2357:B1 *510:10 2.84109e-05
9 *502:10 *2357:B1 0
*RES
1 *2355:X *2357:B1 30.9036 
*END

*D_NET *504 0.000802728
*CONN
*I *2365:A I *D sky130_fd_sc_hd__inv_1
*I *2364:A I *D sky130_fd_sc_hd__and2_1
*I *2356:X O *D sky130_fd_sc_hd__xor2_1
*CAP
1 *2365:A 0.000121356
2 *2364:A 8.52614e-05
3 *2356:X 0
4 *504:6 0.000206617
5 *2364:A *2364:B 2.82057e-05
6 *2364:A *514:14 3.34295e-05
7 zP[15] *2364:A 0.000127446
8 zP[15] *2365:A 0.000200413
9 *502:10 *2364:A 0
10 *502:10 *2365:A 0
*RES
1 *2356:X *504:6 13.8 
2 *504:6 *2364:A 16.05 
3 *504:6 *2365:A 16.6348 
*END

*D_NET *505 0.00133083
*CONN
*I *2369:A I *D sky130_fd_sc_hd__inv_1
*I *2368:A I *D sky130_fd_sc_hd__and2_1
*I *2357:X O *D sky130_fd_sc_hd__a21o_1
*CAP
1 *2369:A 7.44051e-05
2 *2368:A 0.000221415
3 *2357:X 0.00029582
4 *2368:A *2354:B 0.000137983
5 *2368:A *2355:A 2.2351e-05
6 *2368:A *2370:A 0.000123359
7 *2368:A *2370:B 2.26424e-05
8 *2368:A *514:8 0.000269801
9 *2369:A *2367:A 2.97414e-05
10 *2357:A2 *2369:A 0
11 *2357:B1 *2368:A 7.83587e-05
12 *2357:B1 *2369:A 5.49544e-05
*RES
1 *2357:X *2368:A 33.475 
2 *2357:X *2369:A 20.2116 
*END

*D_NET *506 0.000956546
*CONN
*I *2361:A I *D sky130_fd_sc_hd__xor2_1
*I *2362:A1 I *D sky130_fd_sc_hd__a21o_1
*I *2358:X O *D sky130_fd_sc_hd__xor2_1
*CAP
1 *2361:A 5.12723e-05
2 *2362:A1 2.06972e-05
3 *2358:X 0.000192205
4 *506:12 0.000264174
5 *2362:A1 *509:10 1.74352e-05
6 *506:12 *2362:B1 0
7 *2353:B *506:12 0
8 *2362:A2 *2361:A 9.61553e-05
9 *2362:A2 *2362:A1 2.89016e-05
10 *499:12 *2361:A 0.000186669
11 *499:12 *2362:A1 9.90367e-05
*RES
1 *2358:X *506:12 21.0857 
2 *506:12 *2362:A1 10.2464 
3 *506:12 *2361:A 11.4964 
*END

*D_NET *507 0.000850256
*CONN
*I *2362:B1 I *D sky130_fd_sc_hd__a21o_1
*I *2359:X O *D sky130_fd_sc_hd__and2_1
*CAP
1 *2362:B1 0.000400216
2 *2359:X 0.000400216
3 *2362:B1 *2366:B 0
4 *2362:B1 *1298:12 1.92789e-05
5 *2362:B1 *1365:10 3.05446e-05
6 *2358:B *2362:B1 0
7 *506:12 *2362:B1 0
*RES
1 *2359:X *2362:B1 33.7429 
*END

*D_NET *508 0.000717777
*CONN
*I *3242:B I *D sky130_fd_sc_hd__xor2_1
*I *3243:B I *D sky130_fd_sc_hd__and2_1
*I *1961:X O *D sky130_fd_sc_hd__or2_1
*CAP
1 *3242:B 6.0614e-05
2 *3243:B 0
3 *1961:X 0.000124941
4 *508:8 0.000185555
5 *3242:B *3242:A 0.000137334
6 *3242:B *3245:B1 9.90367e-05
7 *508:8 *3242:A 2.95641e-05
8 *508:8 *1336:6 8.07313e-05
*RES
1 *1961:X *508:8 11.9071 
2 *508:8 *3243:B 9.3 
3 *508:8 *3242:B 11.4964 
*END

*D_NET *509 0.000795556
*CONN
*I *2363:A I *D sky130_fd_sc_hd__inv_1
*I *2366:A I *D sky130_fd_sc_hd__and2_1
*I *2361:X O *D sky130_fd_sc_hd__xor2_1
*CAP
1 *2363:A 0
2 *2366:A 2.75527e-05
3 *2361:X 0.000189618
4 *509:10 0.00021717
5 *2366:A *2364:B 3.14592e-05
6 *2366:A *510:10 0.000128105
7 *509:10 *510:10 7.38151e-05
8 *2362:A1 *509:10 1.74352e-05
9 *2362:A2 *509:10 5.52238e-05
10 *499:12 *509:10 5.51774e-05
*RES
1 *2361:X *509:10 13.3134 
2 *509:10 *2366:A 10.5009 
3 *509:10 *2363:A 9.3 
*END

*D_NET *510 0.00320817
*CONN
*I *2370:A I *D sky130_fd_sc_hd__and2_1
*I *2367:A I *D sky130_fd_sc_hd__inv_1
*I *2362:X O *D sky130_fd_sc_hd__a21o_1
*CAP
1 *2370:A 0.000274016
2 *2367:A 0.000182427
3 *2362:X 0.00042883
4 *510:10 0.000885272
5 *2367:A *2370:B 3.28686e-05
6 *2370:A *2370:B 7.80829e-05
7 *2370:A *1370:16 8.46259e-06
8 *510:10 *2364:B 0.000239703
9 *2357:A1 *510:10 1.59373e-05
10 *2357:A2 *510:10 0.000229181
11 *2357:B1 *2367:A 4.96113e-05
12 *2357:B1 *2370:A 1.08359e-05
13 *2357:B1 *510:10 2.84109e-05
14 *2366:A *510:10 0.000128105
15 *2368:A *2370:A 0.000123359
16 *2369:A *2367:A 2.97414e-05
17 *499:12 *510:10 0.000389515
18 *509:10 *510:10 7.38151e-05
*RES
1 *2362:X *510:10 20.4429 
2 *510:10 *2367:A 12.492 
3 *510:10 *2370:A 23.3357 
*END

*D_NET *511 0.000987816
*CONN
*I *2364:B I *D sky130_fd_sc_hd__and2_1
*I *2363:Y O *D sky130_fd_sc_hd__inv_1
*CAP
1 *2364:B 0.000300023
2 *2363:Y 0.000300023
3 *2364:B *514:14 1.00375e-05
4 zP[15] *2364:B 7.83659e-05
5 *2364:A *2364:B 2.82057e-05
6 *2366:A *2364:B 3.14592e-05
7 *510:10 *2364:B 0.000239703
*RES
1 *2363:Y *2364:B 32.7518 
*END

*D_NET *512 0.000600106
*CONN
*I *2366:B I *D sky130_fd_sc_hd__and2_1
*I *2365:Y O *D sky130_fd_sc_hd__inv_1
*CAP
1 *2366:B 0.000288343
2 *2365:Y 0.000288343
3 zN[15] *2366:B 2.34204e-05
4 zP[15] *2366:B 0
5 *2362:B1 *2366:B 0
*RES
1 *2365:Y *2366:B 31.2161 
*END

*D_NET *513 0.00046319
*CONN
*I *2368:B I *D sky130_fd_sc_hd__and2_1
*I *2367:Y O *D sky130_fd_sc_hd__inv_1
*CAP
1 *2368:B 0.000231595
2 *2367:Y 0.000231595
*RES
1 *2367:Y *2368:B 30.6982 
*END

*D_NET *514 0.00959438
*CONN
*I *2374:B I *D sky130_fd_sc_hd__xor2_1
*I *2375:A2 I *D sky130_fd_sc_hd__a21o_1
*I *2368:X O *D sky130_fd_sc_hd__and2_1
*CAP
1 *2374:B 0.000275297
2 *2375:A2 0.00013199
3 *2368:X 0.000435561
4 *514:14 0.00191301
5 *514:8 0.00194129
6 *2374:B *2373:A 0.000153884
7 *2374:B *2373:B 0.000112072
8 *2374:B *2375:B1 0
9 *2374:B *2667:B 2.8266e-06
10 *514:8 *2354:B 1.98839e-05
11 *514:8 *2355:A 1.10868e-05
12 *514:8 *1366:14 7.57312e-05
13 *514:14 *3005:A 0.000218542
14 *514:14 *3006:B 0.000194355
15 *514:14 *3092:A 1.00375e-05
16 *514:14 *3092:B 0.000103041
17 *514:14 *3221:B1 0.000153047
18 *514:14 *811:12 0.000105037
19 *514:14 *864:10 0.000120506
20 *514:14 *1158:10 0.000733129
21 *514:14 *1159:14 0.000352448
22 *514:14 *1239:12 0
23 *514:14 *1301:12 7.04538e-05
24 *514:14 *1363:12 0
25 *2364:A *514:14 3.34295e-05
26 *2364:B *514:14 1.00375e-05
27 *2368:A *514:8 0.000269801
28 *2651:A *514:14 0.000177948
29 *2840:B *514:14 0.000129868
30 *2905:B *514:14 0
31 *19:209 *2375:A2 0.000535431
32 *28:46 *514:14 0
33 *29:81 *2374:B 1.63058e-05
34 *29:81 *514:14 0.000884231
35 *29:89 *2374:B 0
36 *31:257 *2375:A2 0.000310908
37 *31:257 *514:14 9.31893e-05
*RES
1 *2368:X *514:8 21.3179 
2 *514:8 *514:14 45.5536 
3 *514:14 *2375:A2 15.1929 
4 *514:14 *2374:B 24.4071 
*END

*D_NET *515 0.000952642
*CONN
*I *2370:B I *D sky130_fd_sc_hd__and2_1
*I *2369:Y O *D sky130_fd_sc_hd__inv_1
*CAP
1 *2370:B 0.000277752
2 *2369:Y 0.000277752
3 *2370:B *516:12 3.74675e-05
4 *2370:B *1370:16 0.000147718
5 *2357:B1 *2370:B 7.83587e-05
6 *2367:A *2370:B 3.28686e-05
7 *2368:A *2370:B 2.26424e-05
8 *2370:A *2370:B 7.80829e-05
*RES
1 *2369:Y *2370:B 33.4839 
*END

*D_NET *516 0.011506
*CONN
*I *2378:B I *D sky130_fd_sc_hd__xor2_1
*I *2379:A2 I *D sky130_fd_sc_hd__a21o_1
*I *2370:X O *D sky130_fd_sc_hd__and2_1
*CAP
1 *2378:B 0.000282981
2 *2379:A2 0.000146872
3 *2370:X 0.0016218
4 *516:22 0.00191252
5 *516:12 0.00310446
6 *2379:A2 *3229:A 0.000212517
7 *2379:A2 *521:12 0.00021081
8 *516:12 *2848:B 0.000214977
9 *516:12 *2907:B 0.000150625
10 *516:12 *3086:B 0
11 *516:12 *3087:B 7.04631e-05
12 *516:12 *3088:B1 0
13 *516:12 *3153:A 0.000225314
14 *516:12 *1048:8 0.000129746
15 *516:12 *1242:14 0.0008681
16 *516:12 *1371:16 0
17 *516:22 *3097:A1 2.09495e-05
18 *516:22 *3097:B1 0.000141257
19 *516:22 *3105:A 0.0001831
20 *516:22 *3160:A 0.000193234
21 *516:22 *3160:B 0.000196104
22 *516:22 *1002:10 5.84075e-05
23 *516:22 *1240:10 6.63476e-05
24 *516:22 *1242:14 0.00017229
25 *516:22 *1243:8 0.000147121
26 *2370:B *516:12 3.74675e-05
27 *2838:B *516:12 0
28 *2896:A *516:12 9.60298e-05
29 *12:30 *516:22 1.5942e-05
30 *19:25 *2379:A2 6.57768e-05
31 *22:26 *516:12 8.19752e-05
32 *22:127 *516:22 0.000126281
33 *29:37 *516:12 4.84284e-05
34 *29:37 *516:22 6.10018e-06
35 *38:295 *516:22 0.000697999
*RES
1 *2370:X *516:12 46.0232 
2 *516:12 *516:22 27.5916 
3 *516:22 *2379:A2 21.6832 
4 *516:22 *2378:B 17.8941 
*END

*D_NET *517 0.000236846
*CONN
*I *2016:A I *D sky130_fd_sc_hd__or2_1
*I *1972:X O *D sky130_fd_sc_hd__and2_1
*CAP
1 *2016:A 8.40882e-05
2 *1972:X 8.40882e-05
3 *40:91 *2016:A 6.86693e-05
*RES
1 *1972:X *2016:A 19.9571 
*END

*D_NET *518 0.000861575
*CONN
*I *2374:A I *D sky130_fd_sc_hd__xor2_1
*I *2375:A1 I *D sky130_fd_sc_hd__a21o_1
*I *2372:X O *D sky130_fd_sc_hd__xor2_1
*CAP
1 *2374:A 6.46594e-05
2 *2375:A1 0.000159335
3 *2372:X 0
4 *518:4 0.000223994
5 *2374:A *2373:A 6.32273e-05
6 *2374:A *2373:B 0.000239422
7 *2374:A *520:14 3.08664e-05
8 *2375:A1 *2375:B1 2.16315e-05
9 *2375:A1 *1307:10 0
10 *2375:A1 *1374:12 3.4846e-06
11 *31:257 *2375:A1 5.49544e-05
*RES
1 *2372:X *518:4 9.3 
2 *518:4 *2375:A1 20.7821 
3 *518:4 *2374:A 11.9071 
*END

*D_NET *519 0.000760456
*CONN
*I *2375:B1 I *D sky130_fd_sc_hd__a21o_1
*I *2373:X O *D sky130_fd_sc_hd__and2_1
*CAP
1 *2375:B1 0.000235603
2 *2373:X 0.000235603
3 *2375:B1 *2373:B 0.000228334
4 *2375:B1 *521:12 3.92854e-05
5 *2375:B1 *1307:10 0
6 *2374:B *2375:B1 0
7 *2375:A1 *2375:B1 2.16315e-05
*RES
1 *2373:X *2375:B1 31.4214 
*END

*D_NET *520 0.00256182
*CONN
*I *2381:A I *D sky130_fd_sc_hd__and2_1
*I *2383:A I *D sky130_fd_sc_hd__inv_1
*I *2374:X O *D sky130_fd_sc_hd__xor2_1
*CAP
1 *2381:A 7.86874e-05
2 *2383:A 4.67209e-05
3 *2374:X 0.000874162
4 *520:14 0.00099957
5 *2381:A *2384:B 6.34085e-05
6 *520:14 *2372:A 2.59355e-05
7 *520:14 *2373:A 0.000265704
8 *520:14 *2373:B 4.53378e-05
9 *2374:A *520:14 3.08664e-05
10 *2723:B *2381:A 4.47395e-05
11 *31:15 *2381:A 2.69641e-05
12 *41:9 *2381:A 3.98154e-05
13 *41:11 *2381:A 1.99099e-05
*RES
1 *2374:X *520:14 22.2286 
2 *520:14 *2383:A 9.99196 
3 *520:14 *2381:A 20.8536 
*END

*D_NET *521 0.00378941
*CONN
*I *2387:A I *D sky130_fd_sc_hd__inv_1
*I *2386:A I *D sky130_fd_sc_hd__and2_1
*I *2375:X O *D sky130_fd_sc_hd__a21o_1
*CAP
1 *2387:A 0
2 *2386:A 0.000144857
3 *2375:X 0.0013061
4 *521:12 0.00145096
5 *2386:A *2386:B 3.34295e-05
6 *2386:A *2388:B 4.56594e-05
7 *521:12 *2920:A 2.74273e-05
8 *521:12 *2920:B 6.09476e-05
9 *521:12 *3229:A 0.000188838
10 *521:12 *3230:A1 0.000125908
11 *521:12 *3230:A2 0
12 *521:12 *1307:10 0
13 *521:12 *1310:10 0
14 *2375:B1 *521:12 3.92854e-05
15 *2379:A2 *521:12 0.00021081
16 *10:51 *2386:A 4.4974e-05
17 *10:51 *521:12 1.14548e-05
18 *19:29 *2386:A 0
19 *22:129 *2386:A 0
20 *41:87 *2386:A 8.69765e-05
21 *41:87 *521:12 1.17907e-05
*RES
1 *2375:X *521:12 42.3402 
2 *521:12 *2386:A 21.3848 
3 *521:12 *2387:A 9.3 
*END

*D_NET *522 0.000554816
*CONN
*I *2378:A I *D sky130_fd_sc_hd__xor2_1
*I *2379:A1 I *D sky130_fd_sc_hd__a21o_1
*I *2376:X O *D sky130_fd_sc_hd__xor2_1
*CAP
1 *2378:A 0
2 *2379:A1 0.000154746
3 *2376:X 8.10112e-05
4 *522:8 0.000235758
5 *9:60 *522:8 7.77751e-05
6 *19:25 *2379:A1 5.52579e-06
*RES
1 *2376:X *522:8 11.0857 
2 *522:8 *2379:A1 20.4786 
3 *522:8 *2378:A 9.3 
*END

*D_NET *523 0.000189201
*CONN
*I *2379:B1 I *D sky130_fd_sc_hd__a21o_1
*I *2377:X O *D sky130_fd_sc_hd__and2_1
*CAP
1 *2379:B1 5.42347e-05
2 *2377:X 5.42347e-05
3 *19:71 *2379:B1 8.07313e-05
*RES
1 *2377:X *2379:B1 19.9571 
*END

*D_NET *524 0.00314322
*CONN
*I *2380:A I *D sky130_fd_sc_hd__inv_1
*I *2384:A I *D sky130_fd_sc_hd__and2_1
*I *2378:X O *D sky130_fd_sc_hd__xor2_1
*CAP
1 *2380:A 8.23437e-05
2 *2384:A 0
3 *2378:X 0.00115297
4 *524:12 0.00123531
5 *2380:A *2381:B 1.89596e-05
6 *524:12 *3228:B 1.58163e-05
7 *524:12 *1252:6 3.32631e-05
8 *9:48 *524:12 6.86792e-05
9 *9:60 *524:12 0.000257315
10 *11:39 *524:12 0.000129868
11 *32:155 *2380:A 3.13387e-05
12 *32:155 *524:12 0.00010326
13 *41:11 *524:12 1.41029e-05
*RES
1 *2378:X *524:12 33.2107 
2 *524:12 *2384:A 9.3 
3 *524:12 *2380:A 10.7866 
*END

*D_NET *525 0.00389174
*CONN
*I *2385:A I *D sky130_fd_sc_hd__inv_1
*I *2388:A I *D sky130_fd_sc_hd__and2_1
*I *2379:X O *D sky130_fd_sc_hd__a21o_1
*CAP
1 *2385:A 0.000123705
2 *2388:A 6.15849e-05
3 *2379:X 0.00070483
4 *525:14 0.000890119
5 *2385:A *2386:B 0.000101545
6 *2385:A *2392:A2 1.76039e-05
7 *2385:A *530:10 2.16719e-05
8 *2388:A *2386:B 3.69047e-06
9 *2388:A *2388:B 6.05161e-06
10 *525:14 *2388:B 2.84109e-05
11 *525:14 *2849:A 0.000100823
12 *525:14 *532:10 9.83388e-05
13 *2665:B *2385:A 1.14548e-05
14 *2905:A *525:14 0.00019384
15 *9:60 *525:14 0.000901123
16 *10:57 *525:14 0.00011159
17 *19:29 *525:14 0.00014805
18 *19:45 *525:14 2.19778e-05
19 *19:71 *525:14 5.52238e-05
20 *31:70 *2388:A 5.74499e-06
21 *31:70 *525:14 7.56534e-05
22 *31:83 *525:14 1.92789e-05
23 *38:295 *525:14 0.00018943
*RES
1 *2379:X *525:14 37.05 
2 *525:14 *2388:A 10.2643 
3 *525:14 *2385:A 20.7866 
*END

*D_NET *526 0.00059781
*CONN
*I *2381:B I *D sky130_fd_sc_hd__and2_1
*I *2380:Y O *D sky130_fd_sc_hd__inv_1
*CAP
1 *2381:B 0.000148268
2 *2380:Y 0.000148268
3 *2381:B *2384:B 7.79781e-06
4 *2380:A *2381:B 1.89596e-05
5 *11:39 *2381:B 0.000150508
6 *41:11 *2381:B 0.00012401
*RES
1 *2380:Y *2381:B 30.9304 
*END

*D_NET *527 0.000316828
*CONN
*I *2016:B I *D sky130_fd_sc_hd__or2_1
*I *1983:X O *D sky130_fd_sc_hd__and2_1
*CAP
1 *2016:B 8.34587e-05
2 *1983:X 8.34587e-05
3 *3:179 *2016:B 0.000149911
4 *33:277 *2016:B 0
*RES
1 *1983:X *2016:B 29.5464 
*END

*D_NET *528 0.000812129
*CONN
*I *2384:B I *D sky130_fd_sc_hd__and2_1
*I *2383:Y O *D sky130_fd_sc_hd__inv_1
*CAP
1 *2384:B 0.000132391
2 *2383:Y 0.000132391
3 *2381:A *2384:B 6.34085e-05
4 *2381:B *2384:B 7.79781e-06
5 *11:39 *2384:B 0.000154762
6 *31:15 *2384:B 0.000321378
7 *41:11 *2384:B 0
*RES
1 *2383:Y *2384:B 32.0018 
*END

*D_NET *529 0.000831829
*CONN
*I *2386:B I *D sky130_fd_sc_hd__and2_1
*I *2385:Y O *D sky130_fd_sc_hd__inv_1
*CAP
1 *2386:B 0.00019311
2 *2385:Y 0.00019311
3 *2386:B *2388:B 3.34295e-05
4 *2386:B *530:10 9.95202e-05
5 *2385:A *2386:B 0.000101545
6 *2386:A *2386:B 3.34295e-05
7 *2388:A *2386:B 3.69047e-06
8 *2665:B *2386:B 3.4792e-05
9 *19:45 *2386:B 0
10 *31:70 *2386:B 0.000139202
*RES
1 *2385:Y *2386:B 31.9661 
*END

*D_NET *530 0.00154923
*CONN
*I *2391:B I *D sky130_fd_sc_hd__xor2_1
*I *2392:A2 I *D sky130_fd_sc_hd__a21o_1
*I *2386:X O *D sky130_fd_sc_hd__and2_1
*CAP
1 *2391:B 7.24741e-05
2 *2392:A2 0.000247629
3 *2386:X 0.000252168
4 *530:10 0.000572272
5 *2392:A2 *2392:A1 0
6 *2392:A2 *2392:B1 0
7 *2392:A2 *2397:A 2.8266e-06
8 *2392:A2 *2402:A 0.00014969
9 *2392:A2 *532:10 0
10 *530:10 *2392:B1 0
11 *2385:A *2392:A2 1.76039e-05
12 *2385:A *530:10 2.16719e-05
13 *2386:B *530:10 9.95202e-05
14 *2665:B *2391:B 0.000105781
15 *31:70 *530:10 7.59753e-06
*RES
1 *2386:X *530:10 17.2107 
2 *530:10 *2392:A2 18.9429 
3 *530:10 *2391:B 15.5679 
*END

*D_NET *531 0.00043546
*CONN
*I *2388:B I *D sky130_fd_sc_hd__and2_1
*I *2387:Y O *D sky130_fd_sc_hd__inv_1
*CAP
1 *2388:B 0.000130148
2 *2387:Y 0.000130148
3 *2386:A *2388:B 4.56594e-05
4 *2386:B *2388:B 3.34295e-05
5 *2388:A *2388:B 6.05161e-06
6 *31:70 *2388:B 2.84109e-05
7 *41:87 *2388:B 3.32012e-05
8 *525:14 *2388:B 2.84109e-05
*RES
1 *2387:Y *2388:B 30.1089 
*END

*D_NET *532 0.00141727
*CONN
*I *2397:B I *D sky130_fd_sc_hd__xor2_1
*I *2398:A2 I *D sky130_fd_sc_hd__a21o_1
*I *2388:X O *D sky130_fd_sc_hd__and2_1
*CAP
1 *2397:B 0
2 *2398:A2 0.000208482
3 *2388:X 0.000304041
4 *532:10 0.000512523
5 *2398:A2 *2397:A 4.04221e-05
6 *2398:A2 *2398:A1 5.65955e-05
7 *2398:A2 *541:18 9.86153e-05
8 *2392:A2 *532:10 0
9 *2395:B *2398:A2 1.21398e-05
10 *2396:A *2398:A2 9.11048e-06
11 *19:45 *532:10 7.6997e-05
12 *525:14 *532:10 9.83388e-05
*RES
1 *2388:X *532:10 19.1214 
2 *532:10 *2398:A2 18.6571 
3 *532:10 *2397:B 13.8 
*END

*D_NET *533 0.000653585
*CONN
*I *2391:A I *D sky130_fd_sc_hd__xor2_1
*I *2392:A1 I *D sky130_fd_sc_hd__a21o_1
*I *2389:X O *D sky130_fd_sc_hd__xor2_1
*CAP
1 *2391:A 4.26158e-05
2 *2392:A1 7.33697e-05
3 *2389:X 0.000120757
4 *533:8 0.000236742
5 *2392:A1 *2392:B1 6.74911e-05
6 *533:8 *535:10 4.87854e-05
7 *2392:A2 *2392:A1 0
8 *2665:B *2391:A 3.42509e-05
9 *2665:B *533:8 2.95726e-05
*RES
1 *2389:X *533:8 11.4964 
2 *533:8 *2392:A1 19.9429 
3 *533:8 *2391:A 10.2464 
*END

*D_NET *534 0.000671493
*CONN
*I *2392:B1 I *D sky130_fd_sc_hd__a21o_1
*I *2390:X O *D sky130_fd_sc_hd__and2_1
*CAP
1 *2392:B1 0.000143558
2 *2390:X 0.000143558
3 *2392:A1 *2392:B1 6.74911e-05
4 *2392:A2 *2392:B1 0
5 *22:129 *2392:B1 0.000316887
6 *530:10 *2392:B1 0
*RES
1 *2390:X *2392:B1 31.6714 
*END

*D_NET *535 0.00212614
*CONN
*I *2400:A I *D sky130_fd_sc_hd__and2_1
*I *2401:A I *D sky130_fd_sc_hd__inv_1
*I *2391:X O *D sky130_fd_sc_hd__xor2_1
*CAP
1 *2400:A 8.20868e-05
2 *2401:A 2.71939e-05
3 *2391:X 0.000354708
4 *535:10 0.000463989
5 *2400:A *2402:B 4.25716e-05
6 *2401:A *2399:A 6.44047e-05
7 *535:10 *2389:A 4.58194e-05
8 *535:10 *2399:A 0.000172309
9 *2665:B *535:10 0.000511633
10 *11:47 *2400:A 0.00017309
11 *32:17 *2401:A 1.91113e-05
12 *32:17 *535:10 0.000120439
13 *533:8 *535:10 4.87854e-05
*RES
1 *2391:X *535:10 18.4964 
2 *535:10 *2401:A 9.94732 
3 *535:10 *2400:A 20.55 
*END

*D_NET *536 0.00343836
*CONN
*I *2406:A I *D sky130_fd_sc_hd__inv_1
*I *2404:A I *D sky130_fd_sc_hd__and2_1
*I *2392:X O *D sky130_fd_sc_hd__a21o_1
*CAP
1 *2406:A 9.54485e-05
2 *2404:A 0.000150132
3 *2392:X 0.000812632
4 *536:8 0.00105821
5 *2404:A *2407:B 0
6 *2404:A *549:8 0
7 *536:8 *2928:A 5.56943e-05
8 *536:8 *3234:A2 0
9 *2931:A *536:8 0.000193675
10 *2932:A *536:8 0
11 *12:36 *536:8 0
12 *12:40 *536:8 0
13 *22:129 *536:8 0.00107257
*RES
1 *2392:X *536:8 32.4429 
2 *536:8 *2404:A 16.3536 
3 *536:8 *2406:A 15.3134 
*END

*D_NET *537 0.000196712
*CONN
*I *2027:A I *D sky130_fd_sc_hd__or2_1
*I *1994:X O *D sky130_fd_sc_hd__and2_1
*CAP
1 *2027:A 6.17422e-05
2 *1994:X 6.17422e-05
3 *1994:A *2027:A 7.32272e-05
*RES
1 *1994:X *2027:A 19.9571 
*END

*D_NET *538 0.000608689
*CONN
*I *2397:A I *D sky130_fd_sc_hd__xor2_1
*I *2398:A1 I *D sky130_fd_sc_hd__a21o_1
*I *2395:X O *D sky130_fd_sc_hd__xor2_1
*CAP
1 *2397:A 0.000185457
2 *2398:A1 6.05088e-05
3 *2395:X 0.000245965
4 *2398:A1 *541:18 1.69142e-05
5 *2392:A2 *2397:A 2.8266e-06
6 *2398:A2 *2397:A 4.04221e-05
7 *2398:A2 *2398:A1 5.65955e-05
*RES
1 *2395:X *2398:A1 19.975 
2 *2395:X *2397:A 30.9036 
*END

*D_NET *539 0.000512623
*CONN
*I *2398:B1 I *D sky130_fd_sc_hd__a21o_1
*I *2396:X O *D sky130_fd_sc_hd__and2_1
*CAP
1 *2398:B1 0.000256312
2 *2396:X 0.000256312
3 *22:129 *2398:B1 0
*RES
1 *2396:X *2398:B1 31.0107 
*END

*D_NET *540 0.00278269
*CONN
*I *2399:A I *D sky130_fd_sc_hd__inv_1
*I *2402:A I *D sky130_fd_sc_hd__and2_1
*I *2397:X O *D sky130_fd_sc_hd__xor2_1
*CAP
1 *2399:A 0.000210254
2 *2402:A 0.00092691
3 *2397:X 0.000716656
4 *2399:A *2400:B 5.34446e-05
5 *2399:A *2402:B 0.000289511
6 *2402:A *1378:10 0.00010096
7 *2392:A2 *2402:A 0.00014969
8 *2401:A *2399:A 6.44047e-05
9 *32:17 *2399:A 4.27657e-05
10 *32:23 *2399:A 5.5782e-05
11 *535:10 *2399:A 0.000172309
*RES
1 *2397:X *2402:A 29.9571 
2 *2402:A *2399:A 33.6223 
*END

*D_NET *541 0.00521394
*CONN
*I *2407:A I *D sky130_fd_sc_hd__and2_1
*I *2403:A I *D sky130_fd_sc_hd__inv_1
*I *2398:X O *D sky130_fd_sc_hd__a21o_1
*CAP
1 *2407:A 0
2 *2403:A 4.5935e-05
3 *2398:X 0.00154017
4 *541:18 0.0015861
5 *2403:A *2404:B 7.82904e-05
6 *541:18 *2032:A 3.80904e-05
7 *541:18 *2033:B 7.79781e-06
8 *541:18 *2102:B 0
9 *541:18 *2108:A 0.000154762
10 *541:18 *2109:A 0.000186387
11 *541:18 *2801:A 0.000148196
12 *541:18 *2801:B 0.000100831
13 *541:18 *2862:B 0.00010326
14 *541:18 *874:6 1.24368e-05
15 *541:18 *1010:8 4.98055e-06
16 zN[0] *541:18 0.000265974
17 zP[0] *541:18 0.000208147
18 *2100:B1 *541:18 0.000272658
19 *2395:B *541:18 6.07915e-05
20 *2398:A1 *541:18 1.69142e-05
21 *2398:A2 *541:18 9.86153e-05
22 *2733:B *541:18 0
23 *10:57 *541:18 0.000210385
24 *42:140 *541:18 0
25 *280:6 *541:18 7.32272e-05
*RES
1 *2398:X *541:18 48.9429 
2 *541:18 *2403:A 10.858 
3 *541:18 *2407:A 9.3 
*END

*D_NET *542 0.000513164
*CONN
*I *2400:B I *D sky130_fd_sc_hd__and2_1
*I *2399:Y O *D sky130_fd_sc_hd__inv_1
*CAP
1 *2400:B 0.000104135
2 *2399:Y 0.000104135
3 *2399:A *2400:B 5.34446e-05
4 *11:47 *2400:B 0.000125724
5 *21:41 *2400:B 0.000125724
*RES
1 *2399:Y *2400:B 29.9839 
*END

*D_NET *543 0.000661695
*CONN
*I *2402:B I *D sky130_fd_sc_hd__and2_1
*I *2401:Y O *D sky130_fd_sc_hd__inv_1
*CAP
1 *2402:B 0.000164806
2 *2401:Y 0.000164806
3 *2399:A *2402:B 0.000289511
4 *2400:A *2402:B 4.25716e-05
*RES
1 *2401:Y *2402:B 30.8054 
*END

*D_NET *544 0.000776758
*CONN
*I *2404:B I *D sky130_fd_sc_hd__and2_1
*I *2403:Y O *D sky130_fd_sc_hd__inv_1
*CAP
1 *2404:B 0.000265212
2 *2403:Y 0.000265212
3 *2404:B *2407:B 5.65955e-05
4 zN[0] *2404:B 0.000111448
5 *2403:A *2404:B 7.82904e-05
*RES
1 *2403:Y *2404:B 23.8768 
*END

*D_NET *545 0.00067512
*CONN
*I *2410:B I *D sky130_fd_sc_hd__xor2_1
*I *2411:A2 I *D sky130_fd_sc_hd__a21o_1
*I *2404:X O *D sky130_fd_sc_hd__and2_1
*CAP
1 *2410:B 0
2 *2411:A2 9.57439e-05
3 *2404:X 8.59531e-05
4 *545:6 0.000181697
5 *2411:A2 *2411:A1 0.000129868
6 *2411:A2 *2411:B1 2.00751e-05
7 *2411:A2 *549:8 3.51442e-05
8 zN[0] *545:6 0.000126639
*RES
1 *2404:X *545:6 11.4786 
2 *545:6 *2411:A2 20.8536 
3 *545:6 *2410:B 9.3 
*END

*D_NET *546 0.00020148
*CONN
*I *2027:B I *D sky130_fd_sc_hd__or2_1
*I *2005:X O *D sky130_fd_sc_hd__and2_1
*CAP
1 *2027:B 5.03774e-05
2 *2005:X 5.03774e-05
3 *3:140 *2027:B 5.03624e-05
4 *14:220 *2027:B 3.92757e-05
5 *14:237 *2027:B 1.10866e-05
*RES
1 *2005:X *2027:B 28.9393 
*END

*D_NET *547 0.000415054
*CONN
*I *2407:B I *D sky130_fd_sc_hd__and2_1
*I *2406:Y O *D sky130_fd_sc_hd__inv_1
*CAP
1 *2407:B 0.000170073
2 *2406:Y 0.000170073
3 zN[0] *2407:B 1.83136e-05
4 *2404:A *2407:B 0
5 *2404:B *2407:B 5.65955e-05
*RES
1 *2406:Y *2407:B 30.4125 
*END

*D_NET *548 0.00102113
*CONN
*I *2414:B I *D sky130_fd_sc_hd__xor2_1
*I *2415:A2 I *D sky130_fd_sc_hd__a21o_1
*I *2407:X O *D sky130_fd_sc_hd__and2_1
*CAP
1 *2414:B 2.33018e-05
2 *2415:A2 6.67648e-05
3 *2407:X 0.000223342
4 *548:10 0.000313409
5 *2414:B *2414:A 2.39313e-05
6 *2415:A2 *2414:A 0.000104809
7 *2415:A2 *2415:A1 9.90367e-05
8 *2415:A2 *555:6 9.90367e-05
9 *548:10 *553:10 6.75007e-05
10 *548:10 *1082:14 0
11 zN[1] *548:10 0
*RES
1 *2407:X *548:10 22.3714 
2 *548:10 *2415:A2 11.4964 
3 *548:10 *2414:B 9.83571 
*END

*D_NET *549 0.000541235
*CONN
*I *2410:A I *D sky130_fd_sc_hd__xor2_1
*I *2411:A1 I *D sky130_fd_sc_hd__a21o_1
*I *2408:X O *D sky130_fd_sc_hd__xor2_1
*CAP
1 *2410:A 0
2 *2411:A1 3.75945e-05
3 *2408:X 7.9363e-05
4 *549:8 0.000116958
5 *2411:A1 *2411:B1 6.97972e-05
6 *549:8 *2411:B1 7.25104e-05
7 *2404:A *549:8 0
8 *2411:A2 *2411:A1 0.000129868
9 *2411:A2 *549:8 3.51442e-05
*RES
1 *2408:X *549:8 15.7464 
2 *549:8 *2411:A1 15.4429 
3 *549:8 *2410:A 13.8 
*END

*D_NET *550 0.000981759
*CONN
*I *2411:B1 I *D sky130_fd_sc_hd__a21o_1
*I *2409:X O *D sky130_fd_sc_hd__and2_1
*CAP
1 *2411:B1 0.000291469
2 *2409:X 0.000291469
3 *2411:B1 *2409:B 0.000105163
4 *2411:B1 *551:12 0.000109809
5 *2411:B1 *1379:12 2.14658e-05
6 *2411:A1 *2411:B1 6.97972e-05
7 *2411:A2 *2411:B1 2.00751e-05
8 *549:8 *2411:B1 7.25104e-05
*RES
1 *2409:X *2411:B1 33.85 
*END

*D_NET *551 0.000949257
*CONN
*I *2419:A I *D sky130_fd_sc_hd__inv_1
*I *2418:A I *D sky130_fd_sc_hd__and2_1
*I *2410:X O *D sky130_fd_sc_hd__xor2_1
*CAP
1 *2419:A 0.000171587
2 *2418:A 0
3 *2410:X 0.000143336
4 *551:12 0.000314923
5 *2419:A *2420:B 1.05613e-05
6 *2419:A *552:12 2.15245e-05
7 *551:12 *2417:A 6.04162e-05
8 *551:12 *552:12 5.41609e-05
9 zP[18] *2419:A 6.29385e-05
10 *2411:B1 *551:12 0.000109809
*RES
1 *2410:X *551:12 22.2107 
2 *551:12 *2418:A 9.3 
3 *551:12 *2419:A 12.983 
*END

*D_NET *552 0.00218995
*CONN
*I *2423:A I *D sky130_fd_sc_hd__inv_1
*I *2422:A I *D sky130_fd_sc_hd__and2_1
*I *2411:X O *D sky130_fd_sc_hd__a21o_1
*CAP
1 *2423:A 0.000198946
2 *2422:A 0
3 *2411:X 0.000493091
4 *552:12 0.000692037
5 *2423:A *2424:A 0.000112866
6 *2423:A *2424:B 0.000157721
7 *2423:A *2425:A 0.000103415
8 *2423:A *2426:B 4.87953e-05
9 *552:12 *2417:A 6.74815e-05
10 *552:12 *2420:B 5.03694e-05
11 *552:12 *2422:B 0.000148189
12 *552:12 *2426:B 4.13573e-05
13 zN[19] *552:12 0
14 *2419:A *552:12 2.15245e-05
15 *551:12 *552:12 5.41609e-05
*RES
1 *2411:X *552:12 27.2821 
2 *552:12 *2422:A 9.3 
3 *552:12 *2423:A 14.6259 
*END

*D_NET *553 0.000902189
*CONN
*I *2414:A I *D sky130_fd_sc_hd__xor2_1
*I *2415:A1 I *D sky130_fd_sc_hd__a21o_1
*I *2412:X O *D sky130_fd_sc_hd__xor2_1
*CAP
1 *2414:A 0.000106314
2 *2415:A1 6.35186e-05
3 *2412:X 0.000121406
4 *553:10 0.000291239
5 *2415:A1 *555:6 2.44318e-05
6 *553:10 *2415:B1 0
7 *2414:B *2414:A 2.39313e-05
8 *2415:A2 *2414:A 0.000104809
9 *2415:A2 *2415:A1 9.90367e-05
10 *548:10 *553:10 6.75007e-05
*RES
1 *2412:X *553:10 20.55 
2 *553:10 *2415:A1 10.6571 
3 *553:10 *2414:A 11.4964 
*END

*D_NET *554 0.000229062
*CONN
*I *2415:B1 I *D sky130_fd_sc_hd__a21o_1
*I *2413:X O *D sky130_fd_sc_hd__and2_1
*CAP
1 *2415:B1 0.000114531
2 *2413:X 0.000114531
3 *553:10 *2415:B1 0
*RES
1 *2413:X *2415:B1 29.5464 
*END

*D_NET *555 0.00170598
*CONN
*I *2420:A I *D sky130_fd_sc_hd__and2_1
*I *2417:A I *D sky130_fd_sc_hd__inv_1
*I *2414:X O *D sky130_fd_sc_hd__xor2_1
*CAP
1 *2420:A 0
2 *2417:A 0.000232127
3 *2414:X 0.000458831
4 *555:6 0.000690957
5 *2417:A *2418:B 6.42242e-05
6 zN[0] *2417:A 8.47668e-06
7 zN[18] *2417:A 0
8 *2415:A1 *555:6 2.44318e-05
9 *2415:A2 *555:6 9.90367e-05
10 *551:12 *2417:A 6.04162e-05
11 *552:12 *2417:A 6.74815e-05
*RES
1 *2414:X *555:6 17.2286 
2 *555:6 *2417:A 23.2598 
3 *555:6 *2420:A 9.3 
*END

*D_NET *556 0.0012062
*CONN
*I *2421:A I *D sky130_fd_sc_hd__inv_1
*I *2424:A I *D sky130_fd_sc_hd__and2_1
*I *2415:X O *D sky130_fd_sc_hd__a21o_1
*CAP
1 *2421:A 0.000168787
2 *2424:A 0.0002801
3 *2415:X 9.77824e-05
4 *556:8 0.00054667
5 *2423:A *2424:A 0.000112866
*RES
1 *2415:X *556:8 15.4429 
2 *556:8 *2424:A 18.9429 
3 *556:8 *2421:A 16.5455 
*END

*D_NET *557 0.00140555
*CONN
*I *2951:B I *D sky130_fd_sc_hd__and2_1
*I *2950:B I *D sky130_fd_sc_hd__xor2_1
*I *2016:X O *D sky130_fd_sc_hd__or2_1
*CAP
1 *2951:B 0.000193704
2 *2950:B 0
3 *2016:X 0.000226769
4 *557:12 0.000420473
5 *2951:B *2847:B 0
6 *2951:B *2950:A 0.000157818
7 *557:12 *1097:12 0
8 *557:12 *1397:16 0.000315887
9 *2736:B *557:12 5.9483e-05
10 *40:91 *557:12 3.14163e-05
*RES
1 *2016:X *557:12 23.3179 
2 *557:12 *2950:B 9.3 
3 *557:12 *2951:B 13.05 
*END

*D_NET *558 0.000332082
*CONN
*I *2418:B I *D sky130_fd_sc_hd__and2_1
*I *2417:Y O *D sky130_fd_sc_hd__inv_1
*CAP
1 *2418:B 0.000132531
2 *2417:Y 0.000132531
3 zN[0] *2418:B 2.79708e-06
4 zP[18] *2418:B 0
5 *2417:A *2418:B 6.42242e-05
*RES
1 *2417:Y *2418:B 29.5732 
*END

*D_NET *559 0.00049948
*CONN
*I *2420:B I *D sky130_fd_sc_hd__and2_1
*I *2419:Y O *D sky130_fd_sc_hd__inv_1
*CAP
1 *2420:B 0.000196795
2 *2419:Y 0.000196795
3 zN[18] *2420:B 4.49599e-05
4 *2419:A *2420:B 1.05613e-05
5 *552:12 *2420:B 5.03694e-05
*RES
1 *2419:Y *2420:B 31.2339 
*END

*D_NET *560 0.000831465
*CONN
*I *2422:B I *D sky130_fd_sc_hd__and2_1
*I *2421:Y O *D sky130_fd_sc_hd__inv_1
*CAP
1 *2422:B 0.000269815
2 *2421:Y 0.000269815
3 *2422:B *2426:A 2.89114e-05
4 *2422:B *2426:B 7.6644e-05
5 *2422:B *2428:A 3.80904e-05
6 *552:12 *2422:B 0.000148189
*RES
1 *2421:Y *2422:B 31.9304 
*END

*D_NET *561 0.00114363
*CONN
*I *2426:A I *D sky130_fd_sc_hd__and2_1
*I *2428:A I *D sky130_fd_sc_hd__inv_1
*I *2422:X O *D sky130_fd_sc_hd__and2_1
*CAP
1 *2426:A 9.74155e-05
2 *2428:A 0.00025485
3 *2422:X 0
4 *561:6 0.000352266
5 *2426:A *2426:B 0.000116474
6 *2428:A *2426:B 9.25014e-06
7 *2428:A *2429:A 0.000126446
8 *2428:A *2429:B 0.000119924
9 zN[19] *2428:A 0
10 *2422:B *2426:A 2.89114e-05
11 *2422:B *2428:A 3.80904e-05
*RES
1 *2422:X *561:6 13.8 
2 *561:6 *2428:A 19.1348 
3 *561:6 *2426:A 15.9786 
*END

*D_NET *562 0.000373161
*CONN
*I *2424:B I *D sky130_fd_sc_hd__and2_1
*I *2423:Y O *D sky130_fd_sc_hd__inv_1
*CAP
1 *2424:B 0.00010772
2 *2423:Y 0.00010772
3 *2423:A *2424:B 0.000157721
*RES
1 *2423:Y *2424:B 21.0196 
*END

*D_NET *563 0.00087829
*CONN
*I *2429:A I *D sky130_fd_sc_hd__and2_1
*I *2425:A I *D sky130_fd_sc_hd__inv_1
*I *2424:X O *D sky130_fd_sc_hd__and2_1
*CAP
1 *2429:A 0.000118996
2 *2425:A 0.000186969
3 *2424:X 0
4 *563:4 0.000305964
5 *2425:A *2426:B 3.65002e-05
6 *2423:A *2425:A 0.000103415
7 *2428:A *2429:A 0.000126446
*RES
1 *2424:X *563:4 9.3 
2 *563:4 *2425:A 12.9652 
3 *563:4 *2429:A 20.55 
*END

*D_NET *564 0.000742621
*CONN
*I *2426:B I *D sky130_fd_sc_hd__and2_1
*I *2425:Y O *D sky130_fd_sc_hd__inv_1
*CAP
1 *2426:B 0.0002068
2 *2425:Y 0.0002068
3 *2422:B *2426:B 7.6644e-05
4 *2423:A *2426:B 4.87953e-05
5 *2425:A *2426:B 3.65002e-05
6 *2426:A *2426:B 0.000116474
7 *2428:A *2426:B 9.25014e-06
8 *552:12 *2426:B 4.13573e-05
*RES
1 *2425:Y *2426:B 31.5196 
*END

*D_NET *565 0.00057435
*CONN
*I *3249:B I *D sky130_fd_sc_hd__xor2_1
*I *3250:B I *D sky130_fd_sc_hd__and2_1
*I *2027:X O *D sky130_fd_sc_hd__or2_1
*CAP
1 *3249:B 8.25528e-05
2 *3250:B 1.8512e-05
3 *2027:X 8.24392e-05
4 *565:6 0.000183504
5 *3249:B *3249:A 0.000155327
6 *3250:B *3249:A 2.01466e-05
7 *565:6 *3249:A 3.18676e-05
*RES
1 *2027:X *565:6 10.6571 
2 *565:6 *3250:B 9.72857 
3 *565:6 *3249:B 11.0679 
*END

*D_NET *566 0.000254964
*CONN
*I *2429:B I *D sky130_fd_sc_hd__and2_1
*I *2428:Y O *D sky130_fd_sc_hd__inv_1
*CAP
1 *2429:B 6.75201e-05
2 *2428:Y 6.75201e-05
3 *2428:A *2429:B 0.000119924
*RES
1 *2428:Y *2429:B 20.1625 
*END

*D_NET *567 0.000305746
*CONN
*I *2083:A I *D sky130_fd_sc_hd__or2_1
*I *2038:X O *D sky130_fd_sc_hd__and2_1
*CAP
1 *2083:A 3.31387e-05
2 *2038:X 3.31387e-05
3 *2083:A *2083:B 5.52302e-05
4 *4:244 *2083:A 0.000139913
5 *41:153 *2083:A 4.43256e-05
*RES
1 *2038:X *2083:A 19.9571 
*END

*D_NET *568 0.000600977
*CONN
*I *2083:B I *D sky130_fd_sc_hd__or2_1
*I *2049:X O *D sky130_fd_sc_hd__and2_1
*CAP
1 *2083:B 6.4581e-05
2 *2049:X 6.4581e-05
3 *2038:A *2083:B 5.71472e-05
4 *2083:A *2083:B 5.52302e-05
5 *4:244 *2083:B 7.96236e-05
6 *41:112 *2083:B 0.0001399
7 *41:153 *2083:B 0.000139913
*RES
1 *2049:X *2083:B 21.1893 
*END

*D_NET *569 0.000203957
*CONN
*I *2094:A I *D sky130_fd_sc_hd__or2_1
*I *2061:X O *D sky130_fd_sc_hd__and2_1
*CAP
1 *2094:A 7.0379e-05
2 *2061:X 7.0379e-05
3 *2094:A *2094:B 5.71472e-05
4 *2444:A *2094:A 6.05161e-06
*RES
1 *2061:X *2094:A 19.9571 
*END

*D_NET *570 0.000517493
*CONN
*I *2094:B I *D sky130_fd_sc_hd__or2_1
*I *2072:X O *D sky130_fd_sc_hd__and2_1
*CAP
1 *2094:B 8.78364e-05
2 *2072:X 8.78364e-05
3 *2094:A *2094:B 5.71472e-05
4 *2802:B *2094:B 0.000227526
5 *14:260 *2094:B 5.71472e-05
*RES
1 *2072:X *2094:B 21.1893 
*END

*D_NET *571 0.000718441
*CONN
*I *2937:B I *D sky130_fd_sc_hd__xor2_1
*I *2938:B I *D sky130_fd_sc_hd__and2_1
*I *2083:X O *D sky130_fd_sc_hd__or2_1
*CAP
1 *2937:B 7.46041e-05
2 *2938:B 6.22803e-05
3 *2083:X 4.33667e-05
4 *571:10 0.000180251
5 *2937:B *2937:A 9.41642e-05
6 *2937:B *2938:A 1.98839e-05
7 *2938:B *2938:A 6.77527e-05
8 *571:10 *1457:10 0.000128154
9 *34:89 *571:10 4.79842e-05
*RES
1 *2083:X *571:10 19.9429 
2 *571:10 *2938:B 10.675 
3 *571:10 *2937:B 10.6571 
*END

*D_NET *572 0.000700085
*CONN
*I *3237:B I *D sky130_fd_sc_hd__and2_1
*I *3236:B I *D sky130_fd_sc_hd__xor2_1
*I *2094:X O *D sky130_fd_sc_hd__or2_1
*CAP
1 *3237:B 5.87916e-05
2 *3236:B 0
3 *2094:X 4.73954e-05
4 *572:10 0.000106187
5 *3237:B *3236:A 0.000196066
6 *3237:B *1084:14 9.7659e-05
7 *3237:B *1381:8 0
8 *5:122 *572:10 6.65398e-05
9 *33:277 *572:10 0.000127446
*RES
1 *2094:X *572:10 19.9429 
2 *572:10 *3236:B 9.3 
3 *572:10 *3237:B 11.4964 
*END

*D_NET *573 0.000248249
*CONN
*I *2149:A I *D sky130_fd_sc_hd__or2_1
*I *2105:X O *D sky130_fd_sc_hd__and2_1
*CAP
1 *2149:A 7.46195e-05
2 *2105:X 7.46195e-05
3 *2149:A *2149:B 5.33005e-05
4 *2105:A *2149:A 4.57098e-05
*RES
1 *2105:X *2149:A 19.9571 
*END

*D_NET *574 0.000461568
*CONN
*I *2149:B I *D sky130_fd_sc_hd__or2_1
*I *2116:X O *D sky130_fd_sc_hd__and2_1
*CAP
1 *2149:B 7.58701e-05
2 *2116:X 7.58701e-05
3 *2105:A *2149:B 5.33005e-05
4 *2149:A *2149:B 5.33005e-05
5 *30:102 *2149:B 0.000150618
6 *31:151 *2149:B 5.26091e-05
*RES
1 *2116:X *2149:B 30.0821 
*END

*D_NET *575 0.00022296
*CONN
*I *2160:A I *D sky130_fd_sc_hd__or2_1
*I *2127:X O *D sky130_fd_sc_hd__and2_1
*CAP
1 *2160:A 3.81969e-05
2 *2127:X 3.81969e-05
3 *2160:A *578:8 4.15914e-05
4 *2127:A *2160:A 0.000104974
5 *5:122 *2160:A 0
*RES
1 *2127:X *2160:A 28.9393 
*END

*D_NET *576 0.000434808
*CONN
*I *2160:B I *D sky130_fd_sc_hd__or2_1
*I *2138:X O *D sky130_fd_sc_hd__and2_1
*CAP
1 *2160:B 0.000120778
2 *2138:X 0.000120778
3 *2160:B *1084:14 3.4879e-05
4 *2127:B *2160:B 5.33978e-05
5 *24:291 *2160:B 0.000104974
*RES
1 *2138:X *2160:B 30.2964 
*END

*D_NET *577 0.00208723
*CONN
*I *2939:A I *D sky130_fd_sc_hd__xor2_1
*I *2940:A I *D sky130_fd_sc_hd__and2_1
*I *2149:X O *D sky130_fd_sc_hd__or2_1
*CAP
1 *2939:A 0
2 *2940:A 8.34984e-05
3 *2149:X 0.000387349
4 *577:12 0.000470848
5 *2940:A *2939:B 5.32166e-05
6 *2940:A *2940:B 0.000139907
7 *577:12 *2461:B 0
8 *577:12 *631:10 6.09476e-05
9 *2105:A *577:12 1.58163e-05
10 *10:110 *2940:A 0.000304139
11 *12:157 *2940:A 3.14078e-05
12 *18:25 *577:12 0.000171375
13 *18:44 *577:12 0.000328394
14 *30:89 *577:12 0
15 *30:102 *577:12 0
16 *31:151 *577:12 4.03318e-05
*RES
1 *2149:X *577:12 26.1571 
2 *577:12 *2940:A 12.7464 
3 *577:12 *2939:A 9.3 
*END

*D_NET *578 0.00284031
*CONN
*I *3239:A I *D sky130_fd_sc_hd__and2_1
*I *3238:A I *D sky130_fd_sc_hd__xor2_1
*I *2160:X O *D sky130_fd_sc_hd__or2_1
*CAP
1 *3239:A 5.45077e-05
2 *3238:A 0.000169366
3 *2160:X 0.000887682
4 *578:8 0.00111156
5 *3238:A *3238:B 0.000169249
6 *3238:A *632:8 0.000109466
7 *3238:A *1383:8 0
8 *3238:A *1384:8 0.00014183
9 *3239:A *2462:B 0
10 *578:8 *2462:B 0
11 *578:8 *2984:B 0
12 *578:8 *2986:A1 7.17932e-05
13 *578:8 *2986:B1 5.80376e-05
14 *578:8 *1382:14 0
15 *2127:A *578:8 7.79781e-06
16 *2127:B *578:8 0
17 *2160:A *578:8 4.15914e-05
18 *5:122 *578:8 0
19 *5:128 *578:8 0
20 *15:238 *3238:A 1.74352e-05
21 *24:291 *578:8 0
22 *31:207 *3239:A 0
23 *31:207 *578:8 0
24 *31:218 *3239:A 0
25 *41:203 *3239:A 0
26 *41:203 *578:8 0
*RES
1 *2160:X *578:8 29.4071 
2 *578:8 *3238:A 17.7821 
3 *578:8 *3239:A 14.5321 
*END

*D_NET *579 0.000197431
*CONN
*I *2216:A I *D sky130_fd_sc_hd__or2_1
*I *2172:X O *D sky130_fd_sc_hd__and2_1
*CAP
1 *2216:A 5.83344e-05
2 *2172:X 5.83344e-05
3 *2216:A *583:10 2.41665e-05
4 *2183:B *2216:A 5.65955e-05
*RES
1 *2172:X *2216:A 19.9571 
*END

*D_NET *580 9.40265e-05
*CONN
*I *2216:B I *D sky130_fd_sc_hd__or2_1
*I *2183:X O *D sky130_fd_sc_hd__and2_1
*CAP
1 *2216:B 1.87155e-05
2 *2183:X 1.87155e-05
3 *2183:B *2216:B 5.65955e-05
*RES
1 *2183:X *2216:B 19.1357 
*END

*D_NET *581 0.00019897
*CONN
*I *2227:A I *D sky130_fd_sc_hd__or2_1
*I *2194:X O *D sky130_fd_sc_hd__and2_1
*CAP
1 *2227:A 6.89565e-05
2 *2194:X 6.89565e-05
3 *2227:A *2227:B 5.50052e-05
4 *2194:A *2227:A 6.05161e-06
*RES
1 *2194:X *2227:A 19.9571 
*END

*D_NET *582 0.000518151
*CONN
*I *2227:B I *D sky130_fd_sc_hd__or2_1
*I *2205:X O *D sky130_fd_sc_hd__and2_1
*CAP
1 *2227:B 0.000110303
2 *2205:X 0.000110303
3 *2194:A *2227:B 3.6769e-05
4 *2194:B *2227:B 5.50052e-05
5 *2205:B *2227:B 1.14849e-05
6 *2227:A *2227:B 5.50052e-05
7 *296:10 *2227:B 0.000139281
*RES
1 *2205:X *2227:B 21.1893 
*END

*D_NET *583 0.00160963
*CONN
*I *2124:A I *D sky130_fd_sc_hd__and2_1
*I *2123:A I *D sky130_fd_sc_hd__xor2_1
*I *2216:X O *D sky130_fd_sc_hd__or2_1
*CAP
1 *2124:A 0.000153293
2 *2123:A 0
3 *2216:X 0.000384609
4 *583:10 0.000537903
5 *2126:A1 *583:10 0
6 *2183:A *583:10 5.92181e-05
7 *2183:B *583:10 0.000228508
8 *2205:A *2124:A 9.21958e-05
9 *2205:A *583:10 0.000129741
10 *2216:A *583:10 2.41665e-05
11 *23:36 *583:10 0
*RES
1 *2216:X *583:10 20.7643 
2 *583:10 *2123:A 13.8 
3 *583:10 *2124:A 16.9964 
*END

*D_NET *584 0.00136992
*CONN
*I *2129:A I *D sky130_fd_sc_hd__and2_1
*I *2128:A I *D sky130_fd_sc_hd__xor2_1
*I *2227:X O *D sky130_fd_sc_hd__or2_1
*CAP
1 *2129:A 0.000214697
2 *2128:A 0
3 *2227:X 0.000261624
4 *584:12 0.000476322
5 *2128:B *2129:A 0.000160011
6 *14:156 *584:12 4.68007e-05
7 *298:8 *584:12 0.00015716
8 *304:8 *2129:A 5.33005e-05
*RES
1 *2227:X *584:12 23.2464 
2 *584:12 *2128:A 9.3 
3 *584:12 *2129:A 13.675 
*END

*D_NET *585 0.000229829
*CONN
*I *2283:A I *D sky130_fd_sc_hd__or2_1
*I *2238:X O *D sky130_fd_sc_hd__and2_1
*CAP
1 *2283:A 6.19091e-05
2 *2238:X 6.19091e-05
3 *2283:A *2283:B 5.71472e-05
4 *24:190 *2283:A 4.88637e-05
*RES
1 *2238:X *2283:A 19.9571 
*END

*D_NET *586 0.000568495
*CONN
*I *2283:B I *D sky130_fd_sc_hd__or2_1
*I *2249:X O *D sky130_fd_sc_hd__and2_1
*CAP
1 *2283:B 0.000134857
2 *2249:X 0.000134857
3 *2283:A *2283:B 5.71472e-05
4 *24:190 *2283:B 0.000241633
*RES
1 *2249:X *2283:B 21.7429 
*END

*D_NET *587 0.00023363
*CONN
*I *2294:A I *D sky130_fd_sc_hd__or2_1
*I *2260:X O *D sky130_fd_sc_hd__and2_1
*CAP
1 *2294:A 0.000116815
2 *2260:X 0.000116815
3 *34:70 *2294:A 0
*RES
1 *2260:X *2294:A 29.5464 
*END

*D_NET *588 0.000321126
*CONN
*I *2294:B I *D sky130_fd_sc_hd__or2_1
*I *2271:X O *D sky130_fd_sc_hd__and2_1
*CAP
1 *2294:B 0.0001133
2 *2271:X 0.0001133
3 *2294:B *2039:A 7.43578e-06
4 *2294:B *590:6 3.18676e-05
5 *2473:B *2294:B 5.52238e-05
6 *25:74 *2294:B 0
*RES
1 *2271:X *2294:B 29.475 
*END

*D_NET *589 0.00192511
*CONN
*I *3170:A I *D sky130_fd_sc_hd__xor2_1
*I *3171:A I *D sky130_fd_sc_hd__and2_1
*I *2283:X O *D sky130_fd_sc_hd__or2_1
*CAP
1 *3170:A 0.000329879
2 *3171:A 0.000189767
3 *2283:X 0.000519646
4 *2282:A *3170:A 2.89114e-05
5 *3:22 *3170:A 0.000197186
6 *6:252 *3171:A 9.41642e-05
7 *13:13 *3170:A 6.62418e-05
8 *14:25 *3170:A 2.89114e-05
9 *15:93 *3171:A 5.52238e-05
10 *24:190 *3171:A 0.00041518
11 *34:32 *3170:A 0
*RES
1 *2283:X *3171:A 22.85 
2 *2283:X *3170:A 33.7786 
*END

*D_NET *590 0.000854772
*CONN
*I *2039:A I *D sky130_fd_sc_hd__xor2_1
*I *2040:A I *D sky130_fd_sc_hd__and2_1
*I *2294:X O *D sky130_fd_sc_hd__or2_1
*CAP
1 *2039:A 9.65915e-05
2 *2040:A 0
3 *2294:X 9.71474e-05
4 *590:6 0.000193739
5 *2039:A *2040:B 0.000165332
6 *2042:B1 *2039:A 0.000144773
7 *2294:B *2039:A 7.43578e-06
8 *2294:B *590:6 3.18676e-05
9 *2473:B *2039:A 2.95641e-05
10 *2473:B *590:6 8.83221e-05
*RES
1 *2294:X *590:6 11.4786 
2 *590:6 *2040:A 9.3 
3 *590:6 *2039:A 12.7286 
*END

*D_NET *591 0.000664523
*CONN
*I *2349:A I *D sky130_fd_sc_hd__or2_1
*I *2305:X O *D sky130_fd_sc_hd__and2_1
*CAP
1 *2349:A 0.000237969
2 *2305:X 0.000237969
3 *2305:B *2349:A 0
4 *15:32 *2349:A 0
5 *24:19 *2349:A 0.000188586
6 *35:45 *2349:A 0
*RES
1 *2305:X *2349:A 31.3143 
*END

*D_NET *592 0.000605098
*CONN
*I *2349:B I *D sky130_fd_sc_hd__or2_1
*I *2316:X O *D sky130_fd_sc_hd__and2_1
*CAP
1 *2349:B 0.000206709
2 *2316:X 0.000206709
3 *2349:B *3177:A2 9.90367e-05
4 *2349:B *1322:8 4.37999e-05
5 *35:22 *2349:B 4.8843e-05
*RES
1 *2316:X *2349:B 22.4214 
*END

*D_NET *593 0.000187009
*CONN
*I *2360:A I *D sky130_fd_sc_hd__or2_1
*I *2327:X O *D sky130_fd_sc_hd__and2_1
*CAP
1 *2360:A 6.84487e-05
2 *2327:X 6.84487e-05
3 *2360:A *2360:B 5.01117e-05
4 *8:38 *2360:A 0
*RES
1 *2327:X *2360:A 28.9393 
*END

*D_NET *594 0.000529523
*CONN
*I *2360:B I *D sky130_fd_sc_hd__or2_1
*I *2338:X O *D sky130_fd_sc_hd__and2_1
*CAP
1 *2360:B 0.000152977
2 *2338:X 0.000152977
3 *2360:A *2360:B 5.01117e-05
4 *2569:B *2360:B 0.000140933
5 *34:117 *2360:B 3.25247e-05
*RES
1 *2338:X *2360:B 30.2964 
*END

*D_NET *595 0.000615325
*CONN
*I *3109:A I *D sky130_fd_sc_hd__xor2_1
*I *3110:A I *D sky130_fd_sc_hd__and2_1
*I *2349:X O *D sky130_fd_sc_hd__or2_1
*CAP
1 *3109:A 0.000125353
2 *3110:A 0
3 *2349:X 3.63659e-05
4 *595:6 0.000161719
5 *3109:A *3110:B 9.94546e-05
6 *3109:A *3112:B1 0.000144773
7 *3109:A *1255:12 0
8 *3109:A *1322:8 7.48301e-06
9 *595:6 *1322:8 4.01768e-05
*RES
1 *2349:X *595:6 10.2464 
2 *595:6 *3110:A 9.3 
3 *595:6 *3109:A 12.7464 
*END

*D_NET *596 0.00116767
*CONN
*I *1979:A I *D sky130_fd_sc_hd__xor2_1
*I *1980:A I *D sky130_fd_sc_hd__and2_1
*I *2360:X O *D sky130_fd_sc_hd__or2_1
*CAP
1 *1979:A 7.31046e-05
2 *1980:A 5.65172e-05
3 *2360:X 0.00017736
4 *596:10 0.000306981
5 *1979:A *1979:B 4.58976e-05
6 *1980:A *1979:B 0.000194352
7 *1980:A *1980:B 0.00010096
8 *596:10 *2482:A 0
9 *596:10 *2482:B 0
10 *1982:B1 *1979:A 1.21258e-05
11 *2478:B *596:10 0
12 *33:266 *596:10 0.000200369
13 *34:117 *596:10 0
*RES
1 *2360:X *596:10 22.3714 
2 *596:10 *1980:A 11.4964 
3 *596:10 *1979:A 10.6571 
*END

*D_NET *597 0.000305392
*CONN
*I *2416:A I *D sky130_fd_sc_hd__or2_1
*I *2371:X O *D sky130_fd_sc_hd__and2_1
*CAP
1 *2416:A 0.000102697
2 *2371:X 0.000102697
3 *16:58 *2416:A 3.49086e-05
4 *26:61 *2416:A 1.00887e-05
5 *232:12 *2416:A 5.49995e-05
*RES
1 *2371:X *2416:A 29.475 
*END

*D_NET *598 0.000368123
*CONN
*I *2416:B I *D sky130_fd_sc_hd__or2_1
*I *2382:X O *D sky130_fd_sc_hd__and2_1
*CAP
1 *2416:B 0.000108634
2 *2382:X 0.000108634
3 *16:58 *2416:B 5.23822e-05
4 *232:12 *2416:B 9.84729e-05
*RES
1 *2382:X *2416:B 29.8857 
*END

*D_NET *599 0.000604231
*CONN
*I *2427:A I *D sky130_fd_sc_hd__or2_1
*I *2394:X O *D sky130_fd_sc_hd__and2_1
*CAP
1 *2427:A 0.000142435
2 *2394:X 0.000142435
3 *2427:A *602:14 0.000153047
4 *2427:A *1462:12 1.41029e-05
5 *3:206 *2427:A 0
6 *26:79 *2427:A 0.000152211
*RES
1 *2394:X *2427:A 31.3679 
*END

*D_NET *600 0.00010567
*CONN
*I *2427:B I *D sky130_fd_sc_hd__or2_1
*I *2405:X O *D sky130_fd_sc_hd__and2_1
*CAP
1 *2427:B 2.52229e-05
2 *2405:X 2.52229e-05
3 *2405:B *2427:B 5.52238e-05
*RES
1 *2405:X *2427:B 19.1357 
*END

*D_NET *601 0.000906385
*CONN
*I *3019:A2 I *D sky130_fd_sc_hd__a21o_1
*I *3018:B I *D sky130_fd_sc_hd__xor2_1
*I *2416:X O *D sky130_fd_sc_hd__or2_1
*CAP
1 *3019:A2 0.00025357
2 *3018:B 1.25092e-05
3 *2416:X 0.000266079
4 *3019:A2 *3018:A 0
5 *3019:A2 *3019:B1 4.1331e-06
6 *3019:A2 *1163:12 0
7 *16:58 *3018:B 8.05472e-05
8 *168:16 *3018:B 0.00010096
9 *168:16 *3019:A2 0.000188586
*RES
1 *2416:X *3018:B 19.5464 
2 *2416:X *3019:A2 31.3143 
*END

*D_NET *602 0.00111147
*CONN
*I *3318:B I *D sky130_fd_sc_hd__xor2_1
*I *3319:A2 I *D sky130_fd_sc_hd__a21o_1
*I *2427:X O *D sky130_fd_sc_hd__or2_1
*CAP
1 *3318:B 0
2 *3319:A2 0.000141783
3 *2427:X 0.000137129
4 *602:14 0.000278912
5 *3319:A2 *3318:A 0.000123383
6 *3319:A2 *1463:10 1.02936e-05
7 *602:14 *1462:12 0.000151333
8 *602:14 *1463:10 9.60875e-05
9 *2405:B *602:14 3.69047e-06
10 *2427:A *602:14 0.000153047
11 *36:316 *602:14 1.58163e-05
*RES
1 *2427:X *602:14 21.7286 
2 *602:14 *3319:A2 12.2286 
3 *602:14 *3318:B 9.3 
*END

*D_NET *603 0.000224339
*CONN
*I *2434:A I *D sky130_fd_sc_hd__or2_1
*I *2430:X O *D sky130_fd_sc_hd__and2_1
*CAP
1 *2434:A 8.45577e-05
2 *2430:X 8.45577e-05
3 *2434:A *2434:B 5.52238e-05
*RES
1 *2430:X *2434:A 19.9571 
*END

*D_NET *604 0.00053305
*CONN
*I *2434:B I *D sky130_fd_sc_hd__or2_1
*I *2431:X O *D sky130_fd_sc_hd__and2_1
*CAP
1 *2434:B 0.000167489
2 *2431:X 0.000167489
3 *2430:B *2434:B 0.00014285
4 *2434:A *2434:B 5.52238e-05
*RES
1 *2431:X *2434:B 21.7429 
*END

*D_NET *605 0.000781819
*CONN
*I *2435:A I *D sky130_fd_sc_hd__or2_1
*I *2432:X O *D sky130_fd_sc_hd__and2_1
*CAP
1 *2435:A 0.000168642
2 *2432:X 0.000168642
3 *1991:B1 *2435:A 5.33005e-05
4 *2494:B *2435:A 5.52302e-05
5 *6:60 *2435:A 9.90367e-05
6 *16:116 *2435:A 8.33092e-05
7 *27:172 *2435:A 1.38323e-05
8 *36:77 *2435:A 3.34366e-05
9 *36:100 *2435:A 9.0573e-05
10 *169:10 *2435:A 1.58163e-05
*RES
1 *2432:X *2435:A 31.5464 
*END

*D_NET *606 0.000471111
*CONN
*I *2435:B I *D sky130_fd_sc_hd__or2_1
*I *2433:X O *D sky130_fd_sc_hd__and2_1
*CAP
1 *2435:B 4.97864e-05
2 *2433:X 4.97864e-05
3 *1991:B1 *2435:B 0.000226513
4 *37:127 *2435:B 9.80173e-05
5 *169:10 *2435:B 4.70078e-05
*RES
1 *2433:X *2435:B 20.7786 
*END

*D_NET *607 0.00100837
*CONN
*I *3022:A I *D sky130_fd_sc_hd__xor2_1
*I *3023:A I *D sky130_fd_sc_hd__and2_1
*I *2434:X O *D sky130_fd_sc_hd__or2_1
*CAP
1 *3022:A 2.70145e-05
2 *3023:A 6.05179e-05
3 *2434:X 0.000207098
4 *607:6 0.000294631
5 *3022:A *3022:B 4.18895e-05
6 *3023:A *3023:B 0.000148903
7 *607:6 *3022:B 5.52302e-05
8 *7:68 *3023:A 0.00017309
9 *26:65 *3023:A 0
*RES
1 *2434:X *607:6 12.7107 
2 *607:6 *3023:A 20.55 
3 *607:6 *3022:A 9.83571 
*END

*D_NET *608 0.000902437
*CONN
*I *3322:A I *D sky130_fd_sc_hd__xor2_1
*I *3323:A I *D sky130_fd_sc_hd__and2_1
*I *2435:X O *D sky130_fd_sc_hd__or2_1
*CAP
1 *3322:A 3.0036e-05
2 *3323:A 5.94171e-05
3 *2435:X 4.54577e-05
4 *608:6 0.000134911
5 *3323:A *3323:B 0.000164561
6 *3323:A *662:10 3.34366e-05
7 *1991:B1 *3322:A 4.43256e-05
8 *1991:B1 *608:6 7.3237e-05
9 *26:65 *3323:A 0.000197998
10 *169:10 *3322:A 4.87953e-05
11 *169:10 *608:6 7.02611e-05
*RES
1 *2435:X *608:6 10.6571 
2 *608:6 *3323:A 20.8536 
3 *608:6 *3322:A 10.2464 
*END

*D_NET *609 0.000263754
*CONN
*I *2441:A I *D sky130_fd_sc_hd__or2_1
*I *2437:X O *D sky130_fd_sc_hd__and2_1
*CAP
1 *2441:A 4.14252e-05
2 *2437:X 4.14252e-05
3 *2441:A *613:10 7.83587e-05
4 *28:164 *2441:A 0
5 *38:159 *2441:A 0.000102545
*RES
1 *2437:X *2441:A 28.9393 
*END

*D_NET *610 0.000623188
*CONN
*I *2441:B I *D sky130_fd_sc_hd__or2_1
*I *2438:X O *D sky130_fd_sc_hd__and2_1
*CAP
1 *2441:B 0.000178127
2 *2438:X 0.000178127
3 *2564:B *2441:B 0.000227539
4 *28:164 *2441:B 3.93942e-05
*RES
1 *2438:X *2441:B 31.1179 
*END

*D_NET *611 0.00093956
*CONN
*I *2442:A I *D sky130_fd_sc_hd__or2_1
*I *2439:X O *D sky130_fd_sc_hd__and2_1
*CAP
1 *2442:A 0.000294627
2 *2439:X 0.000294627
3 *2499:A *2442:A 0.000137983
4 *2500:A *2442:A 6.71755e-05
5 *7:78 *2442:A 0
6 *36:100 *2442:A 0.000145147
*RES
1 *2439:X *2442:A 32.1357 
*END

*D_NET *612 0.000699259
*CONN
*I *2442:B I *D sky130_fd_sc_hd__or2_1
*I *2440:X O *D sky130_fd_sc_hd__and2_1
*CAP
1 *2442:B 0.000248799
2 *2440:X 0.000248799
3 *16:127 *2442:B 0.000100831
4 *36:100 *2442:B 0.000100831
*RES
1 *2440:X *2442:B 31.1179 
*END

*D_NET *613 0.00115877
*CONN
*I *2946:A2 I *D sky130_fd_sc_hd__a21o_1
*I *2945:B I *D sky130_fd_sc_hd__xor2_1
*I *2441:X O *D sky130_fd_sc_hd__or2_1
*CAP
1 *2946:A2 0
2 *2945:B 9.65093e-05
3 *2441:X 0.000180226
4 *613:10 0.000276735
5 *2945:B *2945:A 9.90367e-05
6 *2945:B *2946:A1 0.00020455
7 *2441:A *613:10 7.83587e-05
8 *2564:B *613:10 6.57032e-05
9 *28:164 *613:10 2.28904e-05
10 *38:159 *613:10 1.91414e-05
11 *38:165 *2945:B 0.000109809
12 *38:165 *613:10 5.80706e-06
*RES
1 *2441:X *613:10 16.8 
2 *613:10 *2945:B 17.3 
3 *613:10 *2946:A2 13.8 
*END

*D_NET *614 0.000931981
*CONN
*I *3245:A2 I *D sky130_fd_sc_hd__a21o_1
*I *3244:B I *D sky130_fd_sc_hd__xor2_1
*I *2442:X O *D sky130_fd_sc_hd__or2_1
*CAP
1 *3245:A2 9.91118e-05
2 *3244:B 0.000116669
3 *2442:X 0.000215781
4 *3244:B *3244:A 0.000128146
5 *3245:A2 *3244:A 5.56564e-05
6 *3245:A2 *3245:A1 3.51368e-05
7 *3245:A2 *1390:6 0.000267377
8 *7:78 *3244:B 0
9 *36:100 *3244:B 1.41029e-05
*RES
1 *2442:X *3244:B 30.0821 
2 *2442:X *3245:A2 21.6179 
*END

*D_NET *615 0.000198697
*CONN
*I *2448:A I *D sky130_fd_sc_hd__or2_1
*I *2443:X O *D sky130_fd_sc_hd__and2_1
*CAP
1 *2448:A 6.04611e-05
2 *2443:X 6.04611e-05
3 *39:231 *2448:A 7.77751e-05
*RES
1 *2443:X *2448:A 19.9571 
*END

*D_NET *616 0.00021169
*CONN
*I *2448:B I *D sky130_fd_sc_hd__or2_1
*I *2444:X O *D sky130_fd_sc_hd__and2_1
*CAP
1 *2448:B 5.33579e-05
2 *2444:X 5.33579e-05
3 *2448:B *1100:10 0.000104974
*RES
1 *2444:X *2448:B 28.9393 
*END

*D_NET *617 0.000224956
*CONN
*I *2449:A I *D sky130_fd_sc_hd__or2_1
*I *2445:X O *D sky130_fd_sc_hd__and2_1
*CAP
1 *2449:A 6.83487e-05
2 *2445:X 6.83487e-05
3 *2449:A *2449:B 5.52238e-05
4 *29:129 *2449:A 3.30352e-05
*RES
1 *2445:X *2449:A 19.9571 
*END

*D_NET *618 0.000403134
*CONN
*I *2449:B I *D sky130_fd_sc_hd__or2_1
*I *2446:X O *D sky130_fd_sc_hd__and2_1
*CAP
1 *2449:B 9.44869e-05
2 *2446:X 9.44869e-05
3 *2449:A *2449:B 5.52238e-05
4 *5:109 *2449:B 0
5 *15:184 *2449:B 7.83587e-05
6 *24:291 *2449:B 5.16759e-05
7 *29:129 *2449:B 2.89016e-05
*RES
1 *2446:X *2449:B 30.0821 
*END

*D_NET *619 0.00052241
*CONN
*I *2952:B I *D sky130_fd_sc_hd__xor2_1
*I *2953:A2 I *D sky130_fd_sc_hd__a21o_1
*I *2448:X O *D sky130_fd_sc_hd__or2_1
*CAP
1 *2952:B 0
2 *2953:A2 6.09588e-05
3 *2448:X 0.000142483
4 *619:12 0.000203442
5 *2953:A2 *2952:A 6.02956e-05
6 *619:12 *1100:10 0
7 *619:12 *1397:16 0
8 *8:100 *619:12 0
9 *39:231 *619:12 5.52302e-05
*RES
1 *2448:X *619:12 20.4786 
2 *619:12 *2953:A2 10.675 
3 *619:12 *2952:B 9.3 
*END

*D_NET *620 0.000581845
*CONN
*I *3251:B I *D sky130_fd_sc_hd__xor2_1
*I *3252:A2 I *D sky130_fd_sc_hd__a21o_1
*I *2449:X O *D sky130_fd_sc_hd__or2_1
*CAP
1 *3251:B 0
2 *3252:A2 3.22806e-05
3 *2449:X 0.000144261
4 *620:10 0.000176542
5 *3252:A2 *3251:A 8.68886e-05
6 *3252:A2 *1394:8 3.51393e-05
7 *4:189 *3252:A2 9.90367e-05
8 *4:199 *620:10 0
9 *5:109 *620:10 0
10 *24:291 *620:10 0
11 *30:120 *620:10 7.69776e-06
*RES
1 *2449:X *620:10 20.2464 
2 *620:10 *3252:A2 10.675 
3 *620:10 *3251:B 9.3 
*END

*D_NET *621 0.000583303
*CONN
*I *2454:A I *D sky130_fd_sc_hd__or2_1
*I *2450:X O *D sky130_fd_sc_hd__and2_1
*CAP
1 *2454:A 0.000131655
2 *2450:X 0.000131655
3 *2454:A *1132:24 9.90431e-05
4 *8:115 *2454:A 0.000148196
5 *39:174 *2454:A 7.2754e-05
*RES
1 *2450:X *2454:A 30.4929 
*END

*D_NET *622 0.000842138
*CONN
*I *2454:B I *D sky130_fd_sc_hd__or2_1
*I *2451:X O *D sky130_fd_sc_hd__and2_1
*CAP
1 *2454:B 0.000174502
2 *2451:X 0.000174502
3 *2454:B *2522:A 4.87953e-05
4 *2454:B *1132:24 5.71472e-05
5 *2517:A *2454:B 6.05161e-06
6 *2518:B *2454:B 4.1331e-06
7 *16:212 *2454:B 0.000178847
8 *30:221 *2454:B 5.16852e-05
9 *40:240 *2454:B 0.000146474
*RES
1 *2451:X *2454:B 31.85 
*END

*D_NET *623 0.000236678
*CONN
*I *2455:A I *D sky130_fd_sc_hd__or2_1
*I *2452:X O *D sky130_fd_sc_hd__and2_1
*CAP
1 *2455:A 2.72369e-05
2 *2452:X 2.72369e-05
3 *2455:A *1384:8 7.61932e-05
4 *2450:A *2455:A 4.88637e-05
5 *2452:B *2455:A 5.71472e-05
*RES
1 *2452:X *2455:A 19.9571 
*END

*D_NET *624 0.000284972
*CONN
*I *2455:B I *D sky130_fd_sc_hd__or2_1
*I *2453:X O *D sky130_fd_sc_hd__and2_1
*CAP
1 *2455:B 0.000107628
2 *2453:X 0.000107628
3 *2453:A *2455:B 1.72894e-05
4 *2453:B *2455:B 0
5 *6:107 *2455:B 5.24274e-05
*RES
1 *2453:X *2455:B 29.475 
*END

*D_NET *625 0.00265429
*CONN
*I *2962:A I *D sky130_fd_sc_hd__and2_1
*I *2961:A I *D sky130_fd_sc_hd__xor2_1
*I *2454:X O *D sky130_fd_sc_hd__or2_1
*CAP
1 *2962:A 0.000103901
2 *2961:A 0
3 *2454:X 0.000559752
4 *625:12 0.000663653
5 *2962:A *2962:B 0.000228541
6 *625:12 *2515:B 0.00022459
7 *625:12 *2962:B 4.38128e-05
8 *625:12 *679:6 0.000355002
9 *625:12 *685:12 0.000301144
10 *8:115 *625:12 0.000128154
11 *27:89 *625:12 4.57445e-05
*RES
1 *2454:X *625:12 31.1571 
2 *625:12 *2961:A 9.3 
3 *625:12 *2962:A 11.8893 
*END

*D_NET *626 0.000700335
*CONN
*I *3260:A I *D sky130_fd_sc_hd__xor2_1
*I *3261:A I *D sky130_fd_sc_hd__and2_1
*I *2455:X O *D sky130_fd_sc_hd__or2_1
*CAP
1 *3260:A 0.000126335
2 *3261:A 0
3 *2455:X 2.59948e-05
4 *626:6 0.00015233
5 *3260:A *3260:B 0.000237962
6 *3260:A *3263:B1 7.61932e-05
7 *3260:A *1430:8 3.97677e-05
8 *626:6 *1384:8 1.58163e-05
9 *626:6 *1430:8 2.59355e-05
*RES
1 *2455:X *626:6 9.83571 
2 *626:6 *3261:A 9.3 
3 *626:6 *3260:A 12.7286 
*END

*D_NET *627 0.000223103
*CONN
*I *2461:A I *D sky130_fd_sc_hd__or2_1
*I *2456:X O *D sky130_fd_sc_hd__and2_1
*CAP
1 *2461:A 7.49381e-05
2 *2456:X 7.49381e-05
3 *2456:A *2461:A 7.32272e-05
*RES
1 *2456:X *2461:A 19.9571 
*END

*D_NET *628 0.000318974
*CONN
*I *2461:B I *D sky130_fd_sc_hd__or2_1
*I *2457:X O *D sky130_fd_sc_hd__and2_1
*CAP
1 *2461:B 8.28569e-05
2 *2457:X 8.28569e-05
3 *30:89 *2461:B 2.84494e-05
4 *30:102 *2461:B 0.000100823
5 *31:196 *2461:B 2.39876e-05
6 *577:12 *2461:B 0
*RES
1 *2457:X *2461:B 29.5464 
*END

*D_NET *629 0.000224956
*CONN
*I *2462:A I *D sky130_fd_sc_hd__or2_1
*I *2459:X O *D sky130_fd_sc_hd__and2_1
*CAP
1 *2462:A 4.45007e-05
2 *2459:X 4.45007e-05
3 *2462:A *2462:B 5.52238e-05
4 *15:238 *2462:A 8.07313e-05
*RES
1 *2459:X *2462:A 19.9571 
*END

*D_NET *630 0.000273586
*CONN
*I *2462:B I *D sky130_fd_sc_hd__or2_1
*I *2460:X O *D sky130_fd_sc_hd__and2_1
*CAP
1 *2462:B 0.000109181
2 *2460:X 0.000109181
3 *2462:A *2462:B 5.52238e-05
4 *3239:A *2462:B 0
5 *31:207 *2462:B 0
6 *578:8 *2462:B 0
*RES
1 *2460:X *2462:B 29.475 
*END

*D_NET *631 0.000682719
*CONN
*I *2939:B I *D sky130_fd_sc_hd__xor2_1
*I *2940:B I *D sky130_fd_sc_hd__and2_1
*I *2461:X O *D sky130_fd_sc_hd__or2_1
*CAP
1 *2939:B 3.20434e-05
2 *2940:B 3.55893e-05
3 *2461:X 6.5148e-05
4 *631:10 0.000132781
5 *2940:A *2939:B 5.32166e-05
6 *2940:A *2940:B 0.000139907
7 *12:157 *2939:B 2.89114e-05
8 *12:157 *2940:B 7.32272e-05
9 *30:89 *631:10 6.09476e-05
10 *577:12 *631:10 6.09476e-05
*RES
1 *2461:X *631:10 19.9429 
2 *631:10 *2940:B 10.6571 
3 *631:10 *2939:B 10.2643 
*END

*D_NET *632 0.000659979
*CONN
*I *3238:B I *D sky130_fd_sc_hd__xor2_1
*I *3239:B I *D sky130_fd_sc_hd__and2_1
*I *2462:X O *D sky130_fd_sc_hd__or2_1
*CAP
1 *3238:B 5.18054e-05
2 *3239:B 0
3 *2462:X 6.501e-05
4 *632:8 0.000116815
5 *3238:B *1383:8 0
6 *3238:A *3238:B 0.000169249
7 *3238:A *632:8 0.000109466
8 *15:238 *3238:B 0.000100625
9 *15:238 *632:8 4.70078e-05
*RES
1 *2462:X *632:8 11.0857 
2 *632:8 *3239:B 9.3 
3 *632:8 *3238:B 11.4964 
*END

*D_NET *633 0.000361936
*CONN
*I *2467:A I *D sky130_fd_sc_hd__or2_1
*I *2463:X O *D sky130_fd_sc_hd__and2_1
*CAP
1 *2467:A 8.96838e-05
2 *2463:X 8.96838e-05
3 *2524:B *2467:A 5.52302e-05
4 *31:218 *2467:A 8.15939e-05
5 *42:74 *2467:A 4.57445e-05
*RES
1 *2463:X *2467:A 30.0821 
*END

*D_NET *634 0.000660999
*CONN
*I *2467:B I *D sky130_fd_sc_hd__or2_1
*I *2464:X O *D sky130_fd_sc_hd__and2_1
*CAP
1 *2467:B 0.000157628
2 *2464:X 0.000157628
3 *2467:B *1455:10 0.000150618
4 *2524:B *2467:B 0.00010096
5 *2720:A *2467:B 0
6 *42:74 *2467:B 9.41642e-05
*RES
1 *2464:X *2467:B 31.3143 
*END

*D_NET *635 0.000303028
*CONN
*I *2468:A I *D sky130_fd_sc_hd__or2_1
*I *2465:X O *D sky130_fd_sc_hd__and2_1
*CAP
1 *2468:A 7.41327e-05
2 *2465:X 7.41327e-05
3 *2468:A *2468:B 0
4 *2527:A *2468:A 0.000154762
*RES
1 *2465:X *2468:A 29.5464 
*END

*D_NET *636 0.000472962
*CONN
*I *2468:B I *D sky130_fd_sc_hd__or2_1
*I *2466:X O *D sky130_fd_sc_hd__and2_1
*CAP
1 *2468:B 0.000136042
2 *2466:X 0.000136042
3 *2468:A *2468:B 0
4 *2526:B *2468:B 0.000142856
5 *31:218 *2468:B 5.80217e-05
*RES
1 *2466:X *2468:B 30.9036 
*END

*D_NET *637 0.00176428
*CONN
*I *2988:A I *D sky130_fd_sc_hd__and2_1
*I *2987:A I *D sky130_fd_sc_hd__xor2_1
*I *2467:X O *D sky130_fd_sc_hd__or2_1
*CAP
1 *2988:A 0
2 *2987:A 8.99916e-05
3 *2467:X 0.000453622
4 *637:12 0.000543613
5 *2987:A *2988:B 0.00011262
6 *637:12 *2528:B 0.000153047
7 *637:12 *691:10 0
8 *637:12 *1455:10 0
9 *2524:B *637:12 5.52238e-05
10 *2526:B *637:12 5.52302e-05
11 *2583:A *2987:A 0
12 *17:277 *2987:A 0.000271352
13 *40:213 *2987:A 2.95841e-05
*RES
1 *2467:X *637:12 25.7464 
2 *637:12 *2987:A 12.7464 
3 *637:12 *2988:A 9.3 
*END

*D_NET *638 0.00173752
*CONN
*I *3288:A I *D sky130_fd_sc_hd__and2_1
*I *3287:A I *D sky130_fd_sc_hd__xor2_1
*I *2468:X O *D sky130_fd_sc_hd__or2_1
*CAP
1 *3288:A 0
2 *3287:A 0.00011371
3 *2468:X 0.000186183
4 *638:12 0.000299893
5 *3287:A *3287:B 0.000237962
6 *2523:B *638:12 0.000137983
7 *2527:A *638:12 7.83587e-05
8 *6:128 *3287:A 0.000393688
9 *6:128 *638:12 0.000113151
10 *16:222 *638:12 0.000176588
*RES
1 *2468:X *638:12 23.3536 
2 *638:12 *3287:A 13.5679 
3 *638:12 *3288:A 9.3 
*END

*D_NET *639 0.000583964
*CONN
*I *2474:A I *D sky130_fd_sc_hd__or2_1
*I *2470:X O *D sky130_fd_sc_hd__and2_1
*CAP
1 *2474:A 0.00014705
2 *2470:X 0.00014705
3 *2474:A *3170:B 0
4 *6:252 *2474:A 3.69697e-05
5 *14:9 *2474:A 0
6 *15:19 *2474:A 9.71197e-05
7 *23:11 *2474:A 0.000148196
8 *33:30 *2474:A 7.57819e-06
*RES
1 *2470:X *2474:A 30.4929 
*END

*D_NET *640 0.000472933
*CONN
*I *2474:B I *D sky130_fd_sc_hd__or2_1
*I *2471:X O *D sky130_fd_sc_hd__and2_1
*CAP
1 *2474:B 0.000112454
2 *2471:X 0.000112454
3 *2474:B *3173:B1 5.71472e-05
4 *2474:B *643:8 8.07313e-05
5 *24:190 *2474:B 0.000110146
*RES
1 *2471:X *2474:B 21.1893 
*END

*D_NET *641 0.000315984
*CONN
*I *2475:A I *D sky130_fd_sc_hd__or2_1
*I *2472:X O *D sky130_fd_sc_hd__and2_1
*CAP
1 *2475:A 8.19485e-05
2 *2472:X 8.19485e-05
3 *2475:A *2475:B 5.56943e-05
4 *2473:A *2475:A 2.89016e-05
5 *2473:B *2475:A 0
6 *3:140 *2475:A 6.74911e-05
*RES
1 *2472:X *2475:A 29.7786 
*END

*D_NET *642 0.00018889
*CONN
*I *2475:B I *D sky130_fd_sc_hd__or2_1
*I *2473:X O *D sky130_fd_sc_hd__and2_1
*CAP
1 *2475:B 4.69549e-05
2 *2473:X 4.69549e-05
3 *2473:B *2475:B 3.92854e-05
4 *2475:A *2475:B 5.56943e-05
5 *25:74 *2475:B 0
*RES
1 *2473:X *2475:B 28.9393 
*END

*D_NET *643 0.00105854
*CONN
*I *3171:B I *D sky130_fd_sc_hd__and2_1
*I *3170:B I *D sky130_fd_sc_hd__xor2_1
*I *2474:X O *D sky130_fd_sc_hd__or2_1
*CAP
1 *3171:B 0
2 *3170:B 0.000155857
3 *2474:X 8.63265e-05
4 *643:8 0.000242184
5 *3170:B *3173:A2 0
6 *643:8 *3173:B1 5.91336e-05
7 *2474:A *3170:B 0
8 *2474:B *643:8 8.07313e-05
9 *14:9 *3170:B 5.2484e-05
10 *14:147 *3170:B 3.54937e-05
11 *23:11 *3170:B 0
12 *24:190 *643:8 0.000346329
*RES
1 *2474:X *643:8 12.7286 
2 *643:8 *3170:B 20.8536 
3 *643:8 *3171:B 9.3 
*END

*D_NET *644 0.00132212
*CONN
*I *2040:B I *D sky130_fd_sc_hd__and2_1
*I *2039:B I *D sky130_fd_sc_hd__xor2_1
*I *2475:X O *D sky130_fd_sc_hd__or2_1
*CAP
1 *2040:B 8.1021e-05
2 *2039:B 0
3 *2475:X 0.0001634
4 *644:6 0.000244421
5 *2039:A *2040:B 0.000165332
6 *2042:B1 *2040:B 1.21289e-05
7 *2042:B1 *644:6 0.000315158
8 *2473:B *2040:B 0.000276211
9 *2473:B *644:6 6.4443e-05
*RES
1 *2475:X *644:6 13.5321 
2 *644:6 *2039:B 9.3 
3 *644:6 *2040:B 13.05 
*END

*D_NET *645 0.000198606
*CONN
*I *2481:A I *D sky130_fd_sc_hd__or2_1
*I *2476:X O *D sky130_fd_sc_hd__and2_1
*CAP
1 *2481:A 6.48365e-05
2 *2476:X 6.48365e-05
3 *2481:A *649:6 5.33334e-05
4 *2481:A *1322:8 1.56e-05
*RES
1 *2476:X *2481:A 19.9571 
*END

*D_NET *646 0.000401039
*CONN
*I *2481:B I *D sky130_fd_sc_hd__or2_1
*I *2477:X O *D sky130_fd_sc_hd__and2_1
*CAP
1 *2481:B 0.00013523
2 *2477:X 0.00013523
3 *6:28 *2481:B 5.16759e-05
4 *24:38 *2481:B 7.89032e-05
*RES
1 *2477:X *2481:B 30.0821 
*END

*D_NET *647 0.000345908
*CONN
*I *2482:A I *D sky130_fd_sc_hd__or2_1
*I *2478:X O *D sky130_fd_sc_hd__and2_1
*CAP
1 *2482:A 9.67839e-05
2 *2478:X 9.67839e-05
3 *2478:B *2482:A 0.00015234
4 *33:266 *2482:A 0
5 *596:10 *2482:A 0
*RES
1 *2478:X *2482:A 29.5464 
*END

*D_NET *648 0.000160787
*CONN
*I *2482:B I *D sky130_fd_sc_hd__or2_1
*I *2479:X O *D sky130_fd_sc_hd__and2_1
*CAP
1 *2482:B 6.14201e-05
2 *2479:X 6.14201e-05
3 *2478:B *2482:B 3.79467e-05
4 *596:10 *2482:B 0
*RES
1 *2479:X *2482:B 28.9393 
*END

*D_NET *649 0.00122257
*CONN
*I *3109:B I *D sky130_fd_sc_hd__xor2_1
*I *3110:B I *D sky130_fd_sc_hd__and2_1
*I *2481:X O *D sky130_fd_sc_hd__or2_1
*CAP
1 *3109:B 9.41847e-06
2 *3110:B 8.50499e-05
3 *2481:X 9.65121e-05
4 *649:6 0.00019098
5 *3109:B *1255:12 3.99614e-06
6 *3110:B *3112:B1 9.22103e-06
7 *3110:B *1255:12 5.30637e-06
8 *3110:B *1322:8 0.000274294
9 *649:6 *1255:12 5.23142e-05
10 *649:6 *1322:8 0.000342694
11 *2481:A *649:6 5.33334e-05
12 *3109:A *3110:B 9.94546e-05
*RES
1 *2481:X *649:6 12.7107 
2 *649:6 *3110:B 12.6214 
3 *649:6 *3109:B 9.72857 
*END

*D_NET *650 0.00110823
*CONN
*I *1979:B I *D sky130_fd_sc_hd__xor2_1
*I *1980:B I *D sky130_fd_sc_hd__and2_1
*I *2482:X O *D sky130_fd_sc_hd__or2_1
*CAP
1 *1979:B 0.0001188
2 *1980:B 8.65771e-05
3 *2482:X 0.000128617
4 *650:6 0.000333993
5 *1979:A *1979:B 4.58976e-05
6 *1980:A *1979:B 0.000194352
7 *1980:A *1980:B 0.00010096
8 *1982:B1 *1979:B 9.90367e-05
*RES
1 *2482:X *650:6 11.0679 
2 *650:6 *1980:B 11.3893 
3 *650:6 *1979:B 12.7286 
*END

*D_NET *651 0.000282534
*CONN
*I *2487:A I *D sky130_fd_sc_hd__or2_1
*I *2483:X O *D sky130_fd_sc_hd__and2_1
*CAP
1 *2487:A 4.3643e-05
2 *2483:X 4.3643e-05
3 *2487:A *2487:B 5.50052e-05
4 *23:155 *2487:A 0.000140243
*RES
1 *2483:X *2487:A 19.9571 
*END

*D_NET *652 0.000579461
*CONN
*I *2487:B I *D sky130_fd_sc_hd__or2_1
*I *2484:X O *D sky130_fd_sc_hd__and2_1
*CAP
1 *2487:B 0.00012403
2 *2484:X 0.00012403
3 *2483:A *2487:B 5.66971e-05
4 *2487:A *2487:B 5.50052e-05
5 *23:155 *2487:B 0.000194027
6 *353:10 *2487:B 2.56723e-05
*RES
1 *2484:X *2487:B 21.7429 
*END

*D_NET *653 0.00029593
*CONN
*I *2488:A I *D sky130_fd_sc_hd__or2_1
*I *2485:X O *D sky130_fd_sc_hd__and2_1
*CAP
1 *2488:A 7.81293e-05
2 *2485:X 7.81293e-05
3 *2488:A *2488:B 6.87672e-05
4 *6:38 *2488:A 7.09043e-05
*RES
1 *2485:X *2488:A 29.5464 
*END

*D_NET *654 0.000731169
*CONN
*I *2488:B I *D sky130_fd_sc_hd__or2_1
*I *2486:X O *D sky130_fd_sc_hd__and2_1
*CAP
1 *2488:B 0.000204566
2 *2486:X 0.000204566
3 *2488:A *2488:B 6.87672e-05
4 *16:60 *2488:B 6.87672e-05
5 *354:6 *2488:B 0.000184503
*RES
1 *2486:X *2488:B 31.3143 
*END

*D_NET *655 0.000985966
*CONN
*I *3020:A I *D sky130_fd_sc_hd__xor2_1
*I *3021:A I *D sky130_fd_sc_hd__and2_1
*I *2487:X O *D sky130_fd_sc_hd__or2_1
*CAP
1 *3020:A 7.69497e-05
2 *3021:A 0
3 *2487:X 0.000105464
4 *655:6 0.000182413
5 *3020:A *3021:B 5.33005e-05
6 *655:6 *3021:B 0.000140243
7 *2605:A *3020:A 0.000198416
8 *2605:B *3020:A 0.000200838
9 *23:155 *655:6 2.83425e-05
*RES
1 *2487:X *655:6 11.4786 
2 *655:6 *3021:A 9.3 
3 *655:6 *3020:A 21.3893 
*END

*D_NET *656 0.00074299
*CONN
*I *3321:A I *D sky130_fd_sc_hd__and2_1
*I *3320:A I *D sky130_fd_sc_hd__xor2_1
*I *2488:X O *D sky130_fd_sc_hd__or2_1
*CAP
1 *3321:A 3.87599e-05
2 *3320:A 0
3 *2488:X 8.66006e-05
4 *656:12 0.000125361
5 *3321:A *3320:B 9.84729e-05
6 *656:12 *2549:B 5.49995e-05
7 *6:38 *656:12 0.00012249
8 *26:61 *656:12 0.000124157
9 *168:16 *3321:A 1.98839e-05
10 *232:12 *3321:A 7.2266e-05
*RES
1 *2488:X *656:12 20.4786 
2 *656:12 *3320:A 9.3 
3 *656:12 *3321:A 10.6571 
*END

*D_NET *657 0.000294076
*CONN
*I *2495:A I *D sky130_fd_sc_hd__or2_1
*I *2489:X O *D sky130_fd_sc_hd__and2_1
*CAP
1 *2495:A 8.87332e-05
2 *2489:X 8.87332e-05
3 *2495:A *2495:B 5.56943e-05
4 *2495:A *661:8 3.92757e-05
5 *2495:A *1264:10 1.55885e-05
6 *2489:B *2495:A 6.05161e-06
7 *7:68 *2495:A 0
*RES
1 *2489:X *2495:A 29.475 
*END

*D_NET *658 0.000176307
*CONN
*I *2495:B I *D sky130_fd_sc_hd__or2_1
*I *2490:X O *D sky130_fd_sc_hd__and2_1
*CAP
1 *2495:B 4.13328e-05
2 *2490:X 4.13328e-05
3 *2495:A *2495:B 5.56943e-05
4 *6:38 *2495:B 3.79467e-05
*RES
1 *2490:X *2495:B 28.9393 
*END

*D_NET *659 0.000626887
*CONN
*I *2496:A I *D sky130_fd_sc_hd__or2_1
*I *2493:X O *D sky130_fd_sc_hd__and2_1
*CAP
1 *2496:A 0.00015357
2 *2493:X 0.00015357
3 *26:65 *2496:A 0.000149915
4 *27:172 *2496:A 3.18676e-05
5 *36:77 *2496:A 1.99099e-05
6 *36:100 *2496:A 0.000118054
*RES
1 *2493:X *2496:A 31.9036 
*END

*D_NET *660 0.00031751
*CONN
*I *2496:B I *D sky130_fd_sc_hd__or2_1
*I *2494:X O *D sky130_fd_sc_hd__and2_1
*CAP
1 *2496:B 8.09479e-05
2 *2494:X 8.09479e-05
3 *2496:B *1089:18 5.33005e-05
4 *26:65 *2496:B 2.56694e-05
5 *36:77 *2496:B 7.6644e-05
*RES
1 *2494:X *2496:B 29.1714 
*END

*D_NET *661 0.00157621
*CONN
*I *3023:B I *D sky130_fd_sc_hd__and2_1
*I *3022:B I *D sky130_fd_sc_hd__xor2_1
*I *2495:X O *D sky130_fd_sc_hd__or2_1
*CAP
1 *3023:B 0.000184068
2 *3022:B 7.30616e-05
3 *2495:X 0.000208733
4 *661:8 0.000465862
5 *2489:B *661:8 3.69697e-05
6 *2495:A *661:8 3.92757e-05
7 *3022:A *3022:B 4.18895e-05
8 *3023:A *3023:B 0.000148903
9 *6:38 *661:8 0
10 *7:68 *3023:B 1.08359e-05
11 *7:68 *661:8 0.000163999
12 *18:205 *3023:B 0.000147381
13 *26:65 *3023:B 0
14 *26:65 *661:8 0
15 *607:6 *3022:B 5.52302e-05
*RES
1 *2495:X *661:8 17.8714 
2 *661:8 *3022:B 15.1571 
3 *661:8 *3023:B 17.8357 
*END

*D_NET *662 0.000929286
*CONN
*I *3323:B I *D sky130_fd_sc_hd__and2_1
*I *3322:B I *D sky130_fd_sc_hd__xor2_1
*I *2496:X O *D sky130_fd_sc_hd__or2_1
*CAP
1 *3323:B 8.15577e-05
2 *3322:B 0
3 *2496:X 0.000104535
4 *662:10 0.000186092
5 *3323:A *3323:B 0.000164561
6 *3323:A *662:10 3.34366e-05
7 *8:42 *3323:B 2.89114e-05
8 *26:65 *3323:B 1.41029e-05
9 *26:65 *662:10 5.97623e-05
10 *26:121 *3323:B 5.52302e-05
11 *27:172 *3323:B 0.000103285
12 *27:172 *662:10 9.78113e-05
*RES
1 *2496:X *662:10 16.2821 
2 *662:10 *3322:B 13.8 
3 *662:10 *3323:B 16.8893 
*END

*D_NET *663 0.000298958
*CONN
*I *2501:A I *D sky130_fd_sc_hd__or2_1
*I *2497:X O *D sky130_fd_sc_hd__and2_1
*CAP
1 *2501:A 2.78274e-05
2 *2497:X 2.78274e-05
3 *2501:A *2501:B 5.71472e-05
4 *20:95 *2501:A 0.00014183
5 *37:97 *2501:A 4.43256e-05
*RES
1 *2497:X *2501:A 19.9571 
*END

*D_NET *664 0.000641935
*CONN
*I *2501:B I *D sky130_fd_sc_hd__or2_1
*I *2498:X O *D sky130_fd_sc_hd__and2_1
*CAP
1 *2501:B 5.30269e-05
2 *2498:X 5.30269e-05
3 *2501:A *2501:B 5.71472e-05
4 *20:95 *2501:B 0.000205582
5 *37:97 *2501:B 0.000128379
6 *37:111 *2501:B 0.000144773
*RES
1 *2498:X *2501:B 21.7429 
*END

*D_NET *665 0.000436856
*CONN
*I *2502:A I *D sky130_fd_sc_hd__or2_1
*I *2499:X O *D sky130_fd_sc_hd__and2_1
*CAP
1 *2502:A 0.000141295
2 *2499:X 0.000141295
3 *2502:A *2502:B 0
4 *2502:A *1390:6 5.33334e-05
5 *26:121 *2502:A 0.000100932
*RES
1 *2499:X *2502:A 30.4929 
*END

*D_NET *666 0.000404406
*CONN
*I *2502:B I *D sky130_fd_sc_hd__or2_1
*I *2500:X O *D sky130_fd_sc_hd__and2_1
*CAP
1 *2502:B 0.000113224
2 *2500:X 0.000113224
3 *2502:B *1390:6 2.89114e-05
4 *2502:A *2502:B 0
5 *27:172 *2502:B 0.000149047
*RES
1 *2500:X *2502:B 30.0821 
*END

*D_NET *667 0.000931182
*CONN
*I *2948:A I *D sky130_fd_sc_hd__xor2_1
*I *2949:A I *D sky130_fd_sc_hd__and2_1
*I *2501:X O *D sky130_fd_sc_hd__or2_1
*CAP
1 *2948:A 9.45029e-05
2 *2949:A 0
3 *2501:X 6.74055e-05
4 *667:6 0.000161908
5 *2948:A *2949:B 0.00022639
6 *2948:A *721:10 3.51442e-05
7 *667:6 *2949:B 1.24368e-05
8 *20:95 *667:6 9.74668e-05
9 *25:222 *2948:A 2.19684e-05
10 *25:239 *2948:A 4.75521e-05
11 *103:12 *2948:A 1.98839e-05
12 *103:12 *667:6 0.000146523
*RES
1 *2501:X *667:6 11.8893 
2 *667:6 *2949:A 9.3 
3 *667:6 *2948:A 21.3893 
*END

*D_NET *668 0.00120777
*CONN
*I *3248:A I *D sky130_fd_sc_hd__and2_1
*I *3247:A I *D sky130_fd_sc_hd__xor2_1
*I *2502:X O *D sky130_fd_sc_hd__or2_1
*CAP
1 *3248:A 8.61636e-05
2 *3247:A 0
3 *2502:X 0.000209232
4 *668:10 0.000295396
5 *3248:A *3247:B 1.31516e-05
6 *668:10 *1390:6 0.000227532
7 *17:130 *3248:A 0.000147652
8 *17:130 *668:10 8.10099e-05
9 *17:134 *3248:A 5.80706e-06
10 *26:121 *3248:A 6.18257e-05
11 *26:121 *668:10 8.00004e-05
*RES
1 *2502:X *668:10 17.925 
2 *668:10 *3247:A 13.8 
3 *668:10 *3248:A 16.7107 
*END

*D_NET *669 0.000229829
*CONN
*I *2508:A I *D sky130_fd_sc_hd__or2_1
*I *2504:X O *D sky130_fd_sc_hd__and2_1
*CAP
1 *2508:A 6.19091e-05
2 *2504:X 6.19091e-05
3 *2508:A *2508:B 5.71472e-05
4 *2504:B *2508:A 4.88637e-05
*RES
1 *2504:X *2508:A 19.9571 
*END

*D_NET *670 0.000526319
*CONN
*I *2508:B I *D sky130_fd_sc_hd__or2_1
*I *2505:X O *D sky130_fd_sc_hd__and2_1
*CAP
1 *2508:B 0.000144924
2 *2505:X 0.000144924
3 *2504:B *2508:B 0.000132316
4 *2508:A *2508:B 5.71472e-05
5 *3352:B1 *2508:B 4.70078e-05
*RES
1 *2505:X *2508:B 21.7429 
*END

*D_NET *671 0.000242093
*CONN
*I *2509:A I *D sky130_fd_sc_hd__or2_1
*I *2506:X O *D sky130_fd_sc_hd__and2_1
*CAP
1 *2509:A 8.35412e-05
2 *2506:X 8.35412e-05
3 *2509:A *2509:B 5.52238e-05
4 *17:146 *2509:A 1.97865e-05
*RES
1 *2506:X *2509:A 19.9571 
*END

*D_NET *672 0.000579484
*CONN
*I *2509:B I *D sky130_fd_sc_hd__or2_1
*I *2507:X O *D sky130_fd_sc_hd__and2_1
*CAP
1 *2509:B 0.000100994
2 *2507:X 0.000100994
3 *2506:A *2509:B 0.000167794
4 *2507:A *2509:B 6.05161e-06
5 *2509:A *2509:B 5.52238e-05
6 *17:146 *2509:B 7.49387e-06
7 *28:229 *2509:B 0.000140933
*RES
1 *2507:X *2509:B 21.7429 
*END

*D_NET *673 0.000960093
*CONN
*I *2954:A I *D sky130_fd_sc_hd__xor2_1
*I *2955:A I *D sky130_fd_sc_hd__and2_1
*I *2508:X O *D sky130_fd_sc_hd__or2_1
*CAP
1 *2954:A 4.06934e-05
2 *2955:A 7.77029e-05
3 *2508:X 4.87099e-05
4 *673:6 0.000167106
5 *2955:A *2954:B 8.82117e-05
6 *2504:B *2954:A 7.48091e-05
7 *2504:B *673:6 9.76491e-05
8 *3352:B1 *2954:A 6.42095e-05
9 *3352:B1 *673:6 9.76491e-05
10 *7:111 *2955:A 7.79781e-06
11 *17:167 *2955:A 0.000195555
*RES
1 *2508:X *673:6 11.0679 
2 *673:6 *2955:A 20.8536 
3 *673:6 *2954:A 10.6571 
*END

*D_NET *674 0.000722392
*CONN
*I *3253:A I *D sky130_fd_sc_hd__xor2_1
*I *3254:A I *D sky130_fd_sc_hd__and2_1
*I *2509:X O *D sky130_fd_sc_hd__or2_1
*CAP
1 *3253:A 2.89397e-05
2 *3254:A 7.83511e-05
3 *2509:X 3.36637e-05
4 *674:6 0.000140955
5 *3254:A *3253:B 0.000174805
6 *3254:A *3256:B1 0
7 *7:94 *3253:A 5.33433e-05
8 *7:94 *3254:A 0.000100969
9 *7:94 *674:6 5.03772e-05
10 *17:146 *3253:A 2.77258e-05
11 *17:146 *674:6 3.32631e-05
*RES
1 *2509:X *674:6 10.2464 
2 *674:6 *3254:A 20.8536 
3 *674:6 *3253:A 10.2464 
*END

*D_NET *675 0.00045906
*CONN
*I *2515:A I *D sky130_fd_sc_hd__or2_1
*I *2510:X O *D sky130_fd_sc_hd__and2_1
*CAP
1 *2515:A 0.0001287
2 *2510:X 0.0001287
3 *2515:A *1199:18 0.000100831
4 *28:133 *2515:A 0.000100831
*RES
1 *2510:X *2515:A 29.8857 
*END

*D_NET *676 0.000820236
*CONN
*I *2515:B I *D sky130_fd_sc_hd__or2_1
*I *2511:X O *D sky130_fd_sc_hd__and2_1
*CAP
1 *2515:B 8.3844e-05
2 *2511:X 8.3844e-05
3 *2515:B *685:12 0.00022459
4 *7:124 *2515:B 0.000102545
5 *17:178 *2515:B 0.000100823
6 *625:12 *2515:B 0.00022459
*RES
1 *2511:X *2515:B 31.1179 
*END

*D_NET *677 0.000448648
*CONN
*I *2516:A I *D sky130_fd_sc_hd__or2_1
*I *2512:X O *D sky130_fd_sc_hd__and2_1
*CAP
1 *2516:A 9.22941e-05
2 *2512:X 9.22941e-05
3 *2516:A *1022:16 5.52302e-05
4 *8:115 *2516:A 5.5782e-05
5 *39:174 *2516:A 0.000153047
*RES
1 *2512:X *2516:A 30.0821 
*END

*D_NET *678 0.000758638
*CONN
*I *2516:B I *D sky130_fd_sc_hd__or2_1
*I *2513:X O *D sky130_fd_sc_hd__and2_1
*CAP
1 *2516:B 0.000203877
2 *2513:X 0.000203877
3 *2516:B *1022:16 0.000188586
4 *2453:B *2516:B 9.25014e-06
5 *6:107 *2516:B 0
6 *39:174 *2516:B 0.000153047
*RES
1 *2513:X *2516:B 31.3143 
*END

*D_NET *679 0.0014633
*CONN
*I *2962:B I *D sky130_fd_sc_hd__and2_1
*I *2961:B I *D sky130_fd_sc_hd__xor2_1
*I *2515:X O *D sky130_fd_sc_hd__or2_1
*CAP
1 *2962:B 0.000262875
2 *2961:B 0
3 *2515:X 0.000151381
4 *679:6 0.000414255
5 *2962:B *2964:B1 7.43578e-06
6 *2962:A *2962:B 0.000228541
7 *625:12 *2962:B 4.38128e-05
8 *625:12 *679:6 0.000355002
*RES
1 *2515:X *679:6 12.7107 
2 *679:6 *2961:B 9.3 
3 *679:6 *2962:B 15.2643 
*END

*D_NET *680 0.00121158
*CONN
*I *3260:B I *D sky130_fd_sc_hd__xor2_1
*I *3261:B I *D sky130_fd_sc_hd__and2_1
*I *2516:X O *D sky130_fd_sc_hd__or2_1
*CAP
1 *3260:B 9.42172e-05
2 *3261:B 0
3 *2516:X 0.000130002
4 *680:10 0.000224219
5 *3260:B *3263:B1 1.39726e-05
6 *3260:B *1430:8 0.000269428
7 *3260:A *3260:B 0.000237962
8 *8:115 *3260:B 1.87955e-05
9 *8:115 *680:10 4.57445e-05
10 *39:174 *3260:B 4.73656e-05
11 *39:174 *680:10 0.000129868
*RES
1 *2516:X *680:10 16.3893 
2 *680:10 *3261:B 13.8 
3 *680:10 *3260:B 17.55 
*END

*D_NET *681 0.000211153
*CONN
*I *2521:A I *D sky130_fd_sc_hd__or2_1
*I *2517:X O *D sky130_fd_sc_hd__and2_1
*CAP
1 *2521:A 7.79613e-05
2 *2517:X 7.79613e-05
3 *2521:A *2521:B 5.52302e-05
*RES
1 *2517:X *2521:A 19.9571 
*END

*D_NET *682 0.000478818
*CONN
*I *2521:B I *D sky130_fd_sc_hd__or2_1
*I *2518:X O *D sky130_fd_sc_hd__and2_1
*CAP
1 *2521:B 0.000185144
2 *2518:X 0.000185144
3 *2517:B *2521:B 5.33005e-05
4 *2521:A *2521:B 5.52302e-05
*RES
1 *2518:X *2521:B 21.1893 
*END

*D_NET *683 0.00107614
*CONN
*I *2522:A I *D sky130_fd_sc_hd__or2_1
*I *2519:X O *D sky130_fd_sc_hd__and2_1
*CAP
1 *2522:A 0.000169965
2 *2519:X 0.000169965
3 *2522:A *1384:10 0.000342495
4 *2454:B *2522:A 4.87953e-05
5 *39:174 *2522:A 0.000344925
*RES
1 *2519:X *2522:A 32.9214 
*END

*D_NET *684 0.000136419
*CONN
*I *2522:B I *D sky130_fd_sc_hd__or2_1
*I *2520:X O *D sky130_fd_sc_hd__and2_1
*CAP
1 *2522:B 4.15428e-05
2 *2520:X 4.15428e-05
3 *40:238 *2522:B 5.33334e-05
*RES
1 *2520:X *2522:B 19.5464 
*END

*D_NET *685 0.00421861
*CONN
*I *2975:A I *D sky130_fd_sc_hd__and2_1
*I *2974:A I *D sky130_fd_sc_hd__xor2_1
*I *2521:X O *D sky130_fd_sc_hd__or2_1
*CAP
1 *2975:A 0
2 *2974:A 0.000180069
3 *2521:X 0.000950942
4 *685:12 0.00113101
5 *2974:A *2974:B 0.000194149
6 *2974:A *2977:B1 1.32552e-05
7 *685:12 *739:12 0.00031275
8 *685:12 *1420:12 0
9 *2515:B *685:12 0.00022459
10 *28:123 *685:12 9.45762e-05
11 *113:10 *685:12 0.000816123
12 *625:12 *685:12 0.000301144
*RES
1 *2521:X *685:12 36.675 
2 *685:12 *2974:A 12.7464 
3 *685:12 *2975:A 9.3 
*END

*D_NET *686 0.00154856
*CONN
*I *3275:A I *D sky130_fd_sc_hd__and2_1
*I *3274:A I *D sky130_fd_sc_hd__xor2_1
*I *2522:X O *D sky130_fd_sc_hd__or2_1
*CAP
1 *3275:A 4.72413e-05
2 *3274:A 0
3 *2522:X 0.000167705
4 *686:12 0.000214946
5 *3275:A *3275:B 0.000256992
6 *3275:A *1136:16 0.000269428
7 *686:12 *3275:B 5.52238e-05
8 *686:12 *740:6 5.52302e-05
9 *686:12 *1136:16 9.71197e-05
10 *686:12 *1384:10 4.15432e-05
11 *8:115 *686:12 0.000174844
12 *29:220 *686:12 4.25619e-05
13 *39:174 *686:12 0.000125724
*RES
1 *2522:X *686:12 23.6214 
2 *686:12 *3274:A 9.3 
3 *686:12 *3275:A 11.8893 
*END

*D_NET *687 0.000243639
*CONN
*I *2528:A I *D sky130_fd_sc_hd__or2_1
*I *2523:X O *D sky130_fd_sc_hd__and2_1
*CAP
1 *2528:A 8.10224e-05
2 *2523:X 8.10224e-05
3 *2528:A *2528:B 8.15939e-05
*RES
1 *2523:X *2528:A 29.5464 
*END

*D_NET *688 0.000617907
*CONN
*I *2528:B I *D sky130_fd_sc_hd__or2_1
*I *2524:X O *D sky130_fd_sc_hd__and2_1
*CAP
1 *2528:B 0.000149818
2 *2524:X 0.000149818
3 *2528:A *2528:B 8.15939e-05
4 *16:222 *2528:B 5.17614e-05
5 *16:228 *2528:B 3.18676e-05
6 *637:12 *2528:B 0.000153047
*RES
1 *2524:X *2528:B 30.9036 
*END

*D_NET *689 0.000214151
*CONN
*I *2529:A I *D sky130_fd_sc_hd__or2_1
*I *2526:X O *D sky130_fd_sc_hd__and2_1
*CAP
1 *2529:A 6.89787e-05
2 *2526:X 6.89787e-05
3 *16:214 *2529:A 7.61932e-05
*RES
1 *2526:X *2529:A 19.9571 
*END

*D_NET *690 0.000336185
*CONN
*I *2529:B I *D sky130_fd_sc_hd__or2_1
*I *2527:X O *D sky130_fd_sc_hd__and2_1
*CAP
1 *2529:B 0.000132019
2 *2527:X 0.000132019
3 *2529:B *1133:10 0
4 *2523:B *2529:B 5.48581e-05
5 *5:147 *2529:B 1.72894e-05
*RES
1 *2527:X *2529:B 30.0821 
*END

*D_NET *691 0.000668875
*CONN
*I *2987:B I *D sky130_fd_sc_hd__xor2_1
*I *2988:B I *D sky130_fd_sc_hd__and2_1
*I *2528:X O *D sky130_fd_sc_hd__or2_1
*CAP
1 *2987:B 0
2 *2988:B 5.1686e-05
3 *2528:X 0.00013311
4 *691:10 0.000184796
5 *691:10 *1455:10 0
6 *2987:A *2988:B 0.00011262
7 *40:213 *2988:B 0.000186662
8 *637:12 *691:10 0
*RES
1 *2528:X *691:10 20.2464 
2 *691:10 *2988:B 11.4964 
3 *691:10 *2987:B 9.3 
*END

*D_NET *692 0.000755735
*CONN
*I *3287:B I *D sky130_fd_sc_hd__xor2_1
*I *3288:B I *D sky130_fd_sc_hd__and2_1
*I *2529:X O *D sky130_fd_sc_hd__or2_1
*CAP
1 *3287:B 8.65146e-05
2 *3288:B 0
3 *2529:X 0.000103669
4 *692:10 0.000190183
5 *3287:B *3290:B1 9.80173e-05
6 *692:10 *1133:10 3.93893e-05
7 *2523:B *692:10 0
8 *3287:A *3287:B 0.000237962
*RES
1 *2529:X *692:10 19.9429 
2 *692:10 *3288:B 9.3 
3 *692:10 *3287:B 11.9071 
*END

*D_NET *693 0.000579711
*CONN
*I *2534:A I *D sky130_fd_sc_hd__or2_1
*I *2530:X O *D sky130_fd_sc_hd__and2_1
*CAP
1 *2534:A 0.000129206
2 *2530:X 0.000129206
3 *2534:A *2534:B 0.000158061
4 *2534:A *697:14 2.89114e-05
5 *2530:B *2534:A 6.05161e-06
6 *18:59 *2534:A 5.35516e-05
7 *18:65 *2534:A 2.89114e-05
8 *18:98 *2534:A 1.69115e-05
9 *42:60 *2534:A 2.89016e-05
10 *206:14 *2534:A 0
*RES
1 *2530:X *2534:A 31.225 
*END

*D_NET *694 0.000416211
*CONN
*I *2534:B I *D sky130_fd_sc_hd__or2_1
*I *2531:X O *D sky130_fd_sc_hd__and2_1
*CAP
1 *2534:B 0.000120216
2 *2531:X 0.000120216
3 *2534:A *2534:B 0.000158061
4 *2593:B *2534:B 4.46186e-06
5 *42:60 *2534:B 1.32552e-05
6 *206:14 *2534:B 0
*RES
1 *2531:X *2534:B 30.0821 
*END

*D_NET *695 0.000273968
*CONN
*I *2535:A I *D sky130_fd_sc_hd__or2_1
*I *2532:X O *D sky130_fd_sc_hd__and2_1
*CAP
1 *2535:A 3.44389e-05
2 *2532:X 3.44389e-05
3 *2535:A *1087:12 0.000102545
4 *2720:B *2535:A 0.000102545
*RES
1 *2532:X *2535:A 28.9393 
*END

*D_NET *696 0.000584037
*CONN
*I *2535:B I *D sky130_fd_sc_hd__or2_1
*I *2533:X O *D sky130_fd_sc_hd__and2_1
*CAP
1 *2535:B 0.000101955
2 *2533:X 0.000101955
3 *2530:A *2535:B 5.33005e-05
4 *6:134 *2535:B 0.000135028
5 *16:228 *2535:B 4.08637e-05
6 *18:59 *2535:B 0.000100823
7 *42:66 *2535:B 5.01117e-05
*RES
1 *2533:X *2535:B 30.2964 
*END

*D_NET *697 0.00301642
*CONN
*I *3001:A I *D sky130_fd_sc_hd__and2_1
*I *3000:A I *D sky130_fd_sc_hd__xor2_1
*I *2534:X O *D sky130_fd_sc_hd__or2_1
*CAP
1 *3001:A 0.00021101
2 *3000:A 1.2958e-05
3 *2534:X 0.000733175
4 *697:14 0.000957143
5 *3000:A *3001:B 5.52238e-05
6 *3001:A *3001:B 0.000212094
7 *697:14 *2594:A 0.00010326
8 *697:14 *751:12 6.19181e-05
9 *2534:A *697:14 2.89114e-05
10 *8:139 *697:14 0
11 *17:283 *697:14 7.79781e-06
12 *18:65 *697:14 3.89931e-05
13 *29:198 *697:14 0.000437756
14 *30:73 *3000:A 0.00010096
15 *30:73 *697:14 5.52238e-05
16 *139:8 *697:14 0
*RES
1 *2534:X *697:14 29.4964 
2 *697:14 *3000:A 10.2464 
3 *697:14 *3001:A 13.4607 
*END

*D_NET *698 0.00184749
*CONN
*I *3301:A I *D sky130_fd_sc_hd__and2_1
*I *3300:A I *D sky130_fd_sc_hd__xor2_1
*I *2535:X O *D sky130_fd_sc_hd__or2_1
*CAP
1 *3301:A 0.000142621
2 *3300:A 0
3 *2535:X 0.000203199
4 *698:10 0.00034582
5 *3301:A *3300:B 0.00018927
6 *3301:A *3304:B1 0.000136958
7 *2720:A *698:10 0.000213351
8 *2720:B *698:10 0.00041474
9 *30:252 *3301:A 2.77143e-05
10 *40:198 *698:10 0.000173812
*RES
1 *2535:X *698:10 25.7107 
2 *698:10 *3300:A 9.3 
3 *698:10 *3301:A 12.7464 
*END

*D_NET *699 0.00029371
*CONN
*I *2541:A I *D sky130_fd_sc_hd__or2_1
*I *2537:X O *D sky130_fd_sc_hd__and2_1
*CAP
1 *2541:A 2.33863e-05
2 *2537:X 2.33863e-05
3 *33:162 *2541:A 0.000104088
4 *343:18 *2541:A 0.00014285
*RES
1 *2537:X *2541:A 19.9571 
*END

*D_NET *700 0.000437066
*CONN
*I *2541:B I *D sky130_fd_sc_hd__or2_1
*I *2538:X O *D sky130_fd_sc_hd__and2_1
*CAP
1 *2541:B 0.000152804
2 *2538:X 0.000152804
3 *6:28 *2541:B 7.64532e-05
4 *15:32 *2541:B 0
5 *353:10 *2541:B 5.50052e-05
*RES
1 *2538:X *2541:B 30.0821 
*END

*D_NET *701 0.000493257
*CONN
*I *2542:A I *D sky130_fd_sc_hd__or2_1
*I *2539:X O *D sky130_fd_sc_hd__and2_1
*CAP
1 *2542:A 0.000205333
2 *2539:X 0.000205333
3 *17:17 *2542:A 3.851e-05
4 *23:275 *2542:A 4.40806e-05
*RES
1 *2539:X *2542:A 30.9036 
*END

*D_NET *702 0.00054525
*CONN
*I *2542:B I *D sky130_fd_sc_hd__or2_1
*I *2540:X O *D sky130_fd_sc_hd__and2_1
*CAP
1 *2542:B 0.000163365
2 *2540:X 0.000163365
3 *2542:B *1982:A2 1.35553e-05
4 *2542:B *704:6 2.4652e-05
5 *1982:A1 *2542:B 5.50052e-05
6 *1982:B1 *2542:B 9.67754e-05
7 *163:6 *2542:B 2.85321e-05
*RES
1 *2540:X *2542:B 21.6 
*END

*D_NET *703 0.00106942
*CONN
*I *3112:A2 I *D sky130_fd_sc_hd__a21o_1
*I *3111:B I *D sky130_fd_sc_hd__xor2_1
*I *2541:X O *D sky130_fd_sc_hd__or2_1
*CAP
1 *3112:A2 8.9731e-05
2 *3111:B 7.88718e-05
3 *2541:X 6.82963e-05
4 *703:8 0.000236899
5 *3111:B *3112:B1 0.000170646
6 *3111:B *3179:B 5.62914e-05
7 *3112:A2 *1162:12 5.56564e-05
8 *703:8 *3112:B1 2.41865e-05
9 *703:8 *3179:B 2.8266e-06
10 *703:8 *1165:8 4.97918e-05
11 *6:28 *703:8 5.84075e-05
12 *25:151 *3112:A2 0.000177815
*RES
1 *2541:X *703:8 15.7464 
2 *703:8 *3111:B 16.05 
3 *703:8 *3112:A2 15.9964 
*END

*D_NET *704 0.00138202
*CONN
*I *1981:B I *D sky130_fd_sc_hd__xor2_1
*I *1982:A2 I *D sky130_fd_sc_hd__a21o_1
*I *2542:X O *D sky130_fd_sc_hd__or2_1
*CAP
1 *1981:B 0.000114314
2 *1982:A2 0.000110803
3 *2542:X 0.000150867
4 *704:6 0.000375985
5 *1982:A1 *1981:B 0.000120368
6 *1982:B1 *1981:B 2.07809e-05
7 *1982:B1 *1982:A2 5.23735e-05
8 *1982:B1 *704:6 6.05161e-06
9 *2542:B *1982:A2 1.35553e-05
10 *2542:B *704:6 2.4652e-05
11 *23:275 *1981:B 0.000116841
12 *34:136 *1981:B 1.5864e-05
13 *160:8 *1981:B 3.32801e-05
14 *163:6 *704:6 0.000226279
*RES
1 *2542:X *704:6 12.3 
2 *704:6 *1982:A2 11.3893 
3 *704:6 *1981:B 21.4607 
*END

*D_NET *705 0.000629707
*CONN
*I *2548:A I *D sky130_fd_sc_hd__or2_1
*I *2543:X O *D sky130_fd_sc_hd__and2_1
*CAP
1 *2548:A 0.000166523
2 *2543:X 0.000166523
3 *2548:A *2548:B 0.000146458
4 *2548:A *3020:B 7.48644e-05
5 *2548:A *709:8 5.80494e-05
6 *34:167 *2548:A 1.72894e-05
*RES
1 *2543:X *2548:A 31.9036 
*END

*D_NET *706 0.000693706
*CONN
*I *2548:B I *D sky130_fd_sc_hd__or2_1
*I *2544:X O *D sky130_fd_sc_hd__and2_1
*CAP
1 *2548:B 0.000199869
2 *2544:X 0.000199869
3 *2543:A *2548:B 9.12114e-05
4 *2548:A *2548:B 0.000146458
5 *34:159 *2548:B 5.62995e-05
*RES
1 *2544:X *2548:B 32.3143 
*END

*D_NET *707 0.00136024
*CONN
*I *2549:A I *D sky130_fd_sc_hd__or2_1
*I *2545:X O *D sky130_fd_sc_hd__and2_1
*CAP
1 *2549:A 0.000139343
2 *2545:X 0.000139343
3 *2546:A *2549:A 5.50052e-05
4 *2546:B *2549:A 4.77002e-05
5 *7:40 *2549:A 0.000566231
6 *17:57 *2549:A 0.000412622
*RES
1 *2545:X *2549:A 24.7964 
*END

*D_NET *708 0.000499998
*CONN
*I *2549:B I *D sky130_fd_sc_hd__or2_1
*I *2546:X O *D sky130_fd_sc_hd__and2_1
*CAP
1 *2549:B 8.1436e-05
2 *2546:X 8.1436e-05
3 *17:57 *2549:B 0.000138494
4 *26:61 *2549:B 0.000143633
5 *656:12 *2549:B 5.49995e-05
*RES
1 *2546:X *2549:B 21.1893 
*END

*D_NET *709 0.00120947
*CONN
*I *3021:B I *D sky130_fd_sc_hd__and2_1
*I *3020:B I *D sky130_fd_sc_hd__xor2_1
*I *2548:X O *D sky130_fd_sc_hd__or2_1
*CAP
1 *3021:B 6.99957e-05
2 *3020:B 0.000162306
3 *2548:X 6.04776e-05
4 *709:8 0.000292779
5 *2543:A *3020:B 0
6 *2548:A *3020:B 7.48644e-05
7 *2548:A *709:8 5.80494e-05
8 *2605:A *3020:B 6.43609e-05
9 *2605:A *709:8 3.79336e-05
10 *3020:A *3021:B 5.33005e-05
11 *23:155 *3021:B 0.000117392
12 *34:167 *3020:B 7.77652e-05
13 *655:6 *3021:B 0.000140243
*RES
1 *2548:X *709:8 15.4429 
2 *709:8 *3020:B 17.7107 
3 *709:8 *3021:B 15.9786 
*END

*D_NET *710 0.000832105
*CONN
*I *3320:B I *D sky130_fd_sc_hd__xor2_1
*I *3321:B I *D sky130_fd_sc_hd__and2_1
*I *2549:X O *D sky130_fd_sc_hd__or2_1
*CAP
1 *3320:B 5.64253e-05
2 *3321:B 0
3 *2549:X 0.000123735
4 *710:12 0.00018016
5 *2551:B *710:12 2.60107e-05
6 *3321:A *3320:B 9.84729e-05
7 *17:57 *710:12 5.49995e-05
8 *168:16 *3320:B 0.000186669
9 *232:12 *3320:B 2.97489e-05
10 *232:12 *710:12 7.58841e-05
*RES
1 *2549:X *710:12 20.4786 
2 *710:12 *3321:B 9.3 
3 *710:12 *3320:B 11.4964 
*END

*D_NET *711 0.000208177
*CONN
*I *2554:A I *D sky130_fd_sc_hd__or2_1
*I *2550:X O *D sky130_fd_sc_hd__and2_1
*CAP
1 *2554:A 5.72627e-05
2 *2550:X 5.72627e-05
3 *2554:A *2554:B 4.79773e-05
4 *2554:A *715:8 3.75959e-05
5 *17:86 *2554:A 8.07792e-06
*RES
1 *2550:X *2554:A 28.9393 
*END

*D_NET *712 0.000357277
*CONN
*I *2554:B I *D sky130_fd_sc_hd__or2_1
*I *2551:X O *D sky130_fd_sc_hd__and2_1
*CAP
1 *2554:B 9.92073e-05
2 *2551:X 9.92073e-05
3 *2554:B *1465:6 5.50052e-05
4 *2543:A *2554:B 9.15842e-06
5 *2554:A *2554:B 4.79773e-05
6 *35:75 *2554:B 4.67214e-05
*RES
1 *2551:X *2554:B 29.475 
*END

*D_NET *713 0.000484458
*CONN
*I *2555:A I *D sky130_fd_sc_hd__or2_1
*I *2552:X O *D sky130_fd_sc_hd__and2_1
*CAP
1 *2555:A 7.77788e-05
2 *2552:X 7.77788e-05
3 *2555:A *2555:B 0.00015234
4 *2555:A *1389:10 2.59355e-05
5 *26:121 *2555:A 0.000150625
*RES
1 *2552:X *2555:A 30.0821 
*END

*D_NET *714 0.000308586
*CONN
*I *2555:B I *D sky130_fd_sc_hd__or2_1
*I *2553:X O *D sky130_fd_sc_hd__and2_1
*CAP
1 *2555:B 7.81231e-05
2 *2553:X 7.81231e-05
3 *2555:A *2555:B 0.00015234
4 *27:172 *2555:B 0
*RES
1 *2553:X *2555:B 29.5464 
*END

*D_NET *715 0.00190978
*CONN
*I *3026:A2 I *D sky130_fd_sc_hd__a21o_1
*I *3025:B I *D sky130_fd_sc_hd__xor2_1
*I *2554:X O *D sky130_fd_sc_hd__or2_1
*CAP
1 *3026:A2 0.00027188
2 *3025:B 0
3 *2554:X 0.000291753
4 *715:8 0.000563633
5 *3026:A2 *3025:A 0.000140577
6 *3026:A2 *3026:A1 1.04232e-05
7 *3026:A2 *3026:B1 3.34295e-05
8 *3026:A2 *1169:6 1.72894e-05
9 *715:8 *3025:A 3.51442e-05
10 *715:8 *3121:B1 0
11 *2554:A *715:8 3.75959e-05
12 *7:68 *3026:A2 0
13 *7:68 *715:8 0
14 *17:86 *715:8 0.000124012
15 *17:103 *3026:A2 3.11262e-05
16 *17:103 *715:8 0.000352913
*RES
1 *2554:X *715:8 20.6036 
2 *715:8 *3025:B 13.8 
3 *715:8 *3026:A2 18.6929 
*END

*D_NET *716 0.00107635
*CONN
*I *3326:A2 I *D sky130_fd_sc_hd__a21o_1
*I *3325:B I *D sky130_fd_sc_hd__xor2_1
*I *2555:X O *D sky130_fd_sc_hd__or2_1
*CAP
1 *3326:A2 0
2 *3325:B 0.000144409
3 *2555:X 0.000165093
4 *716:8 0.000309502
5 *3325:B *3325:A 7.43578e-06
6 *3325:B *3326:A1 0.000177234
7 *3325:B *1466:8 0
8 *716:8 *3336:A 2.37761e-05
9 *716:8 *1386:10 2.15363e-05
10 *1990:A *3325:B 1.74352e-05
11 *2552:A *716:8 6.0038e-05
12 *17:103 *3325:B 0
13 *17:103 *716:8 0
14 *26:121 *716:8 0.000149886
*RES
1 *2555:X *716:8 17.8714 
2 *716:8 *3325:B 17.0143 
3 *716:8 *3326:A2 13.8 
*END

*D_NET *717 0.000375039
*CONN
*I *2561:A I *D sky130_fd_sc_hd__or2_1
*I *2556:X O *D sky130_fd_sc_hd__and2_1
*CAP
1 *2561:A 9.95236e-05
2 *2556:X 9.95236e-05
3 *2561:A *721:10 4.31521e-05
4 *2561:A *1103:16 2.95726e-05
5 *36:132 *2561:A 0.000103267
*RES
1 *2556:X *2561:A 29.8857 
*END

*D_NET *718 0.00035785
*CONN
*I *2561:B I *D sky130_fd_sc_hd__or2_1
*I *2557:X O *D sky130_fd_sc_hd__and2_1
*CAP
1 *2561:B 6.51594e-05
2 *2557:X 6.51594e-05
3 *2561:B *1103:16 1.92905e-05
4 *2556:A *2561:B 0.000103267
5 *26:139 *2561:B 0.000104974
*RES
1 *2557:X *2561:B 29.475 
*END

*D_NET *719 0.000501589
*CONN
*I *2562:A I *D sky130_fd_sc_hd__or2_1
*I *2559:X O *D sky130_fd_sc_hd__and2_1
*CAP
1 *2562:A 8.32916e-05
2 *2559:X 8.32916e-05
3 *2562:A *1092:14 2.89114e-05
4 *26:130 *2562:A 0.000153047
5 *36:117 *2562:A 0.000153047
*RES
1 *2559:X *2562:A 30.0821 
*END

*D_NET *720 0.000304849
*CONN
*I *2562:B I *D sky130_fd_sc_hd__or2_1
*I *2560:X O *D sky130_fd_sc_hd__and2_1
*CAP
1 *2562:B 4.60328e-05
2 *2560:X 4.60328e-05
3 *7:84 *2562:B 5.80217e-05
4 *36:117 *2562:B 0.000154762
*RES
1 *2560:X *2562:B 29.5464 
*END

*D_NET *721 0.00130492
*CONN
*I *2949:B I *D sky130_fd_sc_hd__and2_1
*I *2948:B I *D sky130_fd_sc_hd__xor2_1
*I *2561:X O *D sky130_fd_sc_hd__or2_1
*CAP
1 *2949:B 0.000167322
2 *2948:B 0
3 *2561:X 0.000181521
4 *721:10 0.000348843
5 *721:10 *1103:16 0.000144773
6 *2561:A *721:10 4.31521e-05
7 *2948:A *2949:B 0.00022639
8 *2948:A *721:10 3.51442e-05
9 *20:95 *2949:B 5.33433e-05
10 *25:222 *721:10 0
11 *25:239 *2949:B 0
12 *36:132 *721:10 0
13 *36:145 *2949:B 7.35679e-05
14 *36:145 *721:10 2.8266e-06
15 *103:12 *2949:B 1.56e-05
16 *667:6 *2949:B 1.24368e-05
*RES
1 *2561:X *721:10 18.0143 
2 *721:10 *2948:B 13.8 
3 *721:10 *2949:B 18.0321 
*END

*D_NET *722 0.00108066
*CONN
*I *3248:B I *D sky130_fd_sc_hd__and2_1
*I *3247:B I *D sky130_fd_sc_hd__xor2_1
*I *2562:X O *D sky130_fd_sc_hd__or2_1
*CAP
1 *3248:B 0
2 *3247:B 0.000166281
3 *2562:X 0.000254083
4 *722:10 0.000420364
5 *722:10 *1093:18 5.05484e-05
6 *3248:A *3247:B 1.31516e-05
7 *17:130 *3247:B 0.000176234
8 *17:134 *722:10 0
9 *25:213 *3247:B 0
10 *25:213 *722:10 0
*RES
1 *2562:X *722:10 17.5143 
2 *722:10 *3247:B 17.3 
3 *722:10 *3248:B 13.8 
*END

*D_NET *723 0.000316685
*CONN
*I *2567:A I *D sky130_fd_sc_hd__or2_1
*I *2563:X O *D sky130_fd_sc_hd__and2_1
*CAP
1 *2567:A 5.75499e-05
2 *2563:X 5.75499e-05
3 *17:146 *2567:A 0.000100625
4 *17:167 *2567:A 0.00010096
*RES
1 *2563:X *2567:A 20.3679 
*END

*D_NET *724 0.000235178
*CONN
*I *2567:B I *D sky130_fd_sc_hd__or2_1
*I *2564:X O *D sky130_fd_sc_hd__and2_1
*CAP
1 *2567:B 0.000117589
2 *2564:X 0.000117589
3 *2633:B *2567:B 0
4 *7:111 *2567:B 0
5 *37:227 *2567:B 0
*RES
1 *2564:X *2567:B 29.5464 
*END

*D_NET *725 0.000631648
*CONN
*I *2568:A I *D sky130_fd_sc_hd__or2_1
*I *2565:X O *D sky130_fd_sc_hd__and2_1
*CAP
1 *2568:A 0.000144352
2 *2565:X 0.000144352
3 *2568:A *2568:B 0
4 *2568:A *728:10 5.71472e-05
5 *2568:A *1093:18 0.000232399
6 *27:162 *2568:A 5.33978e-05
*RES
1 *2565:X *2568:A 31.1179 
*END

*D_NET *726 0.000618668
*CONN
*I *2568:B I *D sky130_fd_sc_hd__or2_1
*I *2566:X O *D sky130_fd_sc_hd__and2_1
*CAP
1 *2568:B 0.000188872
2 *2566:X 0.000188872
3 *2568:B *728:10 2.56601e-05
4 *2564:B *2568:B 0.000181796
5 *2568:A *2568:B 0
6 *37:115 *2568:B 3.34672e-05
*RES
1 *2566:X *2568:B 30.7071 
*END

*D_NET *727 0.000809703
*CONN
*I *2954:B I *D sky130_fd_sc_hd__xor2_1
*I *2955:B I *D sky130_fd_sc_hd__and2_1
*I *2567:X O *D sky130_fd_sc_hd__or2_1
*CAP
1 *2954:B 7.11348e-05
2 *2955:B 0
3 *2567:X 9.14354e-05
4 *727:10 0.00016257
5 *2955:A *2954:B 8.82117e-05
6 *7:111 *2954:B 0.000197269
7 *7:111 *727:10 0.000128154
8 *17:146 *727:10 1.92789e-05
9 *17:167 *2954:B 5.90443e-06
10 *17:167 *727:10 4.57445e-05
*RES
1 *2567:X *727:10 15.9786 
2 *727:10 *2955:B 13.8 
3 *727:10 *2954:B 16.3536 
*END

*D_NET *728 0.000867141
*CONN
*I *3253:B I *D sky130_fd_sc_hd__xor2_1
*I *3254:B I *D sky130_fd_sc_hd__and2_1
*I *2568:X O *D sky130_fd_sc_hd__or2_1
*CAP
1 *3253:B 0.000109612
2 *3254:B 1.40355e-05
3 *2568:X 0.000139046
4 *728:10 0.000262694
5 *3253:B *3256:B1 0
6 *3254:B *1099:8 2.89114e-05
7 *2564:B *3254:B 5.52302e-05
8 *2568:A *728:10 5.71472e-05
9 *2568:B *728:10 2.56601e-05
10 *3254:A *3253:B 0.000174805
11 *27:160 *3253:B 0
12 *27:162 *728:10 0
*RES
1 *2568:X *728:10 15.9786 
2 *728:10 *3254:B 14.3357 
3 *728:10 *3253:B 16.3536 
*END

*D_NET *729 0.000262819
*CONN
*I *2574:A I *D sky130_fd_sc_hd__or2_1
*I *2570:X O *D sky130_fd_sc_hd__and2_1
*CAP
1 *2574:A 8.09294e-05
2 *2570:X 8.09294e-05
3 *2574:A *2574:B 0.00010096
*RES
1 *2570:X *2574:A 20.3679 
*END

*D_NET *730 0.00046446
*CONN
*I *2574:B I *D sky130_fd_sc_hd__or2_1
*I *2571:X O *D sky130_fd_sc_hd__and2_1
*CAP
1 *2574:B 0.000129263
2 *2571:X 0.000129263
3 *2574:B *733:12 0
4 *2574:A *2574:B 0.00010096
5 *38:125 *2574:B 0.000104974
*RES
1 *2571:X *2574:B 30.2964 
*END

*D_NET *731 0.000238752
*CONN
*I *2575:A I *D sky130_fd_sc_hd__or2_1
*I *2572:X O *D sky130_fd_sc_hd__and2_1
*CAP
1 *2575:A 2.89611e-05
2 *2572:X 2.89611e-05
3 *2575:A *2575:B 5.71472e-05
4 *2575:A *1429:10 7.77751e-05
5 *2572:B *2575:A 6.05161e-06
6 *28:133 *2575:A 3.98559e-05
*RES
1 *2572:X *2575:A 19.9571 
*END

*D_NET *732 0.000324264
*CONN
*I *2575:B I *D sky130_fd_sc_hd__or2_1
*I *2573:X O *D sky130_fd_sc_hd__and2_1
*CAP
1 *2575:B 6.06624e-05
2 *2573:X 6.06624e-05
3 *2575:B *1199:18 5.01213e-05
4 *2575:A *2575:B 5.71472e-05
5 *17:178 *2575:B 2.28428e-05
6 *28:133 *2575:B 5.52238e-05
7 *28:146 *2575:B 1.76039e-05
*RES
1 *2573:X *2575:B 29.475 
*END

*D_NET *733 0.000916006
*CONN
*I *2963:B I *D sky130_fd_sc_hd__xor2_1
*I *2964:A2 I *D sky130_fd_sc_hd__a21o_1
*I *2574:X O *D sky130_fd_sc_hd__or2_1
*CAP
1 *2963:B 0
2 *2964:A2 0.000155552
3 *2574:X 0.0001865
4 *733:12 0.000342052
5 *2964:A2 *2963:A 0.000139087
6 *2964:A2 *1108:12 3.18676e-05
7 *733:12 *2964:B1 0
8 *733:12 *1108:12 0
9 *2571:B *2964:A2 0
10 *2574:B *733:12 0
11 *2630:A *733:12 6.09476e-05
12 *38:125 *733:12 0
13 *190:10 *733:12 0
*RES
1 *2574:X *733:12 21.1929 
2 *733:12 *2964:A2 12.7286 
3 *733:12 *2963:B 9.3 
*END

*D_NET *734 0.000557905
*CONN
*I *3262:B I *D sky130_fd_sc_hd__xor2_1
*I *3263:A2 I *D sky130_fd_sc_hd__a21o_1
*I *2575:X O *D sky130_fd_sc_hd__or2_1
*CAP
1 *3262:B 0
2 *3263:A2 4.43524e-05
3 *2575:X 4.47258e-05
4 *734:10 8.90782e-05
5 *3263:A2 *3262:A 6.61807e-05
6 *3263:A2 *3359:A 4.87854e-05
7 *3263:A2 *1405:8 3.57366e-05
8 *734:10 *3359:A 7.83659e-05
9 *734:10 *1199:18 0.000125731
10 *38:142 *734:10 2.49484e-05
*RES
1 *2575:X *734:10 19.9429 
2 *734:10 *3263:A2 10.675 
3 *734:10 *3262:B 9.3 
*END

*D_NET *735 0.000282731
*CONN
*I *2581:A I *D sky130_fd_sc_hd__or2_1
*I *2576:X O *D sky130_fd_sc_hd__and2_1
*CAP
1 *2581:A 4.23223e-05
2 *2576:X 4.23223e-05
3 *2581:A *2581:B 5.52302e-05
4 *2570:A *2581:A 0.000142856
*RES
1 *2576:X *2581:A 19.9571 
*END

*D_NET *736 0.00050822
*CONN
*I *2581:B I *D sky130_fd_sc_hd__or2_1
*I *2577:X O *D sky130_fd_sc_hd__and2_1
*CAP
1 *2581:B 0.000136891
2 *2577:X 0.000136891
3 *2570:A *2581:B 3.8274e-05
4 *2581:A *2581:B 5.52302e-05
5 *39:144 *2581:B 0.000140933
*RES
1 *2577:X *2581:B 21.1893 
*END

*D_NET *737 0.000286972
*CONN
*I *2582:A I *D sky130_fd_sc_hd__or2_1
*I *2578:X O *D sky130_fd_sc_hd__and2_1
*CAP
1 *2582:A 3.78894e-05
2 *2578:X 3.78894e-05
3 *2582:A *1136:16 7.02611e-05
4 *17:206 *2582:A 0.000140933
*RES
1 *2578:X *2582:A 19.9571 
*END

*D_NET *738 0.000538559
*CONN
*I *2582:B I *D sky130_fd_sc_hd__or2_1
*I *2579:X O *D sky130_fd_sc_hd__and2_1
*CAP
1 *2582:B 0.000130123
2 *2579:X 0.000130123
3 *2582:B *1384:10 7.50697e-05
4 *7:197 *2582:B 5.33334e-05
5 *39:129 *2582:B 0.000149911
*RES
1 *2579:X *2582:B 30.4929 
*END

*D_NET *739 0.00121997
*CONN
*I *2974:B I *D sky130_fd_sc_hd__xor2_1
*I *2975:B I *D sky130_fd_sc_hd__and2_1
*I *2581:X O *D sky130_fd_sc_hd__or2_1
*CAP
1 *2974:B 7.84919e-05
2 *2975:B 0
3 *2581:X 0.000166014
4 *739:12 0.000244506
5 *2974:B *2977:B1 3.67257e-05
6 *2570:A *739:12 2.89114e-05
7 *2974:A *2974:B 0.000194149
8 *28:123 *739:12 0.000158426
9 *685:12 *739:12 0.00031275
*RES
1 *2581:X *739:12 22.9071 
2 *739:12 *2975:B 9.3 
3 *739:12 *2974:B 11.4964 
*END

*D_NET *740 0.0010332
*CONN
*I *3275:B I *D sky130_fd_sc_hd__and2_1
*I *3274:B I *D sky130_fd_sc_hd__xor2_1
*I *2582:X O *D sky130_fd_sc_hd__or2_1
*CAP
1 *3275:B 0.00010082
2 *3274:B 0
3 *2582:X 2.4941e-05
4 *740:6 0.000125761
5 *3275:B *3276:A 0
6 *3275:B *1136:16 4.72917e-05
7 *3275:B *1418:6 0.000183726
8 *740:6 *1136:16 2.28499e-05
9 *3275:A *3275:B 0.000256992
10 *29:239 *3275:B 0.000108603
11 *29:239 *740:6 5.17614e-05
12 *686:12 *3275:B 5.52238e-05
13 *686:12 *740:6 5.52302e-05
*RES
1 *2582:X *740:6 10.2464 
2 *740:6 *3274:B 9.3 
3 *740:6 *3275:B 13.55 
*END

*D_NET *741 0.000694671
*CONN
*I *2587:A I *D sky130_fd_sc_hd__or2_1
*I *2583:X O *D sky130_fd_sc_hd__and2_1
*CAP
1 *2587:A 0.000243446
2 *2583:X 0.000243446
3 *2587:A *745:12 0.000150632
4 *2587:A *1133:10 0
5 *2587:A *1134:10 0
6 *2584:B *2587:A 0
7 *17:271 *2587:A 0
8 *40:224 *2587:A 5.71472e-05
*RES
1 *2583:X *2587:A 31.9036 
*END

*D_NET *742 8.18297e-05
*CONN
*I *2587:B I *D sky130_fd_sc_hd__or2_1
*I *2584:X O *D sky130_fd_sc_hd__and2_1
*CAP
1 *2587:B 2.4981e-05
2 *2584:X 2.4981e-05
3 *7:215 *2587:B 3.18676e-05
*RES
1 *2584:X *2587:B 19.1357 
*END

*D_NET *743 0.000824855
*CONN
*I *2588:A I *D sky130_fd_sc_hd__or2_1
*I *2585:X O *D sky130_fd_sc_hd__and2_1
*CAP
1 *2588:A 0.000104715
2 *2585:X 0.000104715
3 *2588:A *2588:B 0.000173797
4 *2588:A *3290:B1 7.32272e-05
5 *2588:A *1136:16 0.00018077
6 *2588:A *1431:8 0.000175505
7 *2585:A *2588:A 1.21258e-05
*RES
1 *2585:X *2588:A 31.6179 
*END

*D_NET *744 0.000814277
*CONN
*I *2588:B I *D sky130_fd_sc_hd__or2_1
*I *2586:X O *D sky130_fd_sc_hd__and2_1
*CAP
1 *2588:B 0.000170805
2 *2586:X 0.000170805
3 *2588:B *3289:A 5.97719e-05
4 *2588:B *1431:8 2.49484e-05
5 *2588:B *1434:12 7.83659e-05
6 *2586:B *2588:B 0.000104077
7 *2588:A *2588:B 0.000173797
8 *40:230 *2588:B 3.17067e-05
*RES
1 *2586:X *2588:B 32.5107 
*END

*D_NET *745 0.000898805
*CONN
*I *2989:B I *D sky130_fd_sc_hd__xor2_1
*I *2990:A2 I *D sky130_fd_sc_hd__a21o_1
*I *2587:X O *D sky130_fd_sc_hd__or2_1
*CAP
1 *2989:B 0
2 *2990:A2 7.3828e-05
3 *2587:X 0.000124787
4 *745:12 0.000198615
5 *2990:A2 *2989:A 0.000102197
6 *745:12 *1133:10 0
7 *2585:B *2990:A2 0.000229456
8 *2587:A *745:12 0.000150632
9 *7:215 *745:12 1.92905e-05
*RES
1 *2587:X *745:12 20.7821 
2 *745:12 *2990:A2 11.9071 
3 *745:12 *2989:B 9.3 
*END

*D_NET *746 0.000717127
*CONN
*I *3289:B I *D sky130_fd_sc_hd__xor2_1
*I *3290:A2 I *D sky130_fd_sc_hd__a21o_1
*I *2588:X O *D sky130_fd_sc_hd__or2_1
*CAP
1 *3289:B 0.000115745
2 *3290:A2 0
3 *2588:X 7.88924e-05
4 *746:8 0.000194637
5 *3289:B *3289:A 0.000165269
6 *3289:B *1434:12 0
7 *746:8 *3289:A 1.02504e-05
8 *746:8 *1431:8 0.000152333
9 *2578:B *3289:B 0
10 *2578:B *746:8 0
11 *7:213 *3289:B 0
12 *7:213 *746:8 0
*RES
1 *2588:X *746:8 15.7464 
2 *746:8 *3290:A2 13.8 
3 *746:8 *3289:B 16.3536 
*END

*D_NET *747 0.000342056
*CONN
*I *2594:A I *D sky130_fd_sc_hd__or2_1
*I *2589:X O *D sky130_fd_sc_hd__and2_1
*CAP
1 *2594:A 6.3939e-05
2 *2589:X 6.3939e-05
3 *17:283 *2594:A 0.000110918
4 *697:14 *2594:A 0.00010326
*RES
1 *2589:X *2594:A 29.475 
*END

*D_NET *748 9.07525e-05
*CONN
*I *2594:B I *D sky130_fd_sc_hd__or2_1
*I *2590:X O *D sky130_fd_sc_hd__and2_1
*CAP
1 *2594:B 3.09205e-05
2 *2590:X 3.09205e-05
3 *2592:B *2594:B 2.89114e-05
*RES
1 *2590:X *2594:B 19.1357 
*END

*D_NET *749 0.000267871
*CONN
*I *2595:A I *D sky130_fd_sc_hd__or2_1
*I *2592:X O *D sky130_fd_sc_hd__and2_1
*CAP
1 *2595:A 3.29756e-05
2 *2592:X 3.29756e-05
3 *17:277 *2595:A 0.000144773
4 *30:79 *2595:A 5.71472e-05
*RES
1 *2592:X *2595:A 19.9571 
*END

*D_NET *750 0.00042772
*CONN
*I *2595:B I *D sky130_fd_sc_hd__or2_1
*I *2593:X O *D sky130_fd_sc_hd__and2_1
*CAP
1 *2595:B 8.83744e-05
2 *2593:X 8.83744e-05
3 *29:198 *2595:B 8.39e-05
4 *30:73 *2595:B 1.40306e-05
5 *30:79 *2595:B 0.00015304
*RES
1 *2593:X *2595:B 30.0821 
*END

*D_NET *751 0.00122766
*CONN
*I *3000:B I *D sky130_fd_sc_hd__xor2_1
*I *3001:B I *D sky130_fd_sc_hd__and2_1
*I *2594:X O *D sky130_fd_sc_hd__or2_1
*CAP
1 *3000:B 0
2 *3001:B 0.000114268
3 *2594:X 0.000131924
4 *751:12 0.000246192
5 *3000:A *3001:B 5.52238e-05
6 *3001:A *3001:B 0.000212094
7 *7:237 *751:12 9.90367e-05
8 *30:73 *3001:B 0.000264433
9 *139:8 *751:12 4.25716e-05
10 *697:14 *751:12 6.19181e-05
*RES
1 *2594:X *751:12 20.8893 
2 *751:12 *3001:B 13.2643 
3 *751:12 *3000:B 9.3 
*END

*D_NET *752 0.000713124
*CONN
*I *3300:B I *D sky130_fd_sc_hd__xor2_1
*I *3301:B I *D sky130_fd_sc_hd__and2_1
*I *2595:X O *D sky130_fd_sc_hd__or2_1
*CAP
1 *3300:B 7.76334e-05
2 *3301:B 0
3 *2595:X 7.12103e-05
4 *752:10 0.000148844
5 *752:10 *2655:A 7.83366e-05
6 *3301:A *3300:B 0.00018927
7 *30:73 *752:10 2.19778e-05
8 *30:79 *752:10 3.5707e-05
9 *30:252 *3300:B 9.0145e-05
*RES
1 *2595:X *752:10 20.2464 
2 *752:10 *3301:B 9.3 
3 *752:10 *3300:B 11.4964 
*END

*D_NET *753 0.000394698
*CONN
*I *2600:A I *D sky130_fd_sc_hd__or2_1
*I *2596:X O *D sky130_fd_sc_hd__and2_1
*CAP
1 *2600:A 0.000105192
2 *2596:X 0.000105192
3 *2600:A *2600:B 7.73758e-05
4 *32:174 *2600:A 3.18676e-05
5 *275:12 *2600:A 7.50697e-05
*RES
1 *2596:X *2600:A 30.0821 
*END

*D_NET *754 0.000291113
*CONN
*I *2600:B I *D sky130_fd_sc_hd__or2_1
*I *2597:X O *D sky130_fd_sc_hd__and2_1
*CAP
1 *2600:B 0.000106868
2 *2597:X 0.000106868
3 *2600:A *2600:B 7.73758e-05
4 *7:247 *2600:B 0
*RES
1 *2597:X *2600:B 29.5464 
*END

*D_NET *755 0.000218658
*CONN
*I *2601:A I *D sky130_fd_sc_hd__or2_1
*I *2598:X O *D sky130_fd_sc_hd__and2_1
*CAP
1 *2601:A 8.17139e-05
2 *2598:X 8.17139e-05
3 *2601:A *2601:B 5.52302e-05
*RES
1 *2598:X *2601:A 19.9571 
*END

*D_NET *756 0.000465518
*CONN
*I *2601:B I *D sky130_fd_sc_hd__or2_1
*I *2599:X O *D sky130_fd_sc_hd__and2_1
*CAP
1 *2601:B 0.00018921
2 *2599:X 0.00018921
3 *2598:A *2601:B 3.18676e-05
4 *2601:A *2601:B 5.52302e-05
*RES
1 *2599:X *2601:B 21.7429 
*END

*D_NET *757 0.00336241
*CONN
*I *3009:A I *D sky130_fd_sc_hd__xor2_1
*I *3010:A I *D sky130_fd_sc_hd__and2_1
*I *2600:X O *D sky130_fd_sc_hd__or2_1
*CAP
1 *3009:A 0
2 *3010:A 4.97018e-05
3 *2600:X 0.000775387
4 *757:16 0.000825089
5 *3010:A *3010:B 0.000226507
6 *757:16 *2654:B 5.33882e-05
7 *757:16 *3010:B 2.14658e-05
8 *757:16 *1147:10 0
9 *2650:A *757:16 0.00011741
10 *7:237 *757:16 0
11 *7:247 *757:16 4.57445e-05
12 *29:198 *757:16 0.00049041
13 *30:60 *3010:A 0.000113073
14 *30:60 *757:16 0.000564194
15 *40:170 *757:16 6.60662e-05
16 *40:185 *757:16 1.39726e-05
*RES
1 *2600:X *757:16 34.2107 
2 *757:16 *3010:A 11.4786 
3 *757:16 *3009:A 9.3 
*END

*D_NET *758 0.000702966
*CONN
*I *3309:A I *D sky130_fd_sc_hd__xor2_1
*I *3310:A I *D sky130_fd_sc_hd__and2_1
*I *2601:X O *D sky130_fd_sc_hd__or2_1
*CAP
1 *3309:A 0.000109734
2 *3310:A 0
3 *2601:X 3.18784e-05
4 *758:6 0.000141612
5 *3309:A *3310:B 0.00015327
6 *41:192 *3309:A 0.000266473
*RES
1 *2601:X *758:6 9.83571 
2 *758:6 *3310:A 9.3 
3 *758:6 *3309:A 12.7286 
*END

*D_NET *759 0.000448138
*CONN
*I *2608:A I *D sky130_fd_sc_hd__or2_1
*I *2604:X O *D sky130_fd_sc_hd__and2_1
*CAP
1 *2608:A 0.000203981
2 *2604:X 0.000203981
3 *2608:A *2608:B 0
4 *2608:A *763:10 4.01768e-05
*RES
1 *2604:X *2608:A 31.3143 
*END

*D_NET *760 0.000227481
*CONN
*I *2608:B I *D sky130_fd_sc_hd__or2_1
*I *2605:X O *D sky130_fd_sc_hd__and2_1
*CAP
1 *2608:B 9.2945e-05
2 *2605:X 9.2945e-05
3 *2608:B *763:10 4.15914e-05
4 *2608:A *2608:B 0
*RES
1 *2605:X *2608:B 29.5464 
*END

*D_NET *761 0.000227127
*CONN
*I *2609:A I *D sky130_fd_sc_hd__or2_1
*I *2606:X O *D sky130_fd_sc_hd__and2_1
*CAP
1 *2609:A 8.49898e-05
2 *2606:X 8.49898e-05
3 *2609:A *2609:B 5.71472e-05
*RES
1 *2606:X *2609:A 19.9571 
*END

*D_NET *762 0.000563719
*CONN
*I *2609:B I *D sky130_fd_sc_hd__or2_1
*I *2607:X O *D sky130_fd_sc_hd__and2_1
*CAP
1 *2609:B 0.000133309
2 *2607:X 0.000133309
3 *2606:B *2609:B 1.04232e-05
4 *2609:A *2609:B 5.71472e-05
5 *18:182 *2609:B 9.60875e-05
6 *23:275 *2609:B 3.23206e-05
7 *23:281 *2609:B 4.58976e-05
8 *33:277 *2609:B 5.52238e-05
*RES
1 *2607:X *2609:B 21.7429 
*END

*D_NET *763 0.000748558
*CONN
*I *3114:A I *D sky130_fd_sc_hd__xor2_1
*I *3115:A I *D sky130_fd_sc_hd__and2_1
*I *2608:X O *D sky130_fd_sc_hd__or2_1
*CAP
1 *3114:A 7.80505e-05
2 *3115:A 0
3 *2608:X 0.000160391
4 *763:10 0.000238442
5 *3114:A *3115:B 0.000179656
6 *763:10 *3115:B 1.02504e-05
7 *2605:B *3114:A 0
8 *2605:B *763:10 0
9 *2608:A *763:10 4.01768e-05
10 *2608:B *763:10 4.15914e-05
*RES
1 *2608:X *763:10 16.6929 
2 *763:10 *3115:A 13.8 
3 *763:10 *3114:A 16.05 
*END

*D_NET *764 0.000711476
*CONN
*I *1985:A I *D sky130_fd_sc_hd__and2_1
*I *1984:A I *D sky130_fd_sc_hd__xor2_1
*I *2609:X O *D sky130_fd_sc_hd__or2_1
*CAP
1 *1985:A 0
2 *1984:A 0.000153837
3 *2609:X 8.61686e-05
4 *764:6 0.000240006
5 *1984:A *1985:B 0.000176234
6 *1984:A *1459:6 5.52302e-05
7 *1984:A *1462:12 0
*RES
1 *2609:X *764:6 10.6571 
2 *764:6 *1984:A 21.8 
3 *764:6 *1985:A 9.3 
*END

*D_NET *765 0.000457528
*CONN
*I *2615:A I *D sky130_fd_sc_hd__or2_1
*I *2610:X O *D sky130_fd_sc_hd__and2_1
*CAP
1 *2615:A 0.000123709
2 *2610:X 0.000123709
3 *2615:A *2615:B 6.14702e-06
4 *2610:B *2615:A 6.05161e-06
5 *8:56 *2615:A 4.93118e-06
6 *23:172 *2615:A 7.58841e-05
7 *34:167 *2615:A 0.000101908
8 *354:6 *2615:A 1.51881e-05
*RES
1 *2610:X *2615:A 29.8857 
*END

*D_NET *766 0.000292038
*CONN
*I *2615:B I *D sky130_fd_sc_hd__or2_1
*I *2611:X O *D sky130_fd_sc_hd__and2_1
*CAP
1 *2615:B 7.57858e-05
2 *2611:X 7.57858e-05
3 *2615:B *1168:6 3.11088e-05
4 *2605:B *2615:B 1.0609e-05
5 *2615:A *2615:B 6.14702e-06
6 *23:172 *2615:B 9.26011e-05
*RES
1 *2611:X *2615:B 29.475 
*END

*D_NET *767 0.000521467
*CONN
*I *2616:A I *D sky130_fd_sc_hd__or2_1
*I *2612:X O *D sky130_fd_sc_hd__and2_1
*CAP
1 *2616:A 8.64462e-05
2 *2612:X 8.64462e-05
3 *2616:A *824:10 5.21233e-05
4 *2616:A *1465:6 9.75679e-05
5 *24:80 *2616:A 0.000150476
6 *168:16 *2616:A 4.84073e-05
*RES
1 *2612:X *2616:A 30.4929 
*END

*D_NET *768 0.000507247
*CONN
*I *2616:B I *D sky130_fd_sc_hd__or2_1
*I *2613:X O *D sky130_fd_sc_hd__and2_1
*CAP
1 *2616:B 6.18863e-05
2 *2613:X 6.18863e-05
3 *2616:B *1465:6 5.49995e-05
4 *18:219 *2616:B 0.000150476
5 *34:178 *2616:B 0.000152064
6 *168:16 *2616:B 2.59355e-05
*RES
1 *2613:X *2616:B 30.0821 
*END

*D_NET *769 0.000977359
*CONN
*I *3028:A I *D sky130_fd_sc_hd__and2_1
*I *3027:A I *D sky130_fd_sc_hd__xor2_1
*I *2615:X O *D sky130_fd_sc_hd__or2_1
*CAP
1 *3028:A 0.00010737
2 *3027:A 0
3 *2615:X 0.000217275
4 *769:10 0.000324645
5 *3028:A *3027:B 2.25579e-05
6 *769:10 *1168:6 6.1602e-05
7 *24:80 *3028:A 0.00014852
8 *33:173 *3028:A 3.08439e-05
9 *33:173 *769:10 6.45442e-05
*RES
1 *2615:X *769:10 17.2107 
2 *769:10 *3027:A 13.8 
3 *769:10 *3028:A 16.6571 
*END

*D_NET *770 0.001601
*CONN
*I *3328:A I *D sky130_fd_sc_hd__and2_1
*I *3327:A I *D sky130_fd_sc_hd__xor2_1
*I *2616:X O *D sky130_fd_sc_hd__or2_1
*CAP
1 *3328:A 4.09972e-05
2 *3327:A 6.68968e-05
3 *2616:X 0.000235653
4 *770:10 0.000343547
5 *3327:A *3330:A1 3.69047e-06
6 *3328:A *3327:B 0.000172553
7 *3328:A *824:10 0.000169405
8 *770:10 *3327:B 3.34295e-05
9 *770:10 *3330:A1 8.02007e-05
10 *770:10 *3330:B1 0
11 *770:10 *824:10 0.000271828
12 *770:10 *1465:6 0.000182799
*RES
1 *2616:X *770:10 19.0321 
2 *770:10 *3327:A 14.7464 
3 *770:10 *3328:A 16.05 
*END

*D_NET *771 0.0003013
*CONN
*I *2621:A I *D sky130_fd_sc_hd__or2_1
*I *2617:X O *D sky130_fd_sc_hd__and2_1
*CAP
1 *2621:A 5.55211e-05
2 *2617:X 5.55211e-05
3 *2621:A *2621:B 5.33005e-05
4 *2621:A *1093:18 0.000136958
*RES
1 *2617:X *2621:A 19.9571 
*END

*D_NET *772 0.000643744
*CONN
*I *2621:B I *D sky130_fd_sc_hd__or2_1
*I *2618:X O *D sky130_fd_sc_hd__and2_1
*CAP
1 *2621:B 0.000130922
2 *2618:X 0.000130922
3 *2621:B *1093:18 0.000191647
4 *2617:B *2621:B 0.000136951
5 *2621:A *2621:B 5.33005e-05
*RES
1 *2618:X *2621:B 21.7429 
*END

*D_NET *773 0.000248581
*CONN
*I *2622:A I *D sky130_fd_sc_hd__or2_1
*I *2619:X O *D sky130_fd_sc_hd__and2_1
*CAP
1 *2622:A 9.76405e-05
2 *2619:X 9.76405e-05
3 *2622:A *2622:B 5.33005e-05
*RES
1 *2619:X *2622:A 19.9571 
*END

*D_NET *774 0.000547975
*CONN
*I *2622:B I *D sky130_fd_sc_hd__or2_1
*I *2620:X O *D sky130_fd_sc_hd__and2_1
*CAP
1 *2622:B 0.000178861
2 *2620:X 0.000178861
3 *2619:B *2622:B 0.000136951
4 *2622:A *2622:B 5.33005e-05
*RES
1 *2620:X *2622:B 21.7429 
*END

*D_NET *775 0.000733478
*CONN
*I *3031:A I *D sky130_fd_sc_hd__xor2_1
*I *3032:A I *D sky130_fd_sc_hd__and2_1
*I *2621:X O *D sky130_fd_sc_hd__or2_1
*CAP
1 *3031:A 4.28243e-05
2 *3032:A 7.1381e-05
3 *2621:X 5.78186e-05
4 *775:6 0.000172024
5 *3031:A *1093:18 5.03772e-05
6 *3032:A *3032:B 1.59689e-05
7 *3032:A *1393:10 7.92879e-05
8 *775:6 *1093:18 4.58194e-05
9 *20:97 *3032:A 0.000197977
*RES
1 *2621:X *775:6 10.2464 
2 *775:6 *3032:A 20.8536 
3 *775:6 *3031:A 10.2464 
*END

*D_NET *776 0.000758113
*CONN
*I *3331:A I *D sky130_fd_sc_hd__xor2_1
*I *3332:A I *D sky130_fd_sc_hd__and2_1
*I *2622:X O *D sky130_fd_sc_hd__or2_1
*CAP
1 *3331:A 0
2 *3332:A 0.000115393
3 *2622:X 0.000117921
4 *776:6 0.000233314
5 *3332:A *3332:B 9.24395e-05
6 *3332:A *3334:B1 6.8646e-06
7 *3332:A *1474:14 0
8 *3332:A *1475:10 0
9 *776:6 *3331:B 5.52302e-05
10 *776:6 *832:12 0.000136951
*RES
1 *2622:X *776:6 11.4786 
2 *776:6 *3332:A 20.8536 
3 *776:6 *3331:A 9.3 
*END

*D_NET *777 0.000696493
*CONN
*I *2628:A I *D sky130_fd_sc_hd__or2_1
*I *2623:X O *D sky130_fd_sc_hd__and2_1
*CAP
1 *2628:A 0.000238998
2 *2623:X 0.000238998
3 *2628:A *781:12 0.000149543
4 *2628:A *1103:10 1.18064e-05
5 *2752:B *2628:A 0
6 *3352:B1 *2628:A 5.71472e-05
7 *38:142 *2628:A 0
*RES
1 *2623:X *2628:A 31.9036 
*END

*D_NET *778 0.00086544
*CONN
*I *2628:B I *D sky130_fd_sc_hd__or2_1
*I *2624:X O *D sky130_fd_sc_hd__and2_1
*CAP
1 *2628:B 0.000195149
2 *2624:X 0.000195149
3 *2628:B *1101:10 3.93893e-05
4 *2504:B *2628:B 5.33005e-05
5 *3352:B1 *2628:B 9.80173e-05
6 *8:280 *2628:B 0
7 *28:146 *2628:B 0
8 *38:142 *2628:B 0.000252721
9 *38:148 *2628:B 3.17148e-05
*RES
1 *2624:X *2628:B 32.3143 
*END

*D_NET *779 0.000485845
*CONN
*I *2629:A I *D sky130_fd_sc_hd__or2_1
*I *2626:X O *D sky130_fd_sc_hd__and2_1
*CAP
1 *2629:A 0.000166311
2 *2626:X 0.000166311
3 *2629:A *1099:8 0.00010096
4 *2556:A *2629:A 2.66026e-05
5 *2618:A *2629:A 0
6 *17:134 *2629:A 2.56601e-05
7 *25:222 *2629:A 0
*RES
1 *2626:X *2629:A 30.4929 
*END

*D_NET *780 0.000133673
*CONN
*I *2629:B I *D sky130_fd_sc_hd__or2_1
*I *2627:X O *D sky130_fd_sc_hd__and2_1
*CAP
1 *2629:B 1.16062e-05
2 *2627:X 1.16062e-05
3 *2618:A *2629:B 5.52302e-05
4 *36:132 *2629:B 5.52302e-05
*RES
1 *2627:X *2629:B 19.1357 
*END

*D_NET *781 0.00103317
*CONN
*I *2956:B I *D sky130_fd_sc_hd__xor2_1
*I *2957:A2 I *D sky130_fd_sc_hd__a21o_1
*I *2628:X O *D sky130_fd_sc_hd__or2_1
*CAP
1 *2956:B 0
2 *2957:A2 0.000132309
3 *2628:X 0.000104193
4 *781:12 0.000236502
5 *2957:A2 *2956:A 0.000217549
6 *781:12 *1103:10 0.000149543
7 *2628:A *781:12 0.000149543
8 *16:167 *2957:A2 1.74352e-05
9 *16:167 *781:12 2.60984e-05
*RES
1 *2628:X *781:12 21.1929 
2 *781:12 *2957:A2 12.4429 
3 *781:12 *2956:B 9.3 
*END

*D_NET *782 0.00132377
*CONN
*I *3255:B I *D sky130_fd_sc_hd__xor2_1
*I *3256:A2 I *D sky130_fd_sc_hd__a21o_1
*I *2629:X O *D sky130_fd_sc_hd__or2_1
*CAP
1 *3255:B 0
2 *3256:A2 0.000219572
3 *2629:X 0.000181434
4 *782:12 0.000401006
5 *3256:A2 *3255:A 0.000157301
6 *2556:A *782:12 0.000150625
7 *2618:A *782:12 1.74352e-05
8 *36:132 *782:12 0.000196392
*RES
1 *2629:X *782:12 22.0143 
2 *782:12 *3256:A2 13.1393 
3 *782:12 *3255:B 9.3 
*END

*D_NET *783 0.000877907
*CONN
*I *2634:A I *D sky130_fd_sc_hd__or2_1
*I *2630:X O *D sky130_fd_sc_hd__and2_1
*CAP
1 *2634:A 0.000271126
2 *2630:X 0.000271126
3 *2634:A *844:10 7.43578e-06
4 *2634:A *1110:6 9.22103e-06
5 *2630:B *2634:A 5.33334e-05
6 *26:196 *2634:A 0.000162405
7 *36:187 *2634:A 0.00010326
*RES
1 *2630:X *2634:A 31.9393 
*END

*D_NET *784 0.000560096
*CONN
*I *2634:B I *D sky130_fd_sc_hd__or2_1
*I *2631:X O *D sky130_fd_sc_hd__and2_1
*CAP
1 *2634:B 0.000127178
2 *2631:X 0.000127178
3 *2634:B *2694:B 5.33005e-05
4 *2690:B *2634:B 0.000137983
5 *27:143 *2634:B 0.000114457
*RES
1 *2631:X *2634:B 21.1893 
*END

*D_NET *785 0.000786232
*CONN
*I *2635:A I *D sky130_fd_sc_hd__or2_1
*I *2632:X O *D sky130_fd_sc_hd__and2_1
*CAP
1 *2635:A 0.000248409
2 *2632:X 0.000248409
3 *2632:A *2635:A 1.21289e-05
4 *7:111 *2635:A 0.00010326
5 *19:90 *2635:A 0.000114587
6 *27:89 *2635:A 6.05161e-06
7 *28:146 *2635:A 5.33882e-05
*RES
1 *2632:X *2635:A 31.5286 
*END

*D_NET *786 0.000869225
*CONN
*I *2635:B I *D sky130_fd_sc_hd__or2_1
*I *2633:X O *D sky130_fd_sc_hd__and2_1
*CAP
1 *2635:B 0.000203212
2 *2633:X 0.000203212
3 *2632:A *2635:B 0.000118986
4 *7:111 *2635:B 0.000151185
5 *10:110 *2635:B 5.33433e-05
6 *17:167 *2635:B 0.000139286
*RES
1 *2633:X *2635:B 32.3143 
*END

*D_NET *787 0.000783446
*CONN
*I *2965:A I *D sky130_fd_sc_hd__xor2_1
*I *2966:A I *D sky130_fd_sc_hd__and2_1
*I *2634:X O *D sky130_fd_sc_hd__or2_1
*CAP
1 *2965:A 5.47766e-05
2 *2966:A 7.8914e-05
3 *2634:X 4.40688e-05
4 *787:6 0.000177759
5 *2966:A *2965:B 0.000126439
6 *2966:A *2966:B 3.57366e-05
7 *2966:A *844:10 7.49997e-05
8 *2966:A *1110:6 2.27416e-05
9 *9:216 *2965:A 4.58194e-05
10 *9:216 *787:6 5.33334e-05
11 *11:232 *2966:A 1.08359e-05
12 *36:187 *2966:A 5.80217e-05
*RES
1 *2634:X *787:6 10.2464 
2 *787:6 *2966:A 21.2107 
3 *787:6 *2965:A 10.2464 
*END

*D_NET *788 0.000876795
*CONN
*I *3265:A I *D sky130_fd_sc_hd__and2_1
*I *3264:A I *D sky130_fd_sc_hd__xor2_1
*I *2635:X O *D sky130_fd_sc_hd__or2_1
*CAP
1 *3265:A 0
2 *3264:A 0.000159062
3 *2635:X 7.89918e-05
4 *788:6 0.000238054
5 *3264:A *3264:B 7.74896e-05
6 *3264:A *3267:B1 0.000144773
7 *3264:A *845:12 5.33005e-05
8 *3264:A *1022:16 2.58821e-05
9 *788:6 *1022:16 9.92409e-05
*RES
1 *2635:X *788:6 11.0679 
2 *788:6 *3264:A 13.1571 
3 *788:6 *3265:A 9.3 
*END

*D_NET *789 0.000858538
*CONN
*I *2641:A I *D sky130_fd_sc_hd__or2_1
*I *2637:X O *D sky130_fd_sc_hd__and2_1
*CAP
1 *2641:A 0.000205089
2 *2637:X 0.000205089
3 *2641:A *1124:12 0.00034065
4 *2641:A *1426:18 7.49387e-06
5 *2637:B *2641:A 0
6 *18:140 *2641:A 9.41642e-05
7 *28:119 *2641:A 6.05161e-06
8 *38:115 *2641:A 0
*RES
1 *2637:X *2641:A 32.3143 
*END

*D_NET *790 0.000438673
*CONN
*I *2641:B I *D sky130_fd_sc_hd__or2_1
*I *2638:X O *D sky130_fd_sc_hd__and2_1
*CAP
1 *2641:B 0.000119507
2 *2638:X 0.000119507
3 *2638:B *2641:B 5.01117e-05
4 *38:113 *2641:B 9.71197e-05
5 *113:10 *2641:B 5.24274e-05
*RES
1 *2638:X *2641:B 29.8857 
*END

*D_NET *791 0.000638901
*CONN
*I *2642:A I *D sky130_fd_sc_hd__or2_1
*I *2639:X O *D sky130_fd_sc_hd__and2_1
*CAP
1 *2642:A 6.74866e-05
2 *2639:X 6.74866e-05
3 *2642:A *2642:B 5.71472e-05
4 *18:140 *2642:A 0.000134559
5 *28:119 *2642:A 0.000312222
*RES
1 *2639:X *2642:A 21.6 
*END

*D_NET *792 0.000331175
*CONN
*I *2642:B I *D sky130_fd_sc_hd__or2_1
*I *2640:X O *D sky130_fd_sc_hd__and2_1
*CAP
1 *2642:B 5.81246e-05
2 *2640:X 5.81246e-05
3 *2642:B *1421:10 5.01213e-05
4 *2642:B *1430:16 5.24274e-05
5 *2642:A *2642:B 5.71472e-05
6 *18:140 *2642:B 5.52302e-05
*RES
1 *2640:X *2642:B 29.475 
*END

*D_NET *793 0.00124448
*CONN
*I *2977:A2 I *D sky130_fd_sc_hd__a21o_1
*I *2976:B I *D sky130_fd_sc_hd__xor2_1
*I *2641:X O *D sky130_fd_sc_hd__or2_1
*CAP
1 *2977:A2 6.33238e-05
2 *2976:B 8.24084e-05
3 *2641:X 4.72895e-05
4 *793:6 0.000193022
5 *2976:B *2976:A 0.000204566
6 *2976:B *1426:18 0.000278819
7 *2977:A2 *2976:A 7.60914e-05
8 *793:6 *1124:12 5.71472e-05
9 *793:6 *1426:18 9.15975e-05
10 *18:140 *2976:B 1.32552e-05
11 *18:140 *2977:A2 9.71197e-05
12 *18:140 *793:6 3.98431e-05
*RES
1 *2641:X *793:6 11.0679 
2 *793:6 *2976:B 12.7464 
3 *793:6 *2977:A2 11.4071 
*END

*D_NET *794 0.000777457
*CONN
*I *3277:A2 I *D sky130_fd_sc_hd__a21o_1
*I *3276:B I *D sky130_fd_sc_hd__xor2_1
*I *2642:X O *D sky130_fd_sc_hd__or2_1
*CAP
1 *3277:A2 0
2 *3276:B 0.00011809
3 *2642:X 7.69335e-05
4 *794:8 0.000195023
5 *3276:B *3276:A 5.71472e-05
6 *3276:B *3277:A1 0.00015234
7 *3276:B *3277:B1 2.00751e-05
8 *3276:B *1136:16 2.89114e-05
9 *794:8 *1421:10 2.56694e-05
10 *794:8 *1430:16 0
11 *794:8 *1433:10 0.000103267
12 *113:10 *3276:B 0
13 *113:10 *794:8 0
*RES
1 *2642:X *794:8 15.7464 
2 *794:8 *3276:B 16.8893 
3 *794:8 *3277:A2 13.8 
*END

*D_NET *795 0.000214151
*CONN
*I *2648:A I *D sky130_fd_sc_hd__or2_1
*I *2643:X O *D sky130_fd_sc_hd__and2_1
*CAP
1 *2648:A 2.86131e-05
2 *2643:X 2.86131e-05
3 *38:91 *2648:A 7.61932e-05
4 *39:114 *2648:A 8.07313e-05
*RES
1 *2643:X *2648:A 19.9571 
*END

*D_NET *796 0.000175433
*CONN
*I *2648:B I *D sky130_fd_sc_hd__or2_1
*I *2644:X O *D sky130_fd_sc_hd__and2_1
*CAP
1 *2648:B 8.77164e-05
2 *2644:X 8.77164e-05
3 *2648:B *1137:14 0
4 *18:109 *2648:B 0
*RES
1 *2644:X *2648:B 28.9393 
*END

*D_NET *797 0.000315434
*CONN
*I *2649:A I *D sky130_fd_sc_hd__or2_1
*I *2645:X O *D sky130_fd_sc_hd__and2_1
*CAP
1 *2649:A 7.69218e-05
2 *2645:X 7.69218e-05
3 *2705:B *2649:A 0
4 *2706:B *2649:A 5.83304e-05
5 *38:107 *2649:A 0.00010326
*RES
1 *2645:X *2649:A 29.5464 
*END

*D_NET *798 0.000544795
*CONN
*I *2649:B I *D sky130_fd_sc_hd__or2_1
*I *2646:X O *D sky130_fd_sc_hd__and2_1
*CAP
1 *2649:B 0.000124423
2 *2646:X 0.000124423
3 *2649:B *1384:10 7.83366e-05
4 *11:216 *2649:B 0
5 *11:218 *2649:B 0.000139913
6 *38:101 *2649:B 7.3237e-05
7 *39:114 *2649:B 4.46186e-06
*RES
1 *2646:X *2649:B 30.9036 
*END

*D_NET *799 0.000945863
*CONN
*I *2992:A I *D sky130_fd_sc_hd__xor2_1
*I *2993:A I *D sky130_fd_sc_hd__and2_1
*I *2648:X O *D sky130_fd_sc_hd__or2_1
*CAP
1 *2992:A 2.44993e-05
2 *2993:A 6.63603e-05
3 *2648:X 0.000115515
4 *799:10 0.000206374
5 *2992:A *2993:B 9.71197e-05
6 *2992:A *1145:10 4.43256e-05
7 *2993:A *2993:B 8.94108e-05
8 *2993:A *1145:10 0.000230475
9 *799:10 *1137:14 7.17836e-05
10 *2822:B *799:10 0
*RES
1 *2648:X *799:10 20.2464 
2 *799:10 *2993:A 11.9071 
3 *799:10 *2992:A 10.2464 
*END

*D_NET *800 0.00205489
*CONN
*I *3293:A I *D sky130_fd_sc_hd__and2_1
*I *3292:A I *D sky130_fd_sc_hd__xor2_1
*I *2649:X O *D sky130_fd_sc_hd__or2_1
*CAP
1 *3293:A 0
2 *3292:A 9.15202e-05
3 *2649:X 0.000399262
4 *800:12 0.000490782
5 *3292:A *3293:B 0.00011227
6 *3292:A *1220:24 2.61099e-05
7 *800:12 *2708:B 0.000148189
8 *800:12 *858:10 0
9 *800:12 *1384:10 4.41989e-05
10 *2705:B *800:12 0
11 *2706:B *800:12 0.000337637
12 *11:218 *800:12 0.00010096
13 *21:168 *3292:A 0.000303959
*RES
1 *2649:X *800:12 25.7464 
2 *800:12 *3292:A 12.7464 
3 *800:12 *3293:A 9.3 
*END

*D_NET *801 0.000697036
*CONN
*I *2654:A I *D sky130_fd_sc_hd__or2_1
*I *2650:X O *D sky130_fd_sc_hd__and2_1
*CAP
1 *2654:A 0.000211826
2 *2650:X 0.000211826
3 *2654:A *2654:B 5.03787e-05
4 *2654:A *805:10 3.92854e-05
5 *40:185 *2654:A 0.00018372
6 *275:12 *2654:A 0
*RES
1 *2650:X *2654:A 31.3143 
*END

*D_NET *802 0.000752804
*CONN
*I *2654:B I *D sky130_fd_sc_hd__or2_1
*I *2651:X O *D sky130_fd_sc_hd__and2_1
*CAP
1 *2654:B 0.000188294
2 *2651:X 0.000188294
3 *2654:B *3004:B1 4.79842e-05
4 *2654:B *805:10 0
5 *2654:B *1151:12 0.000195555
6 *2654:A *2654:B 5.03787e-05
7 *2905:B *2654:B 0
8 *28:63 *2654:B 2.89114e-05
9 *757:16 *2654:B 5.33882e-05
*RES
1 *2651:X *2654:B 32.5107 
*END

*D_NET *803 0.000642652
*CONN
*I *2655:A I *D sky130_fd_sc_hd__or2_1
*I *2652:X O *D sky130_fd_sc_hd__and2_1
*CAP
1 *2655:A 0.00013859
2 *2652:X 0.00013859
3 *2655:A *1087:12 0.000287135
4 *29:198 *2655:A 0
5 *30:73 *2655:A 0
6 *752:10 *2655:A 7.83366e-05
*RES
1 *2652:X *2655:A 31.3679 
*END

*D_NET *804 0.000126884
*CONN
*I *2655:B I *D sky130_fd_sc_hd__or2_1
*I *2653:X O *D sky130_fd_sc_hd__and2_1
*CAP
1 *2655:B 6.29488e-06
2 *2653:X 6.29488e-06
3 *7:225 *2655:B 5.71472e-05
4 *40:198 *2655:B 5.71472e-05
*RES
1 *2653:X *2655:B 19.1357 
*END

*D_NET *805 0.000499813
*CONN
*I *3003:B I *D sky130_fd_sc_hd__xor2_1
*I *3004:A2 I *D sky130_fd_sc_hd__a21o_1
*I *2654:X O *D sky130_fd_sc_hd__or2_1
*CAP
1 *3003:B 3.72467e-05
2 *3004:A2 0
3 *2654:X 0.00010701
4 *805:10 0.000144257
5 *3003:B *3004:A1 0.000111383
6 *805:10 *3004:B1 4.46186e-06
7 *805:10 *1147:10 2.8266e-06
8 *2654:A *805:10 3.92854e-05
9 *2654:B *805:10 0
10 *40:185 *3003:B 5.33433e-05
11 *275:12 *805:10 0
*RES
1 *2654:X *805:10 20.2464 
2 *805:10 *3004:A2 9.3 
3 *805:10 *3003:B 10.675 
*END

*D_NET *806 0.000734498
*CONN
*I *3303:B I *D sky130_fd_sc_hd__xor2_1
*I *3304:A2 I *D sky130_fd_sc_hd__a21o_1
*I *2655:X O *D sky130_fd_sc_hd__or2_1
*CAP
1 *3303:B 1.24967e-05
2 *3304:A2 2.06112e-05
3 *2655:X 6.56897e-05
4 *806:6 9.87975e-05
5 *3303:B *3303:A 4.88637e-05
6 *3304:A2 *3303:A 3.99614e-06
7 *806:6 *3303:A 2.89114e-05
8 *2885:B *3303:B 0.00010096
9 *2885:B *806:6 0.000273269
10 *7:225 *806:6 6.7569e-05
11 *40:198 *3304:A2 0
12 *40:198 *806:6 1.33343e-05
*RES
1 *2655:X *806:6 11.8893 
2 *806:6 *3304:A2 9.72857 
3 *806:6 *3303:B 10.2464 
*END

*D_NET *807 0.000471224
*CONN
*I *2661:A I *D sky130_fd_sc_hd__or2_1
*I *2656:X O *D sky130_fd_sc_hd__and2_1
*CAP
1 *2661:A 0.000108279
2 *2656:X 0.000108279
3 *2650:A *2661:A 5.33882e-05
4 *2905:B *2661:A 0.00010326
5 *29:198 *2661:A 9.80173e-05
*RES
1 *2656:X *2661:A 29.8857 
*END

*D_NET *808 8.18297e-05
*CONN
*I *2661:B I *D sky130_fd_sc_hd__or2_1
*I *2657:X O *D sky130_fd_sc_hd__and2_1
*CAP
1 *2661:B 2.4981e-05
2 *2657:X 2.4981e-05
3 *31:266 *2661:B 3.18676e-05
*RES
1 *2657:X *2661:B 19.1357 
*END

*D_NET *809 0.00034314
*CONN
*I *2662:A I *D sky130_fd_sc_hd__or2_1
*I *2659:X O *D sky130_fd_sc_hd__and2_1
*CAP
1 *2662:A 8.66001e-05
2 *2659:X 8.66001e-05
3 *2662:A *1087:12 0.000100823
4 *38:307 *2662:A 5.33005e-05
5 *38:313 *2662:A 0
6 *39:184 *2662:A 1.58163e-05
*RES
1 *2659:X *2662:A 29.475 
*END

*D_NET *810 0.000389539
*CONN
*I *2662:B I *D sky130_fd_sc_hd__or2_1
*I *2660:X O *D sky130_fd_sc_hd__and2_1
*CAP
1 *2662:B 7.83086e-05
2 *2660:X 7.83086e-05
3 *18:59 *2662:B 5.01117e-05
4 *38:307 *2662:B 9.71197e-05
5 *39:184 *2662:B 3.32631e-05
6 *41:192 *2662:B 5.24274e-05
*RES
1 *2660:X *2662:B 29.8857 
*END

*D_NET *811 0.00208375
*CONN
*I *3009:B I *D sky130_fd_sc_hd__xor2_1
*I *3010:B I *D sky130_fd_sc_hd__and2_1
*I *2661:X O *D sky130_fd_sc_hd__or2_1
*CAP
1 *3009:B 0
2 *3010:B 0.000163077
3 *2661:X 0.000405531
4 *811:12 0.000568608
5 *3010:B *870:10 9.80173e-05
6 *811:12 *817:12 0.000171368
7 *2651:A *811:12 0.000128154
8 *2905:B *811:12 0
9 *3010:A *3010:B 0.000226507
10 *30:60 *3010:B 2.95726e-05
11 *31:266 *811:12 0.000166416
12 *514:14 *811:12 0.000105037
13 *757:16 *3010:B 2.14658e-05
*RES
1 *2661:X *811:12 25.675 
2 *811:12 *3010:B 13.1393 
3 *811:12 *3009:B 9.3 
*END

*D_NET *812 0.000969303
*CONN
*I *3310:B I *D sky130_fd_sc_hd__and2_1
*I *3309:B I *D sky130_fd_sc_hd__xor2_1
*I *2662:X O *D sky130_fd_sc_hd__or2_1
*CAP
1 *3310:B 0.000197921
2 *3309:B 0
3 *2662:X 0.000112597
4 *812:12 0.000310518
5 *812:12 *1087:12 0.000125724
6 *812:12 *1453:12 0
7 *3309:A *3310:B 0.00015327
8 *39:184 *812:12 5.71472e-05
9 *41:192 *3310:B 1.21258e-05
*RES
1 *2662:X *812:12 20.4786 
2 *812:12 *3309:B 9.3 
3 *812:12 *3310:B 13.05 
*END

*D_NET *813 0.000520454
*CONN
*I *2667:A I *D sky130_fd_sc_hd__or2_1
*I *2663:X O *D sky130_fd_sc_hd__and2_1
*CAP
1 *2667:A 7.87103e-05
2 *2663:X 7.87103e-05
3 *8:175 *2667:A 0.000153047
4 *29:89 *2667:A 0.000154762
5 *41:243 *2667:A 5.52238e-05
*RES
1 *2663:X *2667:A 30.0821 
*END

*D_NET *814 0.000536085
*CONN
*I *2667:B I *D sky130_fd_sc_hd__or2_1
*I *2664:X O *D sky130_fd_sc_hd__and2_1
*CAP
1 *2667:B 0.000139626
2 *2664:X 0.000139626
3 *2374:B *2667:B 2.8266e-06
4 *29:89 *2667:B 0.000153047
5 *41:243 *2667:B 0.00010096
*RES
1 *2664:X *2667:B 30.4929 
*END

*D_NET *815 0.000336668
*CONN
*I *2668:A I *D sky130_fd_sc_hd__or2_1
*I *2665:X O *D sky130_fd_sc_hd__and2_1
*CAP
1 *2668:A 9.33788e-05
2 *2665:X 9.33788e-05
3 *2912:A *2668:A 0
4 *2912:B *2668:A 0.000149911
*RES
1 *2665:X *2668:A 29.5464 
*END

*D_NET *816 0.000528936
*CONN
*I *2668:B I *D sky130_fd_sc_hd__or2_1
*I *2666:X O *D sky130_fd_sc_hd__and2_1
*CAP
1 *2668:B 9.02634e-05
2 *2666:X 9.02634e-05
3 *2668:B *2729:A 2.28598e-05
4 *31:83 *2668:B 5.52238e-05
5 *42:132 *2668:B 0.000270326
*RES
1 *2666:X *2668:B 21.1893 
*END

*D_NET *817 0.00364845
*CONN
*I *3094:A I *D sky130_fd_sc_hd__xor2_1
*I *3095:A I *D sky130_fd_sc_hd__and2_1
*I *2667:X O *D sky130_fd_sc_hd__or2_1
*CAP
1 *3094:A 1.20576e-05
2 *3095:A 0.000177924
3 *2667:X 0.000886364
4 *817:12 0.00107635
5 *3094:A *3094:B 1.04232e-05
6 *3095:A *3094:B 0.000178847
7 *817:12 *1240:10 5.03772e-05
8 *2651:A *817:12 4.23086e-05
9 *2905:B *817:12 0.000127101
10 *8:175 *817:12 7.65511e-05
11 *40:153 *3095:A 1.56e-05
12 *40:153 *817:12 0.000255533
13 *40:170 *817:12 0.00056765
14 *811:12 *817:12 0.000171368
*RES
1 *2667:X *817:12 36.2464 
2 *817:12 *3095:A 12.3179 
3 *817:12 *3094:A 9.72857 
*END

*D_NET *818 0.000810304
*CONN
*I *1965:A I *D sky130_fd_sc_hd__and2_1
*I *1964:A I *D sky130_fd_sc_hd__xor2_1
*I *2668:X O *D sky130_fd_sc_hd__or2_1
*CAP
1 *1965:A 0
2 *1964:A 5.57881e-05
3 *2668:X 4.02743e-05
4 *818:6 9.60624e-05
5 *1964:A *1965:B 0.000173097
6 *41:104 *818:6 0.000135028
7 *42:132 *818:6 0.000136958
8 *211:12 *1964:A 0.000173097
*RES
1 *2668:X *818:6 10.6571 
2 *818:6 *1964:A 20.55 
3 *818:6 *1965:A 9.3 
*END

*D_NET *819 0.000303768
*CONN
*I *2713:A I *D sky130_fd_sc_hd__or2_1
*I *1947:X O *D sky130_fd_sc_hd__and2_1
*CAP
1 *2713:A 0.000112368
2 *1947:X 0.000112368
3 *2713:A *2713:B 5.01213e-05
4 *33:90 *2713:A 2.89114e-05
5 *34:70 *2713:A 0
*RES
1 *1947:X *2713:A 29.475 
*END

*D_NET *820 0.000220416
*CONN
*I *2674:A I *D sky130_fd_sc_hd__or2_1
*I *2670:X O *D sky130_fd_sc_hd__and2_1
*CAP
1 *2674:A 6.81403e-05
2 *2670:X 6.81403e-05
3 *2674:A *2674:B 5.52238e-05
4 *2674:A *824:10 2.89114e-05
*RES
1 *2670:X *2674:A 19.9571 
*END

*D_NET *821 0.000429496
*CONN
*I *2674:B I *D sky130_fd_sc_hd__or2_1
*I *2671:X O *D sky130_fd_sc_hd__and2_1
*CAP
1 *2674:B 0.000161947
2 *2671:X 0.000161947
3 *2670:B *2674:B 5.03772e-05
4 *2674:A *2674:B 5.52238e-05
*RES
1 *2671:X *2674:B 21.1893 
*END

*D_NET *822 0.000763257
*CONN
*I *2675:A I *D sky130_fd_sc_hd__or2_1
*I *2672:X O *D sky130_fd_sc_hd__and2_1
*CAP
1 *2675:A 0.000230757
2 *2672:X 0.000230757
3 *2675:A *824:10 0.000102545
4 *24:93 *2675:A 0.000100161
5 *172:26 *2675:A 9.90367e-05
*RES
1 *2672:X *2675:A 32.3143 
*END

*D_NET *823 8.11121e-05
*CONN
*I *2675:B I *D sky130_fd_sc_hd__or2_1
*I *2673:X O *D sky130_fd_sc_hd__and2_1
*CAP
1 *2675:B 2.61003e-05
2 *2673:X 2.61003e-05
3 *2675:B *1173:10 2.89114e-05
*RES
1 *2673:X *2675:B 19.1357 
*END

*D_NET *824 0.00267771
*CONN
*I *3028:B I *D sky130_fd_sc_hd__and2_1
*I *3027:B I *D sky130_fd_sc_hd__xor2_1
*I *2674:X O *D sky130_fd_sc_hd__or2_1
*CAP
1 *3028:B 5.5429e-05
2 *3027:B 0.000204539
3 *2674:X 0.000606644
4 *824:10 0.000866611
5 *3027:B *3029:A 9.15842e-06
6 *824:10 *825:10 4.75521e-05
7 *2616:A *824:10 5.21233e-05
8 *2674:A *824:10 2.89114e-05
9 *2675:A *824:10 0.000102545
10 *3028:A *3027:B 2.25579e-05
11 *3328:A *824:10 0.000169405
12 *24:80 *824:10 0
13 *24:93 *824:10 0
14 *232:14 *3028:B 0.000141935
15 *354:6 *3027:B 9.84673e-05
16 *770:10 *824:10 0.000271828
*RES
1 *2674:X *824:10 26.5143 
2 *824:10 *3027:B 17.9607 
3 *824:10 *3028:B 15.1571 
*END

*D_NET *825 0.000905013
*CONN
*I *3328:B I *D sky130_fd_sc_hd__and2_1
*I *3327:B I *D sky130_fd_sc_hd__xor2_1
*I *2675:X O *D sky130_fd_sc_hd__or2_1
*CAP
1 *3328:B 0
2 *3327:B 0.000108364
3 *2675:X 0.000174109
4 *825:10 0.000282474
5 *3327:B *3330:B1 5.48581e-05
6 *3327:B *1266:10 9.15186e-06
7 *825:10 *1173:10 1.05901e-05
8 *825:10 *1266:10 1.19309e-05
9 *3328:A *3327:B 0.000172553
10 *770:10 *3327:B 3.34295e-05
11 *824:10 *825:10 4.75521e-05
*RES
1 *2675:X *825:10 16.6929 
2 *825:10 *3327:B 17.0143 
3 *825:10 *3328:B 13.8 
*END

*D_NET *826 0.000239687
*CONN
*I *2681:A I *D sky130_fd_sc_hd__or2_1
*I *2676:X O *D sky130_fd_sc_hd__and2_1
*CAP
1 *2681:A 5.65798e-05
2 *2676:X 5.65798e-05
3 *2681:A *2681:B 5.33005e-05
4 *2681:A *1099:8 7.32272e-05
*RES
1 *2676:X *2681:A 19.9571 
*END

*D_NET *827 0.000465972
*CONN
*I *2681:B I *D sky130_fd_sc_hd__or2_1
*I *2677:X O *D sky130_fd_sc_hd__and2_1
*CAP
1 *2681:B 0.000158138
2 *2677:X 0.000158138
3 *2681:B *1099:8 2.77173e-05
4 *2676:B *2681:B 6.86792e-05
5 *2681:A *2681:B 5.33005e-05
*RES
1 *2677:X *2681:B 21.1893 
*END

*D_NET *828 0.000847402
*CONN
*I *2682:A I *D sky130_fd_sc_hd__or2_1
*I *2678:X O *D sky130_fd_sc_hd__and2_1
*CAP
1 *2682:A 0.000185688
2 *2678:X 0.000185688
3 *2682:A *832:12 8.06427e-05
4 *2682:A *1095:10 0
5 *23:202 *2682:A 0.000294422
6 *171:10 *2682:A 0.00010096
*RES
1 *2678:X *2682:A 32.3143 
*END

*D_NET *829 0.000790424
*CONN
*I *2682:B I *D sky130_fd_sc_hd__or2_1
*I *2679:X O *D sky130_fd_sc_hd__and2_1
*CAP
1 *2682:B 0.00014255
2 *2679:X 0.00014255
3 *19:130 *2682:B 0.000155469
4 *23:202 *2682:B 0.000292708
5 *171:10 *2682:B 5.71472e-05
*RES
1 *2679:X *2682:B 31.9036 
*END

*D_NET *830 0.000429841
*CONN
*I *2713:B I *D sky130_fd_sc_hd__or2_1
*I *1948:X O *D sky130_fd_sc_hd__and2_1
*CAP
1 *2713:B 0.000122005
2 *1948:X 0.000122005
3 *2713:B *2824:B 0.000100831
4 *2491:B *2713:B 3.4879e-05
5 *2713:A *2713:B 5.01213e-05
*RES
1 *1948:X *2713:B 29.8857 
*END

*D_NET *831 0.000969244
*CONN
*I *3031:B I *D sky130_fd_sc_hd__xor2_1
*I *3032:B I *D sky130_fd_sc_hd__and2_1
*I *2681:X O *D sky130_fd_sc_hd__or2_1
*CAP
1 *3031:B 0
2 *3032:B 7.92955e-05
3 *2681:X 4.40343e-05
4 *831:8 0.00012333
5 *3032:B *890:6 2.89016e-05
6 *3032:B *1092:14 5.71472e-05
7 *3032:B *1095:10 0.00020042
8 *3032:B *1393:10 0.000128154
9 *831:8 *1095:10 0.000152333
10 *831:8 *1393:10 0.00013966
11 *3032:A *3032:B 1.59689e-05
12 *20:97 *3032:B 0
*RES
1 *2681:X *831:8 15.7464 
2 *831:8 *3032:B 16.8893 
3 *831:8 *3031:B 13.8 
*END

*D_NET *832 0.00110806
*CONN
*I *3331:B I *D sky130_fd_sc_hd__xor2_1
*I *3332:B I *D sky130_fd_sc_hd__and2_1
*I *2682:X O *D sky130_fd_sc_hd__or2_1
*CAP
1 *3331:B 2.00869e-05
2 *3332:B 7.39725e-05
3 *2682:X 0.000154277
4 *832:12 0.000248336
5 *3332:B *3334:B1 0.000126439
6 *3332:B *1095:10 3.80808e-05
7 *3332:B *1474:14 0
8 *832:12 *1095:10 8.16036e-05
9 *2682:A *832:12 8.06427e-05
10 *3332:A *3332:B 9.24395e-05
11 *776:6 *3331:B 5.52302e-05
12 *776:6 *832:12 0.000136951
*RES
1 *2682:X *832:12 22.0143 
2 *832:12 *3332:B 20.8536 
3 *832:12 *3331:B 9.83571 
*END

*D_NET *833 0.000518802
*CONN
*I *2687:A I *D sky130_fd_sc_hd__or2_1
*I *2683:X O *D sky130_fd_sc_hd__and2_1
*CAP
1 *2687:A 0.000118401
2 *2683:X 0.000118401
3 *2687:A *2973:B1 0
4 *2687:A *837:10 7.83587e-05
5 *2687:A *1132:34 5.03772e-05
6 *21:180 *2687:A 5.71755e-05
7 *116:8 *2687:A 9.60875e-05
*RES
1 *2683:X *2687:A 30.4929 
*END

*D_NET *834 0.000440066
*CONN
*I *2687:B I *D sky130_fd_sc_hd__or2_1
*I *2684:X O *D sky130_fd_sc_hd__and2_1
*CAP
1 *2687:B 6.74428e-05
2 *2684:X 6.74428e-05
3 *2687:B *1132:34 1.92905e-05
4 *25:269 *2687:B 0.000152333
5 *35:177 *2687:B 7.8327e-05
6 *116:8 *2687:B 5.52302e-05
*RES
1 *2684:X *2687:B 30.0821 
*END

*D_NET *835 0.000206098
*CONN
*I *2688:A I *D sky130_fd_sc_hd__or2_1
*I *2685:X O *D sky130_fd_sc_hd__and2_1
*CAP
1 *2688:A 7.54371e-05
2 *2685:X 7.54371e-05
3 *2688:A *2688:B 5.52238e-05
*RES
1 *2685:X *2688:A 19.9571 
*END

*D_NET *836 0.000455687
*CONN
*I *2688:B I *D sky130_fd_sc_hd__or2_1
*I *2686:X O *D sky130_fd_sc_hd__and2_1
*CAP
1 *2688:B 0.00015005
2 *2686:X 0.00015005
3 *2685:B *2688:B 4.51317e-05
4 *2686:B *2688:B 5.52302e-05
5 *2688:A *2688:B 5.52238e-05
*RES
1 *2686:X *2688:B 21.1893 
*END

*D_NET *837 0.00306895
*CONN
*I *2959:A I *D sky130_fd_sc_hd__xor2_1
*I *2960:A I *D sky130_fd_sc_hd__and2_1
*I *2687:X O *D sky130_fd_sc_hd__or2_1
*CAP
1 *2959:A 0.000335335
2 *2960:A 0.000352455
3 *2687:X 0.000179244
4 *837:10 0.000867034
5 *2959:A *2814:A 5.33005e-05
6 *2959:A *2971:B 5.52302e-05
7 *2959:A *963:8 0.000230475
8 *2959:A *1022:22 7.377e-05
9 *2960:A *2748:B 1.92905e-05
10 *2960:A *2814:A 0.000150618
11 *837:10 *2970:A 0
12 *837:10 *2970:B 0
13 *837:10 *2971:A 0
14 *837:10 *2973:B1 0
15 *837:10 *1132:34 5.33005e-05
16 *2687:A *837:10 7.83587e-05
17 *2744:A *2960:A 5.52302e-05
18 *2744:B *2960:A 7.17136e-05
19 *21:180 *2960:A 0.000197991
20 *21:180 *837:10 0.000282457
21 *21:184 *2960:A 1.3142e-05
*RES
1 *2687:X *837:10 18.1036 
2 *837:10 *2960:A 21.7107 
3 *837:10 *2959:A 20.5143 
*END

*D_NET *838 0.000519682
*CONN
*I *3258:A I *D sky130_fd_sc_hd__xor2_1
*I *3259:A I *D sky130_fd_sc_hd__and2_1
*I *2688:X O *D sky130_fd_sc_hd__or2_1
*CAP
1 *3258:A 2.32277e-05
2 *3259:A 4.05809e-05
3 *2688:X 0.000117468
4 *838:10 0.000181277
5 *3258:A *3259:B 4.27935e-05
6 *3259:A *3259:B 9.90367e-05
7 *838:10 *898:12 1.52978e-05
8 *838:10 *1403:8 0
9 *20:123 *838:10 0
*RES
1 *2688:X *838:10 20.2464 
2 *838:10 *3259:A 10.2464 
3 *838:10 *3258:A 9.83571 
*END

*D_NET *839 0.00102466
*CONN
*I *2694:A I *D sky130_fd_sc_hd__or2_1
*I *2689:X O *D sky130_fd_sc_hd__and2_1
*CAP
1 *2694:A 0.000178615
2 *2689:X 0.000178615
3 *2694:A *1199:24 9.41642e-05
4 *2694:A *1425:10 0.000285413
5 *26:196 *2694:A 0.000148189
6 *26:211 *2694:A 0.00013966
*RES
1 *2689:X *2694:A 32.3143 
*END

*D_NET *840 0.000417093
*CONN
*I *2694:B I *D sky130_fd_sc_hd__or2_1
*I *2690:X O *D sky130_fd_sc_hd__and2_1
*CAP
1 *2694:B 8.0212e-05
2 *2690:X 8.0212e-05
3 *2694:B *1425:10 0.000100823
4 *2634:B *2694:B 5.33005e-05
5 *37:89 *2694:B 0.000102545
*RES
1 *2690:X *2694:B 29.475 
*END

*D_NET *841 0.00097295
*CONN
*I *2824:A I *D sky130_fd_sc_hd__or2_1
*I *2491:X O *D sky130_fd_sc_hd__and2_1
*CAP
1 *2824:A 0.00037178
2 *2491:X 0.00037178
3 *2824:A *863:6 0.000190114
4 *34:70 *2824:A 3.92757e-05
*RES
1 *2491:X *2824:A 33.0107 
*END

*D_NET *842 0.000232354
*CONN
*I *2695:A I *D sky130_fd_sc_hd__or2_1
*I *2692:X O *D sky130_fd_sc_hd__and2_1
*CAP
1 *2695:A 8.18426e-05
2 *2692:X 8.18426e-05
3 *19:104 *2695:A 6.86693e-05
*RES
1 *2692:X *2695:A 19.9571 
*END

*D_NET *843 0.000329334
*CONN
*I *2695:B I *D sky130_fd_sc_hd__or2_1
*I *2693:X O *D sky130_fd_sc_hd__and2_1
*CAP
1 *2695:B 8.26604e-05
2 *2693:X 8.26604e-05
3 *2695:B *1199:18 7.83659e-05
4 *2692:B *2695:B 6.73091e-05
5 *38:142 *2695:B 1.8338e-05
*RES
1 *2693:X *2695:B 29.5464 
*END

*D_NET *844 0.00103434
*CONN
*I *2966:B I *D sky130_fd_sc_hd__and2_1
*I *2965:B I *D sky130_fd_sc_hd__xor2_1
*I *2694:X O *D sky130_fd_sc_hd__or2_1
*CAP
1 *2966:B 6.65937e-05
2 *2965:B 5.07485e-05
3 *2694:X 0.000154502
4 *844:10 0.000271844
5 *2966:B *1110:6 9.99644e-06
6 *844:10 *1110:6 8.54142e-05
7 *2634:A *844:10 7.43578e-06
8 *2966:A *2965:B 0.000126439
9 *2966:A *2966:B 3.57366e-05
10 *2966:A *844:10 7.49997e-05
11 *11:232 *2965:B 0.000150625
12 *36:187 *2965:B 0
*RES
1 *2694:X *844:10 12.3357 
2 *844:10 *2965:B 20.2464 
3 *844:10 *2966:B 10.5679 
*END

*D_NET *845 0.000692519
*CONN
*I *3264:B I *D sky130_fd_sc_hd__xor2_1
*I *3265:B I *D sky130_fd_sc_hd__and2_1
*I *2695:X O *D sky130_fd_sc_hd__or2_1
*CAP
1 *3264:B 6.05331e-05
2 *3265:B 0
3 *2695:X 8.60414e-05
4 *845:12 0.000146574
5 *3264:B *1022:16 0.000142856
6 *845:12 *1412:12 0
7 *3264:A *3264:B 7.74896e-05
8 *3264:A *845:12 5.33005e-05
9 *38:142 *845:12 0.000125724
*RES
1 *2695:X *845:12 20.4786 
2 *845:12 *3265:B 9.3 
3 *845:12 *3264:B 11.4964 
*END

*D_NET *846 0.000466271
*CONN
*I *2700:A I *D sky130_fd_sc_hd__or2_1
*I *2696:X O *D sky130_fd_sc_hd__and2_1
*CAP
1 *2700:A 0.000104144
2 *2696:X 0.000104144
3 *2700:A *2700:B 4.66203e-05
4 *26:228 *2700:A 0.00015304
5 *27:143 *2700:A 5.83233e-05
*RES
1 *2696:X *2700:A 30.0821 
*END

*D_NET *847 0.000575546
*CONN
*I *2700:B I *D sky130_fd_sc_hd__or2_1
*I *2697:X O *D sky130_fd_sc_hd__and2_1
*CAP
1 *2700:B 0.000130093
2 *2697:X 0.000130093
3 *2700:A *2700:B 4.66203e-05
4 *19:288 *2700:B 3.25078e-05
5 *27:143 *2700:B 5.83233e-05
6 *37:89 *2700:B 8.07879e-05
7 *193:10 *2700:B 9.71197e-05
*RES
1 *2697:X *2700:B 30.4929 
*END

*D_NET *848 0.000275942
*CONN
*I *2701:A I *D sky130_fd_sc_hd__or2_1
*I *2698:X O *D sky130_fd_sc_hd__and2_1
*CAP
1 *2701:A 3.7011e-05
2 *2698:X 3.7011e-05
3 *2701:A *2701:B 5.71472e-05
4 *2698:A *2701:A 0.000144773
*RES
1 *2698:X *2701:A 19.9571 
*END

*D_NET *849 0.000512949
*CONN
*I *2701:B I *D sky130_fd_sc_hd__or2_1
*I *2699:X O *D sky130_fd_sc_hd__and2_1
*CAP
1 *2701:B 0.000140016
2 *2699:X 0.000140016
3 *2698:A *2701:B 3.68898e-05
4 *2698:B *2701:B 0.000125547
5 *2701:A *2701:B 5.71472e-05
6 *27:112 *2701:B 1.33343e-05
*RES
1 *2699:X *2701:B 21.1893 
*END

*D_NET *850 0.00155471
*CONN
*I *2979:A I *D sky130_fd_sc_hd__and2_1
*I *2978:A I *D sky130_fd_sc_hd__xor2_1
*I *2700:X O *D sky130_fd_sc_hd__or2_1
*CAP
1 *2979:A 0
2 *2978:A 8.92656e-05
3 *2700:X 9.49168e-05
4 *850:10 0.000184182
5 *2978:A *2979:B 0.000185394
6 *2978:A *2982:B1 0.000144773
7 *2978:A *1220:24 3.47255e-05
8 *21:168 *2978:A 0.000156903
9 *26:228 *850:10 0.000319309
10 *36:220 *2978:A 2.59355e-05
11 *36:220 *850:10 0.000319309
12 *36:238 *2978:A 0
*RES
1 *2700:X *850:10 22.3714 
2 *850:10 *2978:A 13.2821 
3 *850:10 *2979:A 9.3 
*END

*D_NET *851 0.00104443
*CONN
*I *3279:A I *D sky130_fd_sc_hd__and2_1
*I *3278:A I *D sky130_fd_sc_hd__xor2_1
*I *2701:X O *D sky130_fd_sc_hd__or2_1
*CAP
1 *3279:A 0
2 *3278:A 0.000114353
3 *2701:X 3.73171e-05
4 *851:8 0.00015167
5 *2689:A *3278:A 0.000225314
6 *2689:A *851:8 0.000127446
7 *20:244 *3278:A 0.000225314
8 *20:244 *851:8 0.000117196
9 *35:206 *3278:A 4.58194e-05
*RES
1 *2701:X *851:8 15.4429 
2 *851:8 *3278:A 17.6036 
3 *851:8 *3279:A 13.8 
*END

*D_NET *852 0.000567056
*CONN
*I *2824:B I *D sky130_fd_sc_hd__or2_1
*I *2602:X O *D sky130_fd_sc_hd__and2_1
*CAP
1 *2824:B 0.000168582
2 *2602:X 0.000168582
3 *2824:B *2106:A 0
4 *2713:B *2824:B 0.000100831
5 *23:93 *2824:B 5.16852e-05
6 *33:90 *2824:B 7.73758e-05
7 *34:70 *2824:B 0
*RES
1 *2602:X *2824:B 31.3679 
*END

*D_NET *853 0.000214151
*CONN
*I *2707:A I *D sky130_fd_sc_hd__or2_1
*I *2703:X O *D sky130_fd_sc_hd__and2_1
*CAP
1 *2707:A 2.86131e-05
2 *2703:X 2.86131e-05
3 *38:91 *2707:A 7.61932e-05
4 *39:114 *2707:A 8.07313e-05
*RES
1 *2703:X *2707:A 19.9571 
*END

*D_NET *854 0.000179417
*CONN
*I *2707:B I *D sky130_fd_sc_hd__or2_1
*I *2704:X O *D sky130_fd_sc_hd__and2_1
*CAP
1 *2707:B 8.19345e-05
2 *2704:X 8.19345e-05
3 *2707:B *1447:10 0
4 *2704:A *2707:B 1.55485e-05
*RES
1 *2704:X *2707:B 28.9393 
*END

*D_NET *855 0.000342933
*CONN
*I *2708:A I *D sky130_fd_sc_hd__or2_1
*I *2705:X O *D sky130_fd_sc_hd__and2_1
*CAP
1 *2708:A 5.89812e-05
2 *2705:X 5.89812e-05
3 *2708:A *2708:B 7.50601e-05
4 *2705:B *2708:A 0.000149911
*RES
1 *2705:X *2708:A 29.5464 
*END

*D_NET *856 0.000694691
*CONN
*I *2708:B I *D sky130_fd_sc_hd__or2_1
*I *2706:X O *D sky130_fd_sc_hd__and2_1
*CAP
1 *2708:B 0.000167245
2 *2706:X 0.000167245
3 *2708:A *2708:B 7.50601e-05
4 *9:168 *2708:B 0.000136951
5 *800:12 *2708:B 0.000148189
*RES
1 *2706:X *2708:B 30.9036 
*END

*D_NET *857 0.00124273
*CONN
*I *2993:B I *D sky130_fd_sc_hd__and2_1
*I *2992:B I *D sky130_fd_sc_hd__xor2_1
*I *2707:X O *D sky130_fd_sc_hd__or2_1
*CAP
1 *2993:B 0.000181169
2 *2992:B 0
3 *2707:X 0.000145802
4 *857:12 0.00032697
5 *2993:B *1145:10 1.21258e-05
6 *857:12 *1137:14 0.00012501
7 *857:12 *1447:10 0.000123295
8 *2992:A *2993:B 9.71197e-05
9 *2993:A *2993:B 8.94108e-05
10 *39:114 *857:12 0.00014183
*RES
1 *2707:X *857:12 21.3 
2 *857:12 *2992:B 9.3 
3 *857:12 *2993:B 13.05 
*END

*D_NET *858 0.00122983
*CONN
*I *3292:B I *D sky130_fd_sc_hd__xor2_1
*I *3293:B I *D sky130_fd_sc_hd__and2_1
*I *2708:X O *D sky130_fd_sc_hd__or2_1
*CAP
1 *3292:B 0
2 *3293:B 5.24975e-05
3 *2708:X 0.000185181
4 *858:10 0.000237678
5 *3293:B *1220:24 0.000186662
6 *858:10 *1384:10 0
7 *858:10 *1430:16 1.03182e-05
8 *2705:B *858:10 0.000150625
9 *3292:A *3293:B 0.00011227
10 *27:89 *858:10 0.000294599
11 *800:12 *858:10 0
*RES
1 *2708:X *858:10 22.675 
2 *858:10 *3293:B 11.4964 
3 *858:10 *3292:B 9.3 
*END

*D_NET *859 0.000446817
*CONN
*I *2715:A I *D sky130_fd_sc_hd__or2_1
*I *2709:X O *D sky130_fd_sc_hd__and2_1
*CAP
1 *2715:A 9.90549e-05
2 *2709:X 9.90549e-05
3 *2715:A *1159:14 0
4 *2709:A *2715:A 3.37976e-05
5 *10:145 *2715:A 5.49544e-05
6 *19:222 *2715:A 2.95076e-06
7 *22:48 *2715:A 5.49544e-05
8 *39:76 *2715:A 0.00010205
*RES
1 *2709:X *2715:A 30.0821 
*END

*D_NET *860 0.000828976
*CONN
*I *2715:B I *D sky130_fd_sc_hd__or2_1
*I *2710:X O *D sky130_fd_sc_hd__and2_1
*CAP
1 *2715:B 8.0411e-05
2 *2710:X 8.0411e-05
3 *10:137 *2715:B 0.00015234
4 *10:145 *2715:B 0.000182598
5 *20:194 *2715:B 0.000150618
6 *22:48 *2715:B 0.000182598
*RES
1 *2710:X *2715:B 31.3143 
*END

*D_NET *861 0.000380219
*CONN
*I *2716:A I *D sky130_fd_sc_hd__or2_1
*I *2711:X O *D sky130_fd_sc_hd__and2_1
*CAP
1 *2716:A 5.52893e-05
2 *2711:X 5.52893e-05
3 *2716:A *2716:B 6.46241e-05
4 *10:162 *2716:A 0.000134368
5 *39:95 *2716:A 7.06479e-05
*RES
1 *2711:X *2716:A 20.5107 
*END

*D_NET *862 0.000662616
*CONN
*I *2716:B I *D sky130_fd_sc_hd__or2_1
*I *2712:X O *D sky130_fd_sc_hd__and2_1
*CAP
1 *2716:B 7.9336e-05
2 *2712:X 7.9336e-05
3 *2716:A *2716:B 6.46241e-05
4 *10:162 *2716:B 0.000200501
5 *39:95 *2716:B 0.000238819
*RES
1 *2712:X *2716:B 21.7429 
*END

*D_NET *863 0.00119654
*CONN
*I *2107:A I *D sky130_fd_sc_hd__and2_1
*I *2108:A I *D sky130_fd_sc_hd__inv_1
*I *2713:X O *D sky130_fd_sc_hd__or2_1
*CAP
1 *2107:A 0
2 *2108:A 0.000155097
3 *2713:X 0.000204501
4 *863:6 0.000359598
5 *2108:A *2106:A 3.34295e-05
6 *863:6 *874:6 9.90431e-05
7 *2824:A *863:6 0.000190114
8 *541:18 *2108:A 0.000154762
*RES
1 *2713:X *863:6 13.9429 
2 *863:6 *2108:A 21.4384 
3 *863:6 *2107:A 9.3 
*END

*D_NET *864 0.00135576
*CONN
*I *3005:A I *D sky130_fd_sc_hd__xor2_1
*I *3006:A I *D sky130_fd_sc_hd__and2_1
*I *2715:X O *D sky130_fd_sc_hd__or2_1
*CAP
1 *3005:A 7.22392e-05
2 *3006:A 0
3 *2715:X 0.000178546
4 *864:10 0.000250785
5 *3005:A *1159:14 0.000208994
6 *864:10 *1159:14 0.000120506
7 *10:145 *864:10 0.000185643
8 *514:14 *3005:A 0.000218542
9 *514:14 *864:10 0.000120506
*RES
1 *2715:X *864:10 17.2107 
2 *864:10 *3006:A 13.8 
3 *864:10 *3005:A 16.6571 
*END

*D_NET *865 0.00174333
*CONN
*I *3305:A I *D sky130_fd_sc_hd__xor2_1
*I *3306:A I *D sky130_fd_sc_hd__and2_1
*I *2716:X O *D sky130_fd_sc_hd__or2_1
*CAP
1 *3305:A 0.000137306
2 *3306:A 0
3 *2716:X 0.000318847
4 *865:14 0.000456153
5 *3305:A *3305:B 0.000167691
6 *3305:A *924:10 1.02504e-05
7 *3305:A *1146:16 8.98897e-05
8 *865:14 *2835:B 0
9 *865:14 *924:10 0.000128154
10 *865:14 *1146:16 0.000158956
11 *865:14 *1448:16 0
12 *10:162 *865:14 5.71472e-05
13 *11:199 *865:14 0
14 *21:138 *865:14 6.42338e-05
15 *37:42 *865:14 0.00012401
16 *206:24 *3305:A 0
17 *206:24 *865:14 3.06882e-05
*RES
1 *2716:X *865:14 21.4964 
2 *865:14 *3306:A 13.8 
3 *865:14 *3305:A 17.1929 
*END

*D_NET *866 0.00027647
*CONN
*I *2721:A I *D sky130_fd_sc_hd__or2_1
*I *2717:X O *D sky130_fd_sc_hd__and2_1
*CAP
1 *2721:A 0.000110883
2 *2717:X 0.000110883
3 *2721:A *1307:10 0
4 *30:60 *2721:A 5.47047e-05
*RES
1 *2717:X *2721:A 29.475 
*END

*D_NET *867 0.000104357
*CONN
*I *2721:B I *D sky130_fd_sc_hd__or2_1
*I *2718:X O *D sky130_fd_sc_hd__and2_1
*CAP
1 *2721:B 7.67105e-06
2 *2718:X 7.67105e-06
3 *9:29 *2721:B 3.18676e-05
4 *30:60 *2721:B 5.71472e-05
*RES
1 *2718:X *2721:B 19.1357 
*END

*D_NET *868 0.000264371
*CONN
*I *2722:A I *D sky130_fd_sc_hd__or2_1
*I *2719:X O *D sky130_fd_sc_hd__and2_1
*CAP
1 *2722:A 1.94333e-05
2 *2719:X 1.94333e-05
3 *19:88 *2722:A 0.000144773
4 *30:197 *2722:A 8.07313e-05
*RES
1 *2719:X *2722:A 19.9571 
*END

*D_NET *869 0.000173041
*CONN
*I *2722:B I *D sky130_fd_sc_hd__or2_1
*I *2720:X O *D sky130_fd_sc_hd__and2_1
*CAP
1 *2722:B 6.91338e-05
2 *2720:X 6.91338e-05
3 *2722:B *1087:12 3.47737e-05
4 *2722:B *1455:10 0
*RES
1 *2720:X *2722:B 28.9393 
*END

*D_NET *870 0.00127928
*CONN
*I *3012:A2 I *D sky130_fd_sc_hd__a21o_1
*I *3011:B I *D sky130_fd_sc_hd__xor2_1
*I *2721:X O *D sky130_fd_sc_hd__or2_1
*CAP
1 *3012:A2 1.72739e-05
2 *3011:B 0.000109148
3 *2721:X 0.000164453
4 *870:10 0.000290875
5 *3011:B *3011:A 9.21506e-05
6 *3011:B *3012:A1 5.33005e-05
7 *3011:B *1159:14 9.41642e-05
8 *3012:A2 *1156:10 3.17148e-05
9 *3012:A2 *1159:14 1.31516e-05
10 *870:10 *1156:10 0.000100823
11 *3010:B *870:10 9.80173e-05
12 *19:222 *3012:A2 4.73656e-05
13 *19:222 *870:10 0.000125731
14 *29:81 *870:10 7.80714e-06
15 *30:60 *870:10 3.32983e-05
*RES
1 *2721:X *870:10 17.6214 
2 *870:10 *3011:B 15.9964 
3 *870:10 *3012:A2 14.5321 
*END

*D_NET *871 0.000551198
*CONN
*I *3311:B I *D sky130_fd_sc_hd__xor2_1
*I *3312:A2 I *D sky130_fd_sc_hd__a21o_1
*I *2722:X O *D sky130_fd_sc_hd__or2_1
*CAP
1 *3311:B 0
2 *3312:A2 5.80895e-05
3 *2722:X 0.000142615
4 *871:12 0.000200705
5 *3312:A2 *3311:A 6.56534e-05
6 *3312:A2 *3312:A1 5.52238e-05
7 *871:12 *1087:12 0
8 *871:12 *1455:10 0
9 *19:88 *871:12 2.89114e-05
10 *42:80 *871:12 0
*RES
1 *2722:X *871:12 20.4786 
2 *871:12 *3312:A2 10.675 
3 *871:12 *3311:B 9.3 
*END

*D_NET *872 0.000259291
*CONN
*I *2728:A I *D sky130_fd_sc_hd__or2_1
*I *2723:X O *D sky130_fd_sc_hd__and2_1
*CAP
1 *2728:A 4.57018e-05
2 *2723:X 4.57018e-05
3 *2728:A *2728:B 5.33005e-05
4 *19:209 *2728:A 7.02611e-05
5 *31:257 *2728:A 4.43256e-05
*RES
1 *2723:X *2728:A 19.9571 
*END

*D_NET *873 0.0005436
*CONN
*I *2728:B I *D sky130_fd_sc_hd__or2_1
*I *2724:X O *D sky130_fd_sc_hd__and2_1
*CAP
1 *2728:B 7.50743e-05
2 *2724:X 7.50743e-05
3 *2728:A *2728:B 5.33005e-05
4 *19:21 *2728:B 5.30637e-06
5 *19:196 *2728:B 1.74352e-05
6 *19:209 *2728:B 5.1969e-05
7 *31:257 *2728:B 0.000265441
*RES
1 *2724:X *2728:B 21.1893 
*END

*D_NET *874 0.000972666
*CONN
*I *2106:A I *D sky130_fd_sc_hd__inv_1
*I *2109:A I *D sky130_fd_sc_hd__and2_1
*I *2824:X O *D sky130_fd_sc_hd__or2_1
*CAP
1 *2106:A 0.000122719
2 *2109:A 7.01222e-05
3 *2824:X 6.37662e-05
4 *874:6 0.000256608
5 *2107:B *2106:A 0.000128154
6 *2108:A *2106:A 3.34295e-05
7 *2824:B *2106:A 0
8 *541:18 *2109:A 0.000186387
9 *541:18 *874:6 1.24368e-05
10 *863:6 *874:6 9.90431e-05
*RES
1 *2824:X *874:6 10.6571 
2 *874:6 *2109:A 11.0679 
3 *874:6 *2106:A 21.0902 
*END

*D_NET *875 0.000932321
*CONN
*I *2729:A I *D sky130_fd_sc_hd__or2_1
*I *2726:X O *D sky130_fd_sc_hd__and2_1
*CAP
1 *2729:A 0.000281801
2 *2726:X 0.000281801
3 *2668:B *2729:A 2.28598e-05
4 *2912:A *2729:A 5.01213e-05
5 *31:83 *2729:A 0.000265453
6 *279:8 *2729:A 3.0285e-05
*RES
1 *2726:X *2729:A 31.9393 
*END

*D_NET *876 0.000133673
*CONN
*I *2729:B I *D sky130_fd_sc_hd__or2_1
*I *2727:X O *D sky130_fd_sc_hd__and2_1
*CAP
1 *2729:B 1.16062e-05
2 *2727:X 1.16062e-05
3 *9:78 *2729:B 5.52302e-05
4 *41:104 *2729:B 5.52302e-05
*RES
1 *2727:X *2729:B 19.1357 
*END

*D_NET *877 0.000751023
*CONN
*I *3094:B I *D sky130_fd_sc_hd__xor2_1
*I *3095:B I *D sky130_fd_sc_hd__and2_1
*I *2728:X O *D sky130_fd_sc_hd__or2_1
*CAP
1 *3094:B 9.00948e-05
2 *3095:B 0
3 *2728:X 5.05427e-05
4 *877:10 0.000140637
5 *3094:A *3094:B 1.04232e-05
6 *3095:A *3094:B 0.000178847
7 *12:30 *877:10 2.58997e-05
8 *21:15 *877:10 8.39e-05
9 *40:153 *3094:B 6.57032e-05
10 *40:153 *877:10 0.000104974
*RES
1 *2728:X *877:10 20.2464 
2 *877:10 *3095:B 9.3 
3 *877:10 *3094:B 11.4964 
*END

*D_NET *878 0.00147024
*CONN
*I *1965:B I *D sky130_fd_sc_hd__and2_1
*I *1964:B I *D sky130_fd_sc_hd__xor2_1
*I *2729:X O *D sky130_fd_sc_hd__or2_1
*CAP
1 *1965:B 9.21969e-05
2 *1964:B 0
3 *2729:X 8.12483e-05
4 *878:6 0.000173445
5 *1964:A *1965:B 0.000173097
6 *10:91 *1965:B 9.71197e-05
7 *10:91 *878:6 0.000354105
8 *12:157 *1965:B 3.97677e-05
9 *12:157 *878:6 0.000108535
10 *22:207 *1965:B 0.000197991
11 *41:104 *878:6 0.000140933
12 *211:12 *1965:B 1.17968e-05
*RES
1 *2729:X *878:6 12.7107 
2 *878:6 *1964:B 9.3 
3 *878:6 *1965:B 21.8 
*END

*D_NET *879 0.000319525
*CONN
*I *2734:A I *D sky130_fd_sc_hd__or2_1
*I *2730:X O *D sky130_fd_sc_hd__and2_1
*CAP
1 *2734:A 5.83666e-05
2 *2730:X 5.83666e-05
3 *2734:A *3103:A 0
4 *19:25 *2734:A 7.48091e-05
5 *42:45 *2734:A 0.000127983
*RES
1 *2730:X *2734:A 20.3857 
*END

*D_NET *880 0.000385215
*CONN
*I *2734:B I *D sky130_fd_sc_hd__or2_1
*I *2731:X O *D sky130_fd_sc_hd__and2_1
*CAP
1 *2734:B 6.5272e-05
2 *2731:X 6.5272e-05
3 *11:39 *2734:B 0.000103267
4 *31:15 *2734:B 5.58875e-06
5 *42:9 *2734:B 9.05914e-05
6 *42:45 *2734:B 5.52238e-05
*RES
1 *2731:X *2734:B 29.475 
*END

*D_NET *881 0.000344378
*CONN
*I *2735:A I *D sky130_fd_sc_hd__or2_1
*I *2732:X O *D sky130_fd_sc_hd__and2_1
*CAP
1 *2735:A 7.7896e-05
2 *2732:X 7.7896e-05
3 *2732:B *2735:A 0.000188586
*RES
1 *2732:X *2735:A 20.3679 
*END

*D_NET *882 0.000104357
*CONN
*I *2735:B I *D sky130_fd_sc_hd__or2_1
*I *2733:X O *D sky130_fd_sc_hd__and2_1
*CAP
1 *2735:B 2.36049e-05
2 *2733:X 2.36049e-05
3 *2732:B *2735:B 5.71472e-05
*RES
1 *2733:X *2735:B 19.1357 
*END

*D_NET *883 0.000675334
*CONN
*I *3103:A I *D sky130_fd_sc_hd__xor2_1
*I *3104:A I *D sky130_fd_sc_hd__and2_1
*I *2734:X O *D sky130_fd_sc_hd__or2_1
*CAP
1 *3103:A 0.000146649
2 *3104:A 0
3 *2734:X 2.3932e-05
4 *883:6 0.000170581
5 *3103:A *3103:B 0.000132729
6 *3103:A *3106:B1 7.02611e-05
7 *2734:A *3103:A 0
8 *19:25 *3103:A 5.03998e-05
9 *19:25 *883:6 2.59355e-05
10 *42:45 *3103:A 2.89114e-05
11 *42:45 *883:6 2.59355e-05
*RES
1 *2734:X *883:6 9.83571 
2 *883:6 *3104:A 9.3 
3 *883:6 *3103:A 12.8536 
*END

*D_NET *884 0.00137409
*CONN
*I *1973:A I *D sky130_fd_sc_hd__xor2_1
*I *1974:A I *D sky130_fd_sc_hd__and2_1
*I *2735:X O *D sky130_fd_sc_hd__or2_1
*CAP
1 *1973:A 0
2 *1974:A 4.53122e-05
3 *2735:X 0.000308999
4 *884:12 0.000354311
5 *1974:A *1974:B 9.90367e-05
6 *884:12 *944:10 0.000128154
7 *2918:B *884:12 5.71472e-05
8 *19:45 *884:12 0
9 *25:74 *884:12 0.000282094
10 *154:12 *1974:A 9.90367e-05
*RES
1 *2735:X *884:12 25.6393 
2 *884:12 *1974:A 10.6571 
3 *884:12 *1973:A 9.3 
*END

*D_NET *885 0.000264262
*CONN
*I *1949:A I *D sky130_fd_sc_hd__or2_1
*I *2935:X O *D sky130_fd_sc_hd__and2_1
*CAP
1 *1949:A 6.12161e-05
2 *2935:X 6.12161e-05
3 *14:179 *1949:A 0.00014183
*RES
1 *2935:X *1949:A 19.9571 
*END

*D_NET *886 0.000378895
*CONN
*I *2741:A I *D sky130_fd_sc_hd__or2_1
*I *2737:X O *D sky130_fd_sc_hd__and2_1
*CAP
1 *2741:A 7.08846e-05
2 *2737:X 7.08846e-05
3 *2741:A *1092:14 3.23206e-05
4 *20:97 *2741:A 0.00010326
5 *33:225 *2741:A 0.000101545
*RES
1 *2737:X *2741:A 29.475 
*END

*D_NET *887 0.00047504
*CONN
*I *2741:B I *D sky130_fd_sc_hd__or2_1
*I *2738:X O *D sky130_fd_sc_hd__and2_1
*CAP
1 *2741:B 0.000113867
2 *2738:X 0.000113867
3 *2737:B *2741:B 6.05161e-06
4 *10:226 *2741:B 0.000104974
5 *19:130 *2741:B 0.00010326
6 *23:210 *2741:B 2.77143e-05
7 *23:220 *2741:B 5.30637e-06
*RES
1 *2738:X *2741:B 29.8857 
*END

*D_NET *888 0.000233452
*CONN
*I *2742:A I *D sky130_fd_sc_hd__or2_1
*I *2739:X O *D sky130_fd_sc_hd__and2_1
*CAP
1 *2742:A 5.00556e-05
2 *2739:X 5.00556e-05
3 *2742:A *2742:B 5.71472e-05
4 *2742:A *1390:6 7.61932e-05
*RES
1 *2739:X *2742:A 19.9571 
*END

*D_NET *889 0.000419879
*CONN
*I *2742:B I *D sky130_fd_sc_hd__or2_1
*I *2740:X O *D sky130_fd_sc_hd__and2_1
*CAP
1 *2742:B 0.000139062
2 *2740:X 0.000139062
3 *2742:B *1390:6 7.1274e-05
4 *2742:A *2742:B 5.71472e-05
5 *33:210 *2742:B 1.33343e-05
*RES
1 *2740:X *2742:B 21.1893 
*END

*D_NET *890 0.00139695
*CONN
*I *3033:B I *D sky130_fd_sc_hd__xor2_1
*I *3034:A2 I *D sky130_fd_sc_hd__a21o_1
*I *2741:X O *D sky130_fd_sc_hd__or2_1
*CAP
1 *3033:B 6.2571e-05
2 *3034:A2 9.00501e-05
3 *2741:X 0.000112342
4 *890:6 0.000264963
5 *3033:B *3033:A 9.77274e-05
6 *3033:B *3034:B1 0.000142856
7 *3034:A2 *3033:A 0.000100831
8 *3034:A2 *3034:B1 5.26184e-05
9 *3034:A2 *1095:10 3.01126e-05
10 *890:6 *3033:A 2.89114e-05
11 *890:6 *3034:B1 0.000137983
12 *890:6 *1092:14 0.000107174
13 *890:6 *1393:10 0.000139907
14 *3032:B *890:6 2.89016e-05
*RES
1 *2741:X *890:6 12.7107 
2 *890:6 *3034:A2 20.55 
3 *890:6 *3033:B 11.4964 
*END

*D_NET *891 0.00123302
*CONN
*I *3333:B I *D sky130_fd_sc_hd__xor2_1
*I *3334:A2 I *D sky130_fd_sc_hd__a21o_1
*I *2742:X O *D sky130_fd_sc_hd__or2_1
*CAP
1 *3333:B 6.68259e-05
2 *3334:A2 0
3 *2742:X 0.000271476
4 *891:12 0.000338302
5 *3333:B *3333:A 0.000109466
6 *3333:B *3334:A1 0.000186662
7 *891:12 *3334:B1 4.1331e-06
8 *891:12 *1095:10 0
9 *891:12 *1390:6 1.40306e-05
10 *891:12 *1478:10 9.10569e-05
11 *90:10 *3333:B 0.000151071
*RES
1 *2742:X *891:12 23.2107 
2 *891:12 *3334:A2 9.3 
3 *891:12 *3333:B 12.3179 
*END

*D_NET *892 0.000259278
*CONN
*I *2748:A I *D sky130_fd_sc_hd__or2_1
*I *2743:X O *D sky130_fd_sc_hd__and2_1
*CAP
1 *2748:A 0.000129639
2 *2743:X 0.000129639
*RES
1 *2743:X *2748:A 20.7786 
*END

*D_NET *893 0.000271575
*CONN
*I *2748:B I *D sky130_fd_sc_hd__or2_1
*I *2744:X O *D sky130_fd_sc_hd__and2_1
*CAP
1 *2748:B 0.000126142
2 *2744:X 0.000126142
3 *2748:B *897:10 0
4 *2809:B *2748:B 0
5 *2960:A *2748:B 1.92905e-05
*RES
1 *2744:X *2748:B 29.475 
*END

*D_NET *894 0.000218873
*CONN
*I *2749:A I *D sky130_fd_sc_hd__or2_1
*I *2745:X O *D sky130_fd_sc_hd__and2_1
*CAP
1 *2749:A 4.04973e-05
2 *2745:X 4.04973e-05
3 *2749:A *2749:B 5.71472e-05
4 *107:16 *2749:A 8.07313e-05
*RES
1 *2745:X *2749:A 19.9571 
*END

*D_NET *895 0.000431369
*CONN
*I *2749:B I *D sky130_fd_sc_hd__or2_1
*I *2746:X O *D sky130_fd_sc_hd__and2_1
*CAP
1 *2749:B 0.00013571
2 *2746:X 0.00013571
3 *2745:B *2749:B 7.3237e-05
4 *2749:A *2749:B 5.71472e-05
5 *107:16 *2749:B 2.95641e-05
*RES
1 *2746:X *2749:B 21.1893 
*END

*D_NET *896 0.000412325
*CONN
*I *1949:B I *D sky130_fd_sc_hd__or2_1
*I *3046:X O *D sky130_fd_sc_hd__and2_1
*CAP
1 *1949:B 7.62596e-05
2 *3046:X 7.62596e-05
3 *2935:B *1949:B 0.000103253
4 *4:38 *1949:B 0.000103253
5 *76:12 *1949:B 5.33005e-05
*RES
1 *3046:X *1949:B 29.475 
*END

*D_NET *897 0.000925969
*CONN
*I *2959:B I *D sky130_fd_sc_hd__xor2_1
*I *2960:B I *D sky130_fd_sc_hd__and2_1
*I *2748:X O *D sky130_fd_sc_hd__or2_1
*CAP
1 *2959:B 0.000113499
2 *2960:B 0
3 *2748:X 0.000285409
4 *897:10 0.000398908
5 *2959:B *1107:10 0.000128154
6 *2959:B *1280:12 0
7 *897:10 *1280:12 0
8 *2748:B *897:10 0
*RES
1 *2748:X *897:10 17.6214 
2 *897:10 *2960:B 13.8 
3 *897:10 *2959:B 16.3536 
*END

*D_NET *898 0.000947126
*CONN
*I *3258:B I *D sky130_fd_sc_hd__xor2_1
*I *3259:B I *D sky130_fd_sc_hd__and2_1
*I *2749:X O *D sky130_fd_sc_hd__or2_1
*CAP
1 *3258:B 0
2 *3259:B 9.66243e-05
3 *2749:X 0.000155678
4 *898:12 0.000252302
5 *3259:B *1198:18 0.000271352
6 *898:12 *1190:16 0
7 *3258:A *3259:B 4.27935e-05
8 *3259:A *3259:B 9.90367e-05
9 *20:123 *898:12 0
10 *107:16 *898:12 1.40415e-05
11 *838:10 *898:12 1.52978e-05
*RES
1 *2749:X *898:12 20.7821 
2 *898:12 *3259:B 12.3179 
3 *898:12 *3258:B 9.3 
*END

*D_NET *899 0.000463686
*CONN
*I *2754:A I *D sky130_fd_sc_hd__or2_1
*I *2750:X O *D sky130_fd_sc_hd__and2_1
*CAP
1 *2754:A 7.79349e-05
2 *2750:X 7.79349e-05
3 *2754:A *2754:B 0.000154762
4 *35:177 *2754:A 0.000153054
*RES
1 *2750:X *2754:A 30.0821 
*END

*D_NET *900 0.000322499
*CONN
*I *2754:B I *D sky130_fd_sc_hd__or2_1
*I *2751:X O *D sky130_fd_sc_hd__and2_1
*CAP
1 *2754:B 4.19184e-05
2 *2751:X 4.19184e-05
3 *2754:A *2754:B 0.000154762
4 *25:269 *2754:B 8.39e-05
*RES
1 *2751:X *2754:B 29.5464 
*END

*D_NET *901 0.000475812
*CONN
*I *2755:A I *D sky130_fd_sc_hd__or2_1
*I *2752:X O *D sky130_fd_sc_hd__and2_1
*CAP
1 *2755:A 0.000138482
2 *2752:X 0.000138482
3 *20:95 *2755:A 9.80173e-05
4 *27:149 *2755:A 0
5 *104:10 *2755:A 0.000100831
*RES
1 *2752:X *2755:A 29.8857 
*END

*D_NET *902 0.000224162
*CONN
*I *2755:B I *D sky130_fd_sc_hd__or2_1
*I *2753:X O *D sky130_fd_sc_hd__and2_1
*CAP
1 *2755:B 1.1121e-05
2 *2753:X 1.1121e-05
3 *2693:A *2755:B 0.00010096
4 *26:158 *2755:B 0.00010096
*RES
1 *2753:X *2755:B 19.5464 
*END

*D_NET *903 0.0012807
*CONN
*I *2967:B I *D sky130_fd_sc_hd__xor2_1
*I *2968:A2 I *D sky130_fd_sc_hd__a21o_1
*I *2754:X O *D sky130_fd_sc_hd__or2_1
*CAP
1 *2967:B 0.000106105
2 *2968:A2 8.10889e-05
3 *2754:X 0.000117852
4 *903:10 0.000305046
5 *2967:B *2967:A 7.84803e-05
6 *2968:A2 *2967:A 0.000144647
7 *2968:A2 *2968:A1 0
8 *903:10 *1120:10 0
9 *2750:A *903:10 0.000153047
10 *21:180 *903:10 0.00029443
*RES
1 *2754:X *903:10 22.0679 
2 *903:10 *2968:A2 11.0857 
3 *903:10 *2967:B 11.3893 
*END

*D_NET *904 0.0011988
*CONN
*I *3266:B I *D sky130_fd_sc_hd__xor2_1
*I *3267:A2 I *D sky130_fd_sc_hd__a21o_1
*I *2755:X O *D sky130_fd_sc_hd__or2_1
*CAP
1 *3266:B 0.000118424
2 *3267:A2 0.000135693
3 *2755:X 0.000144417
4 *904:10 0.000398534
5 *3267:A2 *1198:18 0.000170955
6 *2753:B *904:10 5.71472e-05
7 *2812:A *3266:B 0
8 *27:149 *3266:B 0
9 *27:149 *904:10 0
10 *104:10 *3266:B 0.000103041
11 *104:10 *904:10 7.05857e-05
*RES
1 *2755:X *904:10 16.2821 
2 *904:10 *3267:A2 16.8 
3 *904:10 *3266:B 16.3536 
*END

*D_NET *905 0.000999943
*CONN
*I *2761:A I *D sky130_fd_sc_hd__or2_1
*I *2756:X O *D sky130_fd_sc_hd__and2_1
*CAP
1 *2761:A 0.000302248
2 *2756:X 0.000302248
3 *2761:A *910:12 7.83659e-05
4 *2761:A *1129:12 0
5 *2761:A *1220:24 0.000317082
6 *193:10 *2761:A 0
*RES
1 *2756:X *2761:A 32.5464 
*END

*D_NET *906 0.000474796
*CONN
*I *2761:B I *D sky130_fd_sc_hd__or2_1
*I *2757:X O *D sky130_fd_sc_hd__and2_1
*CAP
1 *2761:B 8.36191e-05
2 *2757:X 8.36191e-05
3 *2761:B *1129:12 0.000274294
4 *26:228 *2761:B 3.32631e-05
*RES
1 *2757:X *2761:B 21.1893 
*END

*D_NET *907 0.000169247
*CONN
*I *2060:A I *D sky130_fd_sc_hd__or2_1
*I *3157:X O *D sky130_fd_sc_hd__and2_1
*CAP
1 *2060:A 8.46235e-05
2 *3157:X 8.46235e-05
*RES
1 *3157:X *2060:A 19.9571 
*END

*D_NET *908 0.00089615
*CONN
*I *2762:A I *D sky130_fd_sc_hd__or2_1
*I *2759:X O *D sky130_fd_sc_hd__and2_1
*CAP
1 *2762:A 0.000128116
2 *2759:X 0.000128116
3 *2762:A *1123:12 5.52238e-05
4 *117:14 *2762:A 0.000290279
5 *190:10 *2762:A 0.000294415
*RES
1 *2759:X *2762:A 31.9036 
*END

*D_NET *909 0.000266582
*CONN
*I *2762:B I *D sky130_fd_sc_hd__or2_1
*I *2760:X O *D sky130_fd_sc_hd__and2_1
*CAP
1 *2762:B 2.83166e-05
2 *2760:X 2.83166e-05
3 *2631:A *2762:B 0.000104974
4 *117:14 *2762:B 0.000104974
*RES
1 *2760:X *2762:B 28.9393 
*END

*D_NET *910 0.000818249
*CONN
*I *2978:B I *D sky130_fd_sc_hd__xor2_1
*I *2979:B I *D sky130_fd_sc_hd__and2_1
*I *2761:X O *D sky130_fd_sc_hd__or2_1
*CAP
1 *2978:B 0
2 *2979:B 4.24371e-05
3 *2761:X 0.000134456
4 *910:12 0.000176893
5 *2979:B *1220:24 0.000186662
6 *910:12 *1129:12 1.40415e-05
7 *2761:A *910:12 7.83659e-05
8 *2978:A *2979:B 0.000185394
9 *36:220 *2979:B 0
*RES
1 *2761:X *910:12 20.4786 
2 *910:12 *2979:B 11.4964 
3 *910:12 *2978:B 9.3 
*END

*D_NET *911 0.00112518
*CONN
*I *3278:B I *D sky130_fd_sc_hd__xor2_1
*I *3279:B I *D sky130_fd_sc_hd__and2_1
*I *2762:X O *D sky130_fd_sc_hd__or2_1
*CAP
1 *3278:B 0
2 *3279:B 9.66156e-05
3 *2762:X 6.8001e-05
4 *911:6 0.000164617
5 *3279:B *3282:B1 0.000139826
6 *2631:A *911:6 0.000222666
7 *11:218 *3279:B 5.52302e-05
8 *20:244 *3279:B 3.90513e-05
9 *35:206 *911:6 0.000266479
10 *117:14 *3279:B 7.26935e-05
*RES
1 *2762:X *911:6 11.8893 
2 *911:6 *3279:B 21.3893 
3 *911:6 *3278:B 9.3 
*END

*D_NET *912 0.000241939
*CONN
*I *2767:A I *D sky130_fd_sc_hd__or2_1
*I *2763:X O *D sky130_fd_sc_hd__and2_1
*CAP
1 *2767:A 4.58039e-05
2 *2763:X 4.58039e-05
3 *2767:A *916:12 9.80173e-05
4 *20:232 *2767:A 5.23142e-05
*RES
1 *2763:X *2767:A 19.9571 
*END

*D_NET *913 0.000260506
*CONN
*I *2767:B I *D sky130_fd_sc_hd__or2_1
*I *2764:X O *D sky130_fd_sc_hd__and2_1
*CAP
1 *2767:B 9.91598e-05
2 *2764:X 9.91598e-05
3 *2767:B *916:12 9.54798e-06
4 *2767:B *1142:10 0
5 *2822:B *2767:B 5.26384e-05
*RES
1 *2764:X *2767:B 29.5464 
*END

*D_NET *914 0.00032203
*CONN
*I *2768:A I *D sky130_fd_sc_hd__or2_1
*I *2765:X O *D sky130_fd_sc_hd__and2_1
*CAP
1 *2768:A 2.66593e-05
2 *2765:X 2.66593e-05
3 *2768:A *2768:B 5.71472e-05
4 *10:188 *2768:A 0.00014285
5 *21:168 *2768:A 1.54142e-05
6 *36:238 *2768:A 5.33005e-05
*RES
1 *2765:X *2768:A 19.9571 
*END

*D_NET *915 0.000551064
*CONN
*I *2768:B I *D sky130_fd_sc_hd__or2_1
*I *2766:X O *D sky130_fd_sc_hd__and2_1
*CAP
1 *2768:B 5.52623e-05
2 *2766:X 5.52623e-05
3 *2768:A *2768:B 5.71472e-05
4 *10:188 *2768:B 0.000113073
5 *21:168 *2768:B 0.00027032
*RES
1 *2766:X *2768:B 21.1893 
*END

*D_NET *916 0.00128077
*CONN
*I *2994:B I *D sky130_fd_sc_hd__xor2_1
*I *2995:A2 I *D sky130_fd_sc_hd__a21o_1
*I *2767:X O *D sky130_fd_sc_hd__or2_1
*CAP
1 *2994:B 9.42295e-05
2 *2995:A2 0
3 *2767:X 0.00020577
4 *916:12 0.000299999
5 *2994:B *2995:A1 0.000197661
6 *2994:B *2995:B1 3.4792e-05
7 *916:12 *2995:B1 1.49631e-05
8 *2767:A *916:12 9.80173e-05
9 *2767:B *916:12 9.54798e-06
10 *2822:B *916:12 0
11 *20:232 *2994:B 0.000291795
12 *20:232 *916:12 3.39935e-05
*RES
1 *2767:X *916:12 21.2107 
2 *916:12 *2995:A2 9.3 
3 *916:12 *2994:B 12.8536 
*END

*D_NET *917 0.00182369
*CONN
*I *3294:B I *D sky130_fd_sc_hd__xor2_1
*I *3295:A2 I *D sky130_fd_sc_hd__a21o_1
*I *2768:X O *D sky130_fd_sc_hd__or2_1
*CAP
1 *3294:B 0
2 *3295:A2 0.000121143
3 *2768:X 0.000224311
4 *917:14 0.000345454
5 *3295:A2 *3294:A 6.71755e-05
6 *3295:A2 *3295:A1 9.7659e-05
7 *917:14 *1124:12 0.000100823
8 *917:14 *1438:10 0.00010096
9 *26:232 *3295:A2 0.000181831
10 *26:232 *917:14 0.000534222
11 *194:10 *917:14 5.01117e-05
*RES
1 *2768:X *917:14 25.1214 
2 *917:14 *3295:A2 13.1393 
3 *917:14 *3294:B 9.3 
*END

*D_NET *918 0.000277097
*CONN
*I *2060:B I *D sky130_fd_sc_hd__or2_1
*I *3268:X O *D sky130_fd_sc_hd__and2_1
*CAP
1 *2060:B 0.00010321
2 *3268:X 0.00010321
3 *4:46 *2060:B 1.72894e-05
4 *14:295 *2060:B 5.33882e-05
5 *33:63 *2060:B 0
*RES
1 *3268:X *2060:B 29.475 
*END

*D_NET *919 0.000396165
*CONN
*I *2774:A I *D sky130_fd_sc_hd__or2_1
*I *2770:X O *D sky130_fd_sc_hd__and2_1
*CAP
1 *2774:A 0.000134257
2 *2770:X 0.000134257
3 *2774:A *2774:B 7.24209e-05
4 *2774:A *1159:14 0
5 *20:209 *2774:A 5.52302e-05
*RES
1 *2770:X *2774:A 30.0821 
*END

*D_NET *920 0.000505271
*CONN
*I *2774:B I *D sky130_fd_sc_hd__or2_1
*I *2771:X O *D sky130_fd_sc_hd__and2_1
*CAP
1 *2774:B 0.00016065
2 *2771:X 0.00016065
3 *2774:B *3101:B1 0
4 *2774:A *2774:B 7.24209e-05
5 *20:194 *2774:B 5.49544e-05
6 *20:209 *2774:B 5.65955e-05
*RES
1 *2771:X *2774:B 30.4929 
*END

*D_NET *921 0.000229829
*CONN
*I *2775:A I *D sky130_fd_sc_hd__or2_1
*I *2772:X O *D sky130_fd_sc_hd__and2_1
*CAP
1 *2775:A 6.19091e-05
2 *2772:X 6.19091e-05
3 *2775:A *2775:B 5.71472e-05
4 *12:251 *2775:A 4.88637e-05
*RES
1 *2772:X *2775:A 19.9571 
*END

*D_NET *922 0.000513977
*CONN
*I *2775:B I *D sky130_fd_sc_hd__or2_1
*I *2773:X O *D sky130_fd_sc_hd__and2_1
*CAP
1 *2775:B 0.000133614
2 *2773:X 0.000133614
3 *2775:A *2775:B 5.71472e-05
4 *12:251 *2775:B 0.000189601
*RES
1 *2773:X *2775:B 21.7429 
*END

*D_NET *923 0.000966482
*CONN
*I *3006:B I *D sky130_fd_sc_hd__and2_1
*I *3005:B I *D sky130_fd_sc_hd__xor2_1
*I *2774:X O *D sky130_fd_sc_hd__or2_1
*CAP
1 *3006:B 0.000140474
2 *3005:B 0
3 *2774:X 3.75977e-05
4 *923:6 0.000178072
5 *3006:B *1158:10 0.000194355
6 *37:17 *3006:B 0.000122591
7 *37:17 *923:6 9.90367e-05
8 *514:14 *3006:B 0.000194355
*RES
1 *2774:X *923:6 10.2464 
2 *923:6 *3005:B 9.3 
3 *923:6 *3006:B 22.2107 
*END

*D_NET *924 0.00103045
*CONN
*I *3305:B I *D sky130_fd_sc_hd__xor2_1
*I *3306:B I *D sky130_fd_sc_hd__and2_1
*I *2775:X O *D sky130_fd_sc_hd__or2_1
*CAP
1 *3305:B 0.000115014
2 *3306:B 0
3 *2775:X 0.000156129
4 *924:10 0.000271143
5 *3305:B *1146:16 0
6 *3305:B *1229:10 1.98124e-05
7 *3305:A *3305:B 0.000167691
8 *3305:A *924:10 1.02504e-05
9 *12:251 *924:10 5.06983e-05
10 *206:24 *3305:B 6.58195e-05
11 *206:24 *924:10 4.57445e-05
12 *865:14 *924:10 0.000128154
*RES
1 *2775:X *924:10 16.8 
2 *924:10 *3306:B 13.8 
3 *924:10 *3305:B 17.0143 
*END

*D_NET *925 0.000246049
*CONN
*I *2781:A I *D sky130_fd_sc_hd__or2_1
*I *2776:X O *D sky130_fd_sc_hd__and2_1
*CAP
1 *2781:A 5.03617e-05
2 *2776:X 5.03617e-05
3 *2776:B *2781:A 1.24368e-05
4 *20:177 *2781:A 6.57032e-05
5 *39:35 *2781:A 6.71854e-05
*RES
1 *2776:X *2781:A 19.9571 
*END

*D_NET *926 0.000486905
*CONN
*I *2781:B I *D sky130_fd_sc_hd__or2_1
*I *2777:X O *D sky130_fd_sc_hd__and2_1
*CAP
1 *2781:B 0.000118224
2 *2777:X 0.000118224
3 *29:37 *2781:B 4.87953e-05
4 *37:13 *2781:B 0.000100831
5 *39:20 *2781:B 0.000100831
*RES
1 *2777:X *2781:B 29.8857 
*END

*D_NET *927 0.000221069
*CONN
*I *2782:A I *D sky130_fd_sc_hd__or2_1
*I *2778:X O *D sky130_fd_sc_hd__and2_1
*CAP
1 *2782:A 9.02938e-05
2 *2778:X 9.02938e-05
3 *29:81 *2782:A 4.04817e-05
*RES
1 *2778:X *2782:A 19.9571 
*END

*D_NET *928 0.000393538
*CONN
*I *2782:B I *D sky130_fd_sc_hd__or2_1
*I *2779:X O *D sky130_fd_sc_hd__and2_1
*CAP
1 *2782:B 4.67435e-05
2 *2779:X 4.67435e-05
3 *2779:B *2782:B 0.000147718
4 *19:222 *2782:B 0.000152333
*RES
1 *2779:X *2782:B 29.5464 
*END

*D_NET *929 0.00188867
*CONN
*I *2110:A I *D sky130_fd_sc_hd__xor2_1
*I *2111:A I *D sky130_fd_sc_hd__and2_1
*I *1949:X O *D sky130_fd_sc_hd__or2_1
*CAP
1 *2110:A 0
2 *2111:A 0.000135008
3 *1949:X 0.000408226
4 *929:10 0.000543235
5 *2111:B *2111:A 0.000161364
6 *2111:B *929:10 4.33899e-05
7 *2947:A *929:10 2.78509e-05
8 *2980:B *2111:A 9.83442e-05
9 *2980:B *929:10 0.000143652
10 *14:179 *929:10 4.58194e-05
11 *131:6 *929:10 0.000204779
12 *288:14 *2111:A 7.70035e-05
*RES
1 *1949:X *929:10 16.9607 
2 *929:10 *2111:A 21.8 
3 *929:10 *2110:A 9.3 
*END

*D_NET *930 0.00276055
*CONN
*I *3086:A I *D sky130_fd_sc_hd__and2_1
*I *3085:A I *D sky130_fd_sc_hd__xor2_1
*I *2781:X O *D sky130_fd_sc_hd__or2_1
*CAP
1 *3086:A 0.000113571
2 *3085:A 0
3 *2781:X 0.000659771
4 *930:10 0.000773342
5 *3086:A *3086:B 7.39637e-05
6 *3086:A *989:8 1.41706e-05
7 *930:10 *2841:A 0.000292715
8 *930:10 *989:8 8.40012e-05
9 *930:10 *1048:8 0
10 *930:10 *1234:14 5.56943e-05
11 *2838:A *930:10 1.46624e-05
12 *2897:A *930:10 0.000100969
13 *2897:B *930:10 0
14 *10:13 *930:10 0
15 *12:9 *930:10 8.18594e-05
16 *22:22 *930:10 6.21562e-05
17 *37:13 *930:10 0.000250973
18 *39:35 *930:10 0.0001827
*RES
1 *2781:X *930:10 29.3536 
2 *930:10 *3085:A 13.8 
3 *930:10 *3086:A 16.6571 
*END

*D_NET *931 0.00171877
*CONN
*I *1956:A I *D sky130_fd_sc_hd__and2_1
*I *1955:A I *D sky130_fd_sc_hd__xor2_1
*I *2782:X O *D sky130_fd_sc_hd__or2_1
*CAP
1 *1956:A 0
2 *1955:A 0.00015996
3 *2782:X 0.000362933
4 *931:8 0.000522892
5 *1955:A *2842:A 1.41706e-05
6 *1955:A *1151:12 0.000195134
7 *931:8 *2842:B 2.14658e-05
8 *931:8 *990:6 3.18676e-05
9 *2840:A *931:8 0.000308247
10 *11:144 *1955:A 0
11 *29:81 *931:8 5.33005e-05
12 *38:64 *1955:A 4.87953e-05
*RES
1 *2782:X *931:8 15.6036 
2 *931:8 *1955:A 21.8 
3 *931:8 *1956:A 9.3 
*END

*D_NET *932 0.000221039
*CONN
*I *2787:A I *D sky130_fd_sc_hd__or2_1
*I *2783:X O *D sky130_fd_sc_hd__and2_1
*CAP
1 *2787:A 7.39011e-05
2 *2783:X 7.39011e-05
3 *9:42 *2787:A 7.3237e-05
*RES
1 *2783:X *2787:A 19.9571 
*END

*D_NET *933 0.000275455
*CONN
*I *2787:B I *D sky130_fd_sc_hd__or2_1
*I *2784:X O *D sky130_fd_sc_hd__and2_1
*CAP
1 *2787:B 3.6039e-05
2 *2784:X 3.6039e-05
3 *19:11 *2787:B 0.000101689
4 *39:9 *2787:B 0.000101689
*RES
1 *2784:X *2787:B 28.9393 
*END

*D_NET *934 0.000296034
*CONN
*I *2788:A I *D sky130_fd_sc_hd__or2_1
*I *2785:X O *D sky130_fd_sc_hd__and2_1
*CAP
1 *2788:A 6.83227e-05
2 *2785:X 6.83227e-05
3 *2599:B *2788:A 3.47737e-05
4 *10:91 *2788:A 1.92789e-05
5 *12:157 *2788:A 5.52238e-05
6 *32:199 *2788:A 5.01117e-05
*RES
1 *2785:X *2788:A 29.475 
*END

*D_NET *935 0.000182161
*CONN
*I *2788:B I *D sky130_fd_sc_hd__or2_1
*I *2786:X O *D sky130_fd_sc_hd__and2_1
*CAP
1 *2788:B 2.66682e-05
2 *2786:X 2.66682e-05
3 *10:91 *2788:B 3.0807e-05
4 *12:157 *2788:B 9.80173e-05
*RES
1 *2786:X *2788:B 19.5464 
*END

*D_NET *936 0.00173174
*CONN
*I *3097:A2 I *D sky130_fd_sc_hd__a21o_1
*I *3096:B I *D sky130_fd_sc_hd__xor2_1
*I *2787:X O *D sky130_fd_sc_hd__or2_1
*CAP
1 *3097:A2 7.82711e-05
2 *3096:B 0
3 *2787:X 0.00015169
4 *936:12 0.000229961
5 *3097:A2 *3097:A1 0.000200413
6 *9:42 *3097:A2 9.60875e-05
7 *9:42 *936:12 0.00034043
8 *22:127 *3097:A2 0.000200413
9 *30:48 *3097:A2 4.43256e-05
10 *30:48 *936:12 0.00039015
*RES
1 *2787:X *936:12 14.925 
2 *936:12 *3096:B 9.3 
3 *936:12 *3097:A2 21.8 
*END

*D_NET *937 0.000568927
*CONN
*I *1966:B I *D sky130_fd_sc_hd__xor2_1
*I *1967:A2 I *D sky130_fd_sc_hd__a21o_1
*I *2788:X O *D sky130_fd_sc_hd__or2_1
*CAP
1 *1966:B 8.73079e-05
2 *1967:A2 1.64896e-05
3 *2788:X 0.000103797
4 *1966:A *1966:B 0.00012501
5 *2599:B *1966:B 0.000123295
6 *10:91 *1966:B 5.52238e-05
7 *10:91 *1967:A2 2.89016e-05
8 *12:157 *1967:A2 2.89016e-05
*RES
1 *2788:X *1967:A2 19.1357 
2 *2788:X *1966:B 29.7786 
*END

*D_NET *938 0.000207475
*CONN
*I *2794:A I *D sky130_fd_sc_hd__or2_1
*I *2789:X O *D sky130_fd_sc_hd__and2_1
*CAP
1 *2794:A 0.000103738
2 *2789:X 0.000103738
*RES
1 *2789:X *2794:A 19.9571 
*END

*D_NET *939 0.000380854
*CONN
*I *2794:B I *D sky130_fd_sc_hd__or2_1
*I *2790:X O *D sky130_fd_sc_hd__and2_1
*CAP
1 *2794:B 7.75222e-05
2 *2790:X 7.75222e-05
3 *2917:B *2794:B 0.00010326
4 *10:32 *2794:B 1.92905e-05
5 *41:30 *2794:B 0.00010326
*RES
1 *2790:X *2794:B 29.475 
*END

*D_NET *940 0.00131135
*CONN
*I *2112:A I *D sky130_fd_sc_hd__xor2_1
*I *2113:A I *D sky130_fd_sc_hd__and2_1
*I *2060:X O *D sky130_fd_sc_hd__or2_1
*CAP
1 *2112:A 2.22847e-05
2 *2113:A 0.000204025
3 *2060:X 0.000207476
4 *940:6 0.000433786
5 zN[1] *2113:A 2.51343e-06
6 *2112:B *940:6 2.59355e-05
7 *2114:A *2113:A 0.000153054
8 *2117:A *2113:A 5.65955e-05
9 *23:80 *940:6 9.41642e-05
10 *142:6 *940:6 0.000111511
*RES
1 *2060:X *940:6 13.1214 
2 *940:6 *2113:A 22.1393 
3 *940:6 *2112:A 9.72857 
*END

*D_NET *941 0.000202156
*CONN
*I *2795:A I *D sky130_fd_sc_hd__or2_1
*I *2792:X O *D sky130_fd_sc_hd__and2_1
*CAP
1 *2795:A 6.52553e-05
2 *2792:X 6.52553e-05
3 *2825:B *2795:A 7.16452e-05
*RES
1 *2792:X *2795:A 19.9571 
*END

*D_NET *942 0.000480927
*CONN
*I *2795:B I *D sky130_fd_sc_hd__or2_1
*I *2793:X O *D sky130_fd_sc_hd__and2_1
*CAP
1 *2795:B 0.00014104
2 *2793:X 0.00014104
3 *2918:A *2795:B 0
4 *2919:B *2795:B 9.80173e-05
5 *19:45 *2795:B 0.000100831
*RES
1 *2793:X *2795:B 29.8857 
*END

*D_NET *943 0.000814682
*CONN
*I *3104:B I *D sky130_fd_sc_hd__and2_1
*I *3103:B I *D sky130_fd_sc_hd__xor2_1
*I *2794:X O *D sky130_fd_sc_hd__or2_1
*CAP
1 *3104:B 1.86463e-05
2 *3103:B 7.33082e-05
3 *2794:X 4.25481e-05
4 *943:8 0.000134503
5 *3103:A *3103:B 0.000132729
6 *10:32 *3104:B 2.49484e-05
7 *10:32 *943:8 5.24274e-05
8 *19:25 *3103:B 0.000178847
9 *21:19 *3104:B 5.59013e-05
10 *21:19 *943:8 0.000100823
*RES
1 *2794:X *943:8 15.1393 
2 *943:8 *3103:B 15.9964 
3 *943:8 *3104:B 14.5321 
*END

*D_NET *944 0.000606257
*CONN
*I *1973:B I *D sky130_fd_sc_hd__xor2_1
*I *1974:B I *D sky130_fd_sc_hd__and2_1
*I *2795:X O *D sky130_fd_sc_hd__or2_1
*CAP
1 *1973:B 0
2 *1974:B 0.000120124
3 *2795:X 4.65372e-05
4 *944:10 0.000166661
5 *1974:A *1974:B 9.90367e-05
6 *19:45 *944:10 4.57445e-05
7 *884:12 *944:10 0.000128154
*RES
1 *2795:X *944:10 19.9429 
2 *944:10 *1974:B 11.4964 
3 *944:10 *1973:B 9.3 
*END

*D_NET *945 0.000212342
*CONN
*I *2800:A I *D sky130_fd_sc_hd__or2_1
*I *2796:X O *D sky130_fd_sc_hd__and2_1
*CAP
1 *2800:A 0.000106171
2 *2796:X 0.000106171
*RES
1 *2796:X *2800:A 19.9571 
*END

*D_NET *946 0.000523049
*CONN
*I *2800:B I *D sky130_fd_sc_hd__or2_1
*I *2797:X O *D sky130_fd_sc_hd__and2_1
*CAP
1 *2800:B 8.08623e-05
2 *2797:X 8.08623e-05
3 *10:51 *2800:B 5.52302e-05
4 *31:23 *2800:B 0.000153047
5 *41:30 *2800:B 0.000153047
*RES
1 *2797:X *2800:B 30.0821 
*END

*D_NET *947 0.000472409
*CONN
*I *2801:A I *D sky130_fd_sc_hd__or2_1
*I *2798:X O *D sky130_fd_sc_hd__and2_1
*CAP
1 *2801:A 9.48451e-05
2 *2798:X 9.48451e-05
3 zP[0] *2801:A 7.73758e-05
4 *42:157 *2801:A 5.71472e-05
5 *541:18 *2801:A 0.000148196
*RES
1 *2798:X *2801:A 30.0821 
*END

*D_NET *948 0.000276575
*CONN
*I *2801:B I *D sky130_fd_sc_hd__or2_1
*I *2799:X O *D sky130_fd_sc_hd__and2_1
*CAP
1 *2801:B 3.65997e-05
2 *2799:X 3.65997e-05
3 *2801:B *2032:A 0.000102545
4 *541:18 *2801:B 0.000100831
*RES
1 *2799:X *2801:B 28.9393 
*END

*D_NET *949 0.000655843
*CONN
*I *3163:A I *D sky130_fd_sc_hd__xor2_1
*I *3164:A I *D sky130_fd_sc_hd__and2_1
*I *2800:X O *D sky130_fd_sc_hd__or2_1
*CAP
1 *3163:A 0.00015452
2 *3164:A 0
3 *2800:X 3.72884e-05
4 *949:6 0.000191809
5 *3163:A *3163:B 6.56534e-05
6 *3163:A *3164:B 0.000183713
7 *3163:A *3166:B1 2.28598e-05
*RES
1 *2800:X *949:6 9.83571 
2 *949:6 *3164:A 9.3 
3 *949:6 *3163:A 12.7286 
*END

*D_NET *950 0.00130442
*CONN
*I *2033:A I *D sky130_fd_sc_hd__and2_1
*I *2032:A I *D sky130_fd_sc_hd__xor2_1
*I *2801:X O *D sky130_fd_sc_hd__or2_1
*CAP
1 *2033:A 0
2 *2032:A 0.000129619
3 *2801:X 8.131e-05
4 *950:8 0.000210929
5 *2032:A *2032:B 9.60939e-05
6 *2032:A *2033:B 0.000173083
7 *2793:A *2032:A 3.82641e-05
8 *2799:A *2032:A 1.24368e-05
9 *2799:B *2032:A 9.41642e-05
10 *2801:B *2032:A 0.000102545
11 *2919:A *950:8 0.000103296
12 *216:6 *950:8 0.00022459
13 *541:18 *2032:A 3.80904e-05
*RES
1 *2801:X *950:8 11.9071 
2 *950:8 *2032:A 22.3179 
3 *950:8 *2033:A 9.3 
*END

*D_NET *951 0.000343844
*CONN
*I *2447:A I *D sky130_fd_sc_hd__or2_1
*I *2171:X O *D sky130_fd_sc_hd__and2_1
*CAP
1 *2447:A 7.00787e-05
2 *2171:X 7.00787e-05
3 *2171:A *2447:A 6.57032e-05
4 *14:147 *2447:A 0.000137983
*RES
1 *2171:X *2447:A 20.3857 
*END

*D_NET *952 0.000218873
*CONN
*I *2807:A I *D sky130_fd_sc_hd__or2_1
*I *2803:X O *D sky130_fd_sc_hd__and2_1
*CAP
1 *2807:A 6.34277e-05
2 *2803:X 6.34277e-05
3 *2807:A *2807:B 5.71472e-05
4 *2807:A *1096:8 3.48705e-05
*RES
1 *2803:X *2807:A 19.9571 
*END

*D_NET *953 0.000558258
*CONN
*I *2807:B I *D sky130_fd_sc_hd__or2_1
*I *2804:X O *D sky130_fd_sc_hd__and2_1
*CAP
1 *2807:B 0.000100546
2 *2804:X 0.000100546
3 *2807:B *1096:8 7.68752e-05
4 *2803:A *2807:B 2.89114e-05
5 *2803:B *2807:B 5.33005e-05
6 *2807:A *2807:B 5.71472e-05
7 *20:95 *2807:B 0.000140933
*RES
1 *2804:X *2807:B 21.7429 
*END

*D_NET *954 0.000601343
*CONN
*I *2808:A I *D sky130_fd_sc_hd__or2_1
*I *2805:X O *D sky130_fd_sc_hd__and2_1
*CAP
1 *2808:A 0.000125899
2 *2805:X 0.000125899
3 *2808:A *1400:6 4.82947e-05
4 *2804:B *2808:A 0.000150625
5 *2805:A *2808:A 0.000150625
*RES
1 *2805:X *2808:A 30.4929 
*END

*D_NET *955 0.000484458
*CONN
*I *2808:B I *D sky130_fd_sc_hd__or2_1
*I *2806:X O *D sky130_fd_sc_hd__and2_1
*CAP
1 *2808:B 7.77788e-05
2 *2806:X 7.77788e-05
3 *2808:B *1103:16 2.59355e-05
4 *10:226 *2808:B 0.000150625
5 *34:213 *2808:B 0.00015234
*RES
1 *2806:X *2808:B 30.0821 
*END

*D_NET *956 0.000740664
*CONN
*I *3041:A I *D sky130_fd_sc_hd__and2_1
*I *3040:A I *D sky130_fd_sc_hd__xor2_1
*I *2807:X O *D sky130_fd_sc_hd__or2_1
*CAP
1 *3041:A 0
2 *3040:A 0.000133329
3 *2807:X 0.000115558
4 *956:6 0.000248888
5 *3040:A *3040:B 9.34004e-05
6 *3040:A *1403:8 0
7 *956:6 *1096:8 0.000149489
*RES
1 *2807:X *956:6 11.8893 
2 *956:6 *3040:A 21.0857 
3 *956:6 *3041:A 9.3 
*END

*D_NET *957 0.000736518
*CONN
*I *3340:A I *D sky130_fd_sc_hd__xor2_1
*I *3341:A I *D sky130_fd_sc_hd__and2_1
*I *2808:X O *D sky130_fd_sc_hd__or2_1
*CAP
1 *3340:A 4.88504e-05
2 *3341:A 5.12387e-05
3 *2808:X 7.25663e-05
4 *957:6 0.000172655
5 *3340:A *1103:16 4.43256e-05
6 *3341:A *3341:B 0.000177948
7 *957:6 *1103:16 7.32272e-05
8 *20:97 *3341:A 9.57064e-05
*RES
1 *2808:X *957:6 10.6571 
2 *957:6 *3341:A 20.55 
3 *957:6 *3340:A 10.2464 
*END

*D_NET *958 0.000497172
*CONN
*I *2814:A I *D sky130_fd_sc_hd__or2_1
*I *2809:X O *D sky130_fd_sc_hd__and2_1
*CAP
1 *2814:A 0.000132656
2 *2809:X 0.000132656
3 *2814:A *1022:22 2.79421e-05
4 *2959:A *2814:A 5.33005e-05
5 *2960:A *2814:A 0.000150618
*RES
1 *2809:X *2814:A 30.4929 
*END

*D_NET *959 0.000478486
*CONN
*I *2814:B I *D sky130_fd_sc_hd__or2_1
*I *2810:X O *D sky130_fd_sc_hd__and2_1
*CAP
1 *2814:B 7.98596e-05
2 *2810:X 7.98596e-05
3 *2814:B *1022:22 1.58163e-05
4 *2683:A *2814:B 0.000150618
5 *35:169 *2814:B 0.000152333
*RES
1 *2810:X *2814:B 30.0821 
*END

*D_NET *960 0.000224445
*CONN
*I *2815:A I *D sky130_fd_sc_hd__or2_1
*I *2811:X O *D sky130_fd_sc_hd__and2_1
*CAP
1 *2815:A 6.18109e-05
2 *2811:X 6.18109e-05
3 *2815:A *2815:B 0.000100823
4 *2815:A *1023:16 0
*RES
1 *2811:X *2815:A 28.9393 
*END

*D_NET *961 0.000339894
*CONN
*I *2815:B I *D sky130_fd_sc_hd__or2_1
*I *2812:X O *D sky130_fd_sc_hd__and2_1
*CAP
1 *2815:B 6.57098e-05
2 *2812:X 6.57098e-05
3 *2812:A *2815:B 5.52238e-05
4 *2815:A *2815:B 0.000100823
5 *27:149 *2815:B 5.24274e-05
*RES
1 *2812:X *2815:B 29.475 
*END

*D_NET *962 0.000536059
*CONN
*I *2447:B I *D sky130_fd_sc_hd__or2_1
*I *2282:X O *D sky130_fd_sc_hd__and2_1
*CAP
1 *2447:B 0.000117402
2 *2282:X 0.000117402
3 *3013:A *2447:B 6.05161e-06
4 *4:17 *2447:B 2.89114e-05
5 *4:30 *2447:B 0.000142725
6 *25:42 *2447:B 8.07308e-05
7 *35:288 *2447:B 4.28365e-05
*RES
1 *2282:X *2447:B 30.0821 
*END

*D_NET *963 0.000909497
*CONN
*I *2970:A I *D sky130_fd_sc_hd__xor2_1
*I *2971:A I *D sky130_fd_sc_hd__and2_1
*I *2814:X O *D sky130_fd_sc_hd__or2_1
*CAP
1 *2970:A 6.17109e-05
2 *2971:A 3.96102e-05
3 *2814:X 0.000146166
4 *963:8 0.000247487
5 *2970:A *2970:B 0.000128154
6 *2971:A *2970:B 5.58941e-05
7 *2959:A *963:8 0.000230475
8 *837:10 *2970:A 0
9 *837:10 *2971:A 0
*RES
1 *2814:X *963:8 15.9786 
2 *963:8 *2971:A 14.5321 
3 *963:8 *2970:A 15.4429 
*END

*D_NET *964 0.000968697
*CONN
*I *3271:A I *D sky130_fd_sc_hd__and2_1
*I *3270:A I *D sky130_fd_sc_hd__xor2_1
*I *2815:X O *D sky130_fd_sc_hd__or2_1
*CAP
1 *3271:A 0.000124042
2 *3270:A 0
3 *2815:X 4.21516e-05
4 *964:6 0.000166194
5 *3271:A *3271:B 0.000265194
6 *3271:A *3273:B1 8.58629e-05
7 *964:6 *3271:B 5.33005e-05
8 *964:6 *3273:B1 4.884e-05
9 *2812:A *3271:A 3.48705e-05
10 *2812:A *964:6 4.72818e-05
11 *107:16 *3271:A 0.00010096
*RES
1 *2815:X *964:6 10.6571 
2 *964:6 *3270:A 9.3 
3 *964:6 *3271:A 13.675 
*END

*D_NET *965 0.000230617
*CONN
*I *2820:A I *D sky130_fd_sc_hd__or2_1
*I *2816:X O *D sky130_fd_sc_hd__and2_1
*CAP
1 *2820:A 3.6127e-05
2 *2816:X 3.6127e-05
3 *2820:A *2820:B 5.33882e-05
4 *2820:A *1208:14 0.000104974
*RES
1 *2816:X *2820:A 28.9393 
*END

*D_NET *966 0.000283571
*CONN
*I *2820:B I *D sky130_fd_sc_hd__or2_1
*I *2817:X O *D sky130_fd_sc_hd__and2_1
*CAP
1 *2820:B 0.000112065
2 *2817:X 0.000112065
3 *2817:B *2820:B 6.05161e-06
4 *2820:A *2820:B 5.33882e-05
*RES
1 *2817:X *2820:B 29.475 
*END

*D_NET *967 0.000426068
*CONN
*I *2821:A I *D sky130_fd_sc_hd__or2_1
*I *2818:X O *D sky130_fd_sc_hd__and2_1
*CAP
1 *2821:A 9.89766e-05
2 *2818:X 9.89766e-05
3 *2821:A *2821:B 0.000104974
4 *11:232 *2821:A 6.97972e-05
5 *25:282 *2821:A 0
6 *35:196 *2821:A 5.33433e-05
*RES
1 *2818:X *2821:A 30.1893 
*END

*D_NET *968 0.000291583
*CONN
*I *2821:B I *D sky130_fd_sc_hd__or2_1
*I *2819:X O *D sky130_fd_sc_hd__and2_1
*CAP
1 *2821:B 8.46598e-05
2 *2819:X 8.46598e-05
3 *2821:A *2821:B 0.000104974
4 *10:202 *2821:B 1.72894e-05
5 *25:282 *2821:B 0
*RES
1 *2819:X *2821:B 29.475 
*END

*D_NET *969 0.00083258
*CONN
*I *2982:A2 I *D sky130_fd_sc_hd__a21o_1
*I *2981:B I *D sky130_fd_sc_hd__xor2_1
*I *2820:X O *D sky130_fd_sc_hd__or2_1
*CAP
1 *2982:A2 8.40235e-05
2 *2981:B 0
3 *2820:X 9.34965e-05
4 *969:10 0.00017752
5 *2982:A2 *2981:A 0.000128146
6 *2982:A2 *1208:14 3.22834e-05
7 *2982:A2 *1220:24 2.89016e-05
8 *969:10 *1208:14 6.97972e-05
9 *21:168 *2982:A2 0.000150921
10 *21:168 *969:10 6.74911e-05
*RES
1 *2820:X *969:10 15.9786 
2 *969:10 *2981:B 13.8 
3 *969:10 *2982:A2 16.8893 
*END

*D_NET *970 0.001196
*CONN
*I *3281:B I *D sky130_fd_sc_hd__xor2_1
*I *3282:A2 I *D sky130_fd_sc_hd__a21o_1
*I *2821:X O *D sky130_fd_sc_hd__or2_1
*CAP
1 *3281:B 9.78277e-05
2 *3282:A2 0.00017265
3 *2821:X 9.48457e-05
4 *970:6 0.000365324
5 *3282:A2 *3282:A1 2.89114e-05
6 *2760:B *3282:A2 2.59355e-05
7 *10:202 *3282:A2 1.74352e-05
8 *10:202 *970:6 8.71761e-05
9 *11:222 *3281:B 0
10 *11:232 *3281:B 0
11 *36:220 *3281:B 0.00020042
12 *36:220 *3282:A2 0.000105471
*RES
1 *2821:X *970:6 11.4786 
2 *970:6 *3282:A2 12.3 
3 *970:6 *3281:B 20.8536 
*END

*D_NET *971 0.00056917
*CONN
*I *2828:A I *D sky130_fd_sc_hd__or2_1
*I *2822:X O *D sky130_fd_sc_hd__and2_1
*CAP
1 *2828:A 0.000111845
2 *2822:X 0.000111845
3 *2828:A *2828:B 3.06406e-05
4 *2828:A *2999:B1 3.34295e-05
5 *2828:A *976:12 5.74562e-05
6 *2828:A *1087:12 0
7 *2822:B *2828:A 9.60875e-05
8 *2823:B *2828:A 4.87854e-05
9 *38:91 *2828:A 7.90803e-05
*RES
1 *2822:X *2828:A 30.7964 
*END

*D_NET *972 0.000869838
*CONN
*I *2828:B I *D sky130_fd_sc_hd__or2_1
*I *2823:X O *D sky130_fd_sc_hd__and2_1
*CAP
1 *2828:B 0.000215593
2 *2823:X 0.000215593
3 *2711:B *2828:B 0.000101545
4 *2823:B *2828:B 0.000104446
5 *2828:A *2828:B 3.06406e-05
6 *8:131 *2828:B 5.71472e-05
7 *21:124 *2828:B 5.71472e-05
8 *29:198 *2828:B 2.8034e-05
9 *29:206 *2828:B 5.52302e-05
10 *38:91 *2828:B 4.46186e-06
*RES
1 *2823:X *2828:B 31.5464 
*END

*D_NET *973 0.000660655
*CONN
*I *2458:A I *D sky130_fd_sc_hd__or2_1
*I *2393:X O *D sky130_fd_sc_hd__and2_1
*CAP
1 *2458:A 0.000238854
2 *2393:X 0.000238854
3 *2458:A *2036:A 2.59355e-05
4 *2036:B *2458:A 0.000100831
5 *2393:A *2458:A 3.14078e-05
6 *13:57 *2458:A 2.47724e-05
*RES
1 *2393:X *2458:A 31.1179 
*END

*D_NET *974 0.000463915
*CONN
*I *2829:A I *D sky130_fd_sc_hd__or2_1
*I *2826:X O *D sky130_fd_sc_hd__and2_1
*CAP
1 *2829:A 8.77583e-05
2 *2826:X 8.77583e-05
3 *2829:A *2829:B 8.06331e-05
4 *2829:A *1036:12 0.000150618
5 *2829:A *1220:24 5.71472e-05
*RES
1 *2826:X *2829:A 30.0821 
*END

*D_NET *975 0.000346898
*CONN
*I *2829:B I *D sky130_fd_sc_hd__or2_1
*I *2827:X O *D sky130_fd_sc_hd__and2_1
*CAP
1 *2829:B 5.31983e-05
2 *2827:X 5.31983e-05
3 *2826:B *2829:B 7.83587e-05
4 *2829:A *2829:B 8.06331e-05
5 *26:249 *2829:B 8.15095e-05
*RES
1 *2827:X *2829:B 29.5464 
*END

*D_NET *976 0.00160707
*CONN
*I *2997:A I *D sky130_fd_sc_hd__and2_1
*I *2996:A I *D sky130_fd_sc_hd__xor2_1
*I *2828:X O *D sky130_fd_sc_hd__or2_1
*CAP
1 *2997:A 0.00011257
2 *2996:A 0
3 *2828:X 0.000161226
4 *976:12 0.000273796
5 *2997:A *2996:B 0.000186315
6 *2997:A *2998:A 0
7 *976:12 *2999:A1 0.000199706
8 *976:12 *2999:B1 0.000150618
9 *976:12 *1087:12 5.74562e-05
10 *976:12 *1448:16 0
11 *2828:A *976:12 5.74562e-05
12 *21:138 *2997:A 0.000262504
13 *21:138 *976:12 4.58976e-05
14 *35:220 *2997:A 2.24195e-05
15 *35:220 *976:12 5.33334e-05
16 *38:91 *976:12 2.37761e-05
*RES
1 *2828:X *976:12 23.6214 
2 *976:12 *2996:A 9.3 
3 *976:12 *2997:A 12.7464 
*END

*D_NET *977 0.00108578
*CONN
*I *3296:A I *D sky130_fd_sc_hd__xor2_1
*I *3297:A I *D sky130_fd_sc_hd__and2_1
*I *2829:X O *D sky130_fd_sc_hd__or2_1
*CAP
1 *3296:A 4.69551e-05
2 *3297:A 5.10272e-05
3 *2829:X 5.56572e-05
4 *977:10 0.00015364
5 *3296:A *3296:B 0.000102912
6 *3296:A *1217:10 0.000139907
7 *3297:A *3296:B 1.98839e-05
8 *3297:A *3297:B 5.52238e-05
9 *3297:A *1217:10 0.000186662
10 *977:10 *1036:12 0.000125724
11 *977:10 *1434:12 0
12 *977:10 *1443:8 0.000148189
*RES
1 *2829:X *977:10 20.2464 
2 *977:10 *3297:A 11.0679 
3 *977:10 *3296:A 11.0857 
*END

*D_NET *978 0.000198359
*CONN
*I *2834:A I *D sky130_fd_sc_hd__or2_1
*I *2830:X O *D sky130_fd_sc_hd__and2_1
*CAP
1 *2834:A 7.71483e-05
2 *2830:X 7.71483e-05
3 *2834:A *2834:B 1.92789e-05
4 *37:27 *2834:A 2.47833e-05
*RES
1 *2830:X *2834:A 19.9571 
*END

*D_NET *979 0.000588259
*CONN
*I *2834:B I *D sky130_fd_sc_hd__or2_1
*I *2831:X O *D sky130_fd_sc_hd__and2_1
*CAP
1 *2834:B 0.000191303
2 *2831:X 0.000191303
3 *2834:B *3008:B1 0
4 *2834:B *1151:12 3.93893e-05
5 *2830:B *2834:B 6.05161e-06
6 *2834:A *2834:B 1.92789e-05
7 *37:27 *2834:B 0.000140933
*RES
1 *2831:X *2834:B 31.3321 
*END

*D_NET *980 0.000347759
*CONN
*I *2835:A I *D sky130_fd_sc_hd__or2_1
*I *2832:X O *D sky130_fd_sc_hd__and2_1
*CAP
1 *2835:A 6.30277e-05
2 *2832:X 6.30277e-05
3 *2835:A *2835:B 7.17932e-05
4 *2835:A *1448:16 0.000149911
*RES
1 *2832:X *2835:A 29.5464 
*END

*D_NET *981 0.000678779
*CONN
*I *2835:B I *D sky130_fd_sc_hd__or2_1
*I *2833:X O *D sky130_fd_sc_hd__and2_1
*CAP
1 *2835:B 0.000191924
2 *2833:X 0.000191924
3 *2835:A *2835:B 7.17932e-05
4 *11:199 *2835:B 0.000144773
5 *206:24 *2835:B 7.83659e-05
6 *865:14 *2835:B 0
*RES
1 *2833:X *2835:B 30.9036 
*END

*D_NET *982 0.000760141
*CONN
*I *3007:B I *D sky130_fd_sc_hd__xor2_1
*I *3008:A2 I *D sky130_fd_sc_hd__a21o_1
*I *2834:X O *D sky130_fd_sc_hd__or2_1
*CAP
1 *3007:B 0
2 *3008:A2 0.000143445
3 *2834:X 0.000174097
4 *982:12 0.000317542
5 *3008:A2 *3007:A 0.000125057
6 *982:12 *1151:12 0
7 *275:12 *982:12 0
8 *275:14 *982:12 0
*RES
1 *2834:X *982:12 21.1929 
2 *982:12 *3008:A2 12.3179 
3 *982:12 *3007:B 9.3 
*END

*D_NET *983 0.00111345
*CONN
*I *3307:B I *D sky130_fd_sc_hd__xor2_1
*I *3308:A2 I *D sky130_fd_sc_hd__a21o_1
*I *2835:X O *D sky130_fd_sc_hd__or2_1
*CAP
1 *3307:B 0.000138661
2 *3308:A2 0
3 *2835:X 0.000303696
4 *983:10 0.000442357
5 *3307:B *3307:A 0.000127439
6 *3307:B *1448:16 0
7 *3307:B *1455:10 0
8 *983:10 *3308:B1 5.26184e-05
9 *983:10 *1448:16 8.49861e-06
10 *983:10 *1455:10 0
11 *12:251 *983:10 4.01768e-05
*RES
1 *2835:X *983:10 19.1214 
2 *983:10 *3308:A2 13.8 
3 *983:10 *3307:B 16.3536 
*END

*D_NET *984 0.000706904
*CONN
*I *2458:B I *D sky130_fd_sc_hd__or2_1
*I *2436:X O *D sky130_fd_sc_hd__and2_1
*CAP
1 *2458:B 0.000133283
2 *2436:X 0.000133283
3 *2458:B *2036:A 0.000148196
4 *2036:B *2458:B 0.000174797
5 *13:43 *2458:B 0.00010326
6 *217:10 *2458:B 0
7 *222:12 *2458:B 1.40849e-05
*RES
1 *2436:X *2458:B 31.3679 
*END

*D_NET *985 0.000942699
*CONN
*I *2841:A I *D sky130_fd_sc_hd__or2_1
*I *2837:X O *D sky130_fd_sc_hd__and2_1
*CAP
1 *2841:A 0.000163253
2 *2837:X 0.000163253
3 *2838:A *2841:A 7.48356e-05
4 *2896:B *2841:A 4.73656e-05
5 *27:29 *2841:A 9.80173e-05
6 *37:13 *2841:A 0.00010326
7 *930:10 *2841:A 0.000292715
*RES
1 *2837:X *2841:A 32.3143 
*END

*D_NET *986 0.000104357
*CONN
*I *2841:B I *D sky130_fd_sc_hd__or2_1
*I *2838:X O *D sky130_fd_sc_hd__and2_1
*CAP
1 *2841:B 2.36049e-05
2 *2838:X 2.36049e-05
3 *2838:B *2841:B 5.71472e-05
*RES
1 *2838:X *2841:B 19.1357 
*END

*D_NET *987 0.000264424
*CONN
*I *2842:A I *D sky130_fd_sc_hd__or2_1
*I *2839:X O *D sky130_fd_sc_hd__and2_1
*CAP
1 *2842:A 8.30546e-05
2 *2839:X 8.30546e-05
3 *2842:A *1151:12 0
4 *1955:A *2842:A 1.41706e-05
5 *11:144 *2842:A 1.76039e-05
6 *11:161 *2842:A 6.65398e-05
*RES
1 *2839:X *2842:A 29.5464 
*END

*D_NET *988 0.000338965
*CONN
*I *2842:B I *D sky130_fd_sc_hd__or2_1
*I *2840:X O *D sky130_fd_sc_hd__and2_1
*CAP
1 *2842:B 8.93093e-05
2 *2840:X 8.93093e-05
3 *2840:A *2842:B 0.000138881
4 *931:8 *2842:B 2.14658e-05
*RES
1 *2840:X *2842:B 20.3679 
*END

*D_NET *989 0.00129293
*CONN
*I *3086:B I *D sky130_fd_sc_hd__and2_1
*I *3085:B I *D sky130_fd_sc_hd__xor2_1
*I *2841:X O *D sky130_fd_sc_hd__or2_1
*CAP
1 *3086:B 0.000138951
2 *3085:B 5.73551e-05
3 *2841:X 0.000134221
4 *989:8 0.000330527
5 *3085:B *1234:14 2.59355e-05
6 *3086:B *3088:B1 0.000130129
7 *989:8 *3088:B1 0.000200413
8 *989:8 *1048:8 0
9 *989:8 *1234:14 0.00010326
10 *3086:A *3086:B 7.39637e-05
11 *3086:A *989:8 1.41706e-05
12 *516:12 *3086:B 0
13 *930:10 *989:8 8.40012e-05
*RES
1 *2841:X *989:8 18.175 
2 *989:8 *3085:B 14.7464 
3 *989:8 *3086:B 17.3 
*END

*D_NET *990 0.000604426
*CONN
*I *1955:B I *D sky130_fd_sc_hd__xor2_1
*I *1956:B I *D sky130_fd_sc_hd__and2_1
*I *2842:X O *D sky130_fd_sc_hd__or2_1
*CAP
1 *1955:B 0.000154869
2 *1956:B 0
3 *2842:X 8.24392e-05
4 *990:6 0.000237309
5 *1955:B *1958:A2 0
6 *1955:B *1151:12 9.79406e-05
7 *1958:B1 *1955:B 0
8 *275:12 *1955:B 0
9 *931:8 *990:6 3.18676e-05
*RES
1 *2842:X *990:6 10.6571 
2 *990:6 *1956:B 9.3 
3 *990:6 *1955:B 21.3893 
*END

*D_NET *991 0.000383318
*CONN
*I *2848:A I *D sky130_fd_sc_hd__or2_1
*I *2843:X O *D sky130_fd_sc_hd__and2_1
*CAP
1 *2848:A 9.96959e-05
2 *2843:X 9.96959e-05
3 *2848:A *1242:14 5.03694e-05
4 *2848:A *1306:14 7.8327e-05
5 *22:48 *2848:A 5.52302e-05
*RES
1 *2843:X *2848:A 30.0821 
*END

*D_NET *992 0.000857253
*CONN
*I *2848:B I *D sky130_fd_sc_hd__or2_1
*I *2844:X O *D sky130_fd_sc_hd__and2_1
*CAP
1 *2848:B 0.000182567
2 *2844:X 0.000182567
3 *12:24 *2848:B 5.71272e-05
4 *22:26 *2848:B 3.34366e-05
5 *22:48 *2848:B 0.00018077
6 *29:37 *2848:B 5.80706e-06
7 *516:12 *2848:B 0.000214977
*RES
1 *2844:X *2848:B 32.225 
*END

*D_NET *993 0.000419711
*CONN
*I *2849:A I *D sky130_fd_sc_hd__or2_1
*I *2845:X O *D sky130_fd_sc_hd__and2_1
*CAP
1 *2849:A 8.23819e-05
2 *2845:X 8.23819e-05
3 *2845:A *2849:A 5.33005e-05
4 *38:295 *2849:A 0.000100823
5 *525:14 *2849:A 0.000100823
*RES
1 *2845:X *2849:A 29.475 
*END

*D_NET *994 8.14581e-05
*CONN
*I *2849:B I *D sky130_fd_sc_hd__or2_1
*I *2846:X O *D sky130_fd_sc_hd__and2_1
*CAP
1 *2849:B 2.65277e-05
2 *2846:X 2.65277e-05
3 *2846:B *2849:B 2.84026e-05
*RES
1 *2846:X *2849:B 19.1357 
*END

*D_NET *995 0.00176477
*CONN
*I *3168:A I *D sky130_fd_sc_hd__and2_1
*I *3167:A I *D sky130_fd_sc_hd__xor2_1
*I *2447:X O *D sky130_fd_sc_hd__or2_1
*CAP
1 *3168:A 1.24159e-05
2 *3167:A 0.00011582
3 *2447:X 0.000189896
4 *995:6 0.000318131
5 *995:6 *1313:6 0.000522445
6 *2171:A *995:6 0.000393949
7 *3168:B *3167:A 8.45319e-05
8 *3168:B *3168:A 5.7661e-06
9 *3168:B *995:6 5.62995e-05
10 *14:147 *3167:A 8.25843e-06
11 *14:147 *995:6 5.7256e-05
*RES
1 *2447:X *995:6 15.9964 
2 *995:6 *3167:A 11.3893 
3 *995:6 *3168:A 9.72857 
*END

*D_NET *996 0.000958479
*CONN
*I *3098:A I *D sky130_fd_sc_hd__xor2_1
*I *3099:A I *D sky130_fd_sc_hd__and2_1
*I *2848:X O *D sky130_fd_sc_hd__or2_1
*CAP
1 *3098:A 7.17669e-05
2 *3099:A 0
3 *2848:X 0.000128697
4 *996:10 0.000200463
5 *3098:A *3099:B 0.000196785
6 *3098:A *1244:10 0
7 *3098:A *1371:16 0.000211423
8 *996:10 *3099:B 9.54798e-06
9 *996:10 *1371:16 0.000120506
10 *2771:A *996:10 0
11 *22:48 *996:10 1.92905e-05
*RES
1 *2848:X *996:10 15.9786 
2 *996:10 *3099:A 13.8 
3 *996:10 *3098:A 16.6571 
*END

*D_NET *997 0.00154225
*CONN
*I *1968:A I *D sky130_fd_sc_hd__xor2_1
*I *1969:A I *D sky130_fd_sc_hd__and2_1
*I *2849:X O *D sky130_fd_sc_hd__or2_1
*CAP
1 *1968:A 5.23441e-05
2 *1969:A 7.29403e-05
3 *2849:X 0.000146942
4 *997:6 0.000272226
5 *1968:A *1056:6 1.98839e-05
6 *1969:A *1969:B 0.000177941
7 *997:6 *1056:6 0.000122091
8 *2846:B *1968:A 9.90431e-05
9 *2846:B *1969:A 1.69115e-05
10 *2846:B *997:6 0.000438794
11 *2905:B *1969:A 0.000113887
12 *12:124 *1969:A 9.25014e-06
*RES
1 *2849:X *997:6 13.5321 
2 *997:6 *1969:A 21.1571 
3 *997:6 *1968:A 10.675 
*END

*D_NET *998 0.000254005
*CONN
*I *2854:A I *D sky130_fd_sc_hd__or2_1
*I *2850:X O *D sky130_fd_sc_hd__and2_1
*CAP
1 *2854:A 4.92831e-05
2 *2850:X 4.92831e-05
3 *2854:A *2854:B 5.33005e-05
4 *2854:A *1002:10 2.89114e-05
5 *41:243 *2854:A 7.32272e-05
*RES
1 *2850:X *2854:A 19.9571 
*END

*D_NET *999 0.000440682
*CONN
*I *2854:B I *D sky130_fd_sc_hd__or2_1
*I *2851:X O *D sky130_fd_sc_hd__and2_1
*CAP
1 *2854:B 0.00015633
2 *2851:X 0.00015633
3 *2854:A *2854:B 5.33005e-05
4 *41:243 *2854:B 7.47221e-05
*RES
1 *2851:X *2854:B 21.1893 
*END

*D_NET *1000 0.00019693
*CONN
*I *2855:A I *D sky130_fd_sc_hd__or2_1
*I *2852:X O *D sky130_fd_sc_hd__and2_1
*CAP
1 *2855:A 7.23081e-05
2 *2852:X 7.23081e-05
3 *2855:A *1003:10 5.23142e-05
*RES
1 *2852:X *2855:A 19.9571 
*END

*D_NET *1001 0.000556871
*CONN
*I *2855:B I *D sky130_fd_sc_hd__or2_1
*I *2853:X O *D sky130_fd_sc_hd__and2_1
*CAP
1 *2855:B 0.000212084
2 *2853:X 0.000212084
3 *14:237 *2855:B 4.94362e-05
4 *30:102 *2855:B 4.46186e-06
5 *30:104 *2855:B 7.2754e-05
6 *41:124 *2855:B 6.05161e-06
*RES
1 *2853:X *2855:B 30.9036 
*END

*D_NET *1002 0.00165065
*CONN
*I *3105:B I *D sky130_fd_sc_hd__xor2_1
*I *3106:A2 I *D sky130_fd_sc_hd__a21o_1
*I *2854:X O *D sky130_fd_sc_hd__or2_1
*CAP
1 *3105:B 5.68389e-05
2 *3106:A2 5.73013e-05
3 *2854:X 0.000161875
4 *1002:10 0.000276015
5 *3105:B *3105:A 0.000181796
6 *3106:A2 *3105:A 0.000187726
7 *3106:A2 *1249:10 1.02504e-05
8 *1002:10 *3105:A 3.34366e-05
9 *2854:A *1002:10 2.89114e-05
10 *32:155 *3105:B 0.00022266
11 *38:295 *3106:A2 0.000199698
12 *38:295 *1002:10 0.000142082
13 *41:243 *1002:10 2.15245e-05
14 *42:45 *3105:B 1.21258e-05
15 *516:22 *1002:10 5.84075e-05
*RES
1 *2854:X *1002:10 17.1036 
2 *1002:10 *3106:A2 16.3536 
3 *1002:10 *3105:B 15.9786 
*END

*D_NET *1003 0.00197683
*CONN
*I *1975:B I *D sky130_fd_sc_hd__xor2_1
*I *1976:A2 I *D sky130_fd_sc_hd__a21o_1
*I *2855:X O *D sky130_fd_sc_hd__or2_1
*CAP
1 *1975:B 0
2 *1976:A2 0.000172098
3 *2855:X 0.000225855
4 *1003:10 0.000397954
5 *2852:A *1976:A2 9.15975e-05
6 *2852:B *1003:10 2.59355e-05
7 *2853:A *1976:A2 0.000226507
8 *2853:B *1976:A2 5.33005e-05
9 *2855:A *1003:10 5.23142e-05
10 *29:125 *1003:10 0.000526463
11 *40:47 *1976:A2 0.00017309
12 *40:51 *1976:A2 3.17148e-05
*RES
1 *2855:X *1003:10 15.3179 
2 *1003:10 *1976:A2 23.0321 
3 *1003:10 *1975:B 9.3 
*END

*D_NET *1004 0.00025279
*CONN
*I *2861:A I *D sky130_fd_sc_hd__or2_1
*I *2856:X O *D sky130_fd_sc_hd__and2_1
*CAP
1 *2861:A 3.37502e-05
2 *2856:X 3.37502e-05
3 *10:51 *2861:A 4.88637e-05
4 *21:31 *2861:A 5.71472e-05
5 *41:34 *2861:A 7.32272e-05
6 *41:87 *2861:A 6.05161e-06
*RES
1 *2856:X *2861:A 19.9571 
*END

*D_NET *1005 0.000192598
*CONN
*I *2861:B I *D sky130_fd_sc_hd__or2_1
*I *2857:X O *D sky130_fd_sc_hd__and2_1
*CAP
1 *2861:B 7.66612e-05
2 *2857:X 7.66612e-05
3 *12:36 *2861:B 0
4 *31:23 *2861:B 0
5 *41:40 *2861:B 3.92757e-05
*RES
1 *2857:X *2861:B 28.9393 
*END

*D_NET *1006 0.000951518
*CONN
*I *2037:A I *D sky130_fd_sc_hd__and2_1
*I *2036:A I *D sky130_fd_sc_hd__xor2_1
*I *2458:X O *D sky130_fd_sc_hd__or2_1
*CAP
1 *2037:A 0
2 *2036:A 9.3718e-05
3 *2458:X 5.87756e-05
4 *1006:6 0.000152494
5 *2036:B *2036:A 1.17968e-05
6 *2037:B *1006:6 8.46829e-05
7 *2393:A *2036:A 1.33343e-05
8 *2458:A *2036:A 2.59355e-05
9 *2458:B *2036:A 0.000148196
10 *3169:A *1006:6 0.000112985
11 *13:57 *2036:A 1.98839e-05
12 *208:6 *1006:6 0.00014285
13 *222:12 *2036:A 8.68665e-05
*RES
1 *2458:X *1006:6 11.4786 
2 *1006:6 *2036:A 21.0857 
3 *1006:6 *2037:A 9.3 
*END

*D_NET *1007 0.000236831
*CONN
*I *2862:A I *D sky130_fd_sc_hd__or2_1
*I *2859:X O *D sky130_fd_sc_hd__and2_1
*CAP
1 *2862:A 8.18018e-05
2 *2859:X 8.18018e-05
3 *21:62 *2862:A 7.32272e-05
*RES
1 *2859:X *2862:A 19.9571 
*END

*D_NET *1008 0.000458098
*CONN
*I *2862:B I *D sky130_fd_sc_hd__or2_1
*I *2860:X O *D sky130_fd_sc_hd__and2_1
*CAP
1 *2862:B 0.000112431
2 *2860:X 0.000112431
3 *2860:B *2862:B 9.80173e-05
4 *283:8 *2862:B 3.19595e-05
5 *541:18 *2862:B 0.00010326
*RES
1 *2860:X *2862:B 29.8857 
*END

*D_NET *1009 0.00124159
*CONN
*I *3164:B I *D sky130_fd_sc_hd__and2_1
*I *3163:B I *D sky130_fd_sc_hd__xor2_1
*I *2861:X O *D sky130_fd_sc_hd__or2_1
*CAP
1 *3164:B 9.55462e-05
2 *3163:B 6.67865e-05
3 *2861:X 0.00011548
4 *1009:10 0.000277813
5 *3163:B *3166:B1 1.74352e-05
6 *3163:B *1311:10 1.24368e-05
7 *3164:B *3166:B1 9.60875e-05
8 *1009:10 *1311:10 3.92854e-05
9 *1009:10 *1375:10 0
10 *3163:A *3163:B 6.56534e-05
11 *3163:A *3164:B 0.000183713
12 *10:51 *1009:10 9.80173e-05
13 *12:36 *3164:B 4.56437e-05
14 *12:36 *1009:10 0.00010326
15 *40:32 *3164:B 2.44318e-05
*RES
1 *2861:X *1009:10 16.0857 
2 *1009:10 *3163:B 15.175 
3 *1009:10 *3164:B 16.3 
*END

*D_NET *1010 0.00171676
*CONN
*I *2032:B I *D sky130_fd_sc_hd__xor2_1
*I *2033:B I *D sky130_fd_sc_hd__and2_1
*I *2862:X O *D sky130_fd_sc_hd__or2_1
*CAP
1 *2032:B 2.46036e-05
2 *2033:B 9.36596e-05
3 *2862:X 0.00012523
4 *1010:8 0.000243493
5 *2032:A *2032:B 9.60939e-05
6 *2032:A *2033:B 0.000173083
7 *2793:A *2032:B 9.60939e-05
8 *2919:A *2033:B 2.59355e-05
9 *10:57 *1010:8 0.000290293
10 *42:136 *1010:8 0.000163847
11 *42:138 *2033:B 4.49293e-05
12 *42:138 *1010:8 0.000148911
13 *42:140 *2033:B 0.000148911
14 *216:6 *2033:B 2.89016e-05
15 *541:18 *2033:B 7.79781e-06
16 *541:18 *1010:8 4.98055e-06
*RES
1 *2862:X *1010:8 17.8714 
2 *1010:8 *2033:B 16.8893 
3 *1010:8 *2032:B 14.7464 
*END

*D_NET *1011 0.00065016
*CONN
*I *2867:A I *D sky130_fd_sc_hd__or2_1
*I *2863:X O *D sky130_fd_sc_hd__and2_1
*CAP
1 *2867:A 0.000221213
2 *2863:X 0.000221213
3 *2867:A *3232:A 7.77652e-05
4 *2867:A *1015:12 7.83587e-05
5 *2867:A *1075:14 1.81805e-05
6 *2863:B *2867:A 0
7 *32:38 *2867:A 3.34295e-05
*RES
1 *2863:X *2867:A 31.3143 
*END

*D_NET *1012 8.18297e-05
*CONN
*I *2867:B I *D sky130_fd_sc_hd__or2_1
*I *2864:X O *D sky130_fd_sc_hd__and2_1
*CAP
1 *2867:B 2.4981e-05
2 *2864:X 2.4981e-05
3 *2864:B *2867:B 3.18676e-05
*RES
1 *2864:X *2867:B 19.1357 
*END

*D_NET *1013 0.000292372
*CONN
*I *2868:A I *D sky130_fd_sc_hd__or2_1
*I *2865:X O *D sky130_fd_sc_hd__and2_1
*CAP
1 *2868:A 3.59186e-05
2 *2865:X 3.59186e-05
3 *2868:A *2102:A 7.02611e-05
4 *2868:A *1016:6 6.05161e-06
5 *21:62 *2868:A 0.000144222
*RES
1 *2865:X *2868:A 19.9571 
*END

*D_NET *1014 0.000564685
*CONN
*I *2868:B I *D sky130_fd_sc_hd__or2_1
*I *2866:X O *D sky130_fd_sc_hd__and2_1
*CAP
1 *2868:B 0.000155548
2 *2866:X 0.000155548
3 *2868:B *2101:A 3.69697e-05
4 *2868:B *2102:A 7.54868e-05
5 *2860:B *2868:B 0.000141132
6 *22:129 *2868:B 0
7 *283:8 *2868:B 0
*RES
1 *2866:X *2868:B 30.2964 
*END

*D_NET *1015 0.00103639
*CONN
*I *3231:A I *D sky130_fd_sc_hd__xor2_1
*I *3232:A I *D sky130_fd_sc_hd__and2_1
*I *2867:X O *D sky130_fd_sc_hd__or2_1
*CAP
1 *3231:A 6.01107e-05
2 *3232:A 6.43759e-05
3 *2867:X 9.50338e-05
4 *1015:12 0.00021952
5 *3231:A *3232:B 9.55745e-05
6 *3231:A *3234:B1 1.38323e-05
7 *3231:A *1075:14 0.000104587
8 *3232:A *3232:B 5.33334e-05
9 *3232:A *3234:B1 6.05161e-06
10 *1015:12 *1075:14 0.000100831
11 *2863:B *1015:12 0
12 *2867:A *3232:A 7.77652e-05
13 *2867:A *1015:12 7.83587e-05
14 *21:49 *1015:12 5.52238e-05
15 *32:23 *1015:12 1.17968e-05
*RES
1 *2867:X *1015:12 20.4786 
2 *1015:12 *3232:A 11.0679 
3 *1015:12 *3231:A 11.0857 
*END

*D_NET *1016 0.00203733
*CONN
*I *2101:A I *D sky130_fd_sc_hd__xor2_1
*I *2102:A I *D sky130_fd_sc_hd__and2_1
*I *2868:X O *D sky130_fd_sc_hd__or2_1
*CAP
1 *2101:A 0.000451516
2 *2102:A 0.000189311
3 *2868:X 7.02699e-05
4 *1016:6 0.000711097
5 *2101:A *2102:B 0.000368379
6 *2102:A *2102:B 5.37741e-06
7 *2104:B1 *2101:A 0
8 *2868:A *2102:A 7.02611e-05
9 *2868:A *1016:6 6.05161e-06
10 *2868:B *2101:A 3.69697e-05
11 *2868:B *2102:A 7.54868e-05
12 *21:62 *1016:6 2.86767e-05
13 *22:129 *2101:A 0
14 *22:129 *2102:A 0
15 *281:8 *2101:A 2.39313e-05
*RES
1 *2868:X *1016:6 10.2464 
2 *1016:6 *2102:A 21.3 
3 *1016:6 *2101:A 34.3893 
*END

*D_NET *1017 0.000260729
*CONN
*I *2514:A I *D sky130_fd_sc_hd__or2_1
*I *2469:X O *D sky130_fd_sc_hd__and2_1
*CAP
1 *2514:A 8.14399e-05
2 *2469:X 8.14399e-05
3 *3080:A *2514:A 0
4 *14:25 *2514:A 1.88048e-05
5 *14:42 *2514:A 1.00375e-05
6 *17:11 *2514:A 6.90067e-05
*RES
1 *2469:X *2514:A 29.5464 
*END

*D_NET *1018 0.000596789
*CONN
*I *2874:A I *D sky130_fd_sc_hd__or2_1
*I *2870:X O *D sky130_fd_sc_hd__and2_1
*CAP
1 *2874:A 0.000179467
2 *2870:X 0.000179467
3 *2874:A *1022:16 3.92757e-05
4 *2870:B *2874:A 1.92905e-05
5 *2872:A *2874:A 0.00015234
6 *39:216 *2874:A 2.6949e-05
*RES
1 *2870:X *2874:A 30.9036 
*END

*D_NET *1019 0.000276575
*CONN
*I *2874:B I *D sky130_fd_sc_hd__or2_1
*I *2871:X O *D sky130_fd_sc_hd__and2_1
*CAP
1 *2874:B 3.65997e-05
2 *2871:X 3.65997e-05
3 *2874:B *1133:10 0.000100831
4 *2872:A *2874:B 0.000102545
*RES
1 *2871:X *2874:B 28.9393 
*END

*D_NET *1020 0.000363509
*CONN
*I *2875:A I *D sky130_fd_sc_hd__or2_1
*I *2872:X O *D sky130_fd_sc_hd__and2_1
*CAP
1 *2875:A 0.000150916
2 *2872:X 0.000150916
3 *6:98 *2875:A 0
4 *20:80 *2875:A 1.05947e-05
5 *39:216 *2875:A 5.10822e-05
*RES
1 *2872:X *2875:A 29.8857 
*END

*D_NET *1021 0.00051252
*CONN
*I *2875:B I *D sky130_fd_sc_hd__or2_1
*I *2873:X O *D sky130_fd_sc_hd__and2_1
*CAP
1 *2875:B 0.000172377
2 *2873:X 0.000172377
3 *2875:B *1132:12 7.43578e-06
4 *10:110 *2875:B 0.000160329
*RES
1 *2873:X *2875:B 22.0286 
*END

*D_NET *1022 0.0108731
*CONN
*I *2971:B I *D sky130_fd_sc_hd__and2_1
*I *2970:B I *D sky130_fd_sc_hd__xor2_1
*I *2874:X O *D sky130_fd_sc_hd__or2_1
*CAP
1 *2971:B 1.72982e-05
2 *2970:B 8.64712e-05
3 *2874:X 0.00114026
4 *1022:22 0.002225
5 *1022:16 0.0032615
6 *2970:B *2973:B1 5.80217e-05
7 *2970:B *1107:10 0
8 *1022:16 *1412:12 0.000181395
9 *1022:22 *1429:10 0.00139577
10 *2516:A *1022:16 5.52302e-05
11 *2516:B *1022:16 0.000188586
12 *2814:A *1022:22 2.79421e-05
13 *2814:B *1022:22 1.58163e-05
14 *2872:A *1022:16 2.00751e-05
15 *2874:A *1022:16 3.92757e-05
16 *2959:A *2971:B 5.52302e-05
17 *2959:A *1022:22 7.377e-05
18 *2970:A *2970:B 0.000128154
19 *2971:A *2970:B 5.58941e-05
20 *3264:A *1022:16 2.58821e-05
21 *3264:B *1022:16 0.000142856
22 *22:263 *1022:16 8.2731e-05
23 *29:247 *1022:16 0.000243054
24 *38:142 *1022:16 0.000265995
25 *39:174 *1022:16 0.000318101
26 *39:176 *1022:16 0.000271352
27 *39:184 *1022:16 5.33005e-05
28 *39:216 *1022:16 0.000344917
29 *788:6 *1022:16 9.92409e-05
30 *837:10 *2970:B 0
*RES
1 *2874:X *1022:16 49.8179 
2 *1022:16 *1022:22 31.9464 
3 *1022:22 *2970:B 20.8536 
4 *1022:22 *2971:B 9.83571 
*END

*D_NET *1023 0.00704055
*CONN
*I *3270:B I *D sky130_fd_sc_hd__xor2_1
*I *3271:B I *D sky130_fd_sc_hd__and2_1
*I *2875:X O *D sky130_fd_sc_hd__or2_1
*CAP
1 *3270:B 2.44643e-05
2 *3271:B 9.39379e-05
3 *2875:X 0.00282498
4 *1023:16 0.00294338
5 *2812:A *3271:B 0.000353086
6 *2815:A *1023:16 0
7 *3271:A *3271:B 0.000265194
8 *6:98 *1023:16 9.59532e-06
9 *8:280 *1023:16 0
10 *19:104 *1023:16 0.000148118
11 *26:196 *3270:B 5.59013e-05
12 *26:196 *1023:16 0.000268599
13 *27:149 *3270:B 0
14 *27:149 *1023:16 0
15 *39:216 *1023:16 0
16 *964:6 *3271:B 5.33005e-05
*RES
1 *2875:X *1023:16 29.2442 
2 *1023:16 *3271:B 17.6393 
3 *1023:16 *3270:B 14.5321 
*END

*D_NET *1024 0.000375441
*CONN
*I *2881:A I *D sky130_fd_sc_hd__or2_1
*I *2876:X O *D sky130_fd_sc_hd__and2_1
*CAP
1 *2881:A 5.70226e-05
2 *2876:X 5.70226e-05
3 *2877:B *2881:A 5.52302e-05
4 *10:110 *2881:A 5.52302e-05
5 *15:227 *2881:A 5.01117e-05
6 *42:80 *2881:A 0.000100823
*RES
1 *2876:X *2881:A 29.475 
*END

*D_NET *1025 0.000140507
*CONN
*I *2881:B I *D sky130_fd_sc_hd__or2_1
*I *2877:X O *D sky130_fd_sc_hd__and2_1
*CAP
1 *2881:B 1.69531e-05
2 *2877:X 1.69531e-05
3 *2877:B *2881:B 5.33005e-05
4 *10:110 *2881:B 5.33005e-05
*RES
1 *2877:X *2881:B 19.1357 
*END

*D_NET *1026 0.000262446
*CONN
*I *2882:A I *D sky130_fd_sc_hd__or2_1
*I *2878:X O *D sky130_fd_sc_hd__and2_1
*CAP
1 *2882:A 5.9795e-05
2 *2878:X 5.9795e-05
3 *22:263 *2882:A 0.000142856
*RES
1 *2878:X *2882:A 19.9571 
*END

*D_NET *1027 0.00021169
*CONN
*I *2882:B I *D sky130_fd_sc_hd__or2_1
*I *2879:X O *D sky130_fd_sc_hd__and2_1
*CAP
1 *2882:B 5.33579e-05
2 *2879:X 5.33579e-05
3 *2882:B *1132:12 0
4 *2882:B *1382:14 0.000104974
*RES
1 *2879:X *2882:B 28.9393 
*END

*D_NET *1028 0.000356125
*CONN
*I *2514:B I *D sky130_fd_sc_hd__or2_1
*I *2480:X O *D sky130_fd_sc_hd__and2_1
*CAP
1 *2514:B 0.000111105
2 *2480:X 0.000111105
3 *5:209 *2514:B 1.58163e-05
4 *14:42 *2514:B 0.000100823
5 *17:11 *2514:B 0
6 *23:128 *2514:B 1.7276e-05
*RES
1 *2480:X *2514:B 29.475 
*END

*D_NET *1029 0.000841376
*CONN
*I *2984:A I *D sky130_fd_sc_hd__and2_1
*I *2983:A I *D sky130_fd_sc_hd__xor2_1
*I *2881:X O *D sky130_fd_sc_hd__or2_1
*CAP
1 *2984:A 0.000131418
2 *2983:A 2.73219e-05
3 *2881:X 0.00015874
4 *2983:A *2984:B 4.38128e-05
5 *2983:A *1085:12 9.90431e-05
6 *2984:A *2984:B 6.42338e-05
7 *2984:A *1086:6 9.90431e-05
8 *2876:A *2984:A 3.69697e-05
9 *2877:B *2983:A 5.33005e-05
10 *2878:B *2983:A 9.90431e-05
11 *22:252 *2984:A 2.84494e-05
*RES
1 *2881:X *2983:A 19.9571 
2 *2881:X *2984:A 30.1893 
*END

*D_NET *1030 0.00118732
*CONN
*I *3283:A I *D sky130_fd_sc_hd__xor2_1
*I *3284:A I *D sky130_fd_sc_hd__and2_1
*I *2882:X O *D sky130_fd_sc_hd__or2_1
*CAP
1 *3283:A 0
2 *3284:A 9.25845e-05
3 *2882:X 0.00011062
4 *1030:12 0.000203205
5 *3284:A *3283:B 0.00016178
6 *3284:A *1382:14 5.52302e-05
7 *1030:12 *1132:12 0.000148911
8 *1030:12 *1382:14 0
9 *2453:A *3284:A 3.23206e-05
10 *5:139 *3284:A 0.000271345
11 *5:145 *1030:12 5.41794e-05
12 *39:184 *1030:12 5.71472e-05
*RES
1 *2882:X *1030:12 20.7821 
2 *1030:12 *3284:A 12.8536 
3 *1030:12 *3283:A 9.3 
*END

*D_NET *1031 0.000461686
*CONN
*I *2887:A I *D sky130_fd_sc_hd__or2_1
*I *2883:X O *D sky130_fd_sc_hd__and2_1
*CAP
1 *2887:A 0.000176003
2 *2883:X 0.000176003
3 *2887:A *2887:B 5.71472e-05
4 *2772:B *2887:A 0
5 *2884:A *2887:A 0
6 *28:63 *2887:A 4.8843e-05
7 *28:84 *2887:A 3.69047e-06
*RES
1 *2883:X *2887:A 30.7071 
*END

*D_NET *1032 0.000104357
*CONN
*I *2887:B I *D sky130_fd_sc_hd__or2_1
*I *2884:X O *D sky130_fd_sc_hd__and2_1
*CAP
1 *2887:B 7.67105e-06
2 *2884:X 7.67105e-06
3 *2887:A *2887:B 5.71472e-05
4 *28:63 *2887:B 3.18676e-05
*RES
1 *2884:X *2887:B 19.1357 
*END

*D_NET *1033 0.000218873
*CONN
*I *2888:A I *D sky130_fd_sc_hd__or2_1
*I *2885:X O *D sky130_fd_sc_hd__and2_1
*CAP
1 *2888:A 6.34277e-05
2 *2885:X 6.34277e-05
3 *2888:A *2888:B 5.71472e-05
4 *38:101 *2888:A 3.48705e-05
*RES
1 *2885:X *2888:A 19.9571 
*END

*D_NET *1034 0.000467743
*CONN
*I *2888:B I *D sky130_fd_sc_hd__or2_1
*I *2886:X O *D sky130_fd_sc_hd__and2_1
*CAP
1 *2888:B 0.000147581
2 *2886:X 0.000147581
3 *2888:A *2888:B 5.71472e-05
4 *11:216 *2888:B 0
5 *38:101 *2888:B 0.000115433
*RES
1 *2886:X *2888:B 21.7429 
*END

*D_NET *1035 0.00151039
*CONN
*I *2996:B I *D sky130_fd_sc_hd__xor2_1
*I *2997:B I *D sky130_fd_sc_hd__and2_1
*I *2887:X O *D sky130_fd_sc_hd__or2_1
*CAP
1 *2996:B 8.74461e-05
2 *2997:B 0
3 *2887:X 0.000220448
4 *1035:12 0.000307894
5 *2996:B *2998:A 0
6 *2711:B *1035:12 0.0003335
7 *2997:A *2996:B 0.000186315
8 *21:138 *1035:12 0.00022217
9 *28:84 *1035:12 2.72859e-05
10 *35:220 *2996:B 8.55871e-05
11 *206:14 *1035:12 3.9745e-05
*RES
1 *2887:X *1035:12 23.6214 
2 *1035:12 *2997:B 9.3 
3 *1035:12 *2996:B 11.4964 
*END

*D_NET *1036 0.00260357
*CONN
*I *3296:B I *D sky130_fd_sc_hd__xor2_1
*I *3297:B I *D sky130_fd_sc_hd__and2_1
*I *2888:X O *D sky130_fd_sc_hd__or2_1
*CAP
1 *3296:B 0.00013031
2 *3297:B 2.10932e-05
3 *2888:X 0.000595859
4 *1036:12 0.000747262
5 *3296:B *3299:B1 0.000137983
6 *3296:B *1217:10 1.74352e-05
7 *1036:12 *3299:B1 0
8 *1036:12 *1384:10 0
9 *1036:12 *1434:12 0
10 *2826:B *1036:12 0
11 *2829:A *1036:12 0.000150618
12 *3296:A *3296:B 0.000102912
13 *3297:A *3296:B 1.98839e-05
14 *3297:A *3297:B 5.52238e-05
15 *11:216 *1036:12 0.00047357
16 *11:218 *1036:12 1.24368e-05
17 *36:240 *1036:12 0
18 *38:101 *1036:12 1.32552e-05
19 *977:10 *1036:12 0.000125724
*RES
1 *2888:X *1036:12 30.1929 
2 *1036:12 *3297:B 9.83571 
3 *1036:12 *3296:B 12.6393 
*END

*D_NET *1037 0.000286898
*CONN
*I *2894:A I *D sky130_fd_sc_hd__or2_1
*I *2889:X O *D sky130_fd_sc_hd__and2_1
*CAP
1 *2894:A 1.80572e-05
2 *2889:X 1.80572e-05
3 *2894:A *2894:B 5.71472e-05
4 *26:264 *2894:A 0.000144773
5 *36:273 *2894:A 4.88637e-05
*RES
1 *2889:X *2894:A 19.9571 
*END

*D_NET *1038 0.00070539
*CONN
*I *2894:B I *D sky130_fd_sc_hd__or2_1
*I *2890:X O *D sky130_fd_sc_hd__and2_1
*CAP
1 *2894:B 9.18634e-05
2 *2890:X 9.18634e-05
3 *2822:B *2894:B 5.52302e-05
4 *2894:A *2894:B 5.71472e-05
5 *12:255 *2894:B 3.63775e-05
6 *26:264 *2894:B 0.000244529
7 *36:273 *2894:B 0.000128379
*RES
1 *2890:X *2894:B 22.1536 
*END

*D_NET *1039 0.000232352
*CONN
*I *2525:A I *D sky130_fd_sc_hd__or2_1
*I *2492:X O *D sky130_fd_sc_hd__and2_1
*CAP
1 *2525:A 3.68629e-05
2 *2492:X 3.68629e-05
3 *2525:A *1978:A 7.48091e-05
4 *2525:A *1072:6 6.05161e-06
5 *14:196 *2525:A 7.77652e-05
*RES
1 *2492:X *2525:A 19.9571 
*END

*D_NET *1040 0.000292486
*CONN
*I *2895:A I *D sky130_fd_sc_hd__or2_1
*I *2892:X O *D sky130_fd_sc_hd__and2_1
*CAP
1 *2895:A 9.19339e-05
2 *2892:X 9.19339e-05
3 *2895:A *2895:B 0
4 *2895:A *1217:10 5.52302e-05
5 *2895:A *1434:12 5.33882e-05
*RES
1 *2892:X *2895:A 29.475 
*END

*D_NET *1041 0.000513581
*CONN
*I *2895:B I *D sky130_fd_sc_hd__or2_1
*I *2893:X O *D sky130_fd_sc_hd__and2_1
*CAP
1 *2895:B 0.000163456
2 *2893:X 0.000163456
3 *2895:B *1217:10 0.000186669
4 *2895:B *1221:10 0
5 *2895:A *2895:B 0
*RES
1 *2893:X *2895:B 30.7071 
*END

*D_NET *1042 0.00093066
*CONN
*I *3077:A I *D sky130_fd_sc_hd__and2_1
*I *3076:A I *D sky130_fd_sc_hd__xor2_1
*I *2894:X O *D sky130_fd_sc_hd__or2_1
*CAP
1 *3077:A 0.000138827
2 *3076:A 0
3 *2894:X 0.000102647
4 *1042:12 0.000241473
5 *3077:A *3077:B 0.00013586
6 *3077:A *3079:B1 3.18676e-05
7 *1042:12 *3076:B 5.52238e-05
8 *1042:12 *3077:B 9.90367e-05
9 *1042:12 *1142:10 0.000125724
10 *138:14 *1042:12 0
*RES
1 *2894:X *1042:12 20.8893 
2 *1042:12 *3076:A 9.3 
3 *1042:12 *3077:A 12.7286 
*END

*D_NET *1043 0.00143588
*CONN
*I *3376:A I *D sky130_fd_sc_hd__and2_1
*I *3375:A I *D sky130_fd_sc_hd__xor2_1
*I *2895:X O *D sky130_fd_sc_hd__or2_1
*CAP
1 *3376:A 0
2 *3375:A 0.000167008
3 *2895:X 0.000261365
4 *1043:12 0.000428374
5 *3375:A *3375:B 0.000197092
6 *3375:A *1293:6 2.9561e-05
7 *1043:12 *3144:A 0
8 *1043:12 *1217:10 3.4879e-05
9 *1043:12 *1221:10 0
10 *1043:12 *1434:12 0.000317602
*RES
1 *2895:X *1043:12 23.3179 
2 *1043:12 *3375:A 12.7464 
3 *1043:12 *3376:A 9.3 
*END

*D_NET *1044 0.000238782
*CONN
*I *2900:A I *D sky130_fd_sc_hd__or2_1
*I *2896:X O *D sky130_fd_sc_hd__and2_1
*CAP
1 *2900:A 6.78685e-05
2 *2896:X 6.78685e-05
3 *2900:A *2900:B 5.71472e-05
4 *2896:A *2900:A 4.58976e-05
*RES
1 *2896:X *2900:A 19.9571 
*END

*D_NET *1045 0.000541393
*CONN
*I *2900:B I *D sky130_fd_sc_hd__or2_1
*I *2897:X O *D sky130_fd_sc_hd__and2_1
*CAP
1 *2900:B 0.000162776
2 *2897:X 0.000162776
3 *2896:A *2900:B 0.000158695
4 *2900:A *2900:B 5.71472e-05
*RES
1 *2897:X *2900:B 21.7429 
*END

*D_NET *1046 0.000290304
*CONN
*I *2901:A I *D sky130_fd_sc_hd__or2_1
*I *2898:X O *D sky130_fd_sc_hd__and2_1
*CAP
1 *2901:A 2.07217e-05
2 *2898:X 2.07217e-05
3 *2901:A *2901:B 5.71472e-05
4 *10:145 *2901:A 0.00014285
5 *22:61 *2901:A 4.88637e-05
*RES
1 *2898:X *2901:A 19.9571 
*END

*D_NET *1047 0.00061748
*CONN
*I *2901:B I *D sky130_fd_sc_hd__or2_1
*I *2899:X O *D sky130_fd_sc_hd__and2_1
*CAP
1 *2901:B 0.00021167
2 *2899:X 0.00021167
3 *2901:B *1151:12 0
4 *2901:A *2901:B 5.71472e-05
5 *22:61 *2901:B 5.71472e-05
6 *37:27 *2901:B 1.76135e-05
7 *275:12 *2901:B 6.22321e-05
*RES
1 *2899:X *2901:B 31.225 
*END

*D_NET *1048 0.00104601
*CONN
*I *3087:B I *D sky130_fd_sc_hd__xor2_1
*I *3088:A2 I *D sky130_fd_sc_hd__a21o_1
*I *2900:X O *D sky130_fd_sc_hd__or2_1
*CAP
1 *3087:B 0.000120368
2 *3088:A2 6.17285e-05
3 *2900:X 0.0001663
4 *1048:8 0.000348397
5 *3087:B *3088:A1 5.26184e-05
6 *3087:B *3088:B1 0
7 *3087:B *1234:14 2.89016e-05
8 *1048:8 *3088:B1 0
9 *2838:B *1048:8 6.74911e-05
10 *516:12 *3087:B 7.04631e-05
11 *516:12 *1048:8 0.000129746
12 *930:10 *1048:8 0
13 *989:8 *1048:8 0
*RES
1 *2900:X *1048:8 18.175 
2 *1048:8 *3088:A2 14.7464 
3 *1048:8 *3087:B 16.8893 
*END

*D_NET *1049 0.000831007
*CONN
*I *1957:B I *D sky130_fd_sc_hd__xor2_1
*I *1958:A2 I *D sky130_fd_sc_hd__a21o_1
*I *2901:X O *D sky130_fd_sc_hd__or2_1
*CAP
1 *1957:B 2.33224e-05
2 *1958:A2 0.000244447
3 *2901:X 0.00026777
4 *1958:A2 *1151:12 0
5 *1955:B *1958:A2 0
6 *1958:B1 *1958:A2 2.83284e-06
7 *22:61 *1957:B 5.17614e-05
8 *39:76 *1957:B 9.80173e-05
9 *39:76 *1958:A2 0.000142856
10 *275:12 *1958:A2 0
*RES
1 *2901:X *1958:A2 30.9036 
2 *2901:X *1957:B 19.5464 
*END

*D_NET *1050 0.000226376
*CONN
*I *2525:B I *D sky130_fd_sc_hd__or2_1
*I *2503:X O *D sky130_fd_sc_hd__and2_1
*CAP
1 *2525:B 6.19155e-05
2 *2503:X 6.19155e-05
3 *3:35 *2525:B 0.000102545
4 *18:15 *2525:B 0
*RES
1 *2503:X *2525:B 28.9393 
*END

*D_NET *1051 0.000448705
*CONN
*I *2907:A I *D sky130_fd_sc_hd__or2_1
*I *2903:X O *D sky130_fd_sc_hd__and2_1
*CAP
1 *2907:A 9.32996e-05
2 *2903:X 9.32996e-05
3 *2907:A *1242:14 0.00015234
4 *2907:A *1306:14 5.26184e-05
5 *27:29 *2907:A 5.71472e-05
*RES
1 *2903:X *2907:A 30.0821 
*END

*D_NET *1052 0.000634742
*CONN
*I *2907:B I *D sky130_fd_sc_hd__or2_1
*I *2904:X O *D sky130_fd_sc_hd__and2_1
*CAP
1 *2907:B 0.000118702
2 *2904:X 0.000118702
3 *2907:B *1242:14 0.000150625
4 *27:29 *2907:B 9.60875e-05
5 *516:12 *2907:B 0.000150625
*RES
1 *2904:X *2907:B 30.4929 
*END

*D_NET *1053 0.000498997
*CONN
*I *2908:A I *D sky130_fd_sc_hd__or2_1
*I *2905:X O *D sky130_fd_sc_hd__and2_1
*CAP
1 *2908:A 8.11431e-05
2 *2905:X 8.11431e-05
3 *8:158 *2908:A 0.000154762
4 *12:124 *2908:A 2.89016e-05
5 *279:8 *2908:A 0.000153047
*RES
1 *2905:X *2908:A 30.0821 
*END

*D_NET *1054 0.000593682
*CONN
*I *2908:B I *D sky130_fd_sc_hd__or2_1
*I *2906:X O *D sky130_fd_sc_hd__and2_1
*CAP
1 *2908:B 0.000119396
2 *2906:X 0.000119396
3 *8:158 *2908:B 0.000153047
4 *9:60 *2908:B 0.000153047
5 *12:124 *2908:B 4.87953e-05
*RES
1 *2906:X *2908:B 30.4929 
*END

*D_NET *1055 0.000832966
*CONN
*I *3099:B I *D sky130_fd_sc_hd__and2_1
*I *3098:B I *D sky130_fd_sc_hd__xor2_1
*I *2907:X O *D sky130_fd_sc_hd__or2_1
*CAP
1 *3099:B 0.000177111
2 *3098:B 0
3 *2907:X 4.61053e-05
4 *1055:6 0.000223216
5 *3099:B *1244:10 2.38651e-06
6 *3098:A *3099:B 0.000196785
7 *20:194 *3099:B 0
8 *37:17 *3099:B 8.17274e-05
9 *37:17 *1055:6 9.60875e-05
10 *996:10 *3099:B 9.54798e-06
*RES
1 *2907:X *1055:6 10.2464 
2 *1055:6 *3098:B 9.3 
3 *1055:6 *3099:B 21.8 
*END

*D_NET *1056 0.000918046
*CONN
*I *1968:B I *D sky130_fd_sc_hd__xor2_1
*I *1969:B I *D sky130_fd_sc_hd__and2_1
*I *2908:X O *D sky130_fd_sc_hd__or2_1
*CAP
1 *1968:B 0
2 *1969:B 8.13103e-05
3 *2908:X 0.000128859
4 *1056:6 0.000210169
5 *1968:A *1056:6 1.98839e-05
6 *1969:A *1969:B 0.000177941
7 *2846:B *1969:B 7.57869e-05
8 *2912:B *1969:B 3.17163e-05
9 *12:124 *1969:B 1.3142e-05
10 *38:307 *1969:B 5.71472e-05
11 *997:6 *1056:6 0.000122091
*RES
1 *2908:X *1056:6 11.8893 
2 *1056:6 *1969:B 21.3893 
3 *1056:6 *1968:B 9.3 
*END

*D_NET *1057 0.000335048
*CONN
*I *2914:A I *D sky130_fd_sc_hd__or2_1
*I *2909:X O *D sky130_fd_sc_hd__and2_1
*CAP
1 *2914:A 4.47798e-05
2 *2909:X 4.47798e-05
3 *2914:A *2914:B 5.33005e-05
4 *2910:A *2914:A 0.000136958
5 *10:133 *2914:A 5.52302e-05
*RES
1 *2909:X *2914:A 19.9571 
*END

*D_NET *1058 0.000474924
*CONN
*I *2914:B I *D sky130_fd_sc_hd__or2_1
*I *2910:X O *D sky130_fd_sc_hd__and2_1
*CAP
1 *2914:B 0.000156544
2 *2910:X 0.000156544
3 *2910:A *2914:B 0.000108535
4 *2914:A *2914:B 5.33005e-05
*RES
1 *2910:X *2914:B 21.1893 
*END

*D_NET *1059 0.00021978
*CONN
*I *2915:A I *D sky130_fd_sc_hd__or2_1
*I *2911:X O *D sky130_fd_sc_hd__and2_1
*CAP
1 *2915:A 3.95494e-05
2 *2911:X 3.95494e-05
3 *22:207 *2915:A 0.000104974
4 *29:108 *2915:A 3.5707e-05
*RES
1 *2911:X *2915:A 28.9393 
*END

*D_NET *1060 9.07525e-05
*CONN
*I *2915:B I *D sky130_fd_sc_hd__or2_1
*I *2912:X O *D sky130_fd_sc_hd__and2_1
*CAP
1 *2915:B 3.09205e-05
2 *2912:X 3.09205e-05
3 *212:6 *2915:B 2.89114e-05
*RES
1 *2912:X *2915:B 19.1357 
*END

*D_NET *1061 0.00158249
*CONN
*I *3108:A I *D sky130_fd_sc_hd__and2_1
*I *3107:A I *D sky130_fd_sc_hd__xor2_1
*I *2514:X O *D sky130_fd_sc_hd__or2_1
*CAP
1 *3108:A 2.44212e-05
2 *3107:A 0
3 *2514:X 0.000432424
4 *1061:14 0.000456846
5 *3108:A *1321:18 2.44318e-05
6 *1061:14 *1321:18 2.89114e-05
7 *3069:B *1061:14 4.72818e-05
8 *3080:A *1061:14 6.74911e-05
9 *3107:B *3108:A 5.52238e-05
10 *3108:B *3108:A 4.27935e-05
11 *3113:A *1061:14 9.90431e-05
12 *5:209 *3108:A 0.000128496
13 *5:209 *1061:14 5.52302e-05
14 *35:9 *1061:14 7.95668e-05
15 *263:10 *1061:14 4.03318e-05
*RES
1 *2514:X *1061:14 25.1214 
2 *1061:14 *3107:A 9.3 
3 *1061:14 *3108:A 10.6571 
*END

*D_NET *1062 0.0012541
*CONN
*I *3159:A I *D sky130_fd_sc_hd__xor2_1
*I *3160:A I *D sky130_fd_sc_hd__and2_1
*I *2914:X O *D sky130_fd_sc_hd__or2_1
*CAP
1 *3159:A 0
2 *3160:A 9.87545e-05
3 *2914:X 7.13361e-05
4 *1062:6 0.000170091
5 *3160:A *3160:B 5.33005e-05
6 *3160:A *1242:14 0.000195412
7 *1062:6 *3159:B 5.33005e-05
8 *2910:A *1062:6 9.60875e-05
9 *10:133 *1062:6 0.000264428
10 *21:114 *1062:6 5.81579e-05
11 *516:22 *3160:A 0.000193234
*RES
1 *2914:X *1062:6 11.8893 
2 *1062:6 *3160:A 21.3893 
3 *1062:6 *3159:A 9.3 
*END

*D_NET *1063 0.00108797
*CONN
*I *2029:A I *D sky130_fd_sc_hd__and2_1
*I *2028:A I *D sky130_fd_sc_hd__xor2_1
*I *2915:X O *D sky130_fd_sc_hd__or2_1
*CAP
1 *2029:A 5.5989e-05
2 *2028:A 3.86287e-05
3 *2915:X 0.000100489
4 *1063:10 0.000195107
5 *2028:B *2028:A 9.71197e-05
6 *2028:B *2029:A 0.000170124
7 *2028:B *1063:10 3.17148e-05
8 *2031:B1 *1063:10 6.07232e-05
9 *22:207 *2029:A 8.79776e-05
10 *22:207 *1063:10 7.8327e-05
11 *211:12 *2028:A 0.000139907
12 *212:6 *1063:10 3.18676e-05
*RES
1 *2915:X *1063:10 16.2821 
2 *1063:10 *2028:A 15.1571 
3 *1063:10 *2029:A 16.05 
*END

*D_NET *1064 0.000314779
*CONN
*I *2920:A I *D sky130_fd_sc_hd__or2_1
*I *2916:X O *D sky130_fd_sc_hd__and2_1
*CAP
1 *2920:A 8.84455e-05
2 *2916:X 8.84455e-05
3 *2920:A *2920:B 5.52302e-05
4 *20:38 *2920:A 5.52302e-05
5 *521:12 *2920:A 2.74273e-05
*RES
1 *2916:X *2920:A 29.475 
*END

*D_NET *1065 0.000701668
*CONN
*I *2920:B I *D sky130_fd_sc_hd__or2_1
*I *2917:X O *D sky130_fd_sc_hd__and2_1
*CAP
1 *2920:B 0.000205116
2 *2917:X 0.000205116
3 *2920:B *1068:8 5.5033e-05
4 *2846:A *2920:B 9.78745e-05
5 *2920:A *2920:B 5.52302e-05
6 *12:113 *2920:B 0
7 *20:38 *2920:B 2.2351e-05
8 *521:12 *2920:B 6.09476e-05
*RES
1 *2917:X *2920:B 31.5643 
*END

*D_NET *1066 0.000559034
*CONN
*I *2921:A I *D sky130_fd_sc_hd__or2_1
*I *2918:X O *D sky130_fd_sc_hd__and2_1
*CAP
1 *2921:A 0.000128886
2 *2918:X 0.000128886
3 *2798:A *2921:A 0.000150625
4 *2918:A *2921:A 5.26184e-05
5 *9:78 *2921:A 9.80173e-05
*RES
1 *2918:X *2921:A 30.4929 
*END

*D_NET *1067 0.000112239
*CONN
*I *2921:B I *D sky130_fd_sc_hd__or2_1
*I *2919:X O *D sky130_fd_sc_hd__and2_1
*CAP
1 *2921:B 1.40568e-05
2 *2919:X 1.40568e-05
3 *2793:A *2921:B 2.89016e-05
4 *2919:A *2921:B 5.52238e-05
*RES
1 *2919:X *2921:B 19.1357 
*END

*D_NET *1068 0.0011052
*CONN
*I *3165:B I *D sky130_fd_sc_hd__xor2_1
*I *3166:A2 I *D sky130_fd_sc_hd__a21o_1
*I *2920:X O *D sky130_fd_sc_hd__or2_1
*CAP
1 *3165:B 0
2 *3166:A2 0.000168819
3 *2920:X 7.93393e-05
4 *1068:8 0.000248158
5 *3166:A2 *3165:A 0.000180679
6 *2920:B *1068:8 5.5033e-05
7 *12:113 *3166:A2 4.4873e-05
8 *12:113 *1068:8 0.000269801
9 *20:38 *3166:A2 1.59373e-05
10 *20:38 *1068:8 4.25623e-05
11 *22:127 *3166:A2 0
*RES
1 *2920:X *1068:8 12.3179 
2 *1068:8 *3166:A2 21.8 
3 *1068:8 *3165:B 9.3 
*END

*D_NET *1069 0.000915224
*CONN
*I *2034:B I *D sky130_fd_sc_hd__xor2_1
*I *2035:A2 I *D sky130_fd_sc_hd__a21o_1
*I *2921:X O *D sky130_fd_sc_hd__or2_1
*CAP
1 *2034:B 7.68647e-05
2 *2035:A2 1.67089e-05
3 *2921:X 3.66848e-05
4 *1069:6 0.000130258
5 *2793:A *2034:B 0.000195562
6 *2793:A *2035:A2 2.89114e-05
7 *2793:A *1069:6 9.31893e-05
8 *2919:A *2035:A2 5.33005e-05
9 *2919:A *1069:6 0.000183726
10 *9:78 *2034:B 0.000100018
*RES
1 *2921:X *1069:6 11.0679 
2 *1069:6 *2035:A2 9.83571 
3 *1069:6 *2034:B 20.8536 
*END

*D_NET *1070 0.00027122
*CONN
*I *2927:A I *D sky130_fd_sc_hd__or2_1
*I *2922:X O *D sky130_fd_sc_hd__and2_1
*CAP
1 *2927:A 2.51268e-05
2 *2922:X 2.51268e-05
3 *2922:B *2927:A 0.000144773
4 *11:53 *2927:A 7.61932e-05
*RES
1 *2922:X *2927:A 19.9571 
*END

*D_NET *1071 0.000388487
*CONN
*I *2927:B I *D sky130_fd_sc_hd__or2_1
*I *2923:X O *D sky130_fd_sc_hd__and2_1
*CAP
1 *2927:B 0.000117356
2 *2923:X 0.000117356
3 *2863:B *2927:B 4.94338e-05
4 *2923:B *2927:B 5.71472e-05
5 *32:38 *2927:B 4.71941e-05
*RES
1 *2923:X *2927:B 30.0821 
*END

*D_NET *1072 0.00124046
*CONN
*I *1978:A I *D sky130_fd_sc_hd__and2_1
*I *1977:A I *D sky130_fd_sc_hd__xor2_1
*I *2525:X O *D sky130_fd_sc_hd__or2_1
*CAP
1 *1978:A 0.000222449
2 *1977:A 0.000125642
3 *2525:X 2.31592e-05
4 *1072:6 0.00037125
5 *2492:A *1978:A 1.04232e-05
6 *2525:A *1978:A 7.48091e-05
7 *2525:A *1072:6 6.05161e-06
8 *3:35 *1977:A 5.86879e-05
9 *13:30 *1978:A 0.000169359
10 *13:30 *1072:6 9.90367e-05
11 *13:99 *1978:A 3.75454e-05
12 *13:116 *1978:A 1.15281e-05
13 *14:196 *1978:A 5.74499e-06
14 *14:196 *1072:6 2.47724e-05
15 *18:15 *1977:A 0
16 *158:10 *1977:A 0
17 *274:12 *1977:A 0
*RES
1 *2525:X *1072:6 10.2464 
2 *1072:6 *1977:A 20.55 
3 *1072:6 *1978:A 13.9964 
*END

*D_NET *1073 0.000172318
*CONN
*I *2928:A I *D sky130_fd_sc_hd__or2_1
*I *2925:X O *D sky130_fd_sc_hd__and2_1
*CAP
1 *2928:A 5.83118e-05
2 *2925:X 5.83118e-05
3 *12:40 *2928:A 0
4 *536:8 *2928:A 5.56943e-05
*RES
1 *2925:X *2928:A 28.9393 
*END

*D_NET *1074 6.94209e-05
*CONN
*I *2928:B I *D sky130_fd_sc_hd__or2_1
*I *2926:X O *D sky130_fd_sc_hd__and2_1
*CAP
1 *2928:B 3.47105e-05
2 *2926:X 3.47105e-05
*RES
1 *2926:X *2928:B 19.1357 
*END

*D_NET *1075 0.0016197
*CONN
*I *3232:B I *D sky130_fd_sc_hd__and2_1
*I *3231:B I *D sky130_fd_sc_hd__xor2_1
*I *2927:X O *D sky130_fd_sc_hd__or2_1
*CAP
1 *3232:B 0.000187508
2 *3231:B 0
3 *2927:X 0.000163079
4 *1075:14 0.000350587
5 *1075:14 *3234:B1 0.000135028
6 *1075:14 *1379:12 8.00806e-05
7 *2867:A *1075:14 1.81805e-05
8 *3231:A *3232:B 9.55745e-05
9 *3231:A *1075:14 0.000104587
10 *3232:A *3232:B 5.33334e-05
11 *32:23 *1075:14 0.000144038
12 *32:38 *1075:14 0.000151333
13 *41:40 *1075:14 3.55407e-05
14 *1015:12 *1075:14 0.000100831
*RES
1 *2927:X *1075:14 23.8536 
2 *1075:14 *3231:B 9.3 
3 *1075:14 *3232:B 13.05 
*END

*D_NET *1076 0.0014288
*CONN
*I *2102:B I *D sky130_fd_sc_hd__and2_1
*I *2101:B I *D sky130_fd_sc_hd__xor2_1
*I *2928:X O *D sky130_fd_sc_hd__or2_1
*CAP
1 *2102:B 0.000225687
2 *2101:B 0
3 *2928:X 0.000164347
4 *1076:6 0.000390034
5 *2101:A *2102:B 0.000368379
6 *2102:A *2102:B 5.37741e-06
7 *2104:B1 *2102:B 9.8045e-05
8 *2860:B *2102:B 5.52238e-05
9 *11:72 *2102:B 6.64804e-05
10 *281:8 *2102:B 5.52302e-05
11 *541:18 *2102:B 0
*RES
1 *2928:X *1076:6 11.8893 
2 *1076:6 *2101:B 9.3 
3 *1076:6 *2102:B 24.1036 
*END

*D_NET *1077 0.000311175
*CONN
*I *2933:A I *D sky130_fd_sc_hd__or2_1
*I *2929:X O *D sky130_fd_sc_hd__and2_1
*CAP
1 *2933:A 7.991e-05
2 *2929:X 7.991e-05
3 *2933:A *2933:B 0.000151355
4 zN[0] *2933:A 0
*RES
1 *2929:X *2933:A 29.5464 
*END

*D_NET *1078 0.000390016
*CONN
*I *2933:B I *D sky130_fd_sc_hd__or2_1
*I *2930:X O *D sky130_fd_sc_hd__and2_1
*CAP
1 *2933:B 9.4588e-05
2 *2930:X 9.4588e-05
3 *2933:A *2933:B 0.000151355
4 *32:44 *2933:B 4.94851e-05
*RES
1 *2930:X *2933:B 30.0821 
*END

*D_NET *1079 0.000361679
*CONN
*I *2934:A I *D sky130_fd_sc_hd__or2_1
*I *2931:X O *D sky130_fd_sc_hd__and2_1
*CAP
1 *2934:A 2.99836e-05
2 *2931:X 2.99836e-05
3 *2934:A *2934:B 9.90431e-05
4 *2931:A *2934:A 5.52302e-05
5 *32:52 *2934:A 7.41433e-05
6 *42:157 *2934:A 7.32955e-05
*RES
1 *2931:X *2934:A 20.3679 
*END

*D_NET *1080 0.000692258
*CONN
*I *2934:B I *D sky130_fd_sc_hd__or2_1
*I *2932:X O *D sky130_fd_sc_hd__and2_1
*CAP
1 *2934:B 4.57574e-05
2 *2932:X 4.57574e-05
3 *2931:A *2934:B 3.9846e-05
4 *2931:B *2934:B 0.000144773
5 *2934:A *2934:B 9.90431e-05
6 *32:52 *2934:B 0.000317082
*RES
1 *2932:X *2934:B 21.6 
*END

*D_NET *1081 0.000810061
*CONN
*I *2408:A I *D sky130_fd_sc_hd__xor2_1
*I *2409:A I *D sky130_fd_sc_hd__and2_1
*I *2933:X O *D sky130_fd_sc_hd__or2_1
*CAP
1 *2408:A 0.000164875
2 *2409:A 0
3 *2933:X 0.000170147
4 *1081:12 0.000335021
5 *2408:A *2409:B 0.000140018
6 *1081:12 *1379:12 0
7 zN[0] *1081:12 0
*RES
1 *2933:X *1081:12 20.4786 
2 *1081:12 *2409:A 9.3 
3 *1081:12 *2408:A 12.7464 
*END

*D_NET *1082 0.00240043
*CONN
*I *2412:A I *D sky130_fd_sc_hd__xor2_1
*I *2413:A I *D sky130_fd_sc_hd__and2_1
*I *2934:X O *D sky130_fd_sc_hd__or2_1
*CAP
1 *2412:A 0
2 *2413:A 9.01958e-05
3 *2934:X 0.000511082
4 *1082:14 0.000601277
5 *2413:B *2413:A 0.000228757
6 *2413:B *1082:14 4.33899e-05
7 *32:52 *1082:14 0.000228508
8 *284:14 *1082:14 0.000697221
9 *548:10 *1082:14 0
*RES
1 *2934:X *1082:14 29.1571 
2 *1082:14 *2413:A 11.4786 
3 *1082:14 *2412:A 9.3 
*END

*D_NET *1083 0.000199192
*CONN
*I *2580:A I *D sky130_fd_sc_hd__or2_1
*I *2536:X O *D sky130_fd_sc_hd__and2_1
*CAP
1 *2580:A 5.71535e-05
2 *2536:X 5.71535e-05
3 *2580:A *2580:B 5.01117e-05
4 *4:149 *2580:A 3.47737e-05
*RES
1 *2536:X *2580:A 28.9393 
*END

*D_NET *1084 0.00267288
*CONN
*I *3050:A I *D sky130_fd_sc_hd__xor2_1
*I *3051:A I *D sky130_fd_sc_hd__and2_1
*I *2937:X O *D sky130_fd_sc_hd__xor2_1
*CAP
1 *3050:A 0.000172593
2 *3051:A 0
3 *2937:X 0.000756148
4 *1084:14 0.000928741
5 *3050:A *3050:B 0.000238981
6 *1084:14 *3236:A 2.9561e-05
7 *1084:14 *3350:A 1.38323e-05
8 *1084:14 *3350:B 9.71197e-05
9 *1084:14 *1381:8 0.000102197
10 *1084:14 *1397:16 1.52978e-05
11 *2160:B *1084:14 3.4879e-05
12 *3237:B *1084:14 9.7659e-05
13 *23:304 *1084:14 7.08001e-05
14 *39:216 *1084:14 0.000115072
*RES
1 *2937:X *1084:14 32.0857 
2 *1084:14 *3051:A 9.3 
3 *1084:14 *3050:A 13.1571 
*END

*D_NET *1085 0.00238388
*CONN
*I *2984:B I *D sky130_fd_sc_hd__and2_1
*I *2983:B I *D sky130_fd_sc_hd__xor2_1
*I *2938:X O *D sky130_fd_sc_hd__and2_1
*CAP
1 *2984:B 0.00012396
2 *2983:B 0
3 *2938:X 0.000311406
4 *1085:12 0.000435366
5 *2984:B *2986:A2 3.17148e-05
6 *2984:B *2986:B1 4.8936e-05
7 *2984:B *1086:6 9.90367e-05
8 *1085:12 *1086:6 0.000309266
9 *2877:B *1085:12 0.000195629
10 *2878:B *2984:B 2.44318e-05
11 *2983:A *2984:B 4.38128e-05
12 *2983:A *1085:12 9.90431e-05
13 *2984:A *2984:B 6.42338e-05
14 *22:252 *2984:B 0
15 *31:207 *2984:B 2.8266e-06
16 *34:89 *1085:12 0.000117073
17 *38:313 *1085:12 0
18 *42:80 *1085:12 0.000428217
19 *42:84 *1085:12 4.89264e-05
20 *578:8 *2984:B 0
*RES
1 *2938:X *1085:12 28.1036 
2 *1085:12 *2983:B 9.3 
3 *1085:12 *2984:B 21.8 
*END

*D_NET *1086 0.0020825
*CONN
*I *2985:B I *D sky130_fd_sc_hd__xor2_1
*I *2986:A2 I *D sky130_fd_sc_hd__a21o_1
*I *2939:X O *D sky130_fd_sc_hd__xor2_1
*CAP
1 *2985:B 0.000129413
2 *2986:A2 0.00012153
3 *2939:X 0.000306381
4 *1086:6 0.000557325
5 *2985:B *2985:A 5.61433e-05
6 *2986:A2 *2986:B1 0.000215053
7 *2877:B *1086:6 4.72818e-05
8 *2878:B *2985:B 2.05612e-05
9 *2878:B *1086:6 1.39726e-05
10 *2984:A *1086:6 9.90431e-05
11 *2984:B *2986:A2 3.17148e-05
12 *2984:B *1086:6 9.90367e-05
13 *10:110 *1086:6 2.24763e-05
14 *12:157 *1086:6 5.33005e-05
15 *24:291 *2986:A2 0
16 *1085:12 *1086:6 0.000309266
*RES
1 *2939:X *1086:6 15.5857 
2 *1086:6 *2986:A2 21.1571 
3 *1086:6 *2985:B 11.4964 
*END

*D_NET *1087 0.0065844
*CONN
*I *2998:B I *D sky130_fd_sc_hd__xor2_1
*I *2999:A2 I *D sky130_fd_sc_hd__a21o_1
*I *2940:X O *D sky130_fd_sc_hd__and2_1
*CAP
1 *2998:B 0.000165221
2 *2999:A2 0
3 *2940:X 0.00126871
4 *1087:12 0.00143393
5 *2998:B *2998:A 0.00010096
6 *2998:B *2999:A1 0.000187733
7 *2998:B *1448:16 0
8 *1087:12 *2999:A1 1.02504e-05
9 *1087:12 *3304:B1 0
10 *1087:12 *1448:16 0
11 *1087:12 *1453:12 0
12 *2532:B *1087:12 0.000173804
13 *2535:A *1087:12 0.000102545
14 *2655:A *1087:12 0.000287135
15 *2662:A *1087:12 0.000100823
16 *2720:A *1087:12 0
17 *2720:B *1087:12 0.000478807
18 *2722:B *1087:12 3.47737e-05
19 *2828:A *1087:12 0
20 *8:131 *1087:12 0
21 *18:44 *1087:12 0
22 *29:198 *1087:12 0
23 *30:79 *1087:12 0
24 *30:83 *1087:12 0.000769594
25 *30:89 *1087:12 0.000903566
26 *35:220 *2998:B 8.1579e-05
27 *38:313 *1087:12 0
28 *40:198 *1087:12 0.000301778
29 *812:12 *1087:12 0.000125724
30 *871:12 *1087:12 0
31 *976:12 *1087:12 5.74562e-05
*RES
1 *2940:X *1087:12 47.675 
2 *1087:12 *2999:A2 13.8 
3 *1087:12 *2998:B 17.8357 
*END

*D_NET *1088 0.00190297
*CONN
*I *3118:A I *D sky130_fd_sc_hd__xor2_1
*I *3119:A I *D sky130_fd_sc_hd__and2_1
*I *2941:X O *D sky130_fd_sc_hd__xor2_1
*CAP
1 *3118:A 0
2 *3119:A 4.63288e-05
3 *2941:X 0.000423915
4 *1088:10 0.000470244
5 *3119:A *3118:B 0.000153054
6 *3119:A *1163:12 1.3142e-05
7 *1088:10 *3118:B 2.48938e-05
8 *1088:10 *1089:18 0.000230475
9 *5:252 *1088:10 4.97121e-06
10 *15:47 *3119:A 0.000177234
11 *15:47 *1088:10 0.000179656
12 *37:135 *1088:10 0.000147336
13 *37:143 *1088:10 3.17163e-05
*RES
1 *2941:X *1088:10 22.7821 
2 *1088:10 *3119:A 16.05 
3 *1088:10 *3118:A 13.8 
*END

*D_NET *1089 0.00628774
*CONN
*I *3036:A I *D sky130_fd_sc_hd__xor2_1
*I *3037:A I *D sky130_fd_sc_hd__and2_1
*I *2942:X O *D sky130_fd_sc_hd__and2_1
*CAP
1 *3036:A 7.3389e-05
2 *3037:A 0
3 *2942:X 0.00164604
4 *1089:18 0.00171943
5 *3036:A *3036:B 0.000317113
6 *3036:A *3037:B 0.00010096
7 *3036:A *3039:A1 0
8 *3036:A *3039:B1 8.07313e-05
9 *1089:18 *1991:A2 8.30753e-05
10 *1089:18 *2941:A 0.000148769
11 *1089:18 *3036:B 5.52302e-05
12 *1089:18 *3037:B 5.52302e-05
13 *1991:A1 *1089:18 2.65105e-05
14 *2496:B *1089:18 5.33005e-05
15 *2672:A *1089:18 8.65736e-05
16 *2672:B *1089:18 1.04232e-05
17 *23:189 *1089:18 0.000245499
18 *23:202 *1089:18 6.71755e-05
19 *27:172 *1089:18 0.000642466
20 *27:178 *1089:18 5.52302e-05
21 *172:26 *1089:18 0.000590129
22 *1088:10 *1089:18 0.000230475
*RES
1 *2942:X *1089:18 42.1929 
2 *1089:18 *3037:A 9.3 
3 *1089:18 *3036:A 12.7286 
*END

*D_NET *1090 0.00127391
*CONN
*I *2945:A I *D sky130_fd_sc_hd__xor2_1
*I *2946:A1 I *D sky130_fd_sc_hd__a21o_1
*I *2943:X O *D sky130_fd_sc_hd__xor2_1
*CAP
1 *2945:A 9.6691e-05
2 *2946:A1 5.7057e-05
3 *2943:X 0.000220371
4 *1090:8 0.000374119
5 *2946:A1 *2946:B1 1.31516e-05
6 *2438:A *2946:A1 0.000201127
7 *2945:B *2945:A 9.90367e-05
8 *2945:B *2946:A1 0.00020455
9 *38:165 *2946:A1 7.80714e-06
*RES
1 *2943:X *1090:8 12.7286 
2 *1090:8 *2946:A1 21.1571 
3 *1090:8 *2945:A 11.0679 
*END

*D_NET *1091 0.00113016
*CONN
*I *2946:B1 I *D sky130_fd_sc_hd__a21o_1
*I *2944:X O *D sky130_fd_sc_hd__and2_1
*CAP
1 *2946:B1 0.000394721
2 *2944:X 0.000394721
3 *2438:A *2946:B1 0.000318316
4 *2944:B *2946:B1 0
5 *2946:A1 *2946:B1 1.31516e-05
6 *28:164 *2946:B1 9.25014e-06
*RES
1 *2944:X *2946:B1 34.5643 
*END

*D_NET *1092 0.00514351
*CONN
*I *3122:A I *D sky130_fd_sc_hd__xor2_1
*I *3123:A I *D sky130_fd_sc_hd__and2_1
*I *2945:X O *D sky130_fd_sc_hd__xor2_1
*CAP
1 *3122:A 0.000106696
2 *3123:A 1.60352e-05
3 *2945:X 0.00146967
4 *1092:14 0.0015924
5 *3122:A *3122:B 0.000161769
6 *3122:A *3123:B 1.04232e-05
7 *3122:A *3126:B1 0.000144773
8 *3122:A *1180:6 5.62995e-05
9 *3123:A *3123:B 5.7661e-06
10 *1092:14 *3033:A 0.000276211
11 *1092:14 *1180:6 5.62995e-05
12 *1092:14 *1393:10 0.000415833
13 *2562:A *1092:14 2.89114e-05
14 *2741:A *1092:14 3.23206e-05
15 *3032:B *1092:14 5.71472e-05
16 *7:78 *1092:14 0.000181803
17 *17:130 *1092:14 7.32173e-05
18 *36:100 *1092:14 0.000207913
19 *36:117 *1092:14 0.00014285
20 *890:6 *1092:14 0.000107174
*RES
1 *2945:X *1092:14 38.4607 
2 *1092:14 *3123:A 9.72857 
3 *1092:14 *3122:A 12.8536 
*END

*D_NET *1093 0.00644458
*CONN
*I *3044:A I *D sky130_fd_sc_hd__xor2_1
*I *3045:A I *D sky130_fd_sc_hd__and2_1
*I *2946:X O *D sky130_fd_sc_hd__a21o_1
*CAP
1 *3044:A 0.000257809
2 *3045:A 0.000127623
3 *2946:X 0.00216962
4 *1093:18 0.00255506
5 *3044:A *3044:B 0.000128154
6 *3044:A *1181:6 7.32272e-05
7 *3044:A *1195:12 0.000128154
8 *3045:A *3034:A1 3.57366e-05
9 *3045:A *1181:6 5.52238e-05
10 *1093:18 *3034:A1 3.4879e-05
11 *2437:B *1093:18 5.33005e-05
12 *2438:A *1093:18 4.13496e-05
13 *2568:A *1093:18 0.000232399
14 *2617:B *1093:18 2.14757e-05
15 *2621:A *1093:18 0.000136958
16 *2621:B *1093:18 0.000191647
17 *3031:A *1093:18 5.03772e-05
18 *28:164 *1093:18 5.52238e-05
19 *722:10 *1093:18 5.05484e-05
20 *775:6 *1093:18 4.58194e-05
*RES
1 *2946:X *1093:18 40.2464 
2 *1093:18 *3045:A 12.1036 
3 *1093:18 *3044:A 22.9429 
*END

*D_NET *1094 0.000529523
*CONN
*I *2580:B I *D sky130_fd_sc_hd__or2_1
*I *2547:X O *D sky130_fd_sc_hd__and2_1
*CAP
1 *2580:B 0.000152977
2 *2547:X 0.000152977
3 *2580:A *2580:B 5.01117e-05
4 *18:205 *2580:B 0.000140933
5 *36:316 *2580:B 3.25247e-05
*RES
1 *2547:X *2580:B 30.2964 
*END

*D_NET *1095 0.00680834
*CONN
*I *3037:B I *D sky130_fd_sc_hd__and2_1
*I *3036:B I *D sky130_fd_sc_hd__xor2_1
*I *2948:X O *D sky130_fd_sc_hd__xor2_1
*CAP
1 *3037:B 5.66561e-05
2 *3036:B 0.000118606
3 *2948:X 0.000506464
4 *1095:10 0.00154881
5 *1095:8 0.00188001
6 *3036:B *3039:A1 0
7 *3036:B *3039:B1 1.74352e-05
8 *1095:8 *3341:B 5.52302e-05
9 *1095:10 *3033:A 7.73662e-05
10 *1095:10 *3334:B1 0.000317602
11 *1095:10 *3341:B 0.000106542
12 *1095:10 *3345:A 0
13 *1095:10 *3345:B 0
14 *1095:10 *1393:10 0.00033733
15 *1095:10 *1403:8 0
16 *1095:10 *1478:10 0
17 *2682:A *1095:10 0
18 *2739:A *1095:10 0
19 *2739:B *1095:10 0
20 *3032:B *1095:10 0.00020042
21 *3034:A2 *1095:10 3.01126e-05
22 *3036:A *3036:B 0.000317113
23 *3036:A *3037:B 0.00010096
24 *3332:B *1095:10 3.80808e-05
25 *3343:B1 *1095:10 0.000341788
26 *20:97 *1095:10 0
27 *23:202 *1095:10 0
28 *24:93 *3036:B 0
29 *24:93 *1095:10 0
30 *100:12 *1095:10 0
31 *172:26 *3036:B 0.000413416
32 *831:8 *1095:10 0.000152333
33 *832:12 *1095:10 8.16036e-05
34 *891:12 *1095:10 0
35 *1089:18 *3036:B 5.52302e-05
36 *1089:18 *3037:B 5.52302e-05
*RES
1 *2948:X *1095:8 20.9071 
2 *1095:8 *1095:10 31.6964 
3 *1095:10 *3036:B 18.7821 
4 *1095:10 *3037:B 15.1571 
*END

*D_NET *1096 0.00276667
*CONN
*I *3040:B I *D sky130_fd_sc_hd__xor2_1
*I *3041:B I *D sky130_fd_sc_hd__and2_1
*I *2949:X O *D sky130_fd_sc_hd__and2_1
*CAP
1 *3040:B 0.000101071
2 *3041:B 0
3 *2949:X 0.000339376
4 *1096:8 0.000440447
5 *3040:B *3043:B1 8.39e-05
6 *3040:B *1195:12 1.78447e-05
7 *3040:B *1403:8 0
8 *2803:A *1096:8 5.52302e-05
9 *2803:B *1096:8 2.59355e-05
10 *2804:A *1096:8 3.97677e-05
11 *2804:B *1096:8 2.89016e-05
12 *2807:A *1096:8 3.48705e-05
13 *2807:B *1096:8 7.68752e-05
14 *3040:A *3040:B 9.34004e-05
15 *11:240 *1096:8 6.86693e-05
16 *20:95 *1096:8 3.15046e-05
17 *103:12 *3040:B 1.74352e-05
18 *103:12 *1096:8 0.00116195
19 *956:6 *1096:8 0.000149489
*RES
1 *2949:X *1096:8 21.2464 
2 *1096:8 *3041:B 9.3 
3 *1096:8 *3040:B 21.3893 
*END

*D_NET *1097 0.000691809
*CONN
*I *2952:A I *D sky130_fd_sc_hd__xor2_1
*I *2953:A1 I *D sky130_fd_sc_hd__a21o_1
*I *2950:X O *D sky130_fd_sc_hd__xor2_1
*CAP
1 *2952:A 0.000139319
2 *2953:A1 0
3 *2950:X 0.000176438
4 *1097:12 0.000315757
5 *1097:12 *1397:16 0
6 *2953:A2 *2952:A 6.02956e-05
7 *557:12 *1097:12 0
*RES
1 *2950:X *1097:12 21.1929 
2 *1097:12 *2953:A1 9.3 
3 *1097:12 *2952:A 11.925 
*END

*D_NET *1098 0.000617331
*CONN
*I *2953:B1 I *D sky130_fd_sc_hd__a21o_1
*I *2951:X O *D sky130_fd_sc_hd__and2_1
*CAP
1 *2953:B1 0.000254832
2 *2951:X 0.000254832
3 *2953:B1 *1100:10 4.01768e-05
4 *23:304 *2953:B1 6.74911e-05
5 *33:277 *2953:B1 0
*RES
1 *2951:X *2953:B1 32.2429 
*END

*D_NET *1099 0.00834953
*CONN
*I *3048:B I *D sky130_fd_sc_hd__xor2_1
*I *3049:A2 I *D sky130_fd_sc_hd__a21o_1
*I *2952:X O *D sky130_fd_sc_hd__xor2_1
*CAP
1 *3048:B 0
2 *3049:A2 0.000136484
3 *2952:X 0
4 *1099:8 0.00276457
5 *1099:4 0.00262808
6 *3049:A2 *3044:B 0
7 *3049:A2 *3048:A 5.52302e-05
8 *3049:A2 *3049:A1 0.000128154
9 *3049:A2 *1195:12 0
10 *1099:8 *3048:A 1.98839e-05
11 *1099:8 *3256:B1 0.00010096
12 *1099:8 *1191:8 5.33334e-05
13 *2564:A *1099:8 0.000359997
14 *2564:B *1099:8 0.000128866
15 *2565:A *1099:8 0.000140933
16 *2626:A *1099:8 0.000280393
17 *2629:A *1099:8 0.00010096
18 *2676:B *1099:8 0.000177545
19 *2681:A *1099:8 7.32272e-05
20 *2681:B *1099:8 2.77173e-05
21 *3254:B *1099:8 2.89114e-05
22 *7:94 *1099:8 0.000353079
23 *7:96 *1099:8 0.000791214
*RES
1 *2952:X *1099:4 9.3 
2 *1099:4 *1099:8 46.1429 
3 *1099:8 *3049:A2 21.3893 
4 *1099:8 *3048:B 9.3 
*END

*D_NET *1100 0.00236494
*CONN
*I *3050:B I *D sky130_fd_sc_hd__xor2_1
*I *3051:B I *D sky130_fd_sc_hd__and2_1
*I *2953:X O *D sky130_fd_sc_hd__a21o_1
*CAP
1 *3050:B 0.000185314
2 *3051:B 0
3 *2953:X 0.000502987
4 *1100:10 0.000688301
5 *1100:10 *1397:16 0
6 *2444:B *1100:10 0
7 *2448:B *1100:10 0.000104974
8 *2953:B1 *1100:10 4.01768e-05
9 *3050:A *3050:B 0.000238981
10 *6:85 *1100:10 0
11 *6:98 *3050:B 0
12 *6:98 *1100:10 0
13 *39:216 *3050:B 4.73656e-05
14 *39:216 *1100:10 0.000556844
15 *619:12 *1100:10 0
*RES
1 *2953:X *1100:10 24.0857 
2 *1100:10 *3051:B 13.8 
3 *1100:10 *3050:B 17.55 
*END

*D_NET *1101 0.00100959
*CONN
*I *2956:A I *D sky130_fd_sc_hd__xor2_1
*I *2957:A1 I *D sky130_fd_sc_hd__a21o_1
*I *2954:X O *D sky130_fd_sc_hd__xor2_1
*CAP
1 *2956:A 8.20471e-05
2 *2957:A1 0
3 *2954:X 0.000114897
4 *1101:10 0.000196944
5 *2628:B *1101:10 3.93893e-05
6 *2957:A2 *2956:A 0.000217549
7 *16:167 *2956:A 0.000268403
8 *28:146 *1101:10 1.52978e-05
9 *28:152 *1101:10 7.50601e-05
10 *38:148 *1101:10 0
*RES
1 *2954:X *1101:10 20.55 
2 *1101:10 *2957:A1 9.3 
3 *1101:10 *2956:A 12.3179 
*END

*D_NET *1102 0.00101735
*CONN
*I *2957:B1 I *D sky130_fd_sc_hd__a21o_1
*I *2955:X O *D sky130_fd_sc_hd__and2_1
*CAP
1 *2957:B1 0.000173284
2 *2955:X 0.000173284
3 *7:111 *2957:B1 0.0003096
4 *16:167 *2957:B1 5.33005e-05
5 *28:146 *2957:B1 4.49293e-05
6 *28:152 *2957:B1 0.000262948
*RES
1 *2955:X *2957:B1 32.2071 
*END

*D_NET *1103 0.00701134
*CONN
*I *3128:A I *D sky130_fd_sc_hd__and2_1
*I *3127:A I *D sky130_fd_sc_hd__xor2_1
*I *2956:X O *D sky130_fd_sc_hd__xor2_1
*CAP
1 *3128:A 0
2 *3127:A 0.000157771
3 *2956:X 0.000131679
4 *1103:16 0.00245726
5 *1103:10 0.00243117
6 *3127:A *3128:B 0.000176234
7 *3127:A *1189:14 5.33005e-05
8 *1103:16 *3342:B 0.000139913
9 *2003:A *3127:A 0
10 *2498:A *1103:10 0.000100009
11 *2561:A *1103:16 2.95726e-05
12 *2561:B *1103:16 1.92905e-05
13 *2628:A *1103:10 1.18064e-05
14 *2808:B *1103:16 2.59355e-05
15 *3340:A *1103:16 4.43256e-05
16 *3342:A *1103:16 4.43157e-05
17 *3351:A *1103:16 2.15245e-05
18 *3352:A1 *1103:16 0.00057215
19 *37:111 *1103:10 0
20 *38:148 *1103:10 0
21 *94:12 *1103:16 0.000227532
22 *721:10 *1103:16 0.000144773
23 *781:12 *1103:10 0.000149543
24 *957:6 *1103:16 7.32272e-05
*RES
1 *2956:X *1103:10 21.4607 
2 *1103:10 *1103:16 36.7143 
3 *1103:16 *3127:A 21.4964 
4 *1103:16 *3128:A 9.3 
*END

*D_NET *1104 0.00146428
*CONN
*I *3053:A2 I *D sky130_fd_sc_hd__a21o_1
*I *3052:B I *D sky130_fd_sc_hd__xor2_1
*I *2957:X O *D sky130_fd_sc_hd__a21o_1
*CAP
1 *3053:A2 7.78892e-05
2 *3052:B 0
3 *2957:X 0.00037404
4 *1104:12 0.000451929
5 *3053:A2 *3052:A 0.000127931
6 *2633:B *1104:12 0.000125724
7 *8:100 *3053:A2 0.000142856
8 *8:100 *1104:12 0
9 *8:262 *3053:A2 4.38128e-05
10 *16:167 *1104:12 0.000110101
11 *20:80 *3053:A2 9.99644e-06
*RES
1 *2957:X *1104:12 23.7643 
2 *1104:12 *3052:B 9.3 
3 *1104:12 *3053:A2 12.2286 
*END

*D_NET *1105 0.000455288
*CONN
*I *2591:A I *D sky130_fd_sc_hd__or2_1
*I *2558:X O *D sky130_fd_sc_hd__and2_1
*CAP
1 *2591:A 0.000118876
2 *2558:X 0.000118876
3 *2164:A *2591:A 7.17836e-05
4 *14:207 *2591:A 0.000145753
*RES
1 *2558:X *2591:A 30.0821 
*END

*D_NET *1106 0.00201277
*CONN
*I *3042:B I *D sky130_fd_sc_hd__xor2_1
*I *3043:A2 I *D sky130_fd_sc_hd__a21o_1
*I *2959:X O *D sky130_fd_sc_hd__xor2_1
*CAP
1 *3042:B 0.000133353
2 *3043:A2 0
3 *2959:X 0.000378134
4 *1106:12 0.000511487
5 *3042:B *3042:A 0.000127921
6 *3042:B *1198:18 1.95962e-05
7 *1106:12 *1187:12 1.02504e-05
8 *1106:12 *1195:12 0.00012544
9 *1106:12 *1280:12 0.000457969
10 *185:8 *1106:12 0.000248617
*RES
1 *2959:X *1106:12 28.175 
2 *1106:12 *3043:A2 9.3 
3 *1106:12 *3042:B 12.2286 
*END

*D_NET *1107 0.00162581
*CONN
*I *2973:A2 I *D sky130_fd_sc_hd__a21o_1
*I *2972:B I *D sky130_fd_sc_hd__xor2_1
*I *2960:X O *D sky130_fd_sc_hd__and2_1
*CAP
1 *2973:A2 3.28943e-05
2 *2972:B 0.000104583
3 *2960:X 0.000415754
4 *1107:10 0.000553231
5 *2972:B *2972:A 0.000153279
6 *2973:A2 *1117:12 4.73656e-05
7 *2973:A2 *1280:12 0
8 *1107:10 *2973:B1 6.98575e-05
9 *1107:10 *1117:12 0.00010326
10 *1107:10 *1280:12 0
11 *2959:B *1107:10 0.000128154
12 *2970:B *1107:10 0
13 *116:8 *2972:B 1.74352e-05
*RES
1 *2960:X *1107:10 21.3536 
2 *1107:10 *2972:B 15.9964 
3 *1107:10 *2973:A2 14.5321 
*END

*D_NET *1108 0.00108292
*CONN
*I *2963:A I *D sky130_fd_sc_hd__xor2_1
*I *2964:A1 I *D sky130_fd_sc_hd__a21o_1
*I *2961:X O *D sky130_fd_sc_hd__xor2_1
*CAP
1 *2963:A 0.000138322
2 *2964:A1 0
3 *2961:X 0.000190695
4 *1108:12 0.000329017
5 *2963:A *1111:14 0.00014183
6 *1108:12 *2964:B1 0
7 *2964:A2 *2963:A 0.000139087
8 *2964:A2 *1108:12 3.18676e-05
9 *38:125 *1108:12 0.000112106
10 *733:12 *1108:12 0
*RES
1 *2961:X *1108:12 21.8 
2 *1108:12 *2964:A1 9.3 
3 *1108:12 *2963:A 12.7286 
*END

*D_NET *1109 0.000399662
*CONN
*I *2964:B1 I *D sky130_fd_sc_hd__a21o_1
*I *2962:X O *D sky130_fd_sc_hd__and2_1
*CAP
1 *2964:B1 0.000196113
2 *2962:X 0.000196113
3 *2962:B *2964:B1 7.43578e-06
4 *190:10 *2964:B1 0
5 *733:12 *2964:B1 0
6 *1108:12 *2964:B1 0
*RES
1 *2962:X *2964:B1 30.4929 
*END

*D_NET *1110 0.00333031
*CONN
*I *3054:A I *D sky130_fd_sc_hd__xor2_1
*I *3055:A I *D sky130_fd_sc_hd__and2_1
*I *2963:X O *D sky130_fd_sc_hd__xor2_1
*CAP
1 *3054:A 0.000149123
2 *3055:A 2.23854e-05
3 *2963:X 0.00104882
4 *1110:6 0.00122033
5 *3054:A *3054:B 0.000136362
6 *3054:A *3057:B1 0.000144773
7 *3055:A *3054:B 0
8 *1110:6 *1111:14 2.24763e-05
9 *2630:A *1110:6 9.7659e-05
10 *2630:B *1110:6 2.28499e-05
11 *2634:A *1110:6 9.22103e-06
12 *2750:B *1110:6 2.59355e-05
13 *2966:A *1110:6 2.27416e-05
14 *2966:B *1110:6 9.99644e-06
15 *26:196 *1110:6 0.000312222
16 *844:10 *1110:6 8.54142e-05
*RES
1 *2963:X *1110:6 26.2643 
2 *1110:6 *3055:A 9.72857 
3 *1110:6 *3054:A 13.0321 
*END

*D_NET *1111 0.00395442
*CONN
*I *3059:A I *D sky130_fd_sc_hd__xor2_1
*I *3060:A I *D sky130_fd_sc_hd__and2_1
*I *2964:X O *D sky130_fd_sc_hd__a21o_1
*CAP
1 *3059:A 0.000102565
2 *3060:A 0
3 *2964:X 0.000923693
4 *1111:14 0.00102626
5 *3059:A *3060:B 0.000122081
6 *3059:A *3061:A 0
7 *3059:A *1123:12 0.000312209
8 *1111:14 *1123:12 0.000563289
9 *2630:A *1111:14 0.000161868
10 *2630:B *1111:14 3.18676e-05
11 *2631:A *1111:14 0
12 *2689:A *1111:14 0.000197991
13 *2750:A *1111:14 9.24491e-05
14 *2759:B *1111:14 0.000125355
15 *2963:A *1111:14 0.00014183
16 *9:203 *1111:14 2.11419e-05
17 *20:244 *1111:14 5.80706e-06
18 *37:89 *1111:14 0.000103533
19 *117:14 *1111:14 0
20 *1110:6 *1111:14 2.24763e-05
*RES
1 *2964:X *1111:14 36.4429 
2 *1111:14 *3060:A 9.3 
3 *1111:14 *3059:A 12.7286 
*END

*D_NET *1112 0.000922831
*CONN
*I *2967:A I *D sky130_fd_sc_hd__xor2_1
*I *2968:A1 I *D sky130_fd_sc_hd__a21o_1
*I *2965:X O *D sky130_fd_sc_hd__xor2_1
*CAP
1 *2967:A 0.000136148
2 *2968:A1 2.23854e-05
3 *2965:X 9.61763e-05
4 *1112:6 0.00025471
5 *1112:6 *2968:B1 0.000139907
6 *1112:6 *1115:10 5.03772e-05
7 *2967:B *2967:A 7.84803e-05
8 *2968:A2 *2967:A 0.000144647
9 *2968:A2 *2968:A1 0
*RES
1 *2965:X *1112:6 11.4786 
2 *1112:6 *2968:A1 9.72857 
3 *1112:6 *2967:A 12.3179 
*END

*D_NET *1113 0.000685422
*CONN
*I *2968:B1 I *D sky130_fd_sc_hd__a21o_1
*I *2966:X O *D sky130_fd_sc_hd__and2_1
*CAP
1 *2968:B1 0.000163121
2 *2966:X 0.000163121
3 *9:216 *2968:B1 0.000154089
4 *11:232 *2968:B1 6.5185e-05
5 *1112:6 *2968:B1 0.000139907
*RES
1 *2966:X *2968:B1 31.4214 
*END

*D_NET *1114 0.000945431
*CONN
*I *3054:B I *D sky130_fd_sc_hd__xor2_1
*I *3055:B I *D sky130_fd_sc_hd__and2_1
*I *2967:X O *D sky130_fd_sc_hd__xor2_1
*CAP
1 *3054:B 9.68901e-05
2 *3055:B 0
3 *2967:X 0.000152181
4 *1114:12 0.000249071
5 *1114:12 *1120:10 0.0001098
6 *1114:12 *1132:34 0.000201127
7 *3054:A *3054:B 0.000136362
8 *3055:A *3054:B 0
*RES
1 *2967:X *1114:12 22.2107 
2 *1114:12 *3055:B 9.3 
3 *1114:12 *3054:B 11.4964 
*END

*D_NET *1115 0.00155535
*CONN
*I *3059:B I *D sky130_fd_sc_hd__xor2_1
*I *3060:B I *D sky130_fd_sc_hd__and2_1
*I *2968:X O *D sky130_fd_sc_hd__a21o_1
*CAP
1 *3059:B 1.5574e-05
2 *3060:B 0.000113554
3 *2968:X 0.000216208
4 *1115:10 0.000345336
5 *3059:B *1208:14 3.17163e-05
6 *3060:B *3062:B1 0.000180764
7 *3060:B *1123:12 1.21258e-05
8 *1115:10 *3062:B1 0.000123288
9 *1115:10 *1208:14 1.08359e-05
10 *3059:A *3060:B 0.000122081
11 *25:282 *3059:B 4.73656e-05
12 *25:282 *1115:10 0.000286128
13 *35:192 *1115:10 0
14 *1112:6 *1115:10 5.03772e-05
*RES
1 *2968:X *1115:10 18.5143 
2 *1115:10 *3060:B 16.8179 
3 *1115:10 *3059:B 14.5321 
*END

*D_NET *1116 0.000836395
*CONN
*I *2591:B I *D sky130_fd_sc_hd__or2_1
*I *2569:X O *D sky130_fd_sc_hd__and2_1
*CAP
1 *2591:B 0.000229131
2 *2569:X 0.000229131
3 *2164:A *2591:B 6.92434e-05
4 *2492:B *2591:B 5.33005e-05
5 *3169:A *2591:B 0
6 *3191:B *2591:B 3.32631e-05
7 *13:116 *2591:B 2.16719e-05
8 *14:196 *2591:B 5.41794e-05
9 *14:207 *2591:B 0.000146474
*RES
1 *2569:X *2591:B 32.0643 
*END

*D_NET *1117 0.00104742
*CONN
*I *2973:A1 I *D sky130_fd_sc_hd__a21o_1
*I *2972:A I *D sky130_fd_sc_hd__xor2_1
*I *2970:X O *D sky130_fd_sc_hd__xor2_1
*CAP
1 *2973:A1 0
2 *2972:A 8.29685e-05
3 *2970:X 0.000137965
4 *1117:12 0.000220933
5 *1117:12 *2973:B1 4.66203e-05
6 *1117:12 *1132:34 5.83304e-05
7 *2972:B *2972:A 0.000153279
8 *2973:A2 *1117:12 4.73656e-05
9 *116:8 *2972:A 9.7659e-05
10 *189:6 *1117:12 9.90431e-05
11 *1107:10 *1117:12 0.00010326
*RES
1 *2970:X *1117:12 21.1929 
2 *1117:12 *2972:A 11.925 
3 *1117:12 *2973:A1 9.3 
*END

*D_NET *1118 0.000579823
*CONN
*I *2973:B1 I *D sky130_fd_sc_hd__a21o_1
*I *2971:X O *D sky130_fd_sc_hd__and2_1
*CAP
1 *2973:B1 0.000173496
2 *2971:X 0.000173496
3 *2973:B1 *1132:34 5.83304e-05
4 *2687:A *2973:B1 0
5 *2970:B *2973:B1 5.80217e-05
6 *837:10 *2973:B1 0
7 *1107:10 *2973:B1 6.98575e-05
8 *1117:12 *2973:B1 4.66203e-05
*RES
1 *2971:X *2973:B1 31.975 
*END

*D_NET *1119 0.00107063
*CONN
*I *3056:B I *D sky130_fd_sc_hd__xor2_1
*I *3057:A2 I *D sky130_fd_sc_hd__a21o_1
*I *2972:X O *D sky130_fd_sc_hd__xor2_1
*CAP
1 *3056:B 0.000119853
2 *3057:A2 0
3 *2972:X 0.000112476
4 *1119:10 0.000232329
5 *3056:B *3056:A 0.000113561
6 *3056:B *3057:A1 0.00014279
7 *1119:10 *3057:A1 1.02504e-05
8 *1119:10 *1280:12 0.000100745
9 *2071:A *3056:B 1.02504e-05
10 *2071:A *1119:10 0.000153054
11 *2071:B *1119:10 2.04866e-05
12 *116:8 *1119:10 5.03772e-05
13 *185:8 *1119:10 4.46186e-06
14 *254:14 *3056:B 0
*RES
1 *2972:X *1119:10 17.3 
2 *1119:10 *3057:A2 13.8 
3 *1119:10 *3056:B 16.8893 
*END

*D_NET *1120 0.00297234
*CONN
*I *3064:B I *D sky130_fd_sc_hd__and2_1
*I *3063:B I *D sky130_fd_sc_hd__xor2_1
*I *2973:X O *D sky130_fd_sc_hd__a21o_1
*CAP
1 *3064:B 8.27351e-05
2 *3063:B 0
3 *2973:X 0.000789816
4 *1120:10 0.000872551
5 *3064:B *3063:A 0.000199009
6 *3064:B *3065:A 0
7 *1120:10 *1132:34 0.000210507
8 *1120:10 *1285:10 0.000707922
9 *2750:A *1120:10 0
10 *21:170 *1120:10 0
11 *21:180 *1120:10 0
12 *903:10 *1120:10 0
13 *1114:12 *1120:10 0.0001098
*RES
1 *2973:X *1120:10 36.9429 
2 *1120:10 *3063:B 9.3 
3 *1120:10 *3064:B 11.4964 
*END

*D_NET *1121 0.000886521
*CONN
*I *2977:A1 I *D sky130_fd_sc_hd__a21o_1
*I *2976:A I *D sky130_fd_sc_hd__xor2_1
*I *2974:X O *D sky130_fd_sc_hd__xor2_1
*CAP
1 *2977:A1 0
2 *2976:A 6.69389e-05
3 *2974:X 6.3283e-05
4 *1121:10 0.000130222
5 *1121:10 *1136:18 0.000147474
6 *2976:B *2976:A 0.000204566
7 *2977:A2 *2976:A 7.60914e-05
8 *18:140 *2976:A 5.04705e-05
9 *38:115 *1121:10 0.000147474
*RES
1 *2974:X *1121:10 20.2464 
2 *1121:10 *2976:A 11.925 
3 *1121:10 *2977:A1 9.3 
*END

*D_NET *1122 0.000732691
*CONN
*I *2977:B1 I *D sky130_fd_sc_hd__a21o_1
*I *2975:X O *D sky130_fd_sc_hd__and2_1
*CAP
1 *2977:B1 0.000267257
2 *2975:X 0.000267257
3 *2638:B *2977:B1 0
4 *2974:A *2977:B1 1.32552e-05
5 *2974:B *2977:B1 3.67257e-05
6 *28:123 *2977:B1 0
7 *38:115 *2977:B1 0.000148196
*RES
1 *2975:X *2977:B1 31.725 
*END

*D_NET *1123 0.00383038
*CONN
*I *3061:B I *D sky130_fd_sc_hd__xor2_1
*I *3062:A2 I *D sky130_fd_sc_hd__a21o_1
*I *2976:X O *D sky130_fd_sc_hd__xor2_1
*CAP
1 *3061:B 8.30087e-05
2 *3062:A2 6.9575e-05
3 *2976:X 0.00100403
4 *1123:12 0.00115661
5 *3061:B *3061:A 4.37639e-05
6 *3062:A2 *3062:A1 0.00015234
7 *3062:A2 *3062:B1 1.59689e-05
8 *3062:A2 *1208:14 1.17968e-05
9 *1123:12 *3061:A 2.59355e-05
10 *1123:12 *3062:B1 8.25843e-06
11 *1123:12 *1136:18 0
12 *2630:A *1123:12 3.57163e-05
13 *2759:B *1123:12 5.76505e-05
14 *2762:A *1123:12 5.52238e-05
15 *3059:A *1123:12 0.000312209
16 *3060:B *1123:12 1.21258e-05
17 *35:192 *3062:A2 0.000222885
18 *1111:14 *1123:12 0.000563289
*RES
1 *2976:X *1123:12 35.3714 
2 *1123:12 *3062:A2 21.1571 
3 *1123:12 *3061:B 10.675 
*END

*D_NET *1124 0.00297019
*CONN
*I *3067:A I *D sky130_fd_sc_hd__xor2_1
*I *3068:A I *D sky130_fd_sc_hd__and2_1
*I *2977:X O *D sky130_fd_sc_hd__a21o_1
*CAP
1 *3067:A 9.40876e-05
2 *3068:A 0
3 *2977:X 0.000727379
4 *1124:12 0.000821466
5 *3067:A *3067:B 3.57366e-05
6 *3067:A *3068:B 0.000126629
7 *3067:A *3070:B 1.24368e-05
8 *1124:12 *3071:A2 0
9 *1124:12 *1136:18 0
10 *1124:12 *1426:18 1.74352e-05
11 *2013:B1 *1124:12 0.000148189
12 *2637:B *1124:12 0
13 *2638:B *1124:12 0.000168217
14 *2641:A *1124:12 0.00034065
15 *18:140 *1124:12 2.44318e-05
16 *26:232 *3067:A 0.000166485
17 *27:112 *1124:12 0
18 *36:238 *1124:12 0
19 *113:10 *1124:12 0
20 *121:12 *1124:12 6.41079e-05
21 *191:10 *1124:12 0
22 *194:10 *1124:12 6.4973e-05
23 *793:6 *1124:12 5.71472e-05
24 *917:14 *1124:12 0.000100823
*RES
1 *2977:X *1124:12 33.6393 
2 *1124:12 *3068:A 9.3 
3 *1124:12 *3067:A 12.7286 
*END

*D_NET *1125 0.000915031
*CONN
*I *2981:A I *D sky130_fd_sc_hd__xor2_1
*I *2982:A1 I *D sky130_fd_sc_hd__a21o_1
*I *2978:X O *D sky130_fd_sc_hd__xor2_1
*CAP
1 *2981:A 7.99066e-05
2 *2982:A1 0.000140149
3 *2978:X 6.02427e-05
4 *2981:A *1208:14 0.000128146
5 *2982:A1 *2982:B1 8.64974e-05
6 *2982:A1 *1220:24 0.000197612
7 *2982:A2 *2981:A 0.000128146
8 *21:168 *2981:A 5.33005e-05
9 *21:168 *2982:A1 4.10304e-05
*RES
1 *2978:X *2982:A1 21.2071 
2 *2982:A1 *2981:A 29.7786 
*END

*D_NET *1126 0.000913322
*CONN
*I *2982:B1 I *D sky130_fd_sc_hd__a21o_1
*I *2979:X O *D sky130_fd_sc_hd__and2_1
*CAP
1 *2982:B1 7.78655e-05
2 *2979:X 7.78655e-05
3 *2982:B1 *1220:24 6.44345e-05
4 *2978:A *2982:B1 0.000144773
5 *2982:A1 *2982:B1 8.64974e-05
6 *21:168 *2982:B1 0.000461886
*RES
1 *2979:X *2982:B1 23.2607 
*END

*D_NET *1127 0.00291487
*CONN
*I *3015:A I *D sky130_fd_sc_hd__and2_1
*I *3014:A I *D sky130_fd_sc_hd__xor2_1
*I *2580:X O *D sky130_fd_sc_hd__or2_1
*CAP
1 *3015:A 1.86027e-05
2 *3014:A 0
3 *2580:X 0.000715242
4 *1127:12 0.000733845
5 *1127:12 *1161:8 0
6 *3015:B *3015:A 0.000142856
7 *3213:A *1127:12 5.52302e-05
8 *4:138 *1127:12 0.000585937
9 *14:54 *1127:12 0.000376118
10 *27:197 *1127:12 2.15137e-05
11 *323:12 *1127:12 0.000120755
12 *343:18 *3015:A 0.000144773
*RES
1 *2580:X *1127:12 36.4786 
2 *1127:12 *3014:A 9.3 
3 *1127:12 *3015:A 10.6571 
*END

*D_NET *1128 0.00132392
*CONN
*I *3063:A I *D sky130_fd_sc_hd__xor2_1
*I *3064:A I *D sky130_fd_sc_hd__and2_1
*I *2981:X O *D sky130_fd_sc_hd__xor2_1
*CAP
1 *3063:A 0.000157965
2 *3064:A 0
3 *2981:X 0.000170981
4 *1128:10 0.000328946
5 *3063:A *3066:A1 0
6 *3063:A *3066:B1 0.00014285
7 *1128:10 *1285:10 0
8 *3064:B *3063:A 0.000199009
9 *21:168 *1128:10 0.000324167
*RES
1 *2981:X *1128:10 22.3714 
2 *1128:10 *3064:A 9.3 
3 *1128:10 *3063:A 13.1571 
*END

*D_NET *1129 0.00325748
*CONN
*I *3067:B I *D sky130_fd_sc_hd__xor2_1
*I *3068:B I *D sky130_fd_sc_hd__and2_1
*I *2982:X O *D sky130_fd_sc_hd__a21o_1
*CAP
1 *3067:B 1.6003e-05
2 *3068:B 0.000153288
3 *2982:X 0.0010177
4 *1129:12 0.00118699
5 *3067:B *3070:A 1.3701e-05
6 *3068:B *3070:B 1.56e-05
7 *1129:12 *3070:A 0.000142856
8 *1129:12 *3070:B 4.69993e-05
9 *1129:12 *1208:14 0
10 *2761:A *1129:12 0
11 *2761:B *1129:12 0.000274294
12 *3067:A *3067:B 3.57366e-05
13 *3067:A *3068:B 0.000126629
14 *26:228 *1129:12 2.47724e-05
15 *26:232 *1129:12 0.000188857
16 *910:12 *1129:12 1.40415e-05
*RES
1 *2982:X *1129:12 36.5857 
2 *1129:12 *3068:B 12.3179 
3 *1129:12 *3067:B 10.0321 
*END

*D_NET *1130 0.000829125
*CONN
*I *2986:A1 I *D sky130_fd_sc_hd__a21o_1
*I *2985:A I *D sky130_fd_sc_hd__xor2_1
*I *2983:X O *D sky130_fd_sc_hd__xor2_1
*CAP
1 *2986:A1 0.000115433
2 *2985:A 6.34953e-05
3 *2983:X 0
4 *1130:4 0.000178928
5 *2986:A1 *2986:B1 0.000148189
6 *2878:B *2985:A 0.000139913
7 *2879:B *2986:A1 5.52302e-05
8 *2985:B *2985:A 5.61433e-05
9 *578:8 *2986:A1 7.17932e-05
*RES
1 *2983:X *1130:4 9.3 
2 *1130:4 *2985:A 11.0857 
3 *1130:4 *2986:A1 20.7821 
*END

*D_NET *1131 0.00090656
*CONN
*I *2986:B1 I *D sky130_fd_sc_hd__a21o_1
*I *2984:X O *D sky130_fd_sc_hd__and2_1
*CAP
1 *2986:B1 0.000179186
2 *2984:X 0.000179186
3 *2879:B *2986:B1 5.52302e-05
4 *2984:B *2986:B1 4.8936e-05
5 *2986:A1 *2986:B1 0.000148189
6 *2986:A2 *2986:B1 0.000215053
7 *20:80 *2986:B1 2.27416e-05
8 *578:8 *2986:B1 5.80376e-05
*RES
1 *2984:X *2986:B1 32.8679 
*END

*D_NET *1132 0.0153373
*CONN
*I *3066:A2 I *D sky130_fd_sc_hd__a21o_1
*I *3065:B I *D sky130_fd_sc_hd__xor2_1
*I *2985:X O *D sky130_fd_sc_hd__xor2_1
*CAP
1 *3066:A2 0.000145711
2 *3065:B 8.61506e-05
3 *2985:X 0.000779813
4 *1132:34 0.00169138
5 *1132:24 0.00395131
6 *1132:12 0.0032716
7 *3066:A2 *3065:A 0
8 *3066:A2 *3066:B1 7.77751e-05
9 *3066:A2 *1209:6 5.71472e-05
10 *3066:A2 *1285:10 0.000106299
11 *1132:12 *1133:10 0.00111862
12 *1132:12 *1382:14 0
13 *1132:34 *3057:B1 0
14 *1132:34 *3065:A 0
15 *1132:34 *3137:A 1.78353e-05
16 *1132:34 *3137:B 0.00020042
17 *1132:34 *3139:B1 0.000169572
18 *1132:34 *3364:B 2.89114e-05
19 *1132:34 *1199:24 1.78447e-05
20 *1132:34 *1203:8 0
21 *1132:34 *1211:12 0
22 *1132:34 *1280:12 0
23 *1132:34 *1285:10 0.000181125
24 *2006:A *1132:24 1.56e-05
25 *2008:A *1132:24 4.35421e-05
26 *2450:B *1132:24 2.59355e-05
27 *2451:A *1132:24 0.000202306
28 *2454:A *1132:24 9.90431e-05
29 *2454:B *1132:24 5.71472e-05
30 *2523:B *1132:12 0
31 *2573:A *1132:24 5.52302e-05
32 *2573:B *1132:24 0.000312209
33 *2687:A *1132:34 5.03772e-05
34 *2687:B *1132:34 1.92905e-05
35 *2870:B *1132:12 0.000170612
36 *2875:B *1132:12 7.43578e-06
37 *2878:B *1132:12 2.51343e-06
38 *2882:B *1132:12 0
39 *2973:B1 *1132:34 5.83304e-05
40 *3364:A *1132:34 1.74352e-05
41 *5:145 *1132:12 0.000264574
42 *10:110 *1132:12 1.26294e-05
43 *33:283 *1132:12 4.4787e-05
44 *36:187 *1132:24 2.34204e-05
45 *38:125 *1132:24 0.000485433
46 *41:203 *1132:12 0
47 *112:6 *1132:24 0.000175493
48 *116:8 *1132:34 0.0002423
49 *187:8 *1132:24 6.28241e-05
50 *189:6 *1132:24 0.000315165
51 *837:10 *1132:34 5.33005e-05
52 *1030:12 *1132:12 0.000148911
53 *1114:12 *1132:34 0.000201127
54 *1117:12 *1132:34 5.83304e-05
55 *1120:10 *1132:34 0.000210507
*RES
1 *2985:X *1132:12 36.5143 
2 *1132:12 *1132:24 46.0357 
3 *1132:24 *1132:34 34 
4 *1132:34 *3065:B 15.1571 
5 *1132:34 *3066:A2 17.7107 
*END

*D_NET *1133 0.0084255
*CONN
*I *3074:B I *D sky130_fd_sc_hd__xor2_1
*I *3075:A2 I *D sky130_fd_sc_hd__a21o_1
*I *2986:X O *D sky130_fd_sc_hd__a21o_1
*CAP
1 *3074:B 0.000111584
2 *3075:A2 5.37304e-05
3 *2986:X 0.000454893
4 *1133:10 0.0018319
5 *1133:8 0.00212148
6 *3074:B *3074:A 5.52302e-05
7 *1133:10 *3285:A 1.41029e-05
8 *1133:10 *3285:B 0.000197991
9 *1133:10 *3290:B1 0.00058416
10 *1133:10 *1427:8 9.8804e-05
11 *1133:10 *1434:12 0
12 *2523:B *1133:10 0
13 *2529:B *1133:10 0
14 *2586:B *1133:10 6.07626e-05
15 *2587:A *1133:10 0
16 *2703:A *1133:10 9.42015e-05
17 *2704:A *1133:10 0
18 *2870:B *1133:10 3.90513e-05
19 *2871:A *1133:8 5.33433e-05
20 *2871:A *1133:10 0
21 *2871:B *1133:8 3.18676e-05
22 *2872:A *1133:10 0.000117144
23 *2874:B *1133:10 0.000100831
24 *2879:B *1133:8 0.000227532
25 *2885:A *3074:B 5.9483e-05
26 *2885:A *1133:10 6.07626e-05
27 *2886:A *3074:B 0.000162118
28 *2886:A *1133:10 0.000177941
29 *2886:B *1133:10 6.98302e-05
30 *9:157 *3074:B 4.27438e-05
31 *17:271 *1133:10 0.000114121
32 *20:80 *1133:8 2.37716e-05
33 *20:232 *3075:A2 9.41642e-05
34 *22:263 *1133:10 0.000114838
35 *35:206 *1133:10 9.91086e-05
36 *38:101 *1133:10 0
37 *692:10 *1133:10 3.93893e-05
38 *745:12 *1133:10 0
39 *1132:12 *1133:10 0.00111862
*RES
1 *2986:X *1133:8 19.675 
2 *1133:8 *1133:10 40.5 
3 *1133:10 *3075:A2 14.7464 
4 *1133:10 *3074:B 17.0143 
*END

*D_NET *1134 0.000745568
*CONN
*I *2989:A I *D sky130_fd_sc_hd__xor2_1
*I *2990:A1 I *D sky130_fd_sc_hd__a21o_1
*I *2987:X O *D sky130_fd_sc_hd__xor2_1
*CAP
1 *2989:A 0.000137168
2 *2990:A1 0
3 *2987:X 0.000112603
4 *1134:10 0.000249771
5 *1134:10 *2990:B1 4.66203e-05
6 *2584:B *1134:10 8.32242e-05
7 *2585:B *2989:A 1.39841e-05
8 *2587:A *1134:10 0
9 *2990:A2 *2989:A 0.000102197
*RES
1 *2987:X *1134:10 20.55 
2 *1134:10 *2990:A1 9.3 
3 *1134:10 *2989:A 11.9071 
*END

*D_NET *1135 0.000796241
*CONN
*I *2990:B1 I *D sky130_fd_sc_hd__a21o_1
*I *2988:X O *D sky130_fd_sc_hd__and2_1
*CAP
1 *2990:B1 0.000229446
2 *2988:X 0.000229446
3 *2584:B *2990:B1 5.83304e-05
4 *18:109 *2990:B1 0
5 *40:213 *2990:B1 0.000232399
6 *1134:10 *2990:B1 4.66203e-05
*RES
1 *2988:X *2990:B1 31.725 
*END

*D_NET *1136 0.00855207
*CONN
*I *3071:A2 I *D sky130_fd_sc_hd__a21o_1
*I *3070:B I *D sky130_fd_sc_hd__xor2_1
*I *2989:X O *D sky130_fd_sc_hd__xor2_1
*CAP
1 *3071:A2 0.000171226
2 *3070:B 6.60614e-05
3 *2989:X 0.00140363
4 *1136:18 0.00126585
5 *1136:16 0.00243219
6 *3070:B *3070:A 6.20656e-05
7 *3071:A2 *3071:A1 0
8 *3071:A2 *3071:B1 4.79842e-05
9 *1136:16 *3276:A 3.14193e-05
10 *1136:16 *3290:B1 1.39841e-05
11 *1136:16 *1199:24 0.000254306
12 *1136:16 *1418:6 6.09688e-05
13 *2578:B *1136:16 0.000129913
14 *2582:A *1136:16 7.02611e-05
15 *2585:A *1136:16 6.03004e-05
16 *2585:B *1136:16 0.000227532
17 *2588:A *1136:16 0.00018077
18 *2630:A *1136:18 0
19 *2637:A *1136:18 0
20 *2637:B *1136:18 0.000115082
21 *2699:A *1136:18 0
22 *3067:A *3070:B 1.24368e-05
23 *3068:B *3070:B 1.56e-05
24 *3275:A *1136:16 0.000269428
25 *3275:B *1136:16 4.72917e-05
26 *3276:B *1136:16 2.89114e-05
27 *17:206 *1136:16 0.000622125
28 *26:232 *3070:B 0.000274294
29 *29:239 *1136:16 1.35455e-05
30 *38:115 *1136:18 0.000187358
31 *191:10 *1136:18 0.000173083
32 *194:10 *3071:A2 0
33 *686:12 *1136:16 9.71197e-05
34 *740:6 *1136:16 2.28499e-05
35 *1121:10 *1136:18 0.000147474
36 *1123:12 *1136:18 0
37 *1124:12 *3071:A2 0
38 *1124:12 *1136:18 0
39 *1129:12 *3070:B 4.69993e-05
*RES
1 *2989:X *1136:16 40.2821 
2 *1136:16 *1136:18 18.6429 
3 *1136:18 *3070:B 16.8179 
4 *1136:18 *3071:A2 16.6571 
*END

*D_NET *1137 0.00458914
*CONN
*I *3077:B I *D sky130_fd_sc_hd__and2_1
*I *3076:B I *D sky130_fd_sc_hd__xor2_1
*I *2990:X O *D sky130_fd_sc_hd__a21o_1
*CAP
1 *3077:B 0.000220612
2 *3076:B 4.27549e-05
3 *2990:X 0.000944109
4 *1137:14 0.00120748
5 *1137:14 *2995:B1 2.37761e-05
6 *1137:14 *1142:10 0.000817948
7 *1137:14 *1447:10 0.000670371
8 *2584:B *1137:14 0.000128154
9 *2648:B *1137:14 0
10 *2822:B *1137:14 0
11 *3077:A *3077:B 0.00013586
12 *18:109 *1137:14 0
13 *28:84 *1137:14 1.97381e-05
14 *30:252 *1137:14 2.72859e-05
15 *799:10 *1137:14 7.17836e-05
16 *857:12 *1137:14 0.00012501
17 *1042:12 *3076:B 5.52238e-05
18 *1042:12 *3077:B 9.90367e-05
*RES
1 *2990:X *1137:14 41.1571 
2 *1137:14 *3076:B 10.2464 
3 *1137:14 *3077:B 13.8714 
*END

*D_NET *1138 0.00150221
*CONN
*I *3314:A I *D sky130_fd_sc_hd__xor2_1
*I *3315:A I *D sky130_fd_sc_hd__and2_1
*I *2591:X O *D sky130_fd_sc_hd__or2_1
*CAP
1 *3314:A 2.57978e-05
2 *3315:A 0.000128404
3 *2591:X 0.000241914
4 *1138:10 0.000396116
5 *3315:A *1458:8 0.000127446
6 *2338:B *3315:A 9.90431e-05
7 *2473:A *3315:A 2.28159e-05
8 *2479:A *3315:A 5.62995e-05
9 *2569:B *3314:A 0.000142856
10 *3191:A *3315:A 5.80706e-06
11 *3191:A *1138:10 7.14714e-05
12 *3191:B *1138:10 1.58163e-05
13 *3315:B *3315:A 0
14 *18:25 *1138:10 7.6644e-05
15 *26:79 *3314:A 7.77751e-05
16 *36:339 *1138:10 1.40034e-05
17 *332:10 *3315:A 0
*RES
1 *2591:X *1138:10 17.2107 
2 *1138:10 *3315:A 17.3 
3 *1138:10 *3314:A 15.1571 
*END

*D_NET *1139 0.00120208
*CONN
*I *2994:A I *D sky130_fd_sc_hd__xor2_1
*I *2995:A1 I *D sky130_fd_sc_hd__a21o_1
*I *2992:X O *D sky130_fd_sc_hd__xor2_1
*CAP
1 *2994:A 0
2 *2995:A1 0.000173775
3 *2992:X 0.000150036
4 *1139:12 0.000323811
5 *2995:A1 *2995:B1 3.4792e-05
6 *1139:12 *1145:10 0.000199986
7 *2704:A *1139:12 0
8 *2994:B *2995:A1 0.000197661
9 *20:232 *2995:A1 2.78509e-05
10 *20:232 *1139:12 9.41642e-05
*RES
1 *2992:X *1139:12 21.8 
2 *1139:12 *2995:A1 12.8536 
3 *1139:12 *2994:A 9.3 
*END

*D_NET *1140 0.000417954
*CONN
*I *2995:B1 I *D sky130_fd_sc_hd__a21o_1
*I *2993:X O *D sky130_fd_sc_hd__and2_1
*CAP
1 *2995:B1 0.000141684
2 *2993:X 0.000141684
3 *2995:B1 *1142:10 2.62628e-05
4 *2822:B *2995:B1 0
5 *2994:B *2995:B1 3.4792e-05
6 *2995:A1 *2995:B1 3.4792e-05
7 *916:12 *2995:B1 1.49631e-05
8 *1137:14 *2995:B1 2.37761e-05
*RES
1 *2993:X *2995:B1 30.1089 
*END

*D_NET *1141 0.000847361
*CONN
*I *3072:A I *D sky130_fd_sc_hd__xor2_1
*I *3073:A I *D sky130_fd_sc_hd__and2_1
*I *2994:X O *D sky130_fd_sc_hd__xor2_1
*CAP
1 *3072:A 4.10202e-05
2 *3073:A 8.41271e-05
3 *2994:X 8.40843e-05
4 *1141:10 0.000209232
5 *3072:A *3072:B 9.66796e-05
6 *3072:A *3074:A 0
7 *3073:A *3072:B 0.000140933
8 *1141:10 *3073:B 6.4974e-06
9 *1141:10 *1145:10 3.41101e-05
10 *1141:10 *1221:10 3.55395e-05
11 *10:179 *3072:A 3.67257e-05
12 *10:179 *3073:A 7.84126e-05
*RES
1 *2994:X *1141:10 19.9429 
2 *1141:10 *3073:A 11.4786 
3 *1141:10 *3072:A 10.675 
*END

*D_NET *1142 0.00247034
*CONN
*I *3078:B I *D sky130_fd_sc_hd__xor2_1
*I *3079:A2 I *D sky130_fd_sc_hd__a21o_1
*I *2995:X O *D sky130_fd_sc_hd__a21o_1
*CAP
1 *3078:B 0
2 *3079:A2 6.23466e-05
3 *2995:X 0.000577616
4 *1142:10 0.000639963
5 *3079:A2 *3079:A1 7.7307e-05
6 *1142:10 *3079:B1 0
7 *1142:10 *1222:10 0.000128154
8 *1142:10 *1447:10 1.50181e-05
9 *2764:B *1142:10 0
10 *2767:B *1142:10 0
11 *2822:B *1142:10 0
12 *2995:B1 *1142:10 2.62628e-05
13 *1042:12 *1142:10 0.000125724
14 *1137:14 *1142:10 0.000817948
*RES
1 *2995:X *1142:10 31.175 
2 *1142:10 *3079:A2 10.675 
3 *1142:10 *3078:B 9.3 
*END

*D_NET *1143 0.000952821
*CONN
*I *2998:A I *D sky130_fd_sc_hd__xor2_1
*I *2999:A1 I *D sky130_fd_sc_hd__a21o_1
*I *2996:X O *D sky130_fd_sc_hd__xor2_1
*CAP
1 *2998:A 0.000102797
2 *2999:A1 8.10949e-05
3 *2996:X 0
4 *1143:4 0.000183892
5 *2996:B *2998:A 0
6 *2997:A *2998:A 0
7 *2998:B *2998:A 0.00010096
8 *2998:B *2999:A1 0.000187733
9 *21:138 *2999:A1 3.69047e-06
10 *35:220 *2998:A 2.93966e-05
11 *35:220 *2999:A1 5.33005e-05
12 *976:12 *2999:A1 0.000199706
13 *1087:12 *2999:A1 1.02504e-05
*RES
1 *2996:X *1143:4 9.3 
2 *1143:4 *2999:A1 21.3893 
3 *1143:4 *2998:A 11.4964 
*END

*D_NET *1144 0.000812428
*CONN
*I *2999:B1 I *D sky130_fd_sc_hd__a21o_1
*I *2997:X O *D sky130_fd_sc_hd__and2_1
*CAP
1 *2999:B1 0.000197677
2 *2997:X 0.000197677
3 *2828:A *2999:B1 3.34295e-05
4 *35:220 *2999:B1 0.000178847
5 *38:91 *2999:B1 5.41797e-05
6 *976:12 *2999:B1 0.000150618
*RES
1 *2997:X *2999:B1 31.3143 
*END

*D_NET *1145 0.00330123
*CONN
*I *3073:B I *D sky130_fd_sc_hd__and2_1
*I *3072:B I *D sky130_fd_sc_hd__xor2_1
*I *2998:X O *D sky130_fd_sc_hd__xor2_1
*CAP
1 *3073:B 3.26072e-05
2 *3072:B 9.97817e-05
3 *2998:X 0.000410317
4 *1145:10 0.000542706
5 *3072:B *3074:A 3.08382e-06
6 *3072:B *3075:B1 0.00018372
7 *3073:B *1221:10 0
8 *3073:B *1447:10 4.52768e-05
9 *1145:10 *1447:10 0.000385371
10 *2704:A *1145:10 0
11 *2992:A *1145:10 4.43256e-05
12 *2993:A *1145:10 0.000230475
13 *2993:B *1145:10 1.21258e-05
14 *3072:A *3072:B 9.66796e-05
15 *3073:A *3072:B 0.000140933
16 *9:157 *1145:10 0
17 *10:179 *3072:B 9.99644e-06
18 *35:220 *1145:10 0.000823243
19 *1139:12 *1145:10 0.000199986
20 *1141:10 *3073:B 6.4974e-06
21 *1141:10 *1145:10 3.41101e-05
*RES
1 *2998:X *1145:10 26.7107 
2 *1145:10 *3072:B 16.8179 
3 *1145:10 *3073:B 14.5321 
*END

*D_NET *1146 0.0033419
*CONN
*I *3083:B I *D sky130_fd_sc_hd__xor2_1
*I *3084:A2 I *D sky130_fd_sc_hd__a21o_1
*I *2999:X O *D sky130_fd_sc_hd__a21o_1
*CAP
1 *3083:B 0
2 *3084:A2 9.29465e-05
3 *2999:X 0.000797257
4 *1146:16 0.000890204
5 *3084:A2 *3083:A 9.51506e-05
6 *3084:A2 *1229:10 0
7 *1146:16 *1227:12 0
8 *1146:16 *1229:10 2.32751e-05
9 *2772:B *1146:16 0
10 *2822:B *1146:16 5.52238e-05
11 *3305:A *1146:16 8.98897e-05
12 *3305:B *1146:16 0
13 *11:180 *1146:16 0.000693787
14 *21:138 *1146:16 0
15 *37:42 *1146:16 0.000186413
16 *38:91 *1146:16 0.000258797
17 *206:14 *1146:16 0
18 *865:14 *1146:16 0.000158956
*RES
1 *2999:X *1146:16 36.9429 
2 *1146:16 *3084:A2 11.4964 
3 *1146:16 *3083:B 9.3 
*END

*D_NET *1147 0.000822226
*CONN
*I *3003:A I *D sky130_fd_sc_hd__xor2_1
*I *3004:A1 I *D sky130_fd_sc_hd__a21o_1
*I *3000:X O *D sky130_fd_sc_hd__xor2_1
*CAP
1 *3003:A 0
2 *3004:A1 0.000108006
3 *3000:X 0.00013166
4 *1147:10 0.000239666
5 *1147:10 *3004:B1 0
6 *3003:B *3004:A1 0.000111383
7 *40:185 *3004:A1 3.14078e-05
8 *275:12 *1147:10 0.000197276
9 *757:16 *1147:10 0
10 *805:10 *1147:10 2.8266e-06
*RES
1 *3000:X *1147:10 20.8536 
2 *1147:10 *3004:A1 11.4964 
3 *1147:10 *3003:A 9.3 
*END

*D_NET *1148 0.00028153
*CONN
*I *3004:B1 I *D sky130_fd_sc_hd__a21o_1
*I *3001:X O *D sky130_fd_sc_hd__and2_1
*CAP
1 *3004:B1 0.000100091
2 *3001:X 0.000100091
3 *2654:B *3004:B1 4.79842e-05
4 *40:185 *3004:B1 2.89016e-05
5 *805:10 *3004:B1 4.46186e-06
6 *1147:10 *3004:B1 0
*RES
1 *3001:X *3004:B1 29.7786 
*END

*D_NET *1149 0.000513235
*CONN
*I *2647:A I *D sky130_fd_sc_hd__or2_1
*I *2603:X O *D sky130_fd_sc_hd__and2_1
*CAP
1 *2647:A 0.000105321
2 *2603:X 0.000105321
3 *4:149 *2647:A 0.000103253
4 *8:38 *2647:A 0.000103253
5 *28:184 *2647:A 9.60875e-05
*RES
1 *2603:X *2647:A 29.8857 
*END

*D_NET *1150 0.00353456
*CONN
*I *3081:A I *D sky130_fd_sc_hd__xor2_1
*I *3082:A I *D sky130_fd_sc_hd__and2_1
*I *3003:X O *D sky130_fd_sc_hd__xor2_1
*CAP
1 *3081:A 0
2 *3082:A 0.000172453
3 *3003:X 0.000615834
4 *1150:10 0.000788287
5 *3082:A *3007:A 0
6 *3082:A *3081:B 9.61553e-05
7 *3082:A *3082:B 1.04232e-05
8 *3082:A *3084:B1 9.99644e-06
9 *3082:A *1154:6 2.89016e-05
10 *1957:A *1150:10 0.000147332
11 *2773:A *1150:10 1.41029e-05
12 *2773:B *1150:10 0
13 *2884:A *1150:10 0.000881661
14 *2884:B *1150:10 0
15 *12:251 *1150:10 0.000211198
16 *139:8 *1150:10 0.000359486
17 *275:12 *1150:10 0.000198729
18 *275:14 *1150:10 0
*RES
1 *3003:X *1150:10 36.9429 
2 *1150:10 *3082:A 12.7464 
3 *1150:10 *3081:A 9.3 
*END

*D_NET *1151 0.00396999
*CONN
*I *3090:A I *D sky130_fd_sc_hd__and2_1
*I *3089:A I *D sky130_fd_sc_hd__xor2_1
*I *3004:X O *D sky130_fd_sc_hd__a21o_1
*CAP
1 *3090:A 0
2 *3089:A 0.000105518
3 *3004:X 0.00139251
4 *1151:12 0.00149803
5 *3089:A *3090:B 0.000233864
6 *3089:A *3093:B1 0.000144773
7 *3089:A *1233:10 1.39726e-05
8 *1151:12 *3008:B1 0
9 *1151:12 *3152:B1 0
10 *1151:12 *1155:12 0
11 *1151:12 *1225:16 0
12 *1955:A *1151:12 0.000195134
13 *1955:B *1151:12 9.79406e-05
14 *1958:A2 *1151:12 0
15 *2654:B *1151:12 0.000195555
16 *2830:A *1151:12 0
17 *2831:A *1151:12 0
18 *2834:B *1151:12 3.93893e-05
19 *2842:A *1151:12 0
20 *2898:B *1151:12 0
21 *2901:B *1151:12 0
22 *2905:B *1151:12 0
23 *11:144 *1151:12 0
24 *11:161 *1151:12 0
25 *28:44 *1151:12 0
26 *28:46 *1151:12 0
27 *37:27 *1151:12 0
28 *40:185 *1151:12 5.33005e-05
29 *275:12 *1151:12 0
30 *275:14 *1151:12 0
31 *982:12 *1151:12 0
*RES
1 *3004:X *1151:12 42.9429 
2 *1151:12 *3089:A 12.8714 
3 *1151:12 *3090:A 9.3 
*END

*D_NET *1152 0.00117944
*CONN
*I *3007:A I *D sky130_fd_sc_hd__xor2_1
*I *3008:A1 I *D sky130_fd_sc_hd__a21o_1
*I *3005:X O *D sky130_fd_sc_hd__xor2_1
*CAP
1 *3007:A 0.000174052
2 *3008:A1 0
3 *3005:X 0.00023952
4 *1152:12 0.000413572
5 *1152:12 *3008:B1 5.16396e-05
6 *1152:12 *1155:12 1.05901e-05
7 *1152:12 *1158:10 0.000154762
8 *2830:A *1152:12 1.02504e-05
9 *3008:A2 *3007:A 0.000125057
10 *3082:A *3007:A 0
*RES
1 *3005:X *1152:12 22.425 
2 *1152:12 *3008:A1 9.3 
3 *1152:12 *3007:A 12.7464 
*END

*D_NET *1153 0.000871663
*CONN
*I *3008:B1 I *D sky130_fd_sc_hd__a21o_1
*I *3006:X O *D sky130_fd_sc_hd__and2_1
*CAP
1 *3008:B1 0.000308138
2 *3006:X 0.000308138
3 *3008:B1 *1158:10 0
4 *2830:A *3008:B1 6.19181e-05
5 *2834:B *3008:B1 0
6 *20:209 *3008:B1 0.00014183
7 *1151:12 *3008:B1 0
8 *1152:12 *3008:B1 5.16396e-05
*RES
1 *3006:X *3008:B1 33.0286 
*END

*D_NET *1154 0.000489311
*CONN
*I *3081:B I *D sky130_fd_sc_hd__xor2_1
*I *3082:B I *D sky130_fd_sc_hd__and2_1
*I *3007:X O *D sky130_fd_sc_hd__xor2_1
*CAP
1 *3081:B 5.2244e-05
2 *3082:B 1.99857e-05
3 *3007:X 7.65359e-05
4 *1154:6 0.000148766
5 *3081:B *3084:B1 5.62995e-05
6 *3082:A *3081:B 9.61553e-05
7 *3082:A *3082:B 1.04232e-05
8 *3082:A *1154:6 2.89016e-05
*RES
1 *3007:X *1154:6 10.6571 
2 *1154:6 *3082:B 9.72857 
3 *1154:6 *3081:B 11.0679 
*END

*D_NET *1155 0.00132686
*CONN
*I *3090:B I *D sky130_fd_sc_hd__and2_1
*I *3089:B I *D sky130_fd_sc_hd__xor2_1
*I *3008:X O *D sky130_fd_sc_hd__a21o_1
*CAP
1 *3090:B 5.64859e-05
2 *3089:B 0
3 *3008:X 0.000336834
4 *1155:12 0.00039332
5 *3090:B *3093:B1 2.14757e-05
6 *3090:B *1233:10 0.000274294
7 *1155:12 *3092:B 0
8 *1155:12 *1158:10 0
9 *3089:A *3090:B 0.000233864
10 *1151:12 *1155:12 0
11 *1152:12 *1155:12 1.05901e-05
*RES
1 *3008:X *1155:12 23.6214 
2 *1155:12 *3089:B 9.3 
3 *1155:12 *3090:B 12.3179 
*END

*D_NET *1156 0.000766934
*CONN
*I *3011:A I *D sky130_fd_sc_hd__xor2_1
*I *3012:A1 I *D sky130_fd_sc_hd__a21o_1
*I *3009:X O *D sky130_fd_sc_hd__xor2_1
*CAP
1 *3011:A 5.8469e-05
2 *3012:A1 7.67145e-05
3 *3009:X 5.48504e-05
4 *1156:10 0.000190034
5 *3012:A1 *1159:14 1.98839e-05
6 *1156:10 *1159:14 5.41794e-05
7 *3011:B *3011:A 9.21506e-05
8 *3011:B *3012:A1 5.33005e-05
9 *3012:A2 *1156:10 3.17148e-05
10 *29:81 *1156:10 3.48139e-05
11 *870:10 *1156:10 0.000100823
*RES
1 *3009:X *1156:10 19.9429 
2 *1156:10 *3012:A1 10.675 
3 *1156:10 *3011:A 10.675 
*END

*D_NET *1157 0.000312938
*CONN
*I *3012:B1 I *D sky130_fd_sc_hd__a21o_1
*I *3010:X O *D sky130_fd_sc_hd__and2_1
*CAP
1 *3012:B1 0.000125157
2 *3010:X 0.000125157
3 *3012:B1 *1159:14 1.83136e-05
4 *9:29 *3012:B1 0
5 *19:222 *3012:B1 4.43106e-05
*RES
1 *3010:X *3012:B1 30.0821 
*END

*D_NET *1158 0.00429417
*CONN
*I *3092:B I *D sky130_fd_sc_hd__xor2_1
*I *3093:A2 I *D sky130_fd_sc_hd__a21o_1
*I *3011:X O *D sky130_fd_sc_hd__xor2_1
*CAP
1 *3092:B 0.00020907
2 *3093:A2 0
3 *3011:X 0.000768773
4 *1158:10 0.000977843
5 *3092:B *3092:A 0.000358635
6 *2830:A *1158:10 0.000246601
7 *2840:B *1158:10 0.000128146
8 *3006:B *1158:10 0.000194355
9 *3008:B1 *1158:10 0
10 *28:44 *1158:10 1.91418e-05
11 *28:46 *1158:10 0
12 *38:49 *1158:10 0.000400672
13 *514:14 *3092:B 0.000103041
14 *514:14 *1158:10 0.000733129
15 *1152:12 *1158:10 0.000154762
16 *1155:12 *3092:B 0
17 *1155:12 *1158:10 0
*RES
1 *3011:X *1158:10 36.3179 
2 *1158:10 *3093:A2 13.8 
3 *1158:10 *3092:B 18.9429 
*END

*D_NET *1159 0.00439005
*CONN
*I *3100:B I *D sky130_fd_sc_hd__xor2_1
*I *3101:A2 I *D sky130_fd_sc_hd__a21o_1
*I *3012:X O *D sky130_fd_sc_hd__a21o_1
*CAP
1 *3100:B 0
2 *3101:A2 6.63289e-05
3 *3012:X 0.00123295
4 *1159:14 0.00129928
5 *3101:A2 *3100:A 5.54903e-05
6 *3101:A2 *3101:A1 2.84026e-05
7 *3101:A2 *3101:B1 1.7451e-05
8 *3101:A2 *1247:12 0.000102362
9 *1159:14 *1246:10 3.08664e-05
10 *1159:14 *1247:12 3.18676e-05
11 *2715:A *1159:14 0
12 *2774:A *1159:14 0
13 *3005:A *1159:14 0.000208994
14 *3011:B *1159:14 9.41642e-05
15 *3012:A1 *1159:14 1.98839e-05
16 *3012:A2 *1159:14 1.31516e-05
17 *3012:B1 *1159:14 1.83136e-05
18 *19:222 *1159:14 0.000255274
19 *20:194 *1159:14 0
20 *29:81 *1159:14 0.000388139
21 *514:14 *1159:14 0.000352448
22 *864:10 *1159:14 0.000120506
23 *1156:10 *1159:14 5.41794e-05
*RES
1 *3012:X *1159:14 44.3893 
2 *1159:14 *3101:A2 11.4964 
3 *1159:14 *3100:B 9.3 
*END

*D_NET *1160 0.00069138
*CONN
*I *2647:B I *D sky130_fd_sc_hd__or2_1
*I *2614:X O *D sky130_fd_sc_hd__and2_1
*CAP
1 *2647:B 0.000219132
2 *2614:X 0.000219132
3 *2536:A *2647:B 0
4 *4:149 *2647:B 5.10822e-05
5 *8:38 *2647:B 1.72894e-05
6 *28:184 *2647:B 0.000184745
*RES
1 *2614:X *2647:B 31.2429 
*END

*D_NET *1161 0.000971332
*CONN
*I *3175:B I *D sky130_fd_sc_hd__and2_1
*I *3174:B I *D sky130_fd_sc_hd__xor2_1
*I *3014:X O *D sky130_fd_sc_hd__xor2_1
*CAP
1 *3175:B 8.82398e-05
2 *3174:B 0.000113059
3 *3014:X 0.000141623
4 *1161:8 0.000342922
5 *3174:B *3175:A 0.000174805
6 *3175:B *3175:A 5.52302e-05
7 *25:151 *3175:B 2.89114e-05
8 *34:136 *3175:B 2.24079e-05
9 *36:22 *3174:B 0
10 *36:22 *1161:8 0
11 *323:12 *1161:8 4.1331e-06
12 *1127:12 *1161:8 0
*RES
1 *3014:X *1161:8 16.3536 
2 *1161:8 *3174:B 16.3536 
3 *1161:8 *3175:B 15.5679 
*END

*D_NET *1162 0.00626035
*CONN
*I *3114:B I *D sky130_fd_sc_hd__xor2_1
*I *3115:B I *D sky130_fd_sc_hd__and2_1
*I *3015:X O *D sky130_fd_sc_hd__and2_1
*CAP
1 *3114:B 0
2 *3115:B 9.67129e-05
3 *3015:X 0.00219786
4 *1162:16 0.000260552
5 *1162:12 0.0023617
6 *1162:12 *2196:A 0.000493102
7 *1162:12 *3178:A 4.58194e-05
8 *1162:12 *3182:A1 3.14048e-05
9 *1162:12 *1258:6 0.000117543
10 *1162:16 *3116:B 5.83304e-05
11 *1162:16 *1167:10 2.31791e-05
12 *1162:16 *1260:10 3.65627e-05
13 *1162:16 *1262:12 5.33978e-05
14 *2382:A *1162:12 0
15 *2604:A *3115:B 0
16 *2604:A *1162:16 0
17 *2604:B *3115:B 0
18 *2605:B *3115:B 0
19 *2605:B *1162:16 0
20 *3112:A2 *1162:12 5.56564e-05
21 *3114:A *3115:B 0.000179656
22 *25:151 *1162:12 0.000238624
23 *763:10 *3115:B 1.02504e-05
*RES
1 *3015:X *1162:12 46.9786 
2 *1162:12 *1162:16 7.66071 
3 *1162:16 *3115:B 16.3536 
4 *1162:16 *3114:B 13.8 
*END

*D_NET *1163 0.00169521
*CONN
*I *3019:A1 I *D sky130_fd_sc_hd__a21o_1
*I *3018:A I *D sky130_fd_sc_hd__xor2_1
*I *3016:X O *D sky130_fd_sc_hd__xor2_1
*CAP
1 *3019:A1 0.000103662
2 *3018:A 0.000116927
3 *3016:X 0.000264672
4 *1163:12 0.000485261
5 *3019:A1 *1166:6 4.87854e-05
6 *3019:A1 *1464:14 0.000274288
7 *1163:12 *3019:B1 9.98846e-05
8 *1163:12 *3118:B 0.000176234
9 *3019:A2 *3018:A 0
10 *3019:A2 *1163:12 0
11 *3119:A *1163:12 1.3142e-05
12 *15:47 *3018:A 9.72853e-05
13 *15:47 *1163:12 4.98055e-06
14 *36:58 *3018:A 1.00887e-05
*RES
1 *3016:X *1163:12 19.7821 
2 *1163:12 *3018:A 16.3536 
3 *1163:12 *3019:A1 16.8179 
*END

*D_NET *1164 0.00103606
*CONN
*I *3019:B1 I *D sky130_fd_sc_hd__a21o_1
*I *3017:X O *D sky130_fd_sc_hd__and2_1
*CAP
1 *3019:B1 0.000393636
2 *3017:X 0.000393636
3 *3019:B1 *3016:A 0.000144773
4 *3019:A2 *3019:B1 4.1331e-06
5 *1163:12 *3019:B1 9.98846e-05
*RES
1 *3017:X *3019:B1 33.475 
*END

*D_NET *1165 0.00288215
*CONN
*I *3178:B I *D sky130_fd_sc_hd__xor2_1
*I *3179:B I *D sky130_fd_sc_hd__and2_1
*I *3018:X O *D sky130_fd_sc_hd__xor2_1
*CAP
1 *3178:B 4.77561e-05
2 *3179:B 0.000220128
3 *3018:X 0.000584687
4 *1165:8 0.000852571
5 *3178:B *3178:A 4.08637e-05
6 *3178:B *1258:6 0.000137983
7 *3179:B *3112:B1 0
8 *2545:B *1165:8 6.45831e-05
9 *3111:B *3179:B 5.62914e-05
10 *5:252 *1165:8 0.000166731
11 *6:28 *1165:8 0
12 *15:47 *1165:8 2.37944e-05
13 *16:97 *1165:8 0
14 *17:40 *1165:8 5.51716e-05
15 *24:38 *3179:B 9.76928e-05
16 *24:38 *1165:8 0.000222163
17 *25:151 *3178:B 0.000178847
18 *34:142 *3179:B 8.02709e-05
19 *703:8 *3179:B 2.8266e-06
20 *703:8 *1165:8 4.97918e-05
*RES
1 *3018:X *1165:8 26.3714 
2 *1165:8 *3179:B 18.5321 
3 *1165:8 *3178:B 15.5679 
*END

*D_NET *1166 0.000805252
*CONN
*I *3119:B I *D sky130_fd_sc_hd__and2_1
*I *3118:B I *D sky130_fd_sc_hd__xor2_1
*I *3019:X O *D sky130_fd_sc_hd__a21o_1
*CAP
1 *3119:B 8.14037e-05
2 *3118:B 4.57223e-05
3 *3019:X 5.92302e-05
4 *1166:6 0.000186356
5 *3119:B *1464:14 2.95726e-05
6 *3019:A1 *1166:6 4.87854e-05
7 *3119:A *3118:B 0.000153054
8 *1088:10 *3118:B 2.48938e-05
9 *1163:12 *3118:B 0.000176234
*RES
1 *3019:X *1166:6 10.2464 
2 *1166:6 *3118:B 20.55 
3 *1166:6 *3119:B 10.675 
*END

*D_NET *1167 0.00102652
*CONN
*I *3117:A2 I *D sky130_fd_sc_hd__a21o_1
*I *3116:B I *D sky130_fd_sc_hd__xor2_1
*I *3020:X O *D sky130_fd_sc_hd__xor2_1
*CAP
1 *3117:A2 0.000127234
2 *3116:B 2.96839e-05
3 *3020:X 0.000164534
4 *1167:10 0.000321452
5 *3116:B *1260:10 5.80706e-06
6 *3117:A2 *2196:A 1.74352e-05
7 *3117:A2 *3116:A 3.28977e-05
8 *3117:A2 *3117:A1 5.62425e-05
9 *2604:A *3116:B 1.78353e-05
10 *2604:A *1167:10 3.75052e-05
11 *2605:B *1167:10 0
12 *34:167 *1167:10 0.000134381
13 *1162:16 *3116:B 5.83304e-05
14 *1162:16 *1167:10 2.31791e-05
*RES
1 *3020:X *1167:10 17.4071 
2 *1167:10 *3116:B 14.5321 
3 *1167:10 *3117:A2 15.9964 
*END

*D_NET *1168 0.00120834
*CONN
*I *3030:A2 I *D sky130_fd_sc_hd__a21o_1
*I *3029:B I *D sky130_fd_sc_hd__xor2_1
*I *3021:X O *D sky130_fd_sc_hd__and2_1
*CAP
1 *3030:A2 0.000156673
2 *3029:B 0
3 *3021:X 0.000294631
4 *1168:6 0.000451305
5 *3030:A2 *3029:A 0.000176941
6 *3030:A2 *3030:B1 3.67279e-06
7 *2615:B *1168:6 3.11088e-05
8 *23:172 *1168:6 3.24049e-05
9 *769:10 *1168:6 6.1602e-05
*RES
1 *3021:X *1168:6 14.7643 
2 *1168:6 *3029:B 9.3 
3 *1168:6 *3030:A2 21.8 
*END

*D_NET *1169 0.000933403
*CONN
*I *3025:A I *D sky130_fd_sc_hd__xor2_1
*I *3026:A1 I *D sky130_fd_sc_hd__a21o_1
*I *3022:X O *D sky130_fd_sc_hd__xor2_1
*CAP
1 *3025:A 0.000166079
2 *3026:A1 5.16984e-05
3 *3022:X 7.31157e-05
4 *1169:6 0.000290893
5 *3026:A2 *3025:A 0.000140577
6 *3026:A2 *3026:A1 1.04232e-05
7 *3026:A2 *1169:6 1.72894e-05
8 *17:103 *3025:A 0.000148182
9 *715:8 *3025:A 3.51442e-05
*RES
1 *3022:X *1169:6 10.2464 
2 *1169:6 *3026:A1 10.3357 
3 *1169:6 *3025:A 21.6036 
*END

*D_NET *1170 0.000759001
*CONN
*I *3026:B1 I *D sky130_fd_sc_hd__a21o_1
*I *3023:X O *D sky130_fd_sc_hd__and2_1
*CAP
1 *3026:B1 0.000213807
2 *3023:X 0.000213807
3 *3026:A2 *3026:B1 3.34295e-05
4 *7:68 *3026:B1 0
5 *17:103 *3026:B1 6.74815e-05
6 *18:205 *3026:B1 0.000230475
*RES
1 *3023:X *3026:B1 31.4214 
*END

*D_NET *1171 0.000251999
*CONN
*I *2658:A I *D sky130_fd_sc_hd__or2_1
*I *2625:X O *D sky130_fd_sc_hd__and2_1
*CAP
1 *2658:A 5.45714e-05
2 *2625:X 5.45714e-05
3 *2625:B *2658:A 0.000142856
*RES
1 *2625:X *2658:A 19.9571 
*END

*D_NET *1172 0.000844688
*CONN
*I *3120:B I *D sky130_fd_sc_hd__xor2_1
*I *3121:A2 I *D sky130_fd_sc_hd__a21o_1
*I *3025:X O *D sky130_fd_sc_hd__xor2_1
*CAP
1 *3120:B 3.76809e-05
2 *3121:A2 0.000124415
3 *3025:X 0
4 *1172:4 0.000162096
5 *3120:B *3120:A 2.65105e-05
6 *3120:B *1267:14 0.00010096
7 *3121:A2 *3120:A 8.18412e-05
8 *3121:A2 *1267:14 0.000311183
9 *2489:A *3121:A2 0
*RES
1 *3025:X *1172:4 9.3 
2 *1172:4 *3121:A2 13.0321 
3 *1172:4 *3120:B 10.675 
*END

*D_NET *1173 0.00380482
*CONN
*I *3039:A2 I *D sky130_fd_sc_hd__a21o_1
*I *3038:B I *D sky130_fd_sc_hd__xor2_1
*I *3026:X O *D sky130_fd_sc_hd__a21o_1
*CAP
1 *3039:A2 0.00010832
2 *3038:B 0
3 *3026:X 0.00148255
4 *1173:10 0.00159087
5 *3039:A2 *3038:A 6.39901e-05
6 *3039:A2 *1474:14 3.37687e-05
7 *1173:10 *3038:A 1.76135e-05
8 *1173:10 *1474:14 4.16114e-05
9 *2673:A *1173:10 9.31209e-05
10 *2675:B *1173:10 2.89114e-05
11 *171:10 *3039:A2 0.000182849
12 *171:10 *1173:10 0.000150625
13 *825:10 *1173:10 1.05901e-05
*RES
1 *3026:X *1173:10 31.8893 
2 *1173:10 *3038:B 13.8 
3 *1173:10 *3039:A2 17.0143 
*END

*D_NET *1174 0.000616743
*CONN
*I *3030:A1 I *D sky130_fd_sc_hd__a21o_1
*I *3029:A I *D sky130_fd_sc_hd__xor2_1
*I *3027:X O *D sky130_fd_sc_hd__xor2_1
*CAP
1 *3030:A1 6.32453e-05
2 *3029:A 0.00010284
3 *3027:X 0
4 *1174:4 0.000166085
5 *3027:B *3029:A 9.15842e-06
6 *3030:A2 *3029:A 0.000176941
7 *354:6 *3030:A1 9.84729e-05
*RES
1 *3027:X *1174:4 9.3 
2 *1174:4 *3029:A 20.8536 
3 *1174:4 *3030:A1 10.675 
*END

*D_NET *1175 0.000722764
*CONN
*I *3030:B1 I *D sky130_fd_sc_hd__a21o_1
*I *3028:X O *D sky130_fd_sc_hd__and2_1
*CAP
1 *3030:B1 0.000262133
2 *3028:X 0.000262133
3 *3030:B1 *1266:10 7.48554e-05
4 *3030:A2 *3030:B1 3.67279e-06
5 *232:14 *3030:B1 0.000119969
*RES
1 *3028:X *3030:B1 31.725 
*END

*D_NET *1176 0.000699711
*CONN
*I *3183:A I *D sky130_fd_sc_hd__xor2_1
*I *3184:A I *D sky130_fd_sc_hd__and2_1
*I *3029:X O *D sky130_fd_sc_hd__xor2_1
*CAP
1 *3183:A 0
2 *3184:A 0.000108158
3 *3029:X 0.000136417
4 *1176:10 0.000244576
5 *3184:A *3117:B1 0
6 *3184:A *3183:B 0.000153054
7 *3184:A *3186:B1 0
8 *1176:10 *3183:B 2.48938e-05
9 *1176:10 *3185:B 3.26118e-05
10 *1176:10 *3186:B1 0
11 *2604:B *3184:A 0
12 *33:173 *1176:10 0
*RES
1 *3029:X *1176:10 16.2821 
2 *1176:10 *3184:A 16.05 
3 *1176:10 *3183:A 13.8 
*END

*D_NET *1177 0.00685752
*CONN
*I *3126:A2 I *D sky130_fd_sc_hd__a21o_1
*I *3125:B I *D sky130_fd_sc_hd__xor2_1
*I *3030:X O *D sky130_fd_sc_hd__a21o_1
*CAP
1 *3126:A2 0.000135688
2 *3125:B 0
3 *3030:X 0.000966373
4 *1177:14 0.00127825
5 *1177:12 0.00210894
6 *3126:A2 *3125:A 0.000104584
7 *3126:A2 *1186:10 1.00375e-05
8 *1177:12 *2213:A 0.000507233
9 *1177:12 *1334:10 0
10 *1177:14 *1996:A2 1.18064e-05
11 *1177:14 *3187:B 0
12 *1177:14 *3190:A1 0.000154762
13 *1177:14 *3190:A2 0
14 *1177:14 *3348:A2 0
15 *1177:14 *1186:10 0.000253097
16 *1177:14 *1267:14 0
17 *1177:14 *1271:8 0
18 *1177:14 *1334:10 0
19 *1177:14 *1389:10 0
20 *1995:A *1177:14 0.000175519
21 *1996:B1 *1177:14 0.000128154
22 *2055:B1 *1177:12 0
23 *2055:B1 *1177:14 0
24 *2057:A *1177:14 0.000119684
25 *2201:B *1177:12 5.23822e-05
26 *2209:A *1177:12 0.000311309
27 *2210:A *1177:12 1.84865e-05
28 *2218:A *1177:14 0
29 *90:10 *1177:14 3.32346e-05
30 *172:26 *1177:14 0
31 *235:10 *1177:12 0
32 *354:6 *1177:12 0.000487985
*RES
1 *3030:X *1177:12 30.8625 
2 *1177:12 *1177:14 23.9554 
3 *1177:14 *3125:B 13.8 
4 *1177:14 *3126:A2 17.0143 
*END

*D_NET *1178 0.00102186
*CONN
*I *3034:A1 I *D sky130_fd_sc_hd__a21o_1
*I *3033:A I *D sky130_fd_sc_hd__xor2_1
*I *3031:X O *D sky130_fd_sc_hd__xor2_1
*CAP
1 *3034:A1 6.66339e-05
2 *3033:A 0.000118465
3 *3031:X 0.000185099
4 *3033:B *3033:A 9.77274e-05
5 *3034:A2 *3033:A 0.000100831
6 *3045:A *3034:A1 3.57366e-05
7 *100:12 *3033:A 0
8 *890:6 *3033:A 2.89114e-05
9 *1092:14 *3033:A 0.000276211
10 *1093:18 *3034:A1 3.4879e-05
11 *1095:10 *3033:A 7.73662e-05
*RES
1 *3031:X *3033:A 32.1357 
2 *3031:X *3034:A1 19.975 
*END

*D_NET *1179 0.000924603
*CONN
*I *3034:B1 I *D sky130_fd_sc_hd__a21o_1
*I *3032:X O *D sky130_fd_sc_hd__and2_1
*CAP
1 *3034:B1 0.000269263
2 *3032:X 0.000269263
3 *3033:B *3034:B1 0.000142856
4 *3034:A2 *3034:B1 5.26184e-05
5 *100:12 *3034:B1 5.26184e-05
6 *890:6 *3034:B1 0.000137983
*RES
1 *3032:X *3034:B1 32.1357 
*END

*D_NET *1180 0.000602065
*CONN
*I *3122:B I *D sky130_fd_sc_hd__xor2_1
*I *3123:B I *D sky130_fd_sc_hd__and2_1
*I *3033:X O *D sky130_fd_sc_hd__xor2_1
*CAP
1 *3122:B 6.6106e-05
2 *3123:B 1.79444e-05
3 *3033:X 7.17033e-05
4 *1180:6 0.000155754
5 *3122:A *3122:B 0.000161769
6 *3122:A *3123:B 1.04232e-05
7 *3122:A *1180:6 5.62995e-05
8 *3123:A *3123:B 5.7661e-06
9 *1092:14 *1180:6 5.62995e-05
*RES
1 *3033:X *1180:6 11.0679 
2 *1180:6 *3123:B 9.72857 
3 *1180:6 *3122:B 11.0679 
*END

*D_NET *1181 0.000629088
*CONN
*I *3045:B I *D sky130_fd_sc_hd__and2_1
*I *3044:B I *D sky130_fd_sc_hd__xor2_1
*I *3034:X O *D sky130_fd_sc_hd__a21o_1
*CAP
1 *3045:B 0
2 *3044:B 7.47139e-05
3 *3034:X 5.12051e-05
4 *1181:6 0.000125919
5 *3044:B *1195:12 1.41029e-05
6 *3044:A *3044:B 0.000128154
7 *3044:A *1181:6 7.32272e-05
8 *3045:A *1181:6 5.52238e-05
9 *3049:A2 *3044:B 0
10 *100:12 *3044:B 0.000106542
*RES
1 *3034:X *1181:6 10.6571 
2 *1181:6 *3044:B 20.8536 
3 *1181:6 *3045:B 9.3 
*END

*D_NET *1182 0.000530584
*CONN
*I *2658:B I *D sky130_fd_sc_hd__or2_1
*I *2636:X O *D sky130_fd_sc_hd__and2_1
*CAP
1 *2658:B 0.000137431
2 *2636:X 0.000137431
3 *3224:A *2658:B 0.00010096
4 *3257:A *2658:B 0
5 *38:313 *2658:B 0.000154762
*RES
1 *2636:X *2658:B 30.4929 
*END

*D_NET *1183 0.000770849
*CONN
*I *3039:A1 I *D sky130_fd_sc_hd__a21o_1
*I *3038:A I *D sky130_fd_sc_hd__xor2_1
*I *3036:X O *D sky130_fd_sc_hd__xor2_1
*CAP
1 *3039:A1 4.70377e-05
2 *3038:A 0.000144271
3 *3036:X 0.000191309
4 *3038:A *1474:14 0.00015304
5 *3039:A1 *3039:B1 5.45515e-05
6 *3036:A *3039:A1 0
7 *3036:B *3039:A1 0
8 *3039:A2 *3038:A 6.39901e-05
9 *172:26 *3039:A1 9.90367e-05
10 *1173:10 *3038:A 1.76135e-05
*RES
1 *3036:X *3038:A 30.9036 
2 *3036:X *3039:A1 19.975 
*END

*D_NET *1184 0.0007631
*CONN
*I *3039:B1 I *D sky130_fd_sc_hd__a21o_1
*I *3037:X O *D sky130_fd_sc_hd__and2_1
*CAP
1 *3039:B1 0.000273967
2 *3037:X 0.000273967
3 *3036:A *3039:B1 8.07313e-05
4 *3036:B *3039:B1 1.74352e-05
5 *3039:A1 *3039:B1 5.45515e-05
6 *172:26 *3039:B1 6.24482e-05
*RES
1 *3037:X *3039:B1 23.6714 
*END

*D_NET *1185 0.000700517
*CONN
*I *3187:A I *D sky130_fd_sc_hd__xor2_1
*I *3188:A I *D sky130_fd_sc_hd__and2_1
*I *3038:X O *D sky130_fd_sc_hd__xor2_1
*CAP
1 *3187:A 6.48872e-05
2 *3188:A 8.78469e-05
3 *3038:X 0.000108554
4 *1185:8 0.000261288
5 *3188:A *3187:B 0.000177941
6 *171:10 *3188:A 0
*RES
1 *3038:X *1185:8 11.0857 
2 *1185:8 *3188:A 20.55 
3 *1185:8 *3187:A 10.2464 
*END

*D_NET *1186 0.00560336
*CONN
*I *3130:A2 I *D sky130_fd_sc_hd__a21o_1
*I *3129:B I *D sky130_fd_sc_hd__xor2_1
*I *3039:X O *D sky130_fd_sc_hd__a21o_1
*CAP
1 *3130:A2 0.000150197
2 *3129:B 0
3 *3039:X 0.00131351
4 *1186:14 0.000309668
5 *1186:10 0.00147298
6 *3130:A2 *3129:A 9.80029e-05
7 *1186:10 *3125:A 9.24299e-05
8 *1186:10 *1271:8 0.000377426
9 *1186:10 *1272:12 0.000121948
10 *1999:A *1186:10 0.000179656
11 *2000:A2 *1186:10 0
12 *2056:B *1186:10 0.000194299
13 *2057:A *1186:10 0.000227021
14 *3126:A2 *1186:10 1.00375e-05
15 *90:10 *1186:10 0.000202835
16 *91:10 *1186:10 0
17 *172:26 *1186:10 0.000362286
18 *181:10 *3130:A2 0
19 *181:10 *1186:10 0.000128154
20 *245:8 *3130:A2 0.000109809
21 *1177:14 *1186:10 0.000253097
*RES
1 *3039:X *1186:10 47.5143 
2 *1186:10 *1186:14 7.08929 
3 *1186:14 *3129:B 9.3 
4 *1186:14 *3130:A2 22.2107 
*END

*D_NET *1187 0.000921684
*CONN
*I *3043:A1 I *D sky130_fd_sc_hd__a21o_1
*I *3042:A I *D sky130_fd_sc_hd__xor2_1
*I *3040:X O *D sky130_fd_sc_hd__xor2_1
*CAP
1 *3043:A1 0
2 *3042:A 6.96984e-05
3 *3040:X 0.000154372
4 *1187:12 0.000224071
5 *3042:A *1198:18 0.000184745
6 *1187:12 *1195:12 0.000150625
7 *3042:B *3042:A 0.000127921
8 *185:8 *1187:12 0
9 *1106:12 *1187:12 1.02504e-05
*RES
1 *3040:X *1187:12 20.7821 
2 *1187:12 *3042:A 11.925 
3 *1187:12 *3043:A1 9.3 
*END

*D_NET *1188 0.000797966
*CONN
*I *3043:B1 I *D sky130_fd_sc_hd__a21o_1
*I *3041:X O *D sky130_fd_sc_hd__and2_1
*CAP
1 *3043:B1 0.000181181
2 *3041:X 0.000181181
3 *3043:B1 *1195:12 0.000344925
4 *3043:B1 *1403:8 0
5 *3040:B *3043:B1 8.39e-05
6 *103:12 *3043:B1 6.78055e-06
*RES
1 *3041:X *3043:B1 32.5107 
*END

*D_NET *1189 0.00193124
*CONN
*I *3127:B I *D sky130_fd_sc_hd__xor2_1
*I *3128:B I *D sky130_fd_sc_hd__and2_1
*I *3042:X O *D sky130_fd_sc_hd__xor2_1
*CAP
1 *3127:B 0
2 *3128:B 9.82988e-05
3 *3042:X 0.000471547
4 *1189:14 0.000569845
5 *1189:14 *1198:18 1.33343e-05
6 *2003:A *3128:B 0
7 *2003:A *1189:14 0
8 *2067:A *1189:14 6.16744e-05
9 *3127:A *3128:B 0.000176234
10 *3127:A *1189:14 5.33005e-05
11 *181:10 *3128:B 0.000198698
12 *181:10 *1189:14 5.88692e-05
13 *184:12 *1189:14 0.000229443
14 *185:8 *1189:14 0
*RES
1 *3042:X *1189:14 27.5143 
2 *1189:14 *3128:B 21.3893 
3 *1189:14 *3127:B 9.3 
*END

*D_NET *1190 0.0012324
*CONN
*I *3131:A I *D sky130_fd_sc_hd__xor2_1
*I *3132:A I *D sky130_fd_sc_hd__and2_1
*I *3043:X O *D sky130_fd_sc_hd__a21o_1
*CAP
1 *3131:A 0.000117458
2 *3132:A 0
3 *3043:X 0.000277999
4 *1190:16 0.000395458
5 *3131:A *3131:B 0.00010236
6 *3131:A *3132:B 9.90367e-05
7 *3131:A *3134:B1 6.86792e-05
8 *1190:16 *1195:12 0.000154124
9 *1190:16 *1198:18 1.72894e-05
10 *898:12 *1190:16 0
*RES
1 *3043:X *1190:16 23.9786 
2 *1190:16 *3132:A 9.3 
3 *1190:16 *3131:A 12.7286 
*END

*D_NET *1191 0.000667821
*CONN
*I *3048:A I *D sky130_fd_sc_hd__xor2_1
*I *3049:A1 I *D sky130_fd_sc_hd__a21o_1
*I *3044:X O *D sky130_fd_sc_hd__xor2_1
*CAP
1 *3048:A 7.05193e-05
2 *3049:A1 6.86363e-05
3 *3044:X 6.64542e-05
4 *1191:8 0.00020561
5 *3049:A1 *1195:12 0
6 *3049:A2 *3048:A 5.52302e-05
7 *3049:A2 *3049:A1 0.000128154
8 *1099:8 *3048:A 1.98839e-05
9 *1099:8 *1191:8 5.33334e-05
*RES
1 *3044:X *1191:8 10.675 
2 *1191:8 *3049:A1 19.9429 
3 *1191:8 *3048:A 10.6571 
*END

*D_NET *1192 0.000168662
*CONN
*I *3049:B1 I *D sky130_fd_sc_hd__a21o_1
*I *3045:X O *D sky130_fd_sc_hd__and2_1
*CAP
1 *3049:B1 6.83974e-05
2 *3045:X 6.83974e-05
3 *3049:B1 *1195:12 3.18676e-05
*RES
1 *3045:X *3049:B1 19.9571 
*END

*D_NET *1193 0.00210866
*CONN
*I *3016:A I *D sky130_fd_sc_hd__xor2_1
*I *3017:A I *D sky130_fd_sc_hd__and2_1
*I *2647:X O *D sky130_fd_sc_hd__or2_1
*CAP
1 *3016:A 0.000126251
2 *3017:A 0.000608539
3 *2647:X 0.000482288
4 *3017:A *1259:14 0.000102197
5 *3017:B *3016:A 0.000115586
6 *3019:B1 *3016:A 0.000144773
7 *4:149 *3017:A 0
8 *14:54 *3017:A 0
9 *14:62 *3017:A 0.000358373
10 *37:151 *3017:A 0.000170654
11 *381:12 *3017:A 0
*RES
1 *2647:X *3017:A 36.6893 
2 *3017:A *3016:A 22.0464 
*END

*D_NET *1194 0.000836616
*CONN
*I *3192:A I *D sky130_fd_sc_hd__xor2_1
*I *3193:A I *D sky130_fd_sc_hd__and2_1
*I *3048:X O *D sky130_fd_sc_hd__xor2_1
*CAP
1 *3192:A 0.000142694
2 *3193:A 0
3 *3048:X 0.000162356
4 *1194:6 0.00030505
5 *3192:A *3192:B 0.000153289
6 *3192:A *3195:B1 7.32272e-05
*RES
1 *3048:X *1194:6 11.8893 
2 *1194:6 *3193:A 9.3 
3 *1194:6 *3192:A 12.7286 
*END

*D_NET *1195 0.00399585
*CONN
*I *3131:B I *D sky130_fd_sc_hd__xor2_1
*I *3132:B I *D sky130_fd_sc_hd__and2_1
*I *3049:X O *D sky130_fd_sc_hd__a21o_1
*CAP
1 *3131:B 0.000140625
2 *3132:B 3.64512e-05
3 *3049:X 0.00114904
4 *1195:12 0.00132611
5 *3131:B *3134:B1 1.32552e-05
6 *3131:B *1277:8 1.3701e-05
7 *1195:12 *1280:12 0.000148189
8 *1195:12 *1403:8 0
9 *2004:A2 *1195:12 0
10 *3040:B *1195:12 1.78447e-05
11 *3043:B1 *1195:12 0.000344925
12 *3044:A *1195:12 0.000128154
13 *3044:B *1195:12 1.41029e-05
14 *3049:A1 *1195:12 0
15 *3049:A2 *1195:12 0
16 *3049:B1 *1195:12 3.18676e-05
17 *3131:A *3131:B 0.00010236
18 *3131:A *3132:B 9.90367e-05
19 *94:12 *1195:12 0
20 *100:12 *1195:12 0
21 *185:8 *1195:12 0
22 *1106:12 *1195:12 0.00012544
23 *1187:12 *1195:12 0.000150625
24 *1190:16 *1195:12 0.000154124
*RES
1 *3049:X *1195:12 42.6393 
2 *1195:12 *3132:B 10.2464 
3 *1195:12 *3131:B 12.2286 
*END

*D_NET *1196 0.00108639
*CONN
*I *3053:A1 I *D sky130_fd_sc_hd__a21o_1
*I *3052:A I *D sky130_fd_sc_hd__xor2_1
*I *3050:X O *D sky130_fd_sc_hd__xor2_1
*CAP
1 *3053:A1 0
2 *3052:A 7.98695e-05
3 *3050:X 0.000190341
4 *1196:12 0.00027021
5 *2505:B *1196:12 7.52646e-06
6 *3053:A2 *3052:A 0.000127931
7 *8:100 *1196:12 0.000148196
8 *16:167 *1196:12 1.40415e-05
9 *16:180 *1196:12 0.000150618
10 *20:80 *3052:A 9.7659e-05
*RES
1 *3050:X *1196:12 21.6036 
2 *1196:12 *3052:A 11.925 
3 *1196:12 *3053:A1 9.3 
*END

*D_NET *1197 0.00071031
*CONN
*I *3053:B1 I *D sky130_fd_sc_hd__a21o_1
*I *3051:X O *D sky130_fd_sc_hd__and2_1
*CAP
1 *3053:B1 0.000235138
2 *3051:X 0.000235138
3 *6:98 *3053:B1 5.26091e-05
4 *20:80 *3053:B1 0.000132577
5 *39:216 *3053:B1 5.48488e-05
*RES
1 *3051:X *3053:B1 32.9571 
*END

*D_NET *1198 0.00994674
*CONN
*I *3133:B I *D sky130_fd_sc_hd__xor2_1
*I *3134:A2 I *D sky130_fd_sc_hd__a21o_1
*I *3052:X O *D sky130_fd_sc_hd__xor2_1
*CAP
1 *3133:B 0.000123353
2 *3134:A2 0
3 *3052:X 0.000184854
4 *1198:18 0.00180095
5 *1198:10 0.00186245
6 *3133:B *3133:A 5.52302e-05
7 *3133:B *3134:A1 0.000191877
8 *3133:B *1276:10 0
9 *1198:18 *3134:A1 1.02504e-05
10 *1198:18 *1199:14 0.000514623
11 *1198:18 *1404:10 1.15281e-05
12 *1198:18 *1412:12 1.72894e-05
13 *2067:A *1198:18 0
14 *2632:A *1198:18 0.000222666
15 *2633:B *1198:10 0.000106533
16 *2811:A *1198:18 0.00102859
17 *2811:B *1198:18 4.72818e-05
18 *2812:B *1198:18 8.3725e-05
19 *3042:A *1198:18 0.000184745
20 *3042:B *1198:18 1.95962e-05
21 *3259:B *1198:18 0.000271352
22 *3267:A2 *1198:18 0.000170955
23 *8:115 *1198:10 0
24 *17:167 *1198:10 0.000183593
25 *19:90 *1198:18 1.38323e-05
26 *19:104 *1198:18 0.00281085
27 *107:16 *3133:B 0
28 *107:16 *1198:18 0
29 *185:8 *1198:18 0
30 *1189:14 *1198:18 1.33343e-05
31 *1190:16 *1198:18 1.72894e-05
*RES
1 *3052:X *1198:10 22.9786 
2 *1198:10 *1198:18 49.5 
3 *1198:18 *3134:A2 13.8 
4 *1198:18 *3133:B 16.8893 
*END

*D_NET *1199 0.0121585
*CONN
*I *3137:A I *D sky130_fd_sc_hd__and2_1
*I *3136:A I *D sky130_fd_sc_hd__xor2_1
*I *3053:X O *D sky130_fd_sc_hd__a21o_1
*CAP
1 *3137:A 0.000274441
2 *3136:A 0
3 *3053:X 0.000924869
4 *1199:24 0.00217517
5 *1199:18 0.00297865
6 *1199:14 0.0020028
7 *3137:A *3138:B 2.42082e-05
8 *3137:A *3139:B1 0.000169269
9 *3137:A *1280:12 0
10 *1199:18 *3359:A 2.49484e-05
11 *1199:24 *3138:B 6.39262e-05
12 *1199:24 *3139:B1 0.000179656
13 *1199:24 *1203:8 2.19778e-05
14 *1199:24 *1285:10 2.72859e-05
15 *1199:24 *1420:12 0.000262498
16 *2444:B *1199:14 0.000136982
17 *2510:B *1199:18 0.000289673
18 *2515:A *1199:18 0.000100831
19 *2575:B *1199:18 5.01213e-05
20 *2632:A *1199:14 9.31893e-05
21 *2694:A *1199:24 9.41642e-05
22 *2695:B *1199:18 7.83659e-05
23 *2750:A *1199:24 0.000357098
24 *6:98 *1199:14 9.32849e-05
25 *17:178 *1199:18 0
26 *17:206 *1199:18 0
27 *19:104 *1199:18 5.41794e-05
28 *28:133 *1199:18 0.00031995
29 *28:146 *1199:18 0
30 *36:187 *1199:24 0.00015732
31 *38:142 *1199:18 0.000273262
32 *113:10 *1199:18 0
33 *734:10 *1199:18 0.000125731
34 *1132:34 *3137:A 1.78353e-05
35 *1132:34 *1199:24 1.78447e-05
36 *1136:16 *1199:24 0.000254306
37 *1198:18 *1199:14 0.000514623
*RES
1 *3053:X *1199:14 36.2464 
2 *1199:14 *1199:18 29.2143 
3 *1199:18 *1199:24 38.6964 
4 *1199:24 *3136:A 13.8 
5 *1199:24 *3137:A 18.9429 
*END

*D_NET *1200 0.000949379
*CONN
*I *3056:A I *D sky130_fd_sc_hd__xor2_1
*I *3057:A1 I *D sky130_fd_sc_hd__a21o_1
*I *3054:X O *D sky130_fd_sc_hd__xor2_1
*CAP
1 *3056:A 9.7913e-05
2 *3057:A1 3.99504e-05
3 *3054:X 9.00186e-05
4 *1200:8 0.000227882
5 *3056:A *1280:12 7.39741e-05
6 *3057:A1 *1280:12 0.00015304
7 *3056:B *3056:A 0.000113561
8 *3056:B *3057:A1 0.00014279
9 *254:14 *3056:A 0
10 *1119:10 *3057:A1 1.02504e-05
*RES
1 *3054:X *1200:8 14.7464 
2 *1200:8 *3057:A1 15.7464 
3 *1200:8 *3056:A 16.1929 
*END

*D_NET *1201 0.00094421
*CONN
*I *3057:B1 I *D sky130_fd_sc_hd__a21o_1
*I *3055:X O *D sky130_fd_sc_hd__and2_1
*CAP
1 *3057:B1 0.000296001
2 *3055:X 0.000296001
3 *3057:B1 *1203:8 0.000128146
4 *3057:B1 *1280:12 7.92879e-05
5 *3054:A *3057:B1 0.000144773
6 *1132:34 *3057:B1 0
*RES
1 *3055:X *3057:B1 32.6714 
*END

*D_NET *1202 0.00255922
*CONN
*I *3197:A I *D sky130_fd_sc_hd__and2_1
*I *3196:A I *D sky130_fd_sc_hd__xor2_1
*I *3056:X O *D sky130_fd_sc_hd__xor2_1
*CAP
1 *3197:A 0
2 *3196:A 0.000127795
3 *3056:X 0.00061974
4 *1202:10 0.000747535
5 *3196:A *3197:B 0.000190004
6 *3196:A *3198:B 4.87854e-05
7 *3196:A *3199:A1 9.80173e-05
8 *3196:A *1276:10 3.34366e-05
9 *1202:10 *1344:10 0.000185396
10 *2269:A *1202:10 1.59782e-05
11 *249:8 *3196:A 9.84638e-05
12 *249:8 *1202:10 0.000193663
13 *253:12 *1202:10 0.000200406
14 *432:12 *1202:10 0
*RES
1 *3056:X *1202:10 26.55 
2 *1202:10 *3196:A 18.2643 
3 *1202:10 *3197:A 13.8 
*END

*D_NET *1203 0.00170624
*CONN
*I *3138:B I *D sky130_fd_sc_hd__xor2_1
*I *3139:A2 I *D sky130_fd_sc_hd__a21o_1
*I *3057:X O *D sky130_fd_sc_hd__a21o_1
*CAP
1 *3138:B 0.000181599
2 *3139:A2 2.61224e-05
3 *3057:X 0.000307431
4 *1203:8 0.000515153
5 *3138:B *3138:A 5.61433e-05
6 *3138:B *3139:A1 0.000153047
7 *3138:B *1280:12 2.47093e-05
8 *3139:A2 *3139:A1 2.89016e-05
9 *1203:8 *1280:12 0.000174876
10 *3057:B1 *1203:8 0.000128146
11 *3137:A *3138:B 2.42082e-05
12 *1132:34 *1203:8 0
13 *1199:24 *3138:B 6.39262e-05
14 *1199:24 *1203:8 2.19778e-05
*RES
1 *3057:X *1203:8 21.2107 
2 *1203:8 *3139:A2 14.3357 
3 *1203:8 *3138:B 18.4429 
*END

*D_NET *1204 0.00113562
*CONN
*I *3316:A I *D sky130_fd_sc_hd__xor2_1
*I *3317:A I *D sky130_fd_sc_hd__and2_1
*I *2658:X O *D sky130_fd_sc_hd__or2_1
*CAP
1 *3316:A 0.000177404
2 *3317:A 0
3 *2658:X 0.000147086
4 *1204:6 0.00032449
5 *2394:A *3316:A 1.74352e-05
6 *2625:B *1204:6 7.63411e-05
7 *3257:A *1204:6 5.33005e-05
8 *3316:B *3316:A 0.000186316
9 *390:6 *3316:A 9.80173e-05
10 *390:6 *1204:6 5.52302e-05
*RES
1 *2658:X *1204:6 12.3 
2 *1204:6 *3317:A 9.3 
3 *1204:6 *3316:A 13.5857 
*END

*D_NET *1205 0.000742957
*CONN
*I *3062:A1 I *D sky130_fd_sc_hd__a21o_1
*I *3061:A I *D sky130_fd_sc_hd__xor2_1
*I *3059:X O *D sky130_fd_sc_hd__xor2_1
*CAP
1 *3062:A1 5.01291e-05
2 *3061:A 0.000133806
3 *3059:X 0
4 *1205:4 0.000183935
5 *3062:A1 *1208:14 0.000153047
6 *3059:A *3061:A 0
7 *3061:B *3061:A 4.37639e-05
8 *3062:A2 *3062:A1 0.00015234
9 *1123:12 *3061:A 2.59355e-05
*RES
1 *3059:X *1205:4 9.3 
2 *1205:4 *3061:A 11.4964 
3 *1205:4 *3062:A1 20.2464 
*END

*D_NET *1206 0.000853532
*CONN
*I *3062:B1 I *D sky130_fd_sc_hd__a21o_1
*I *3060:X O *D sky130_fd_sc_hd__and2_1
*CAP
1 *3062:B1 0.000224304
2 *3060:X 0.000224304
3 *3062:B1 *1208:14 7.6644e-05
4 *3060:B *3062:B1 0.000180764
5 *3062:A2 *3062:B1 1.59689e-05
6 *1115:10 *3062:B1 0.000123288
7 *1123:12 *3062:B1 8.25843e-06
*RES
1 *3060:X *3062:B1 31.4214 
*END

*D_NET *1207 0.000943024
*CONN
*I *3136:B I *D sky130_fd_sc_hd__xor2_1
*I *3137:B I *D sky130_fd_sc_hd__and2_1
*I *3061:X O *D sky130_fd_sc_hd__xor2_1
*CAP
1 *3136:B 9.34735e-05
2 *3137:B 5.33128e-05
3 *3061:X 0.000124306
4 *1207:6 0.000271092
5 *3137:B *1285:10 0.00020042
6 *1132:34 *3137:B 0.00020042
*RES
1 *3061:X *1207:6 11.0679 
2 *1207:6 *3137:B 20.8536 
3 *1207:6 *3136:B 10.6571 
*END

*D_NET *1208 0.00405034
*CONN
*I *3141:A I *D sky130_fd_sc_hd__and2_1
*I *3140:A I *D sky130_fd_sc_hd__xor2_1
*I *3062:X O *D sky130_fd_sc_hd__a21o_1
*CAP
1 *3141:A 8.84207e-05
2 *3140:A 0
3 *3062:X 0.00102726
4 *1208:14 0.00111568
5 *3141:A *3140:B 0.0001409
6 *3141:A *3143:B1 1.21289e-05
7 *3141:A *1216:14 3.48705e-05
8 *3141:A *1289:16 0.000320024
9 *1208:14 *3142:A 0
10 *1208:14 *3143:A2 0
11 *1208:14 *3143:B1 9.90367e-05
12 *1208:14 *1289:16 3.14078e-05
13 *2750:A *1208:14 0.000136958
14 *2816:B *1208:14 8.08118e-05
15 *2817:B *1208:14 8.04913e-05
16 *2820:A *1208:14 0.000104974
17 *2981:A *1208:14 0.000128146
18 *2982:A2 *1208:14 3.22834e-05
19 *3059:B *1208:14 3.17163e-05
20 *3062:A1 *1208:14 0.000153047
21 *3062:A2 *1208:14 1.17968e-05
22 *3062:B1 *1208:14 7.6644e-05
23 *11:222 *1208:14 0
24 *21:168 *1208:14 0
25 *25:282 *1208:14 0.000131553
26 *35:192 *1208:14 0.000131553
27 *969:10 *1208:14 6.97972e-05
28 *1115:10 *1208:14 1.08359e-05
29 *1129:12 *1208:14 0
*RES
1 *3062:X *1208:14 41.675 
2 *1208:14 *3140:A 9.3 
3 *1208:14 *3141:A 13.4607 
*END

*D_NET *1209 0.000575471
*CONN
*I *3066:A1 I *D sky130_fd_sc_hd__a21o_1
*I *3065:A I *D sky130_fd_sc_hd__xor2_1
*I *3063:X O *D sky130_fd_sc_hd__xor2_1
*CAP
1 *3066:A1 3.86761e-05
2 *3065:A 0.000147012
3 *3063:X 3.91785e-05
4 *1209:6 0.000224867
5 *3065:A *1211:12 1.41706e-05
6 *3066:A1 *3066:B1 4.22908e-05
7 *1209:6 *3066:B1 1.21289e-05
8 *3063:A *3066:A1 0
9 *3064:B *3065:A 0
10 *3066:A2 *3065:A 0
11 *3066:A2 *1209:6 5.71472e-05
12 *1132:34 *3065:A 0
*RES
1 *3063:X *1209:6 10.2464 
2 *1209:6 *3065:A 20.9786 
3 *1209:6 *3066:A1 10.8 
*END

*D_NET *1210 0.00103291
*CONN
*I *3066:B1 I *D sky130_fd_sc_hd__a21o_1
*I *3064:X O *D sky130_fd_sc_hd__and2_1
*CAP
1 *3066:B1 0.000378932
2 *3064:X 0.000378932
3 *3063:A *3066:B1 0.00014285
4 *3066:A1 *3066:B1 4.22908e-05
5 *3066:A2 *3066:B1 7.77751e-05
6 *1209:6 *3066:B1 1.21289e-05
*RES
1 *3064:X *3066:B1 23.975 
*END

*D_NET *1211 0.000962026
*CONN
*I *3200:A I *D sky130_fd_sc_hd__xor2_1
*I *3201:A I *D sky130_fd_sc_hd__and2_1
*I *3065:X O *D sky130_fd_sc_hd__xor2_1
*CAP
1 *3200:A 0.000167147
2 *3201:A 0
3 *3065:X 0.000190908
4 *1211:12 0.000358055
5 *3200:A *3200:B 0.000153279
6 *3200:A *3201:B 5.52238e-05
7 *3200:A *3204:A1 0
8 *3200:A *3204:B1 1.74352e-05
9 *1211:12 *1280:12 5.80706e-06
10 *1211:12 *1349:10 0
11 *3065:A *1211:12 1.41706e-05
12 *1132:34 *1211:12 0
*RES
1 *3065:X *1211:12 21.3893 
2 *1211:12 *3201:A 9.3 
3 *1211:12 *3200:A 12.7464 
*END

*D_NET *1212 0.00258209
*CONN
*I *3142:B I *D sky130_fd_sc_hd__xor2_1
*I *3143:A2 I *D sky130_fd_sc_hd__a21o_1
*I *3066:X O *D sky130_fd_sc_hd__a21o_1
*CAP
1 *3142:B 0
2 *3143:A2 0.000160025
3 *3066:X 0.000783522
4 *1212:14 0.000943547
5 *3143:A2 *3142:A 0.000134198
6 *3143:A2 *3208:B1 0
7 *3143:A2 *1353:12 0
8 *1212:14 *2285:B 0
9 *1212:14 *3205:B 0
10 *1212:14 *3208:A2 8.36572e-05
11 *1212:14 *1285:10 0
12 *1212:14 *1288:6 0.000183713
13 *1212:14 *1349:10 0
14 *2287:B1 *1212:14 0
15 *443:10 *1212:14 0.000293422
16 *1208:14 *3143:A2 0
*RES
1 *3066:X *1212:14 32.8179 
2 *1212:14 *3143:A2 21.3893 
3 *1212:14 *3142:B 9.3 
*END

*D_NET *1213 0.000974563
*CONN
*I *3070:A I *D sky130_fd_sc_hd__xor2_1
*I *3071:A1 I *D sky130_fd_sc_hd__a21o_1
*I *3067:X O *D sky130_fd_sc_hd__xor2_1
*CAP
1 *3070:A 3.71093e-05
2 *3071:A1 0.000332144
3 *3067:X 0
4 *1213:4 0.000369253
5 *3071:A1 *1216:14 0
6 *3067:B *3070:A 1.3701e-05
7 *3070:B *3070:A 6.20656e-05
8 *3071:A2 *3071:A1 0
9 *26:232 *3070:A 1.74352e-05
10 *1129:12 *3070:A 0.000142856
*RES
1 *3067:X *1213:4 9.3 
2 *1213:4 *3071:A1 22.425 
3 *1213:4 *3070:A 11.0857 
*END

*D_NET *1214 0.000191685
*CONN
*I *3071:B1 I *D sky130_fd_sc_hd__a21o_1
*I *3068:X O *D sky130_fd_sc_hd__and2_1
*CAP
1 *3071:B1 7.18503e-05
2 *3068:X 7.18503e-05
3 *3071:A2 *3071:B1 4.79842e-05
4 *194:10 *3071:B1 0
*RES
1 *3068:X *3071:B1 29.2429 
*END

*D_NET *1215 0.000253999
*CONN
*I *2714:A I *D sky130_fd_sc_hd__or2_1
*I *2669:X O *D sky130_fd_sc_hd__and2_1
*CAP
1 *2714:A 5.46132e-05
2 *2669:X 5.46132e-05
3 *39:245 *2714:A 0.000144773
*RES
1 *2669:X *2714:A 19.9571 
*END

*D_NET *1216 0.0022066
*CONN
*I *3140:B I *D sky130_fd_sc_hd__xor2_1
*I *3141:B I *D sky130_fd_sc_hd__and2_1
*I *3070:X O *D sky130_fd_sc_hd__xor2_1
*CAP
1 *3140:B 5.3332e-05
2 *3141:B 0
3 *3070:X 0.000704975
4 *1216:14 0.000758307
5 *3140:B *3143:B1 0.00010096
6 *1216:14 *1289:16 0.000163298
7 *2078:B1 *1216:14 5.71472e-05
8 *3071:A1 *1216:14 0
9 *3141:A *3140:B 0.0001409
10 *3141:A *1216:14 3.48705e-05
11 *190:10 *1216:14 0.000175519
12 *258:12 *1216:14 1.72894e-05
*RES
1 *3070:X *1216:14 31.3714 
2 *1216:14 *3141:B 9.3 
3 *1216:14 *3140:B 11.4964 
*END

*D_NET *1217 0.00410853
*CONN
*I *3145:A I *D sky130_fd_sc_hd__and2_1
*I *3144:A I *D sky130_fd_sc_hd__xor2_1
*I *3071:X O *D sky130_fd_sc_hd__a21o_1
*CAP
1 *3145:A 0
2 *3144:A 0.000104926
3 *3071:X 0.00133374
4 *1217:10 0.00143867
5 *3144:A *1221:10 0.000227021
6 *3144:A *1434:12 0
7 *1217:10 *3373:B 7.77652e-05
8 *1217:10 *1430:16 0.000195176
9 *1217:10 *1440:8 5.52238e-05
10 *2895:A *1217:10 5.52302e-05
11 *2895:B *1217:10 0.000186669
12 *3296:A *1217:10 0.000139907
13 *3296:B *1217:10 1.74352e-05
14 *3297:A *1217:10 0.000186662
15 *126:12 *1217:10 5.52302e-05
16 *1043:12 *3144:A 0
17 *1043:12 *1217:10 3.4879e-05
*RES
1 *3071:X *1217:10 33.2821 
2 *1217:10 *3144:A 21.1571 
3 *1217:10 *3145:A 9.3 
*END

*D_NET *1218 0.000895376
*CONN
*I *3075:A1 I *D sky130_fd_sc_hd__a21o_1
*I *3074:A I *D sky130_fd_sc_hd__xor2_1
*I *3072:X O *D sky130_fd_sc_hd__xor2_1
*CAP
1 *3075:A1 9.74814e-05
2 *3074:A 6.64252e-05
3 *3072:X 0
4 *1218:4 0.000163907
5 *3075:A1 *3075:B1 7.62707e-05
6 *2703:A *3075:A1 0.000184914
7 *3072:A *3074:A 0
8 *3072:B *3074:A 3.08382e-06
9 *3074:B *3074:A 5.52302e-05
10 *9:157 *3074:A 3.37161e-05
11 *9:157 *3075:A1 6.05009e-05
12 *10:179 *3074:A 4.72818e-05
13 *19:269 *3074:A 9.60939e-05
14 *19:269 *3075:A1 1.04707e-05
*RES
1 *3072:X *1218:4 9.3 
2 *1218:4 *3074:A 11.4964 
3 *1218:4 *3075:A1 21.3893 
*END

*D_NET *1219 0.000976362
*CONN
*I *3075:B1 I *D sky130_fd_sc_hd__a21o_1
*I *3073:X O *D sky130_fd_sc_hd__and2_1
*CAP
1 *3075:B1 0.000255759
2 *3073:X 0.000255759
3 *3072:B *3075:B1 0.00018372
4 *3075:A1 *3075:B1 7.62707e-05
5 *9:157 *3075:B1 0.000202719
6 *10:179 *3075:B1 2.13481e-06
*RES
1 *3073:X *3075:B1 32.1357 
*END

*D_NET *1220 0.00919407
*CONN
*I *3205:A I *D sky130_fd_sc_hd__xor2_1
*I *3206:A I *D sky130_fd_sc_hd__and2_1
*I *3074:X O *D sky130_fd_sc_hd__xor2_1
*CAP
1 *3205:A 0
2 *3206:A 0.000141189
3 *3074:X 0.000135387
4 *1220:24 0.00221117
5 *1220:12 0.00220537
6 *3206:A *3205:B 6.30023e-05
7 *3206:A *1285:10 2.8266e-06
8 *1220:12 *1434:12 0.000236275
9 *1220:24 *1350:8 0
10 *2756:A *1220:24 2.44318e-05
11 *2757:A *1220:24 0.00040086
12 *2761:A *1220:24 0.000317082
13 *2829:A *1220:24 5.71472e-05
14 *2978:A *1220:24 3.47255e-05
15 *2979:B *1220:24 0.000186662
16 *2982:A1 *1220:24 0.000197612
17 *2982:A2 *1220:24 2.89016e-05
18 *2982:B1 *1220:24 6.44345e-05
19 *3292:A *1220:24 2.61099e-05
20 *3293:B *1220:24 0.000186662
21 *9:157 *1220:12 2.89114e-05
22 *10:188 *1220:24 0.00144841
23 *19:269 *1220:12 2.59355e-05
24 *21:149 *1220:24 0.000353079
25 *21:168 *3206:A 0
26 *21:168 *1220:24 0.000275883
27 *36:220 *1220:24 0.00022459
28 *36:238 *1220:24 2.95641e-05
29 *36:240 *1220:12 0.000189407
30 *36:265 *1220:12 4.5147e-05
31 *36:265 *1220:24 5.33005e-05
*RES
1 *3074:X *1220:12 21.9964 
2 *1220:12 *1220:24 43.8571 
3 *1220:24 *3206:A 21.0857 
4 *1220:24 *3205:A 9.3 
*END

*D_NET *1221 0.00237766
*CONN
*I *3147:B I *D sky130_fd_sc_hd__xor2_1
*I *3148:A2 I *D sky130_fd_sc_hd__a21o_1
*I *3075:X O *D sky130_fd_sc_hd__a21o_1
*CAP
1 *3147:B 3.35682e-05
2 *3148:A2 1.55834e-05
3 *3075:X 0.00074666
4 *1221:10 0.000795811
5 *3147:B *3147:A 5.32166e-05
6 *3147:B *1451:12 1.92905e-05
7 *3148:A2 *3147:A 5.52238e-05
8 *3148:A2 *1451:12 1.92789e-05
9 *1221:10 *3145:B 0.000202835
10 *1221:10 *3148:B1 0
11 *1221:10 *1290:12 7.38748e-05
12 *1221:10 *1447:10 0
13 *2886:A *1221:10 0
14 *2895:B *1221:10 0
15 *3073:B *1221:10 0
16 *3144:A *1221:10 0.000227021
17 *9:157 *1221:10 9.97552e-05
18 *19:269 *1221:10 0
19 *36:265 *1221:10 0
20 *1043:12 *1221:10 0
21 *1141:10 *1221:10 3.55395e-05
*RES
1 *3075:X *1221:10 32.0857 
2 *1221:10 *3148:A2 9.83571 
3 *1221:10 *3147:B 10.2643 
*END

*D_NET *1222 0.0006952
*CONN
*I *3078:A I *D sky130_fd_sc_hd__xor2_1
*I *3079:A1 I *D sky130_fd_sc_hd__a21o_1
*I *3076:X O *D sky130_fd_sc_hd__xor2_1
*CAP
1 *3078:A 0
2 *3079:A1 7.32599e-05
3 *3076:X 5.25388e-05
4 *1222:10 0.000125799
5 *3079:A1 *1229:16 0.000156548
6 *1222:10 *3079:B1 0
7 *1222:10 *1447:10 8.15939e-05
8 *3079:A2 *3079:A1 7.7307e-05
9 *1142:10 *1222:10 0.000128154
*RES
1 *3076:X *1222:10 20.2464 
2 *1222:10 *3079:A1 11.6214 
3 *1222:10 *3078:A 9.3 
*END

*D_NET *1223 0.000328523
*CONN
*I *3079:B1 I *D sky130_fd_sc_hd__a21o_1
*I *3077:X O *D sky130_fd_sc_hd__and2_1
*CAP
1 *3079:B1 0.000148328
2 *3077:X 0.000148328
3 *3077:A *3079:B1 3.18676e-05
4 *138:14 *3079:B1 0
5 *1142:10 *3079:B1 0
6 *1222:10 *3079:B1 0
*RES
1 *3077:X *3079:B1 30.0821 
*END

*D_NET *1224 0.00078679
*CONN
*I *3144:B I *D sky130_fd_sc_hd__xor2_1
*I *3145:B I *D sky130_fd_sc_hd__and2_1
*I *3078:X O *D sky130_fd_sc_hd__xor2_1
*CAP
1 *3144:B 3.08471e-05
2 *3145:B 7.69438e-05
3 *3078:X 8.65334e-05
4 *1224:6 0.000194324
5 *3144:B *1229:16 1.58163e-05
6 *3145:B *3148:B1 3.15739e-05
7 *3145:B *1290:12 3.17148e-05
8 *3145:B *1447:10 0
9 *1224:6 *1229:16 6.09773e-05
10 *1224:6 *1290:12 5.52238e-05
11 *1221:10 *3145:B 0.000202835
*RES
1 *3078:X *1224:6 11.0679 
2 *1224:6 *3145:B 20.8536 
3 *1224:6 *3144:B 9.83571 
*END

*D_NET *1225 0.00462252
*CONN
*I *3150:B I *D sky130_fd_sc_hd__and2_1
*I *3149:B I *D sky130_fd_sc_hd__xor2_1
*I *3079:X O *D sky130_fd_sc_hd__a21o_1
*CAP
1 *3150:B 6.11213e-05
2 *3149:B 2.9238e-05
3 *3079:X 0.0017108
4 *1225:16 0.00180116
5 *3149:B *1238:6 5.33005e-05
6 *3150:B *3150:A 2.82057e-05
7 *3150:B *3152:B1 0.000142082
8 *1225:16 *3152:A1 0.000154762
9 *1225:16 *3152:A2 2.89114e-05
10 *1225:16 *3152:B1 0.000200406
11 *1225:16 *1294:10 0.000257456
12 *1225:16 *1447:10 0
13 *138:14 *1225:16 0
14 *275:14 *3150:B 0.000106542
15 *275:14 *1225:16 4.8542e-05
16 *1151:12 *1225:16 0
*RES
1 *3079:X *1225:16 45.9071 
2 *1225:16 *3149:B 14.3357 
3 *1225:16 *3150:B 16.3536 
*END

*D_NET *1226 0.000176307
*CONN
*I *2714:B I *D sky130_fd_sc_hd__or2_1
*I *2680:X O *D sky130_fd_sc_hd__and2_1
*CAP
1 *2714:B 4.13328e-05
2 *2680:X 4.13328e-05
3 *2680:B *2714:B 5.56943e-05
4 *4:160 *2714:B 3.79467e-05
*RES
1 *2680:X *2714:B 28.9393 
*END

*D_NET *1227 0.000832901
*CONN
*I *3083:A I *D sky130_fd_sc_hd__xor2_1
*I *3084:A1 I *D sky130_fd_sc_hd__a21o_1
*I *3081:X O *D sky130_fd_sc_hd__xor2_1
*CAP
1 *3083:A 0.000125652
2 *3084:A1 0
3 *3081:X 0.000243224
4 *1227:12 0.000368875
5 *3083:A *1229:10 0
6 *1227:12 *3084:B1 0
7 *3084:A2 *3083:A 9.51506e-05
8 *1146:16 *1227:12 0
*RES
1 *3081:X *1227:12 21.6036 
2 *1227:12 *3084:A1 9.3 
3 *1227:12 *3083:A 11.925 
*END

*D_NET *1228 0.000767683
*CONN
*I *3084:B1 I *D sky130_fd_sc_hd__a21o_1
*I *3082:X O *D sky130_fd_sc_hd__and2_1
*CAP
1 *3084:B1 0.00033476
2 *3082:X 0.00033476
3 *3084:B1 *1230:12 3.18676e-05
4 *3081:B *3084:B1 5.62995e-05
5 *3082:A *3084:B1 9.99644e-06
6 *275:14 *3084:B1 0
7 *1227:12 *3084:B1 0
*RES
1 *3082:X *3084:B1 33.0821 
*END

*D_NET *1229 0.00894261
*CONN
*I *3210:A I *D sky130_fd_sc_hd__and2_1
*I *3209:A I *D sky130_fd_sc_hd__xor2_1
*I *3083:X O *D sky130_fd_sc_hd__xor2_1
*CAP
1 *3210:A 0.00010104
2 *3209:A 7.38547e-05
3 *3083:X 0.00042189
4 *1229:16 0.00334306
5 *1229:10 0.00359005
6 *3209:A *3210:B 5.52238e-05
7 *3209:A *1293:6 4.13595e-05
8 *3210:A *1357:12 0.00020042
9 *1229:10 *3308:A1 0.000120509
10 *1229:16 *3298:B 1.92905e-05
11 *1229:16 *3371:B 0.000100625
12 *1229:16 *3372:A 9.99644e-06
13 *1229:16 *1357:12 0.000126439
14 *1229:16 *1442:8 0.000178459
15 *3079:A1 *1229:16 0.000156548
16 *3083:A *1229:10 0
17 *3084:A2 *1229:10 0
18 *3144:B *1229:16 1.58163e-05
19 *3305:B *1229:10 1.98124e-05
20 *3373:A *1229:16 8.07313e-05
21 *3374:B1 *1229:16 6.13757e-06
22 *125:6 *1229:16 0.000197094
23 *1146:16 *1229:10 2.32751e-05
24 *1224:6 *1229:16 6.09773e-05
*RES
1 *3083:X *1229:10 16.3357 
2 *1229:10 *1229:16 43.6429 
3 *1229:16 *3209:A 15.1571 
4 *1229:16 *3210:A 16.3536 
*END

*D_NET *1230 0.00173753
*CONN
*I *3215:A I *D sky130_fd_sc_hd__and2_1
*I *3214:A I *D sky130_fd_sc_hd__xor2_1
*I *3084:X O *D sky130_fd_sc_hd__a21o_1
*CAP
1 *3215:A 0
2 *3214:A 0.000145363
3 *3084:X 0.000393475
4 *1230:12 0.000538838
5 *3214:A *3214:B 0.000240905
6 *3214:A *3217:B1 0.000186662
7 *1230:12 *3152:A2 0
8 *1230:12 *1297:12 0.00020042
9 *3084:B1 *1230:12 3.18676e-05
10 *275:14 *1230:12 0
*RES
1 *3084:X *1230:12 25.3357 
2 *1230:12 *3214:A 13.1571 
3 *1230:12 *3215:A 9.3 
*END

*D_NET *1231 0.000556541
*CONN
*I *3087:A I *D sky130_fd_sc_hd__xor2_1
*I *3088:A1 I *D sky130_fd_sc_hd__a21o_1
*I *3085:X O *D sky130_fd_sc_hd__xor2_1
*CAP
1 *3087:A 4.77448e-05
2 *3088:A1 7.44476e-05
3 *3085:X 5.02952e-05
4 *1231:6 0.000172488
5 *3087:A *1234:14 3.0233e-05
6 *3088:A1 *3088:B1 7.83366e-05
7 *1231:6 *1234:14 5.03772e-05
8 *3087:B *3088:A1 5.26184e-05
*RES
1 *3085:X *1231:6 10.2464 
2 *1231:6 *3088:A1 20.2464 
3 *1231:6 *3087:A 10.4205 
*END

*D_NET *1232 0.000796121
*CONN
*I *3088:B1 I *D sky130_fd_sc_hd__a21o_1
*I *3086:X O *D sky130_fd_sc_hd__and2_1
*CAP
1 *3088:B1 0.000193621
2 *3086:X 0.000193621
3 *3086:B *3088:B1 0.000130129
4 *3087:B *3088:B1 0
5 *3088:A1 *3088:B1 7.83366e-05
6 *516:12 *3088:B1 0
7 *989:8 *3088:B1 0.000200413
8 *1048:8 *3088:B1 0
*RES
1 *3086:X *3088:B1 32.2071 
*END

*D_NET *1233 0.00414463
*CONN
*I *3150:A I *D sky130_fd_sc_hd__and2_1
*I *3149:A I *D sky130_fd_sc_hd__xor2_1
*I *3087:X O *D sky130_fd_sc_hd__xor2_1
*CAP
1 *3150:A 3.98607e-05
2 *3149:A 0
3 *3087:X 0.0011494
4 *1233:10 0.00118926
5 *3150:A *3152:B1 0.000129868
6 *3150:A *1298:12 0.000169405
7 *1233:10 *3093:A1 9.80173e-05
8 *1233:10 *3093:B1 7.47252e-05
9 *1233:10 *3152:B1 0.000175526
10 *1233:10 *3153:A 2.59355e-05
11 *1233:10 *3156:B1 1.97756e-05
12 *1233:10 *3222:A 6.58992e-05
13 *1233:10 *3223:A 0.000184521
14 *1233:10 *3223:B 1.10868e-05
15 *1233:10 *1234:14 1.55885e-05
16 *1233:10 *1239:12 5.71472e-05
17 *1233:10 *1298:12 0.00015234
18 *1233:10 *1306:14 0.0002698
19 *3089:A *1233:10 1.39726e-05
20 *3090:B *1233:10 0.000274294
21 *3150:B *3150:A 2.82057e-05
*RES
1 *3087:X *1233:10 35.4786 
2 *1233:10 *3149:A 13.8 
3 *1233:10 *3150:A 16.05 
*END

*D_NET *1234 0.00159016
*CONN
*I *3153:A I *D sky130_fd_sc_hd__xor2_1
*I *3154:A I *D sky130_fd_sc_hd__and2_1
*I *3088:X O *D sky130_fd_sc_hd__a21o_1
*CAP
1 *3153:A 8.98018e-05
2 *3154:A 0
3 *3088:X 0.000324447
4 *1234:14 0.000414249
5 *3153:A *3153:B 0.00019117
6 *3153:A *1242:14 9.25014e-06
7 *3153:A *1371:16 0
8 *3085:B *1234:14 2.59355e-05
9 *3087:A *1234:14 3.0233e-05
10 *3087:B *1234:14 2.89016e-05
11 *516:12 *3153:A 0.000225314
12 *930:10 *1234:14 5.56943e-05
13 *989:8 *1234:14 0.00010326
14 *1231:6 *1234:14 5.03772e-05
15 *1233:10 *3153:A 2.59355e-05
16 *1233:10 *1234:14 1.55885e-05
*RES
1 *3088:X *1234:14 24.3 
2 *1234:14 *3154:A 9.3 
3 *1234:14 *3153:A 21.6929 
*END

*D_NET *1235 0.000995097
*CONN
*I *3092:A I *D sky130_fd_sc_hd__xor2_1
*I *3093:A1 I *D sky130_fd_sc_hd__a21o_1
*I *3089:X O *D sky130_fd_sc_hd__xor2_1
*CAP
1 *3092:A 0.000191773
2 *3093:A1 4.36665e-05
3 *3089:X 0.00023544
4 *3093:A1 *3093:B1 5.75275e-05
5 *3092:B *3092:A 0.000358635
6 *514:14 *3092:A 1.00375e-05
7 *1233:10 *3093:A1 9.80173e-05
*RES
1 *3089:X *3093:A1 19.975 
2 *3089:X *3092:A 32.1357 
*END

*D_NET *1236 0.000829272
*CONN
*I *3093:B1 I *D sky130_fd_sc_hd__a21o_1
*I *3090:X O *D sky130_fd_sc_hd__and2_1
*CAP
1 *3093:B1 0.000265385
2 *3090:X 0.000265385
3 *3089:A *3093:B1 0.000144773
4 *3090:B *3093:B1 2.14757e-05
5 *3093:A1 *3093:B1 5.75275e-05
6 *1233:10 *3093:B1 7.47252e-05
*RES
1 *3090:X *3093:B1 23.6714 
*END

*D_NET *1237 0.000241307
*CONN
*I *2725:A I *D sky130_fd_sc_hd__or2_1
*I *2691:X O *D sky130_fd_sc_hd__and2_1
*CAP
1 *2725:A 7.82523e-05
2 *2691:X 7.82523e-05
3 *2725:A *2725:B 5.52302e-05
4 *29:140 *2725:A 2.95726e-05
*RES
1 *2691:X *2725:A 19.9571 
*END

*D_NET *1238 0.00122557
*CONN
*I *3151:B I *D sky130_fd_sc_hd__xor2_1
*I *3152:A2 I *D sky130_fd_sc_hd__a21o_1
*I *3092:X O *D sky130_fd_sc_hd__xor2_1
*CAP
1 *3151:B 4.54467e-05
2 *3152:A2 0.000122025
3 *3092:X 0.000260351
4 *1238:6 0.000427822
5 *3151:B *3151:A 3.46775e-05
6 *1238:6 *3151:A 2.59355e-05
7 *1238:6 *3152:A1 5.33005e-05
8 *3149:B *1238:6 5.33005e-05
9 *275:14 *3152:A2 0.000173797
10 *1225:16 *3152:A2 2.89114e-05
11 *1230:12 *3152:A2 0
*RES
1 *3092:X *1238:6 13.1214 
2 *1238:6 *3152:A2 21.0857 
3 *1238:6 *3151:B 10.2643 
*END

*D_NET *1239 0.00132539
*CONN
*I *3219:A I *D sky130_fd_sc_hd__and2_1
*I *3218:A I *D sky130_fd_sc_hd__xor2_1
*I *3093:X O *D sky130_fd_sc_hd__a21o_1
*CAP
1 *3219:A 0
2 *3218:A 0.000186129
3 *3093:X 0.000250709
4 *1239:12 0.000436838
5 *3218:A *3218:B 0.000194149
6 *1239:12 *3226:B1 0
7 *1239:12 *1301:12 0.00020042
8 *514:14 *1239:12 0
9 *1233:10 *1239:12 5.71472e-05
*RES
1 *3093:X *1239:12 22.9071 
2 *1239:12 *3218:A 12.7464 
3 *1239:12 *3219:A 9.3 
*END

*D_NET *1240 0.00108126
*CONN
*I *3097:A1 I *D sky130_fd_sc_hd__a21o_1
*I *3096:A I *D sky130_fd_sc_hd__xor2_1
*I *3094:X O *D sky130_fd_sc_hd__xor2_1
*CAP
1 *3097:A1 7.05764e-05
2 *3096:A 0
3 *3094:X 0.000116748
4 *1240:10 0.000187324
5 *3097:A1 *1242:14 0.000153047
6 *3097:A2 *3097:A1 0.000200413
7 *22:127 *3097:A1 1.3142e-05
8 *22:127 *1240:10 0.000103295
9 *40:153 *1240:10 9.90367e-05
10 *516:22 *3097:A1 2.09495e-05
11 *516:22 *1240:10 6.63476e-05
12 *817:12 *1240:10 5.03772e-05
*RES
1 *3094:X *1240:10 17.3 
2 *1240:10 *3096:A 13.8 
3 *1240:10 *3097:A1 16.6571 
*END

*D_NET *1241 0.000972954
*CONN
*I *3097:B1 I *D sky130_fd_sc_hd__a21o_1
*I *3095:X O *D sky130_fd_sc_hd__and2_1
*CAP
1 *3097:B1 0.000213749
2 *3095:X 0.000213749
3 *12:30 *3097:B1 0.000338502
4 *38:295 *3097:B1 6.56976e-05
5 *516:22 *3097:B1 0.000141257
*RES
1 *3095:X *3097:B1 33.3321 
*END

*D_NET *1242 0.00454824
*CONN
*I *3153:B I *D sky130_fd_sc_hd__xor2_1
*I *3154:B I *D sky130_fd_sc_hd__and2_1
*I *3096:X O *D sky130_fd_sc_hd__xor2_1
*CAP
1 *3153:B 7.22043e-05
2 *3154:B 0
3 *3096:X 0.0010675
4 *1242:14 0.0011397
5 *3153:B *3156:A1 5.48581e-05
6 *3153:B *1371:16 0
7 *1242:14 *3156:A1 5.80217e-05
8 *1242:14 *3162:B1 0
9 *1242:14 *1306:14 0
10 *2848:A *1242:14 5.03694e-05
11 *2907:A *1242:14 0.00015234
12 *2907:B *1242:14 0.000150625
13 *3097:A1 *1242:14 0.000153047
14 *3153:A *3153:B 0.00019117
15 *3153:A *1242:14 9.25014e-06
16 *3160:A *1242:14 0.000195412
17 *9:42 *1242:14 0.00014183
18 *22:127 *1242:14 7.15218e-05
19 *516:12 *1242:14 0.0008681
20 *516:22 *1242:14 0.00017229
*RES
1 *3096:X *1242:14 39.3179 
2 *1242:14 *3154:B 13.8 
3 *1242:14 *3153:B 16.3536 
*END

*D_NET *1243 0.00117733
*CONN
*I *3160:B I *D sky130_fd_sc_hd__and2_1
*I *3159:B I *D sky130_fd_sc_hd__xor2_1
*I *3097:X O *D sky130_fd_sc_hd__a21o_1
*CAP
1 *3160:B 0.000162904
2 *3159:B 1.69531e-05
3 *3097:X 6.8082e-05
4 *1243:8 0.000247939
5 *3160:A *3160:B 5.33005e-05
6 *12:24 *3160:B 9.22225e-05
7 *12:24 *1243:8 3.47641e-06
8 *12:30 *1243:8 7.33804e-05
9 *21:114 *3159:B 5.33005e-05
10 *29:37 *3160:B 9.25014e-06
11 *516:22 *3160:B 0.000196104
12 *516:22 *1243:8 0.000147121
13 *1062:6 *3159:B 5.33005e-05
*RES
1 *3097:X *1243:8 15.7464 
2 *1243:8 *3159:B 14.3357 
3 *1243:8 *3160:B 17.7107 
*END

*D_NET *1244 0.000678354
*CONN
*I *3100:A I *D sky130_fd_sc_hd__xor2_1
*I *3101:A1 I *D sky130_fd_sc_hd__a21o_1
*I *3098:X O *D sky130_fd_sc_hd__xor2_1
*CAP
1 *3100:A 4.05075e-05
2 *3101:A1 2.33868e-05
3 *3098:X 0.000110816
4 *1244:10 0.000174711
5 *3100:A *3101:B1 8.59075e-05
6 *3101:A1 *3101:B1 9.83388e-05
7 *3101:A1 *1247:12 1.13883e-05
8 *1244:10 *3101:B1 4.70193e-05
9 *1244:10 *1371:16 0
10 *3098:A *1244:10 0
11 *3099:B *1244:10 2.38651e-06
12 *3101:A2 *3100:A 5.54903e-05
13 *3101:A2 *3101:A1 2.84026e-05
*RES
1 *3098:X *1244:10 20.55 
2 *1244:10 *3101:A1 10.2464 
3 *1244:10 *3100:A 10.675 
*END

*D_NET *1245 0.00155106
*CONN
*I *3101:B1 I *D sky130_fd_sc_hd__a21o_1
*I *3099:X O *D sky130_fd_sc_hd__and2_1
*CAP
1 *3101:B1 0.00055087
2 *3099:X 0.00055087
3 *3101:B1 *1247:12 9.10026e-06
4 *2774:B *3101:B1 0
5 *3100:A *3101:B1 8.59075e-05
6 *3101:A1 *3101:B1 9.83388e-05
7 *3101:A2 *3101:B1 1.7451e-05
8 *20:194 *3101:B1 4.46186e-06
9 *27:29 *3101:B1 0.000187042
10 *1244:10 *3101:B1 4.70193e-05
*RES
1 *3099:X *3101:B1 36.8679 
*END

*D_NET *1246 0.00151504
*CONN
*I *3155:B I *D sky130_fd_sc_hd__xor2_1
*I *3156:A2 I *D sky130_fd_sc_hd__a21o_1
*I *3100:X O *D sky130_fd_sc_hd__xor2_1
*CAP
1 *3155:B 0.000244545
2 *3156:A2 0.000105371
3 *3100:X 0.000120987
4 *1246:10 0.000470902
5 *3155:B *3155:A 2.84109e-05
6 *3155:B *3226:B1 0.000104974
7 *3155:B *1247:12 0.000164554
8 *3155:B *1302:18 3.80591e-05
9 *3156:A2 *1302:18 5.5033e-05
10 *1246:10 *1247:12 0.000151333
11 *1159:14 *1246:10 3.08664e-05
*RES
1 *3100:X *1246:10 16.2821 
2 *1246:10 *3156:A2 15.5679 
3 *1246:10 *3155:B 19.1393 
*END

*D_NET *1247 0.00222871
*CONN
*I *3223:A I *D sky130_fd_sc_hd__and2_1
*I *3222:A I *D sky130_fd_sc_hd__xor2_1
*I *3101:X O *D sky130_fd_sc_hd__a21o_1
*CAP
1 *3223:A 8.37283e-05
2 *3222:A 3.55222e-05
3 *3101:X 0.000478983
4 *1247:12 0.000598233
5 *3222:A *3223:B 0.000139202
6 *3223:A *3223:B 4.80092e-05
7 *1247:12 *1302:18 0.00012401
8 *1247:12 *1371:16 0
9 *3101:A1 *1247:12 1.13883e-05
10 *3101:A2 *1247:12 0.000102362
11 *3101:B1 *1247:12 9.10026e-06
12 *3155:B *1247:12 0.000164554
13 *1159:14 *1247:12 3.18676e-05
14 *1233:10 *3222:A 6.58992e-05
15 *1233:10 *3223:A 0.000184521
16 *1246:10 *1247:12 0.000151333
*RES
1 *3101:X *1247:12 26.6036 
2 *1247:12 *3222:A 10.6571 
3 *1247:12 *3223:A 11.4964 
*END

*D_NET *1248 0.000538969
*CONN
*I *2725:B I *D sky130_fd_sc_hd__or2_1
*I *2702:X O *D sky130_fd_sc_hd__and2_1
*CAP
1 *2725:B 7.72269e-05
2 *2702:X 7.72269e-05
3 *2691:B *2725:B 9.35228e-06
4 *2702:A *2725:B 0.000188586
5 *2725:A *2725:B 5.52302e-05
6 *29:129 *2725:B 5.76121e-05
7 *29:140 *2725:B 7.37347e-05
*RES
1 *2702:X *2725:B 21.7429 
*END

*D_NET *1249 0.00149704
*CONN
*I *3105:A I *D sky130_fd_sc_hd__xor2_1
*I *3106:A1 I *D sky130_fd_sc_hd__a21o_1
*I *3103:X O *D sky130_fd_sc_hd__xor2_1
*CAP
1 *3105:A 0.000133444
2 *3106:A1 0
3 *3103:X 0.000116924
4 *1249:10 0.000250368
5 *3105:A *3106:B1 5.80706e-06
6 *1249:10 *3106:B1 0.000100959
7 *3105:B *3105:A 0.000181796
8 *3106:A2 *3105:A 0.000187726
9 *3106:A2 *1249:10 1.02504e-05
10 *19:25 *1249:10 5.62995e-05
11 *22:127 *3105:A 0
12 *22:127 *1249:10 0
13 *32:155 *3105:A 2.28598e-05
14 *38:295 *1249:10 9.65171e-05
15 *42:45 *3105:A 0.000117553
16 *516:22 *3105:A 0.0001831
17 *1002:10 *3105:A 3.34366e-05
*RES
1 *3103:X *1249:10 17.3 
2 *1249:10 *3106:A1 13.8 
3 *1249:10 *3105:A 18.8357 
*END

*D_NET *1250 0.000852556
*CONN
*I *3106:B1 I *D sky130_fd_sc_hd__a21o_1
*I *3104:X O *D sky130_fd_sc_hd__and2_1
*CAP
1 *3106:B1 0.000301608
2 *3104:X 0.000301608
3 *3103:A *3106:B1 7.02611e-05
4 *3105:A *3106:B1 5.80706e-06
5 *19:25 *3106:B1 8.0786e-06
6 *22:127 *3106:B1 6.42338e-05
7 *1249:10 *3106:B1 0.000100959
*RES
1 *3104:X *3106:B1 32.2429 
*END

*D_NET *1251 0.00360526
*CONN
*I *3161:B I *D sky130_fd_sc_hd__xor2_1
*I *3162:A2 I *D sky130_fd_sc_hd__a21o_1
*I *3105:X O *D sky130_fd_sc_hd__xor2_1
*CAP
1 *3161:B 8.09022e-05
2 *3162:A2 6.71205e-05
3 *3105:X 0.000519261
4 *1251:10 0.000667284
5 *3161:B *3161:A 5.33005e-05
6 *3161:B *3162:A1 0.000125724
7 *3161:B *3162:B1 0.000196269
8 *1251:10 *2373:A 8.25098e-05
9 *1251:10 *3162:B1 9.25014e-06
10 *1251:10 *3230:A2 0.000145584
11 *1251:10 *1307:10 5.49257e-05
12 *1251:10 *1371:16 1.43864e-05
13 *1251:10 *1371:18 0.000725324
14 *21:114 *3161:B 5.33005e-05
15 *22:127 *3161:B 3.25341e-05
16 *22:127 *1251:10 0.000637942
17 *32:155 *1251:10 0.000139637
*RES
1 *3105:X *1251:10 30.7643 
2 *1251:10 *3162:A2 14.7464 
3 *1251:10 *3161:B 16.8893 
*END

*D_NET *1252 0.000725869
*CONN
*I *3228:A I *D sky130_fd_sc_hd__and2_1
*I *3227:A I *D sky130_fd_sc_hd__xor2_1
*I *3106:X O *D sky130_fd_sc_hd__a21o_1
*CAP
1 *3228:A 0
2 *3227:A 0.000119801
3 *3106:X 2.91227e-05
4 *1252:6 0.000148924
5 *3227:A *3228:B 0.000173804
6 *9:60 *1252:6 9.71197e-05
7 *19:25 *3227:A 3.14048e-05
8 *22:127 *3227:A 9.24299e-05
9 *524:12 *1252:6 3.32631e-05
*RES
1 *3106:X *1252:6 10.2464 
2 *1252:6 *3227:A 21.4964 
3 *1252:6 *3228:A 9.3 
*END

*D_NET *1253 0.00348949
*CONN
*I *2142:A I *D sky130_fd_sc_hd__and2_1
*I *2141:A I *D sky130_fd_sc_hd__xor2_1
*I *3107:X O *D sky130_fd_sc_hd__xor2_1
*CAP
1 *2142:A 0
2 *2141:A 0.000157631
3 *3107:X 0.000865798
4 *1253:12 0.00102343
5 *2141:A *2141:B 2.286e-05
6 *2141:A *2142:B 0.000188586
7 *2144:B1 *2141:A 2.14757e-05
8 *2162:B1 *1253:12 4.16984e-05
9 *2175:A *1253:12 0.000105268
10 *2176:B *1253:12 5.42675e-05
11 *3080:A *1253:12 0.000100823
12 *4:130 *1253:12 0.000236806
13 *14:42 *1253:12 0.000117054
14 *26:21 *1253:12 0.00022266
15 *33:141 *1253:12 0.000302222
16 *338:14 *1253:12 2.89114e-05
*RES
1 *3107:X *1253:12 36.3536 
2 *1253:12 *2141:A 12.7286 
3 *1253:12 *2142:A 9.3 
*END

*D_NET *1254 0.00090937
*CONN
*I *3174:A I *D sky130_fd_sc_hd__xor2_1
*I *3175:A I *D sky130_fd_sc_hd__and2_1
*I *3108:X O *D sky130_fd_sc_hd__and2_1
*CAP
1 *3174:A 0
2 *3175:A 9.53923e-05
3 *3108:X 3.50903e-05
4 *1254:6 0.000130483
5 *1254:6 *1321:18 0.000102197
6 *2382:A *1254:6 5.52302e-05
7 *3174:B *3175:A 0.000174805
8 *3175:B *3175:A 5.52302e-05
9 *5:209 *1254:6 0.00014285
10 *25:151 *3175:A 8.91822e-05
11 *34:136 *3175:A 2.89114e-05
12 *36:22 *3175:A 0
*RES
1 *3108:X *1254:6 11.0679 
2 *1254:6 *3175:A 21.3893 
3 *1254:6 *3174:A 9.3 
*END

*D_NET *1255 0.00129745
*CONN
*I *3112:A1 I *D sky130_fd_sc_hd__a21o_1
*I *3111:A I *D sky130_fd_sc_hd__xor2_1
*I *3109:X O *D sky130_fd_sc_hd__xor2_1
*CAP
1 *3112:A1 0.000138961
2 *3111:A 6.35394e-05
3 *3109:X 0.000169936
4 *1255:12 0.000372436
5 *1255:12 *3112:B1 9.60939e-05
6 *3109:A *1255:12 0
7 *3109:B *1255:12 3.99614e-06
8 *3110:B *1255:12 5.30637e-06
9 *6:28 *3112:A1 0.000218019
10 *6:28 *1255:12 0.000148903
11 *15:32 *3112:A1 0
12 *15:32 *1255:12 0
13 *34:142 *3111:A 2.79421e-05
14 *649:6 *1255:12 5.23142e-05
*RES
1 *3109:X *1255:12 17.8357 
2 *1255:12 *3111:A 14.7464 
3 *1255:12 *3112:A1 16.6571 
*END

*D_NET *1256 0.00144023
*CONN
*I *3112:B1 I *D sky130_fd_sc_hd__a21o_1
*I *3110:X O *D sky130_fd_sc_hd__and2_1
*CAP
1 *3112:B1 0.000330048
2 *3110:X 0.000330048
3 *3109:A *3112:B1 0.000144773
4 *3110:B *3112:B1 9.22103e-06
5 *3111:B *3112:B1 0.000170646
6 *3179:B *3112:B1 0
7 *6:28 *3112:B1 0.000335208
8 *24:38 *3112:B1 0
9 *703:8 *3112:B1 2.41865e-05
10 *1255:12 *3112:B1 9.60939e-05
*RES
1 *3110:X *3112:B1 34.5643 
*END

*D_NET *1257 0.00178946
*CONN
*I *3176:B I *D sky130_fd_sc_hd__xor2_1
*I *3177:A2 I *D sky130_fd_sc_hd__a21o_1
*I *3111:X O *D sky130_fd_sc_hd__xor2_1
*CAP
1 *3176:B 0
2 *3177:A2 0.000144703
3 *3111:X 0.000189926
4 *1257:6 0.000334629
5 *3177:A2 *3176:A 9.41642e-05
6 *3177:A2 *3177:A1 0.000125724
7 *3177:A2 *3177:B1 0.00019384
8 *2349:B *3177:A2 9.90367e-05
9 *2382:A *3177:A2 2.28598e-05
10 *2382:A *1257:6 0.000119193
11 *25:134 *3177:A2 0
12 *25:151 *3177:A2 0
13 *34:142 *3177:A2 6.86792e-05
14 *34:142 *1257:6 0.000340405
15 *35:22 *3177:A2 5.62995e-05
*RES
1 *3111:X *1257:6 15.175 
2 *1257:6 *3177:A2 23.1571 
3 *1257:6 *3176:B 9.3 
*END

*D_NET *1258 0.00108887
*CONN
*I *3178:A I *D sky130_fd_sc_hd__xor2_1
*I *3179:A I *D sky130_fd_sc_hd__and2_1
*I *3112:X O *D sky130_fd_sc_hd__a21o_1
*CAP
1 *3178:A 3.68126e-05
2 *3179:A 7.8364e-05
3 *3112:X 5.98167e-05
4 *1258:6 0.000174993
5 *2476:B *3179:A 3.17067e-05
6 *3178:B *3178:A 4.08637e-05
7 *3178:B *1258:6 0.000137983
8 *24:38 *3179:A 0.000193111
9 *25:151 *3178:A 1.98839e-05
10 *25:151 *1258:6 4.72818e-05
11 *34:153 *3179:A 2.8046e-05
12 *35:45 *3179:A 7.6644e-05
13 *1162:12 *3178:A 4.58194e-05
14 *1162:12 *1258:6 0.000117543
*RES
1 *3112:X *1258:6 11.4786 
2 *1258:6 *3179:A 20.8536 
3 *1258:6 *3178:A 10.2464 
*END

*D_NET *1259 0.00255302
*CONN
*I *2942:A I *D sky130_fd_sc_hd__and2_1
*I *2941:A I *D sky130_fd_sc_hd__xor2_1
*I *2714:X O *D sky130_fd_sc_hd__or2_1
*CAP
1 *2942:A 0
2 *2941:A 0.000145877
3 *2714:X 0.000466344
4 *1259:14 0.000612221
5 *2941:B *2941:A 0.000133464
6 *3017:A *1259:14 0.000102197
7 *3302:A *1259:14 5.52238e-05
8 *3313:A *1259:14 3.18676e-05
9 *3313:B *1259:14 0.000104974
10 *8:38 *1259:14 7.67221e-05
11 *14:62 *1259:14 0
12 *28:178 *1259:14 0.00012488
13 *38:177 *1259:14 0.000338366
14 *39:245 *1259:14 6.42095e-05
15 *439:6 *2941:A 4.88637e-05
16 *439:6 *1259:14 9.90431e-05
17 *1089:18 *2941:A 0.000148769
*RES
1 *2714:X *1259:14 30.175 
2 *1259:14 *2941:A 13.4607 
3 *1259:14 *2942:A 9.3 
*END

*D_NET *1260 0.000750866
*CONN
*I *3117:A1 I *D sky130_fd_sc_hd__a21o_1
*I *3116:A I *D sky130_fd_sc_hd__xor2_1
*I *3114:X O *D sky130_fd_sc_hd__xor2_1
*CAP
1 *3117:A1 6.30437e-05
2 *3116:A 3.26266e-05
3 *3114:X 5.96084e-05
4 *1260:10 0.000155279
5 *3116:A *2196:A 6.09899e-05
6 *3117:A1 *2196:A 0.000124521
7 *2604:A *1260:10 0.000123288
8 *3116:B *1260:10 5.80706e-06
9 *3117:A2 *3116:A 3.28977e-05
10 *3117:A2 *3117:A1 5.62425e-05
11 *1162:16 *1260:10 3.65627e-05
*RES
1 *3114:X *1260:10 19.9429 
2 *1260:10 *3116:A 10.2643 
3 *1260:10 *3117:A1 11.0857 
*END

*D_NET *1261 0.00106993
*CONN
*I *3117:B1 I *D sky130_fd_sc_hd__a21o_1
*I *3115:X O *D sky130_fd_sc_hd__and2_1
*CAP
1 *3117:B1 0.000426803
2 *3115:X 0.000426803
3 *2604:A *3117:B1 9.60939e-05
4 *2604:B *3117:B1 0.000120227
5 *3184:A *3117:B1 0
*RES
1 *3115:X *3117:B1 34.5643 
*END

*D_NET *1262 0.0028013
*CONN
*I *3181:B I *D sky130_fd_sc_hd__xor2_1
*I *3182:A2 I *D sky130_fd_sc_hd__a21o_1
*I *3116:X O *D sky130_fd_sc_hd__xor2_1
*CAP
1 *3181:B 2.23854e-05
2 *3182:A2 0.000142343
3 *3116:X 0.000731921
4 *1262:12 0.000896649
5 *3182:A2 *3181:A 0.000207708
6 *3182:A2 *3182:B1 0.000173497
7 *1262:12 *2177:B 9.41642e-05
8 *2186:A *1262:12 1.37743e-05
9 *2187:B *1262:12 2.06583e-05
10 *2476:A *3182:A2 3.90513e-05
11 *2605:B *1262:12 3.57163e-05
12 *25:151 *3182:A2 5.59013e-05
13 *346:10 *1262:12 0.000314132
14 *1162:16 *1262:12 5.33978e-05
*RES
1 *3116:X *1262:12 31.2643 
2 *1262:12 *3182:A2 22.7286 
3 *1262:12 *3181:B 9.72857 
*END

*D_NET *1263 0.000738049
*CONN
*I *3184:B I *D sky130_fd_sc_hd__and2_1
*I *3183:B I *D sky130_fd_sc_hd__xor2_1
*I *3117:X O *D sky130_fd_sc_hd__a21o_1
*CAP
1 *3184:B 7.26443e-05
2 *3183:B 9.31322e-05
3 *3117:X 6.80325e-05
4 *1263:6 0.000233809
5 *3184:B *2195:A 0
6 *3184:B *2196:A 3.48705e-05
7 *1263:6 *2196:A 5.76121e-05
8 *2604:B *3183:B 0
9 *3184:A *3183:B 0.000153054
10 *33:173 *3183:B 0
11 *1176:10 *3183:B 2.48938e-05
*RES
1 *3117:X *1263:6 10.6571 
2 *1263:6 *3183:B 20.55 
3 *1263:6 *3184:B 10.675 
*END

*D_NET *1264 0.00322321
*CONN
*I *3120:A I *D sky130_fd_sc_hd__xor2_1
*I *3121:A1 I *D sky130_fd_sc_hd__a21o_1
*I *3118:X O *D sky130_fd_sc_hd__xor2_1
*CAP
1 *3120:A 0.000399157
2 *3121:A1 0
3 *3118:X 0.000654642
4 *1264:10 0.0010538
5 *3120:A *1267:14 9.00795e-06
6 *1264:10 *1267:14 2.02508e-05
7 *2489:A *1264:10 0.000599829
8 *2489:B *1264:10 5.52302e-05
9 *2495:A *1264:10 1.55885e-05
10 *3120:B *3120:A 2.65105e-05
11 *3121:A2 *3120:A 8.18412e-05
12 *6:46 *1264:10 0.000307349
*RES
1 *3118:X *1264:10 22.0857 
2 *1264:10 *3121:A1 9.3 
3 *1264:10 *3120:A 14.675 
*END

*D_NET *1265 0.00178874
*CONN
*I *3121:B1 I *D sky130_fd_sc_hd__a21o_1
*I *3119:X O *D sky130_fd_sc_hd__and2_1
*CAP
1 *3121:B1 0.00074092
2 *3119:X 0.00074092
3 *3121:B1 *1464:14 0.00024424
4 *7:68 *3121:B1 6.26559e-05
5 *715:8 *3121:B1 0
*RES
1 *3119:X *3121:B1 41.0643 
*END

*D_NET *1266 0.0034661
*CONN
*I *3186:A2 I *D sky130_fd_sc_hd__a21o_1
*I *3185:B I *D sky130_fd_sc_hd__xor2_1
*I *3120:X O *D sky130_fd_sc_hd__xor2_1
*CAP
1 *3186:A2 0
2 *3185:B 0.000197392
3 *3120:X 0.000928332
4 *1266:10 0.00112572
5 *3185:B *3185:A 8.01893e-05
6 *3185:B *3186:A1 0.00015244
7 *3185:B *3186:B1 7.47835e-06
8 *1266:10 *3186:A1 1.00887e-05
9 *1266:10 *3329:B 7.79189e-05
10 *1266:10 *3330:B1 0.000343934
11 *1266:10 *1267:14 0.000414048
12 *1266:10 *1474:14 0
13 *3030:B1 *1266:10 7.48554e-05
14 *3327:B *1266:10 9.15186e-06
15 *825:10 *1266:10 1.19309e-05
16 *1176:10 *3185:B 3.26118e-05
*RES
1 *3120:X *1266:10 33.5857 
2 *1266:10 *3185:B 18.2464 
3 *1266:10 *3186:A2 13.8 
*END

*D_NET *1267 0.00540201
*CONN
*I *3188:B I *D sky130_fd_sc_hd__and2_1
*I *3187:B I *D sky130_fd_sc_hd__xor2_1
*I *3121:X O *D sky130_fd_sc_hd__a21o_1
*CAP
1 *3188:B 4.71153e-05
2 *3187:B 0.000133661
3 *3121:X 0.00199668
4 *1267:14 0.00217746
5 *3188:B *3190:A2 1.3701e-05
6 *3120:A *1267:14 9.00795e-06
7 *3120:B *1267:14 0.00010096
8 *3121:A2 *1267:14 0.000311183
9 *3188:A *3187:B 0.000177941
10 *171:10 *3187:B 0
11 *171:10 *1267:14 0
12 *1177:14 *3187:B 0
13 *1177:14 *1267:14 0
14 *1264:10 *1267:14 2.02508e-05
15 *1266:10 *1267:14 0.000414048
*RES
1 *3121:X *1267:14 43.6036 
2 *1267:14 *3187:B 21.1571 
3 *1267:14 *3188:B 10.2643 
*END

*D_NET *1268 0.000605711
*CONN
*I *3125:A I *D sky130_fd_sc_hd__xor2_1
*I *3126:A1 I *D sky130_fd_sc_hd__a21o_1
*I *3122:X O *D sky130_fd_sc_hd__xor2_1
*CAP
1 *3125:A 8.88869e-05
2 *3126:A1 0
3 *3122:X 6.28036e-05
4 *1268:8 0.00015169
5 *3125:A *3126:B1 5.52238e-05
6 *1268:8 *3126:B1 5.00917e-05
7 *3126:A2 *3125:A 0.000104584
8 *1186:10 *3125:A 9.24299e-05
*RES
1 *3122:X *1268:8 10.675 
2 *1268:8 *3126:A1 9.3 
3 *1268:8 *3125:A 21.0857 
*END

*D_NET *1269 0.000817804
*CONN
*I *3126:B1 I *D sky130_fd_sc_hd__a21o_1
*I *3123:X O *D sky130_fd_sc_hd__and2_1
*CAP
1 *3126:B1 0.000283858
2 *3123:X 0.000283858
3 *3122:A *3126:B1 0.000144773
4 *3125:A *3126:B1 5.52238e-05
5 *1268:8 *3126:B1 5.00917e-05
*RES
1 *3123:X *3126:B1 23.6714 
*END

*D_NET *1270 0.00329036
*CONN
*I *3241:A I *D sky130_fd_sc_hd__and2_1
*I *3240:A I *D sky130_fd_sc_hd__xor2_1
*I *2725:X O *D sky130_fd_sc_hd__or2_1
*CAP
1 *3241:A 0.000100328
2 *3240:A 0
3 *2725:X 0.00118644
4 *1270:12 0.00128677
5 *1270:12 *1385:10 0
6 *3241:B *3241:A 0.000122101
7 *14:77 *1270:12 0
8 *28:172 *1270:12 0
9 *29:140 *1270:12 0.000356028
10 *38:171 *1270:12 0.000238695
*RES
1 *2725:X *1270:12 33.5143 
2 *1270:12 *3240:A 9.3 
3 *1270:12 *3241:A 11.4786 
*END

*D_NET *1271 0.00315367
*CONN
*I *3189:B I *D sky130_fd_sc_hd__xor2_1
*I *3190:A2 I *D sky130_fd_sc_hd__a21o_1
*I *3125:X O *D sky130_fd_sc_hd__xor2_1
*CAP
1 *3189:B 0
2 *3190:A2 0.000264032
3 *3125:X 0.000576855
4 *1271:8 0.000840888
5 *3190:A2 *3190:A1 0
6 *3190:A2 *3190:B1 8.17713e-05
7 *3190:A2 *1334:10 7.99044e-05
8 *3190:A2 *1335:14 3.69047e-06
9 *1271:8 *1334:10 4.1331e-06
10 *1271:8 *1335:14 0
11 *2056:B *1271:8 0.000202835
12 *2059:A2 *1271:8 9.56968e-05
13 *2062:B *1271:8 4.73656e-05
14 *2218:A *3190:A2 4.46186e-06
15 *3188:B *3190:A2 1.3701e-05
16 *91:10 *1271:8 3.97543e-05
17 *172:26 *1271:8 0.000227736
18 *177:10 *1271:8 0.000293422
19 *1177:14 *3190:A2 0
20 *1177:14 *1271:8 0
21 *1186:10 *1271:8 0.000377426
*RES
1 *3125:X *1271:8 30.0143 
2 *1271:8 *3190:A2 19.2643 
3 *1271:8 *3189:B 13.8 
*END

*D_NET *1272 0.00127394
*CONN
*I *3193:B I *D sky130_fd_sc_hd__and2_1
*I *3192:B I *D sky130_fd_sc_hd__xor2_1
*I *3126:X O *D sky130_fd_sc_hd__a21o_1
*CAP
1 *3193:B 0
2 *3192:B 0.000184724
3 *3126:X 0.000215881
4 *1272:12 0.000400605
5 *3192:B *3195:B1 1.32552e-05
6 *3192:B *1337:8 1.3701e-05
7 *3192:A *3192:B 0.000153289
8 *91:10 *1272:12 0.000170532
9 *1186:10 *1272:12 0.000121948
*RES
1 *3126:X *1272:12 23.3179 
2 *1272:12 *3192:B 13.05 
3 *1272:12 *3193:B 9.3 
*END

*D_NET *1273 0.000832705
*CONN
*I *3130:A1 I *D sky130_fd_sc_hd__a21o_1
*I *3129:A I *D sky130_fd_sc_hd__xor2_1
*I *3127:X O *D sky130_fd_sc_hd__xor2_1
*CAP
1 *3130:A1 7.34984e-05
2 *3129:A 0.000146992
3 *3127:X 7.79215e-05
4 *1273:6 0.000298412
5 *3129:A *3130:B1 0
6 *1273:6 *3130:B1 8.07313e-05
7 *1273:6 *1276:10 5.71472e-05
8 *3130:A2 *3129:A 9.80029e-05
9 *181:10 *3129:A 0
10 *245:8 *3129:A 0
*RES
1 *3127:X *1273:6 11.0679 
2 *1273:6 *3129:A 21.1571 
3 *1273:6 *3130:A1 10.5679 
*END

*D_NET *1274 0.000517062
*CONN
*I *3130:B1 I *D sky130_fd_sc_hd__a21o_1
*I *3128:X O *D sky130_fd_sc_hd__and2_1
*CAP
1 *3130:B1 0.00016871
2 *3128:X 0.00016871
3 *3130:B1 *1276:10 3.14193e-05
4 *3129:A *3130:B1 0
5 *181:10 *3130:B1 6.74911e-05
6 *1273:6 *3130:B1 8.07313e-05
*RES
1 *3128:X *3130:B1 31.4214 
*END

*D_NET *1275 0.00143561
*CONN
*I *3195:A2 I *D sky130_fd_sc_hd__a21o_1
*I *3194:B I *D sky130_fd_sc_hd__xor2_1
*I *3129:X O *D sky130_fd_sc_hd__xor2_1
*CAP
1 *3195:A2 0
2 *3194:B 5.05663e-05
3 *3129:X 0.000287615
4 *1275:10 0.000338181
5 *3194:B *3195:A1 0.00020455
6 *2244:A *1275:10 2.89114e-05
7 *2244:B *1275:10 7.83587e-05
8 *2245:A *1275:10 2.28507e-05
9 *2246:A *1275:10 3.65015e-05
10 *2246:B *1275:10 9.99644e-06
11 *396:12 *1275:10 0.000167973
12 *400:8 *3194:B 0.000112106
13 *400:8 *1275:10 9.80029e-05
*RES
1 *3129:X *1275:10 20.05 
2 *1275:10 *3194:B 16.3536 
3 *1275:10 *3195:A2 13.8 
*END

*D_NET *1276 0.00257819
*CONN
*I *3197:B I *D sky130_fd_sc_hd__and2_1
*I *3196:B I *D sky130_fd_sc_hd__xor2_1
*I *3130:X O *D sky130_fd_sc_hd__a21o_1
*CAP
1 *3197:B 0.000141598
2 *3196:B 0
3 *3130:X 0.000630081
4 *1276:10 0.00077168
5 *3197:B *3199:B1 0
6 *3197:B *1344:10 8.15939e-05
7 *1276:10 *3199:B1 0
8 *1276:10 *1279:12 7.26841e-05
9 *2066:B *1276:10 0.000108848
10 *2067:A *1276:10 1.00375e-05
11 *2068:A *1276:10 0
12 *2069:B1 *1276:10 0
13 *3130:B1 *1276:10 3.14193e-05
14 *3133:B *1276:10 0
15 *3196:A *3197:B 0.000190004
16 *3196:A *1276:10 3.34366e-05
17 *107:16 *1276:10 8.58946e-05
18 *181:10 *1276:10 0.000176096
19 *245:8 *1276:10 0
20 *249:8 *1276:10 0.000187672
21 *1273:6 *1276:10 5.71472e-05
*RES
1 *3130:X *1276:10 29.2464 
2 *1276:10 *3196:B 13.8 
3 *1276:10 *3197:B 17.55 
*END

*D_NET *1277 0.000799297
*CONN
*I *3133:A I *D sky130_fd_sc_hd__xor2_1
*I *3134:A1 I *D sky130_fd_sc_hd__a21o_1
*I *3131:X O *D sky130_fd_sc_hd__xor2_1
*CAP
1 *3133:A 7.36635e-05
2 *3134:A1 8.3107e-05
3 *3131:X 5.35907e-05
4 *1277:8 0.000210361
5 *3134:A1 *3134:B1 7.8327e-05
6 *3134:A1 *1279:12 0
7 *3131:B *1277:8 1.3701e-05
8 *3133:B *3133:A 5.52302e-05
9 *3133:B *3134:A1 0.000191877
10 *185:8 *3134:A1 2.91887e-05
11 *1198:18 *3134:A1 1.02504e-05
*RES
1 *3131:X *1277:8 10.2643 
2 *1277:8 *3134:A1 21.1571 
3 *1277:8 *3133:A 10.6571 
*END

*D_NET *1278 0.000869989
*CONN
*I *3134:B1 I *D sky130_fd_sc_hd__a21o_1
*I *3132:X O *D sky130_fd_sc_hd__and2_1
*CAP
1 *3134:B1 0.000279555
2 *3132:X 0.000279555
3 *3131:A *3134:B1 6.86792e-05
4 *3131:B *3134:B1 1.32552e-05
5 *3134:A1 *3134:B1 7.8327e-05
6 *185:8 *3134:B1 0.000150618
*RES
1 *3132:X *3134:B1 32.1357 
*END

*D_NET *1279 0.00110312
*CONN
*I *3198:B I *D sky130_fd_sc_hd__xor2_1
*I *3199:A2 I *D sky130_fd_sc_hd__a21o_1
*I *3133:X O *D sky130_fd_sc_hd__xor2_1
*CAP
1 *3198:B 0.000251892
2 *3199:A2 0
3 *3133:X 0.000125469
4 *1279:12 0.000377362
5 *3198:B *3198:A 5.33433e-05
6 *3198:B *3199:A1 5.54462e-05
7 *3198:B *1341:6 5.7661e-06
8 *3198:B *1344:10 5.71472e-05
9 *1279:12 *3199:A1 5.52238e-05
10 *1279:12 *3199:B1 0
11 *3134:A1 *1279:12 0
12 *3196:A *3198:B 4.87854e-05
13 *185:8 *1279:12 0
14 *1276:10 *1279:12 7.26841e-05
*RES
1 *3133:X *1279:12 21.3893 
2 *1279:12 *3199:A2 9.3 
3 *1279:12 *3198:B 14.2821 
*END

*D_NET *1280 0.00437961
*CONN
*I *3200:B I *D sky130_fd_sc_hd__xor2_1
*I *3201:B I *D sky130_fd_sc_hd__and2_1
*I *3134:X O *D sky130_fd_sc_hd__a21o_1
*CAP
1 *3200:B 4.81317e-05
2 *3201:B 2.36895e-05
3 *3134:X 0.0012662
4 *1280:12 0.00133802
5 *3200:B *3204:A1 0
6 *3200:B *3204:B1 5.62995e-05
7 *1280:12 *3139:A1 7.83366e-05
8 *1280:12 *1349:10 0
9 *2959:B *1280:12 0
10 *2973:A2 *1280:12 0
11 *3056:A *1280:12 7.39741e-05
12 *3057:A1 *1280:12 0.00015304
13 *3057:B1 *1280:12 7.92879e-05
14 *3137:A *1280:12 0
15 *3138:B *1280:12 2.47093e-05
16 *3200:A *3200:B 0.000153279
17 *3200:A *3201:B 5.52238e-05
18 *107:16 *1280:12 0.00014183
19 *185:8 *1280:12 0
20 *254:14 *1280:12 0
21 *897:10 *1280:12 0
22 *1106:12 *1280:12 0.000457969
23 *1107:10 *1280:12 0
24 *1119:10 *1280:12 0.000100745
25 *1132:34 *1280:12 0
26 *1195:12 *1280:12 0.000148189
27 *1203:8 *1280:12 0.000174876
28 *1211:12 *1280:12 5.80706e-06
*RES
1 *3134:X *1280:12 45.8893 
2 *1280:12 *3201:B 9.83571 
3 *1280:12 *3200:B 11.0857 
*END

*D_NET *1281 0.00019119
*CONN
*I *2780:A I *D sky130_fd_sc_hd__or2_1
*I *2736:X O *D sky130_fd_sc_hd__and2_1
*CAP
1 *2780:A 6.70213e-05
2 *2736:X 6.70213e-05
3 *2780:A *2780:B 5.71472e-05
*RES
1 *2736:X *2780:A 19.9571 
*END

*D_NET *1282 0.000883599
*CONN
*I *3139:A1 I *D sky130_fd_sc_hd__a21o_1
*I *3138:A I *D sky130_fd_sc_hd__xor2_1
*I *3136:X O *D sky130_fd_sc_hd__xor2_1
*CAP
1 *3139:A1 0.000185639
2 *3138:A 9.79467e-05
3 *3136:X 0
4 *1282:4 0.000283585
5 *3138:B *3138:A 5.61433e-05
6 *3138:B *3139:A1 0.000153047
7 *3139:A2 *3139:A1 2.89016e-05
8 *1280:12 *3139:A1 7.83366e-05
*RES
1 *3136:X *1282:4 9.3 
2 *1282:4 *3138:A 11.0857 
3 *1282:4 *3139:A1 21.6036 
*END

*D_NET *1283 0.000801201
*CONN
*I *3139:B1 I *D sky130_fd_sc_hd__a21o_1
*I *3137:X O *D sky130_fd_sc_hd__and2_1
*CAP
1 *3139:B1 0.000141352
2 *3137:X 0.000141352
3 *3137:A *3139:B1 0.000169269
4 *1132:34 *3139:B1 0.000169572
5 *1199:24 *3139:B1 0.000179656
*RES
1 *3137:X *3139:B1 32.2071 
*END

*D_NET *1284 0.000690567
*CONN
*I *3203:B I *D sky130_fd_sc_hd__xor2_1
*I *3204:A2 I *D sky130_fd_sc_hd__a21o_1
*I *3138:X O *D sky130_fd_sc_hd__xor2_1
*CAP
1 *3203:B 0
2 *3204:A2 0.000113379
3 *3138:X 0.000110693
4 *1284:6 0.000224072
5 *3204:A2 *3203:A 0.00017309
6 *1284:6 *3203:A 5.52302e-05
7 *254:14 *3204:A2 1.41029e-05
*RES
1 *3138:X *1284:6 11.0679 
2 *1284:6 *3204:A2 20.8536 
3 *1284:6 *3203:B 9.3 
*END

*D_NET *1285 0.00279492
*CONN
*I *3205:B I *D sky130_fd_sc_hd__xor2_1
*I *3206:B I *D sky130_fd_sc_hd__and2_1
*I *3139:X O *D sky130_fd_sc_hd__a21o_1
*CAP
1 *3205:B 0.00015655
2 *3206:B 0
3 *3139:X 0.000568578
4 *1285:10 0.000725128
5 *3205:B *3208:B1 5.5782e-05
6 *3066:A2 *1285:10 0.000106299
7 *3137:B *1285:10 0.00020042
8 *3206:A *3205:B 6.30023e-05
9 *3206:A *1285:10 2.8266e-06
10 *21:168 *1285:10 0
11 *1120:10 *1285:10 0.000707922
12 *1128:10 *1285:10 0
13 *1132:34 *1285:10 0.000181125
14 *1199:24 *1285:10 2.72859e-05
15 *1212:14 *3205:B 0
16 *1212:14 *1285:10 0
*RES
1 *3139:X *1285:10 28.8357 
2 *1285:10 *3206:B 13.8 
3 *1285:10 *3205:B 17.3 
*END

*D_NET *1286 0.00069064
*CONN
*I *3142:A I *D sky130_fd_sc_hd__xor2_1
*I *3143:A1 I *D sky130_fd_sc_hd__a21o_1
*I *3140:X O *D sky130_fd_sc_hd__xor2_1
*CAP
1 *3142:A 0.000111439
2 *3143:A1 0.000219038
3 *3140:X 0.000107599
4 *3143:A1 *3143:B1 8.64974e-05
5 *3143:A1 *1289:16 3.18676e-05
6 *3143:A2 *3142:A 0.000134198
7 *1208:14 *3142:A 0
*RES
1 *3140:X *3143:A1 21.2071 
2 *3143:A1 *3142:A 29.7786 
*END

*D_NET *1287 0.0007678
*CONN
*I *3143:B1 I *D sky130_fd_sc_hd__a21o_1
*I *3141:X O *D sky130_fd_sc_hd__and2_1
*CAP
1 *3143:B1 0.000224214
2 *3141:X 0.000224214
3 *3143:B1 *1289:16 2.07491e-05
4 *3140:B *3143:B1 0.00010096
5 *3141:A *3143:B1 1.21289e-05
6 *3143:A1 *3143:B1 8.64974e-05
7 *1208:14 *3143:B1 9.90367e-05
*RES
1 *3141:X *3143:B1 23.2607 
*END

*D_NET *1288 0.00099863
*CONN
*I *3208:A2 I *D sky130_fd_sc_hd__a21o_1
*I *3207:B I *D sky130_fd_sc_hd__xor2_1
*I *3142:X O *D sky130_fd_sc_hd__xor2_1
*CAP
1 *3208:A2 6.64944e-05
2 *3207:B 4.97018e-05
3 *3142:X 7.39216e-05
4 *1288:6 0.000190118
5 *3207:B *3208:A1 0.000175512
6 *3207:B *3208:B1 0.000175512
7 *1212:14 *3208:A2 8.36572e-05
8 *1212:14 *1288:6 0.000183713
*RES
1 *3142:X *1288:6 11.0679 
2 *1288:6 *3207:B 20.55 
3 *1288:6 *3208:A2 10.675 
*END

*D_NET *1289 0.00424389
*CONN
*I *3209:B I *D sky130_fd_sc_hd__xor2_1
*I *3210:B I *D sky130_fd_sc_hd__and2_1
*I *3143:X O *D sky130_fd_sc_hd__a21o_1
*CAP
1 *3209:B 0
2 *3210:B 9.56184e-05
3 *3143:X 0.00125896
4 *1289:16 0.00135458
5 *3210:B *3212:B1 0.000125731
6 *3210:B *1293:6 9.60939e-05
7 *3210:B *1357:12 0.000202128
8 *1289:16 *3211:A 7.77751e-05
9 *1289:16 *3211:B 2.58706e-05
10 *1289:16 *1293:6 3.14078e-05
11 *1289:16 *1356:6 9.7659e-05
12 *2078:A1 *1289:16 7.92879e-05
13 *2078:B1 *1289:16 0.000108566
14 *3141:A *1289:16 0.000320024
15 *3143:A1 *1289:16 3.18676e-05
16 *3143:B1 *1289:16 2.07491e-05
17 *3209:A *3210:B 5.52238e-05
18 *258:12 *1289:16 6.76365e-05
19 *1208:14 *1289:16 3.14078e-05
20 *1216:14 *1289:16 0.000163298
*RES
1 *3143:X *1289:16 39.0679 
2 *1289:16 *3210:B 21.8 
3 *1289:16 *3209:B 9.3 
*END

*D_NET *1290 0.000848295
*CONN
*I *3147:A I *D sky130_fd_sc_hd__xor2_1
*I *3148:A1 I *D sky130_fd_sc_hd__a21o_1
*I *3144:X O *D sky130_fd_sc_hd__xor2_1
*CAP
1 *3147:A 0.000131643
2 *3148:A1 0
3 *3144:X 9.88824e-05
4 *1290:12 0.000230526
5 *3147:A *1451:12 2.65105e-05
6 *1290:12 *3148:B1 9.14786e-05
7 *3145:B *1290:12 3.17148e-05
8 *3147:B *3147:A 5.32166e-05
9 *3148:A2 *3147:A 5.52238e-05
10 *1221:10 *1290:12 7.38748e-05
11 *1224:6 *1290:12 5.52238e-05
*RES
1 *3144:X *1290:12 21.0857 
2 *1290:12 *3148:A1 9.3 
3 *1290:12 *3147:A 11.925 
*END

*D_NET *1291 0.000609477
*CONN
*I *3148:B1 I *D sky130_fd_sc_hd__a21o_1
*I *3145:X O *D sky130_fd_sc_hd__and2_1
*CAP
1 *3148:B1 0.000183825
2 *3145:X 0.000183825
3 *3148:B1 *1447:10 0.000118775
4 *3145:B *3148:B1 3.15739e-05
5 *1221:10 *3148:B1 0
6 *1290:12 *3148:B1 9.14786e-05
*RES
1 *3145:X *3148:B1 32.2071 
*END

*D_NET *1292 0.00039095
*CONN
*I *2780:B I *D sky130_fd_sc_hd__or2_1
*I *2747:X O *D sky130_fd_sc_hd__and2_1
*CAP
1 *2780:B 0.000133532
2 *2747:X 0.000133532
3 *2736:A *2780:B 3.18676e-05
4 *2736:B *2780:B 3.48705e-05
5 *2780:A *2780:B 5.71472e-05
*RES
1 *2747:X *2780:B 21.1893 
*END

*D_NET *1293 0.00483491
*CONN
*I *3211:B I *D sky130_fd_sc_hd__xor2_1
*I *3212:A2 I *D sky130_fd_sc_hd__a21o_1
*I *3147:X O *D sky130_fd_sc_hd__xor2_1
*CAP
1 *3211:B 0.000127749
2 *3212:A2 9.60908e-05
3 *3147:X 0.00159293
4 *1293:6 0.00181677
5 *3211:B *3211:A 0.000153279
6 *3212:A2 *3212:A1 0.000150625
7 *3212:A2 *3212:B1 7.95487e-05
8 *1293:6 *3375:B 0.000102207
9 *2015:A *1293:6 2.89016e-05
10 *2015:B *1293:6 2.89114e-05
11 *2018:B1 *1293:6 9.80173e-05
12 *3209:A *1293:6 4.13595e-05
13 *3210:B *1293:6 9.60939e-05
14 *3375:A *1293:6 2.9561e-05
15 *3378:B1 *1293:6 0.000232399
16 *127:12 *1293:6 9.90431e-05
17 *190:10 *3212:A2 4.1331e-06
18 *258:12 *3212:A2 0
19 *1289:16 *3211:B 2.58706e-05
20 *1289:16 *1293:6 3.14078e-05
*RES
1 *3147:X *1293:6 36.1214 
2 *1293:6 *3212:A2 21.1571 
3 *1293:6 *3211:B 11.9071 
*END

*D_NET *1294 0.00324605
*CONN
*I *3216:B I *D sky130_fd_sc_hd__xor2_1
*I *3217:A2 I *D sky130_fd_sc_hd__a21o_1
*I *3148:X O *D sky130_fd_sc_hd__a21o_1
*CAP
1 *3216:B 0.000225275
2 *3217:A2 0
3 *3148:X 0.000731161
4 *1294:10 0.000956436
5 *3216:B *3216:A 0.000153279
6 *3216:B *3217:A1 0.000153047
7 *3216:B *3217:B1 1.5942e-05
8 *3216:B *1362:12 0
9 *1294:10 *3217:B1 4.1331e-06
10 *1294:10 *1451:12 0.000749318
11 *206:24 *3216:B 0
12 *206:24 *1294:10 0
13 *1225:16 *1294:10 0.000257456
*RES
1 *3148:X *1294:10 29.7286 
2 *1294:10 *3217:A2 13.8 
3 *1294:10 *3216:B 18.8536 
*END

*D_NET *1295 0.000779144
*CONN
*I *3151:A I *D sky130_fd_sc_hd__xor2_1
*I *3152:A1 I *D sky130_fd_sc_hd__a21o_1
*I *3149:X O *D sky130_fd_sc_hd__xor2_1
*CAP
1 *3151:A 9.73301e-05
2 *3152:A1 8.13839e-05
3 *3149:X 0.000178714
4 *3151:B *3151:A 3.46775e-05
5 *275:14 *3152:A1 0.00015304
6 *1225:16 *3152:A1 0.000154762
7 *1238:6 *3151:A 2.59355e-05
8 *1238:6 *3152:A1 5.33005e-05
*RES
1 *3149:X *3152:A1 30.0821 
2 *3149:X *3151:A 20.3857 
*END

*D_NET *1296 0.00111889
*CONN
*I *3152:B1 I *D sky130_fd_sc_hd__a21o_1
*I *3150:X O *D sky130_fd_sc_hd__and2_1
*CAP
1 *3152:B1 0.000235503
2 *3150:X 0.000235503
3 *3150:A *3152:B1 0.000129868
4 *3150:B *3152:B1 0.000142082
5 *1151:12 *3152:B1 0
6 *1225:16 *3152:B1 0.000200406
7 *1233:10 *3152:B1 0.000175526
*RES
1 *3150:X *3152:B1 33.3321 
*END

*D_NET *1297 0.00092688
*CONN
*I *3214:B I *D sky130_fd_sc_hd__xor2_1
*I *3215:B I *D sky130_fd_sc_hd__and2_1
*I *3151:X O *D sky130_fd_sc_hd__xor2_1
*CAP
1 *3214:B 9.92893e-05
2 *3215:B 0
3 *3151:X 0.000143488
4 *1297:12 0.000242777
5 *1297:12 *3217:B1 0
6 *1297:12 *1362:12 0
7 *3214:A *3214:B 0.000240905
8 *1230:12 *1297:12 0.00020042
*RES
1 *3151:X *1297:12 21.3893 
2 *1297:12 *3215:B 9.3 
3 *1297:12 *3214:B 11.9071 
*END

*D_NET *1298 0.00141589
*CONN
*I *3221:A2 I *D sky130_fd_sc_hd__a21o_1
*I *3220:B I *D sky130_fd_sc_hd__xor2_1
*I *3152:X O *D sky130_fd_sc_hd__a21o_1
*CAP
1 *3221:A2 0.000126868
2 *3220:B 0
3 *3152:X 0.000345122
4 *1298:12 0.00047199
5 *3221:A2 *3220:A 0.000130887
6 *1298:12 *1363:12 0
7 *2362:B1 *1298:12 1.92789e-05
8 *3150:A *1298:12 0.000169405
9 *275:14 *1298:12 0
10 *1233:10 *1298:12 0.00015234
*RES
1 *3152:X *1298:12 25.7464 
2 *1298:12 *3220:B 9.3 
3 *1298:12 *3221:A2 12.2286 
*END

*D_NET *1299 0.00199314
*CONN
*I *3155:A I *D sky130_fd_sc_hd__xor2_1
*I *3156:A1 I *D sky130_fd_sc_hd__a21o_1
*I *3153:X O *D sky130_fd_sc_hd__xor2_1
*CAP
1 *3155:A 0.000393464
2 *3156:A1 0.000283967
3 *3153:X 0.000677432
4 *3155:A *1302:18 4.7812e-05
5 *3155:A *1370:16 2.84026e-05
6 *3156:A1 *1302:18 0.000184522
7 *3156:A1 *1306:14 0.000175519
8 *3156:A1 *1371:16 6.07328e-05
9 *3153:B *3156:A1 5.48581e-05
10 *3155:B *3155:A 2.84109e-05
11 *1242:14 *3156:A1 5.80217e-05
*RES
1 *3153:X *3156:A1 34.3679 
2 *3153:X *3155:A 24.8143 
*END

*D_NET *1300 0.000735046
*CONN
*I *3156:B1 I *D sky130_fd_sc_hd__a21o_1
*I *3154:X O *D sky130_fd_sc_hd__and2_1
*CAP
1 *3156:B1 0.000305684
2 *3154:X 0.000305684
3 *3156:B1 *1306:14 6.13295e-05
4 *3156:B1 *1371:16 4.25716e-05
5 *1233:10 *3156:B1 1.97756e-05
*RES
1 *3154:X *3156:B1 31.8321 
*END

*D_NET *1301 0.00107801
*CONN
*I *3218:B I *D sky130_fd_sc_hd__xor2_1
*I *3219:B I *D sky130_fd_sc_hd__and2_1
*I *3155:X O *D sky130_fd_sc_hd__xor2_1
*CAP
1 *3218:B 9.38703e-05
2 *3219:B 0
3 *3155:X 0.000212623
4 *1301:12 0.000306493
5 *3218:A *3218:B 0.000194149
6 *514:14 *1301:12 7.04538e-05
7 *1239:12 *1301:12 0.00020042
*RES
1 *3155:X *1301:12 23.0321 
2 *1301:12 *3219:B 9.3 
3 *1301:12 *3218:B 11.4964 
*END

*D_NET *1302 0.00213131
*CONN
*I *3225:B I *D sky130_fd_sc_hd__xor2_1
*I *3226:A2 I *D sky130_fd_sc_hd__a21o_1
*I *3156:X O *D sky130_fd_sc_hd__a21o_1
*CAP
1 *3225:B 0
2 *3226:A2 0.000156853
3 *3156:X 0.000509256
4 *1302:18 0.000666109
5 *3226:A2 *3226:A1 0.000123352
6 *3226:A2 *1367:12 3.43995e-05
7 *3226:A2 *1371:16 5.49489e-05
8 *1302:18 *3226:B1 8.00806e-05
9 *1302:18 *1370:16 5.68722e-05
10 *1302:18 *1371:16 0
11 *3155:A *1302:18 4.7812e-05
12 *3155:B *1302:18 3.80591e-05
13 *3156:A1 *1302:18 0.000184522
14 *3156:A2 *1302:18 5.5033e-05
15 *1247:12 *1302:18 0.00012401
*RES
1 *3156:X *1302:18 27.3893 
2 *1302:18 *3226:A2 21.3893 
3 *1302:18 *3225:B 9.3 
*END

*D_NET *1303 0.00019119
*CONN
*I *2791:A I *D sky130_fd_sc_hd__or2_1
*I *2758:X O *D sky130_fd_sc_hd__and2_1
*CAP
1 *2791:A 6.70213e-05
2 *2758:X 6.70213e-05
3 *2791:A *2791:B 5.71472e-05
*RES
1 *2758:X *2791:A 19.9571 
*END

*D_NET *1304 0.000810856
*CONN
*I *3161:A I *D sky130_fd_sc_hd__xor2_1
*I *3162:A1 I *D sky130_fd_sc_hd__a21o_1
*I *3159:X O *D sky130_fd_sc_hd__xor2_1
*CAP
1 *3161:A 4.63205e-05
2 *3162:A1 4.24076e-05
3 *3159:X 4.3528e-05
4 *1304:8 0.000132256
5 *3161:B *3161:A 5.33005e-05
6 *3161:B *3162:A1 0.000125724
7 *10:133 *3161:A 0.000122591
8 *10:133 *1304:8 5.33005e-05
9 *21:114 *3161:A 3.97677e-05
10 *21:114 *1304:8 2.59355e-05
11 *22:127 *3162:A1 0.000125724
*RES
1 *3159:X *1304:8 10.2643 
2 *1304:8 *3162:A1 19.9429 
3 *1304:8 *3161:A 10.6571 
*END

*D_NET *1305 0.00116342
*CONN
*I *3162:B1 I *D sky130_fd_sc_hd__a21o_1
*I *3160:X O *D sky130_fd_sc_hd__and2_1
*CAP
1 *3162:B1 0.000284004
2 *3160:X 0.000284004
3 *3162:B1 *1306:14 7.6644e-05
4 *3162:B1 *1371:16 0.0003103
5 *3161:B *3162:B1 0.000196269
6 *22:127 *3162:B1 2.95076e-06
7 *1242:14 *3162:B1 0
8 *1251:10 *3162:B1 9.25014e-06
*RES
1 *3160:X *3162:B1 33.4393 
*END

*D_NET *1306 0.00487118
*CONN
*I *3222:B I *D sky130_fd_sc_hd__xor2_1
*I *3223:B I *D sky130_fd_sc_hd__and2_1
*I *3161:X O *D sky130_fd_sc_hd__xor2_1
*CAP
1 *3222:B 0
2 *3223:B 0.000197009
3 *3161:X 0.000956677
4 *1306:14 0.00115369
5 *1306:14 *1371:16 0.0013825
6 *2848:A *1306:14 7.8327e-05
7 *2907:A *1306:14 5.26184e-05
8 *3156:A1 *1306:14 0.000175519
9 *3156:B1 *1306:14 6.13295e-05
10 *3162:B1 *1306:14 7.6644e-05
11 *3222:A *3223:B 0.000139202
12 *3223:A *3223:B 4.80092e-05
13 *21:114 *1306:14 0.000268775
14 *1233:10 *3223:B 1.10868e-05
15 *1233:10 *1306:14 0.0002698
16 *1242:14 *1306:14 0
*RES
1 *3161:X *1306:14 42.425 
2 *1306:14 *3223:B 13.05 
3 *1306:14 *3222:B 9.3 
*END

*D_NET *1307 0.00413538
*CONN
*I *3229:B I *D sky130_fd_sc_hd__xor2_1
*I *3230:A2 I *D sky130_fd_sc_hd__a21o_1
*I *3162:X O *D sky130_fd_sc_hd__a21o_1
*CAP
1 *3229:B 4.13514e-05
2 *3230:A2 0.000462341
3 *3162:X 0.000531517
4 *1307:10 0.00103521
5 *3229:B *3229:A 5.65955e-05
6 *3230:A2 *3228:B 0.000197984
7 *3230:A2 *3229:A 0
8 *3230:A2 *3230:B1 0.000246531
9 *3230:A2 *1310:10 0.000149904
10 *1307:10 *2373:A 7.90803e-05
11 *1307:10 *1371:18 0.000696526
12 *1307:10 *1374:12 0.00012501
13 *2375:A1 *1307:10 0
14 *2375:B1 *1307:10 0
15 *2721:A *1307:10 0
16 *2845:A *3230:A2 3.18747e-05
17 *9:29 *1307:10 0
18 *22:127 *3230:A2 0
19 *38:295 *3230:A2 0.000139208
20 *41:243 *3229:B 0.000141734
21 *521:12 *3230:A2 0
22 *521:12 *1307:10 0
23 *1251:10 *3230:A2 0.000145584
24 *1251:10 *1307:10 5.49257e-05
*RES
1 *3162:X *1307:10 25.6929 
2 *1307:10 *3230:A2 25.425 
3 *1307:10 *3229:B 15.1571 
*END

*D_NET *1308 0.00090736
*CONN
*I *3165:A I *D sky130_fd_sc_hd__xor2_1
*I *3166:A1 I *D sky130_fd_sc_hd__a21o_1
*I *3163:X O *D sky130_fd_sc_hd__xor2_1
*CAP
1 *3165:A 0.000117545
2 *3166:A1 0.000185971
3 *3163:X 6.84257e-05
4 *3166:A1 *3166:B1 8.19593e-05
5 *3166:A1 *1311:10 3.18676e-05
6 *2916:B *3166:A1 0
7 *3166:A2 *3165:A 0.000180679
8 *20:38 *3165:A 4.82947e-05
9 *22:127 *3165:A 0
10 *22:175 *3166:A1 0.000148622
11 *40:32 *3166:A1 4.39965e-05
*RES
1 *3163:X *3166:A1 21.2071 
2 *3166:A1 *3165:A 30.1893 
*END

*D_NET *1309 0.000933597
*CONN
*I *3166:B1 I *D sky130_fd_sc_hd__a21o_1
*I *3164:X O *D sky130_fd_sc_hd__and2_1
*CAP
1 *3166:B1 0.00011659
2 *3164:X 0.00011659
3 *3166:B1 *1311:10 2.90184e-05
4 *2916:B *3166:B1 0
5 *3163:A *3166:B1 2.28598e-05
6 *3163:B *3166:B1 1.74352e-05
7 *3164:B *3166:B1 9.60875e-05
8 *3166:A1 *3166:B1 8.19593e-05
9 *40:32 *3166:B1 0.000453058
*RES
1 *3164:X *3166:B1 23.2607 
*END

*D_NET *1310 0.00162413
*CONN
*I *3228:B I *D sky130_fd_sc_hd__and2_1
*I *3227:B I *D sky130_fd_sc_hd__xor2_1
*I *3165:X O *D sky130_fd_sc_hd__xor2_1
*CAP
1 *3228:B 8.10013e-05
2 *3227:B 0
3 *3165:X 0.000297398
4 *1310:10 0.000378399
5 *1310:10 *3230:A1 0
6 *1310:10 *3230:B1 2.82057e-05
7 *3227:A *3228:B 0.000173804
8 *3230:A2 *3228:B 0.000197984
9 *3230:A2 *1310:10 0.000149904
10 *9:60 *3228:B 5.33005e-05
11 *12:113 *1310:10 6.19181e-05
12 *20:38 *1310:10 6.78055e-06
13 *22:127 *3228:B 5.90443e-06
14 *22:127 *1310:10 0.00017371
15 *521:12 *1310:10 0
16 *524:12 *3228:B 1.58163e-05
*RES
1 *3165:X *1310:10 20.8357 
2 *1310:10 *3227:B 13.8 
3 *1310:10 *3228:B 16.8893 
*END

*D_NET *1311 0.00313386
*CONN
*I *3233:B I *D sky130_fd_sc_hd__xor2_1
*I *3234:A2 I *D sky130_fd_sc_hd__a21o_1
*I *3166:X O *D sky130_fd_sc_hd__a21o_1
*CAP
1 *3233:B 0
2 *3234:A2 0.000320531
3 *3166:X 0.000403526
4 *1311:10 0.000724057
5 *3234:A2 *3233:A 0.000394719
6 *3234:A2 *3234:A1 0.000251493
7 *3234:A2 *1378:10 1.02504e-05
8 *1311:10 *2390:B 0.000189441
9 *1311:10 *3233:A 2.48938e-05
10 *1311:10 *1375:10 0.000158192
11 *1311:10 *1378:10 0.000227021
12 *2865:B *3234:A2 9.60875e-05
13 *3163:B *1311:10 1.24368e-05
14 *3166:A1 *1311:10 3.18676e-05
15 *3166:B1 *1311:10 2.90184e-05
16 *12:36 *1311:10 0.000221044
17 *22:129 *3234:A2 0
18 *536:8 *3234:A2 0
19 *1009:10 *1311:10 3.92854e-05
*RES
1 *3166:X *1311:10 24.8 
2 *1311:10 *3234:A2 22.1571 
3 *1311:10 *3233:B 13.8 
*END

*D_NET *1312 0.00196574
*CONN
*I *2124:B I *D sky130_fd_sc_hd__and2_1
*I *2123:B I *D sky130_fd_sc_hd__xor2_1
*I *3167:X O *D sky130_fd_sc_hd__xor2_1
*CAP
1 *2124:B 0.000137375
2 *2123:B 0.000158111
3 *3167:X 0.000264833
4 *1312:6 0.000560318
5 *2125:A *2123:B 9.58126e-05
6 *2125:A *1312:6 5.33005e-05
7 *2126:B1 *2124:B 0.00019651
8 *14:147 *1312:6 4.0342e-06
9 *23:36 *2124:B 0.000221163
10 *301:10 *1312:6 0.000274288
*RES
1 *3167:X *1312:6 14.3536 
2 *1312:6 *2123:B 11.9071 
3 *1312:6 *2124:B 22.1036 
*END

*D_NET *1313 0.00383
*CONN
*I *3173:A2 I *D sky130_fd_sc_hd__a21o_1
*I *3172:B I *D sky130_fd_sc_hd__xor2_1
*I *3168:X O *D sky130_fd_sc_hd__and2_1
*CAP
1 *3173:A2 0.000317998
2 *3172:B 7.08077e-05
3 *3168:X 0.000986504
4 *1313:6 0.00137531
5 *3173:A2 *3172:A 9.39472e-05
6 *3173:A2 *3173:B1 2.83284e-06
7 *2171:A *1313:6 0.000299452
8 *3170:B *3173:A2 0
9 *4:117 *3173:A2 4.58194e-05
10 *5:62 *3173:A2 0
11 *14:147 *3172:B 1.24368e-05
12 *14:147 *3173:A2 0
13 *14:147 *1313:6 0.000102451
14 *995:6 *1313:6 0.000522445
*RES
1 *3168:X *1313:6 22.5679 
2 *1313:6 *3172:B 10.9786 
3 *1313:6 *3173:A2 22.8357 
*END

*D_NET *1314 0.000470656
*CONN
*I *2791:B I *D sky130_fd_sc_hd__or2_1
*I *2769:X O *D sky130_fd_sc_hd__and2_1
*CAP
1 *2791:B 0.000145806
2 *2769:X 0.000145806
3 *2758:B *2791:B 2.28598e-05
4 *2791:A *2791:B 5.71472e-05
5 *13:210 *2791:B 9.90367e-05
*RES
1 *2769:X *2791:B 21.1893 
*END

*D_NET *1315 0.000756024
*CONN
*I *3172:A I *D sky130_fd_sc_hd__xor2_1
*I *3173:A1 I *D sky130_fd_sc_hd__a21o_1
*I *3170:X O *D sky130_fd_sc_hd__xor2_1
*CAP
1 *3172:A 0.00013225
2 *3173:A1 4.24612e-05
3 *3170:X 0.000174711
4 *3173:A2 *3172:A 9.39472e-05
5 *3:22 *3173:A1 9.80173e-05
6 *4:117 *3172:A 0.000174461
7 *5:62 *3172:A 0
8 *14:25 *3173:A1 4.01768e-05
9 *14:147 *3172:A 0
*RES
1 *3170:X *3173:A1 19.975 
2 *3170:X *3172:A 30.4929 
*END

*D_NET *1316 0.000715469
*CONN
*I *3173:B1 I *D sky130_fd_sc_hd__a21o_1
*I *3171:X O *D sky130_fd_sc_hd__and2_1
*CAP
1 *3173:B1 0.000268266
2 *3171:X 0.000268266
3 zP[1] *3173:B1 1.15058e-05
4 *2474:B *3173:B1 5.71472e-05
5 *3173:A2 *3173:B1 2.83284e-06
6 *5:62 *3173:B1 2.92236e-05
7 *23:11 *3173:B1 1.90936e-05
8 *643:8 *3173:B1 5.91336e-05
*RES
1 *3171:X *3173:B1 31.4214 
*END

*D_NET *1317 0.00117434
*CONN
*I *2142:B I *D sky130_fd_sc_hd__and2_1
*I *2141:B I *D sky130_fd_sc_hd__xor2_1
*I *3172:X O *D sky130_fd_sc_hd__xor2_1
*CAP
1 *2142:B 7.80323e-05
2 *2141:B 0.000102067
3 *3172:X 0.000124812
4 *1317:12 0.000304912
5 *2141:A *2141:B 2.286e-05
6 *2141:A *2142:B 0.000188586
7 *2144:B1 *2141:B 1.55885e-05
8 *2144:B1 *2142:B 0.00010096
9 *6:269 *2141:B 2.82057e-05
10 *6:269 *1317:12 0.000176089
11 *14:147 *1317:12 3.22304e-05
*RES
1 *3172:X *1317:12 17.0143 
2 *1317:12 *2141:B 15.4964 
3 *1317:12 *2142:B 16.1036 
*END

*D_NET *1318 0.00169088
*CONN
*I *2158:A I *D sky130_fd_sc_hd__xor2_1
*I *2159:A I *D sky130_fd_sc_hd__and2_1
*I *3173:X O *D sky130_fd_sc_hd__a21o_1
*CAP
1 *2158:A 0
2 *2159:A 0.000130737
3 *3173:X 0.000157797
4 *1318:6 0.000288534
5 *2159:A *2159:B 0.000366533
6 *1318:6 *2158:B 5.33005e-05
7 *2480:A *1318:6 0.00026546
8 *3:22 *1318:6 9.46929e-05
9 *14:25 *1318:6 8.86413e-05
10 *35:271 *2159:A 1.08359e-05
11 *333:12 *2159:A 0.000148903
12 *337:12 *2159:A 8.54415e-05
*RES
1 *3173:X *1318:6 13.5321 
2 *1318:6 *2159:A 23.2821 
3 *1318:6 *2158:A 9.3 
*END

*D_NET *1319 0.000825631
*CONN
*I *3176:A I *D sky130_fd_sc_hd__xor2_1
*I *3177:A1 I *D sky130_fd_sc_hd__a21o_1
*I *3174:X O *D sky130_fd_sc_hd__xor2_1
*CAP
1 *3176:A 4.52266e-05
2 *3177:A1 7.42287e-05
3 *3174:X 4.36189e-05
4 *1319:8 0.000163074
5 *1319:8 *1321:18 3.18676e-05
6 *2382:A *3176:A 0.000122591
7 *2382:A *1319:8 9.90367e-05
8 *3177:A2 *3176:A 9.41642e-05
9 *3177:A2 *3177:A1 0.000125724
10 *25:151 *3177:A1 0
11 *34:142 *3176:A 1.21258e-05
12 *34:142 *1319:8 1.39726e-05
*RES
1 *3174:X *1319:8 10.675 
2 *1319:8 *3177:A1 19.9429 
3 *1319:8 *3176:A 10.6571 
*END

*D_NET *1320 0.00111326
*CONN
*I *3177:B1 I *D sky130_fd_sc_hd__a21o_1
*I *3175:X O *D sky130_fd_sc_hd__and2_1
*CAP
1 *3177:B1 0.00023313
2 *3175:X 0.00023313
3 *3177:A2 *3177:B1 0.00019384
4 *25:151 *3177:B1 0.00014285
5 *35:45 *3177:B1 0.000310314
*RES
1 *3175:X *3177:B1 33.0286 
*END

*D_NET *1321 0.00433093
*CONN
*I *2159:B I *D sky130_fd_sc_hd__and2_1
*I *2158:B I *D sky130_fd_sc_hd__xor2_1
*I *3176:X O *D sky130_fd_sc_hd__xor2_1
*CAP
1 *2159:B 0.000107883
2 *2158:B 5.06999e-05
3 *3176:X 0.000787699
4 *1321:18 0.000946282
5 *2159:A *2159:B 0.000366533
6 *2382:A *1321:18 5.91367e-05
7 *2480:A *2158:B 2.44318e-05
8 *2480:A *1321:18 0.000365544
9 *3107:B *1321:18 5.52238e-05
10 *3108:A *1321:18 2.44318e-05
11 *3108:B *1321:18 0.000139913
12 *5:209 *1321:18 0.000784958
13 *7:13 *2159:B 0.000108872
14 *8:21 *1321:18 1.88048e-05
15 *17:11 *1321:18 5.41794e-05
16 *34:142 *1321:18 5.71472e-05
17 *35:271 *2159:B 0.000162914
18 *1061:14 *1321:18 2.89114e-05
19 *1254:6 *1321:18 0.000102197
20 *1318:6 *2158:B 5.33005e-05
21 *1319:8 *1321:18 3.18676e-05
*RES
1 *3176:X *1321:18 35.4429 
2 *1321:18 *2158:B 10.2464 
3 *1321:18 *2159:B 22.9786 
*END

*D_NET *1322 0.00405418
*CONN
*I *2177:A I *D sky130_fd_sc_hd__xor2_1
*I *2178:A I *D sky130_fd_sc_hd__and2_1
*I *3177:X O *D sky130_fd_sc_hd__a21o_1
*CAP
1 *2177:A 0.000207137
2 *2178:A 0
3 *3177:X 0.00117208
4 *1322:8 0.00137922
5 *2177:A *2178:B 9.80173e-05
6 *2179:A *2177:A 0.000123985
7 *2179:B *2177:A 0.000186669
8 *2180:B1 *2177:A 0.000140282
9 *2189:A *2177:A 0
10 *2349:B *1322:8 4.37999e-05
11 *2476:A *1322:8 2.27416e-05
12 *2481:A *1322:8 1.56e-05
13 *3109:A *1322:8 7.48301e-06
14 *3110:B *1322:8 0.000274294
15 *595:6 *1322:8 4.01768e-05
16 *649:6 *1322:8 0.000342694
*RES
1 *3177:X *1322:8 24.9429 
2 *1322:8 *2178:A 9.3 
3 *1322:8 *2177:A 23.8536 
*END

*D_NET *1323 0.000906499
*CONN
*I *3182:A1 I *D sky130_fd_sc_hd__a21o_1
*I *3181:A I *D sky130_fd_sc_hd__xor2_1
*I *3178:X O *D sky130_fd_sc_hd__xor2_1
*CAP
1 *3182:A1 5.52229e-05
2 *3181:A 0.000147268
3 *3178:X 0.000202491
4 *3181:A *3182:B1 1.39841e-05
5 *2179:B *3181:A 0
6 *2476:A *3181:A 0.000152333
7 *3182:A2 *3181:A 0.000207708
8 *25:151 *3182:A1 9.60875e-05
9 *1162:12 *3182:A1 3.14048e-05
*RES
1 *3178:X *3181:A 31.725 
2 *3178:X *3182:A1 19.975 
*END

*D_NET *1324 0.000821916
*CONN
*I *3182:B1 I *D sky130_fd_sc_hd__a21o_1
*I *3179:X O *D sky130_fd_sc_hd__and2_1
*CAP
1 *3182:B1 0.000302993
2 *3179:X 0.000302993
3 *2179:B *3182:B1 0
4 *3181:A *3182:B1 1.39841e-05
5 *3182:A2 *3182:B1 0.000173497
6 *25:151 *3182:B1 2.84494e-05
*RES
1 *3179:X *3182:B1 32.1357 
*END

*D_NET *1325 0.0013403
*CONN
*I *2943:A I *D sky130_fd_sc_hd__xor2_1
*I *2944:A I *D sky130_fd_sc_hd__and2_1
*I *2780:X O *D sky130_fd_sc_hd__or2_1
*CAP
1 *2943:A 0
2 *2944:A 8.55438e-05
3 *2780:X 0.000352785
4 *1325:10 0.000438329
5 *1950:A *1325:10 0.000142856
6 *1950:B *2944:A 0
7 *2944:B *2944:A 0.000177941
8 *2944:B *1325:10 4.18895e-05
9 *28:172 *2944:A 0
10 *497:6 *1325:10 0.00010096
*RES
1 *2780:X *1325:10 15.7286 
2 *1325:10 *2944:A 20.55 
3 *1325:10 *2943:A 9.3 
*END

*D_NET *1326 0.000895022
*CONN
*I *2177:B I *D sky130_fd_sc_hd__xor2_1
*I *2178:B I *D sky130_fd_sc_hd__and2_1
*I *3181:X O *D sky130_fd_sc_hd__xor2_1
*CAP
1 *2177:B 5.16538e-05
2 *2178:B 9.59703e-05
3 *3181:X 0
4 *1326:4 0.000147624
5 *2177:A *2178:B 9.80173e-05
6 *2179:A *2178:B 0.000198698
7 *2179:B *2178:B 0.000202842
8 *2180:B1 *2178:B 6.05161e-06
9 *1262:12 *2177:B 9.41642e-05
*RES
1 *3181:X *1326:4 9.3 
2 *1326:4 *2178:B 21.8 
3 *1326:4 *2177:B 10.2464 
*END

*D_NET *1327 0.00450344
*CONN
*I *2195:A I *D sky130_fd_sc_hd__xor2_1
*I *2196:A I *D sky130_fd_sc_hd__and2_1
*I *3182:X O *D sky130_fd_sc_hd__a21o_1
*CAP
1 *2195:A 0.000158833
2 *2196:A 0.000768732
3 *3182:X 0.000609898
4 *2195:A *2195:B 2.87584e-05
5 *2195:A *2196:B 0.000153273
6 *2196:A *2196:B 0
7 *2196:A *3186:B1 4.37999e-05
8 *2198:A1 *2195:A 0
9 *2198:B1 *2195:A 2.44318e-05
10 *3116:A *2196:A 6.09899e-05
11 *3117:A1 *2196:A 0.000124521
12 *3117:A2 *2196:A 1.74352e-05
13 *3184:B *2195:A 0
14 *3184:B *2196:A 3.48705e-05
15 *349:16 *2195:A 1.32552e-05
16 *349:16 *2196:A 0.00191393
17 *1162:12 *2196:A 0.000493102
18 *1263:6 *2196:A 5.76121e-05
*RES
1 *3182:X *2196:A 40.6536 
2 *2196:A *2195:A 22.1714 
*END

*D_NET *1328 0.000631279
*CONN
*I *3186:A1 I *D sky130_fd_sc_hd__a21o_1
*I *3185:A I *D sky130_fd_sc_hd__xor2_1
*I *3183:X O *D sky130_fd_sc_hd__xor2_1
*CAP
1 *3186:A1 4.53588e-05
2 *3185:A 0.000108844
3 *3183:X 0.000154203
4 *3186:A1 *3186:B1 8.01554e-05
5 *3185:B *3185:A 8.01893e-05
6 *3185:B *3186:A1 0.00015244
7 *1266:10 *3186:A1 1.00887e-05
*RES
1 *3183:X *3185:A 20.7964 
2 *3183:X *3186:A1 29.5464 
*END

*D_NET *1329 0.000817292
*CONN
*I *3186:B1 I *D sky130_fd_sc_hd__a21o_1
*I *3184:X O *D sky130_fd_sc_hd__and2_1
*CAP
1 *3186:B1 0.000342929
2 *3184:X 0.000342929
3 *3186:B1 *1330:10 0
4 *2196:A *3186:B1 4.37999e-05
5 *3184:A *3186:B1 0
6 *3185:B *3186:B1 7.47835e-06
7 *3186:A1 *3186:B1 8.01554e-05
8 *1176:10 *3186:B1 0
*RES
1 *3184:X *3186:B1 33.3321 
*END

*D_NET *1330 0.000796705
*CONN
*I *2195:B I *D sky130_fd_sc_hd__xor2_1
*I *2196:B I *D sky130_fd_sc_hd__and2_1
*I *3185:X O *D sky130_fd_sc_hd__xor2_1
*CAP
1 *2195:B 9.2556e-06
2 *2196:B 4.35356e-05
3 *3185:X 0.000196321
4 *1330:10 0.000249112
5 *2191:B *1330:10 0
6 *2195:A *2195:B 2.87584e-05
7 *2195:A *2196:B 0.000153273
8 *2196:A *2196:B 0
9 *2198:B1 *2195:B 5.71472e-05
10 *2198:B1 *2196:B 2.44318e-05
11 *3186:B1 *1330:10 0
12 *349:16 *2196:B 3.48705e-05
13 *349:16 *1330:10 0
*RES
1 *3185:X *1330:10 21.1571 
2 *1330:10 *2196:B 11.0857 
3 *1330:10 *2195:B 9.83571 
*END

*D_NET *1331 0.00335189
*CONN
*I *2212:A I *D sky130_fd_sc_hd__xor2_1
*I *2213:A I *D sky130_fd_sc_hd__and2_1
*I *3186:X O *D sky130_fd_sc_hd__a21o_1
*CAP
1 *2212:A 0.000183688
2 *2213:A 0.00105882
3 *3186:X 0.000875134
4 *2212:A *2213:B 0.000240898
5 *2191:B *2213:A 6.92966e-06
6 *2193:A *2213:A 9.69682e-05
7 *2193:B *2213:A 5.50052e-05
8 *2209:A *2213:A 3.72685e-05
9 *2214:A *2212:A 0
10 *2215:B1 *2212:A 1.32552e-05
11 *354:14 *2213:A 2.80741e-05
12 *365:10 *2213:A 7.57318e-05
13 *368:8 *2213:A 0.000172884
14 *1177:12 *2213:A 0.000507233
*RES
1 *3186:X *2213:A 45.2964 
2 *2213:A *2212:A 22.4571 
*END

*D_NET *1332 0.000559197
*CONN
*I *3190:A1 I *D sky130_fd_sc_hd__a21o_1
*I *3189:A I *D sky130_fd_sc_hd__xor2_1
*I *3187:X O *D sky130_fd_sc_hd__xor2_1
*CAP
1 *3190:A1 9.36817e-05
2 *3189:A 0.000108536
3 *3187:X 0
4 *1332:4 0.000202218
5 *3190:A2 *3190:A1 0
6 *1177:14 *3190:A1 0.000154762
*RES
1 *3187:X *1332:4 9.3 
2 *1332:4 *3189:A 11.0857 
3 *1332:4 *3190:A1 20.2464 
*END

*D_NET *1333 0.000320356
*CONN
*I *3190:B1 I *D sky130_fd_sc_hd__a21o_1
*I *3188:X O *D sky130_fd_sc_hd__and2_1
*CAP
1 *3190:B1 0.000119293
2 *3188:X 0.000119293
3 *2217:A *3190:B1 0
4 *3190:A2 *3190:B1 8.17713e-05
*RES
1 *3188:X *3190:B1 20.7964 
*END

*D_NET *1334 0.00148381
*CONN
*I *2213:B I *D sky130_fd_sc_hd__and2_1
*I *2212:B I *D sky130_fd_sc_hd__xor2_1
*I *3189:X O *D sky130_fd_sc_hd__xor2_1
*CAP
1 *2213:B 7.24089e-05
2 *2212:B 0
3 *3189:X 0.000415004
4 *1334:10 0.000487413
5 *1334:10 *1335:14 0
6 *2212:A *2213:B 0.000240898
7 *2214:A *2213:B 0
8 *2215:A1 *1334:10 0
9 *2215:B1 *2213:B 5.76121e-05
10 *2218:A *1334:10 0.000126439
11 *3190:A2 *1334:10 7.99044e-05
12 *239:10 *1334:10 0
13 *1177:12 *1334:10 0
14 *1177:14 *1334:10 0
15 *1271:8 *1334:10 4.1331e-06
*RES
1 *3189:X *1334:10 26.0143 
2 *1334:10 *2212:B 9.3 
3 *1334:10 *2213:B 11.9071 
*END

*D_NET *1335 0.00311296
*CONN
*I *2231:A I *D sky130_fd_sc_hd__and2_1
*I *2230:A I *D sky130_fd_sc_hd__xor2_1
*I *3190:X O *D sky130_fd_sc_hd__a21o_1
*CAP
1 *2231:A 0
2 *2230:A 0.000162058
3 *3190:X 0.000834502
4 *1335:14 0.00099656
5 *2230:A *2231:B 0.000126285
6 *2059:A1 *1335:14 0
7 *2059:A2 *1335:14 0
8 *2217:A *1335:14 0.000117956
9 *2218:A *1335:14 1.58163e-05
10 *2220:B1 *1335:14 5.71472e-05
11 *2233:B1 *2230:A 0.00014183
12 *3190:A2 *1335:14 3.69047e-06
13 *239:10 *1335:14 0.000657113
14 *240:10 *1335:14 0
15 *393:8 *2230:A 0
16 *396:12 *1335:14 0
17 *1271:8 *1335:14 0
18 *1334:10 *1335:14 0
*RES
1 *3190:X *1335:14 33.6036 
2 *1335:14 *2230:A 13.1571 
3 *1335:14 *2231:A 9.3 
*END

*D_NET *1336 0.00216676
*CONN
*I *3242:A I *D sky130_fd_sc_hd__xor2_1
*I *3243:A I *D sky130_fd_sc_hd__and2_1
*I *2791:X O *D sky130_fd_sc_hd__or2_1
*CAP
1 *3242:A 0.000101267
2 *3243:A 0
3 *2791:X 0.000272869
4 *1336:6 0.000374137
5 *3242:A *3245:B1 1.56e-05
6 *1961:A *1336:6 0.000144773
7 *1961:B *1336:6 5.68519e-05
8 *3242:B *3242:A 0.000137334
9 *3357:A *1336:6 9.41642e-05
10 *3357:B *1336:6 5.52302e-05
11 *3368:A *1336:6 0.00014183
12 *14:91 *1336:6 3.97677e-05
13 *37:208 *3242:A 0.000317082
14 *37:208 *1336:6 0.000305562
15 *508:8 *3242:A 2.95641e-05
16 *508:8 *1336:6 8.07313e-05
*RES
1 *2791:X *1336:6 17.6393 
2 *1336:6 *3243:A 9.3 
3 *1336:6 *3242:A 13.4607 
*END

*D_NET *1337 0.000780122
*CONN
*I *3194:A I *D sky130_fd_sc_hd__xor2_1
*I *3195:A1 I *D sky130_fd_sc_hd__a21o_1
*I *3192:X O *D sky130_fd_sc_hd__xor2_1
*CAP
1 *3194:A 0
2 *3195:A1 5.3041e-05
3 *3192:X 9.87522e-05
4 *1337:8 0.000151793
5 *1337:8 *3195:B1 2.27416e-05
6 *3192:B *1337:8 1.3701e-05
7 *3194:B *3195:A1 0.00020455
8 *396:12 *3195:A1 0.000227736
9 *400:8 *3195:A1 7.80714e-06
*RES
1 *3192:X *1337:8 11.0857 
2 *1337:8 *3195:A1 21.1571 
3 *1337:8 *3194:A 9.3 
*END

*D_NET *1338 0.00098896
*CONN
*I *3195:B1 I *D sky130_fd_sc_hd__a21o_1
*I *3193:X O *D sky130_fd_sc_hd__and2_1
*CAP
1 *3195:B1 0.000322547
2 *3193:X 0.000322547
3 *3192:A *3195:B1 7.32272e-05
4 *3192:B *3195:B1 1.32552e-05
5 *245:8 *3195:B1 8.15939e-05
6 *396:12 *3195:B1 0.000153047
7 *1337:8 *3195:B1 2.27416e-05
*RES
1 *3193:X *3195:B1 32.9571 
*END

*D_NET *1339 0.00255115
*CONN
*I *2230:B I *D sky130_fd_sc_hd__xor2_1
*I *2231:B I *D sky130_fd_sc_hd__and2_1
*I *3194:X O *D sky130_fd_sc_hd__xor2_1
*CAP
1 *2230:B 0
2 *2231:B 0.00014622
3 *3194:X 0.000523698
4 *1339:10 0.000669918
5 *2230:A *2231:B 0.000126285
6 *2233:B1 *2231:B 1.74352e-05
7 *2234:A *1339:10 1.28585e-05
8 *2234:B *1339:10 8.15939e-05
9 *2235:A *1339:10 1.27784e-05
10 *2235:B *1339:10 4.00121e-05
11 *2237:A1 *1339:10 5.38886e-05
12 *2237:A2 *1339:10 0
13 *2237:B1 *1339:10 0.000128146
14 *240:10 *1339:10 0.000194954
15 *392:10 *1339:10 0
16 *400:8 *1339:10 0.000543361
*RES
1 *3194:X *1339:10 32.9964 
2 *1339:10 *2231:B 12.3179 
3 *1339:10 *2230:B 9.3 
*END

*D_NET *1340 0.00344186
*CONN
*I *2247:A I *D sky130_fd_sc_hd__xor2_1
*I *2248:A I *D sky130_fd_sc_hd__and2_1
*I *3195:X O *D sky130_fd_sc_hd__a21o_1
*CAP
1 *2247:A 7.11149e-05
2 *2248:A 0.000113053
3 *3195:X 0.00072764
4 *1340:12 0.000911808
5 *2247:A *2247:B 5.85965e-05
6 *2248:A *2247:B 5.4236e-05
7 *2248:A *2248:B 0.00010096
8 *2069:A2 *1340:12 1.00375e-05
9 *2244:B *1340:12 0
10 *2251:B1 *2247:A 1.74352e-05
11 *2253:A *1340:12 0.000198698
12 *2253:B *1340:12 0.000106552
13 *2255:B1 *1340:12 0
14 *245:8 *1340:12 0.000901207
15 *249:8 *1340:12 0
16 *396:12 *1340:12 0.000170523
17 *407:10 *1340:12 0
18 *416:10 *1340:12 0
*RES
1 *3195:X *1340:12 37.175 
2 *1340:12 *2248:A 11.9071 
3 *1340:12 *2247:A 10.9786 
*END

*D_NET *1341 0.000847702
*CONN
*I *3198:A I *D sky130_fd_sc_hd__xor2_1
*I *3199:A1 I *D sky130_fd_sc_hd__a21o_1
*I *3196:X O *D sky130_fd_sc_hd__xor2_1
*CAP
1 *3198:A 6.43584e-05
2 *3199:A1 0.000201887
3 *3196:X 1.70795e-05
4 *1341:6 0.000283325
5 *3199:A1 *1344:10 1.32552e-05
6 *3196:A *3199:A1 9.80173e-05
7 *3198:B *3198:A 5.33433e-05
8 *3198:B *3199:A1 5.54462e-05
9 *3198:B *1341:6 5.7661e-06
10 *1279:12 *3199:A1 5.52238e-05
*RES
1 *3196:X *1341:6 9.72857 
2 *1341:6 *3199:A1 13.1393 
3 *1341:6 *3198:A 10.6571 
*END

*D_NET *1342 0.000474654
*CONN
*I *3199:B1 I *D sky130_fd_sc_hd__a21o_1
*I *3197:X O *D sky130_fd_sc_hd__and2_1
*CAP
1 *3199:B1 0.000237327
2 *3197:X 0.000237327
3 *3197:B *3199:B1 0
4 *185:8 *3199:B1 0
5 *1276:10 *3199:B1 0
6 *1279:12 *3199:B1 0
*RES
1 *3197:X *3199:B1 30.9036 
*END

*D_NET *1343 0.000787169
*CONN
*I *2247:B I *D sky130_fd_sc_hd__xor2_1
*I *2248:B I *D sky130_fd_sc_hd__and2_1
*I *3198:X O *D sky130_fd_sc_hd__xor2_1
*CAP
1 *2247:B 2.78277e-05
2 *2248:B 3.47756e-05
3 *3198:X 0.000168345
4 *1343:10 0.000230949
5 *2247:A *2247:B 5.85965e-05
6 *2248:A *2247:B 5.4236e-05
7 *2248:A *2248:B 0.00010096
8 *2251:B1 *2247:B 9.90431e-05
9 *2251:B1 *2248:B 1.24368e-05
10 *249:8 *1343:10 0
11 *416:10 *1343:10 0
*RES
1 *3198:X *1343:10 20.8536 
2 *1343:10 *2248:B 10.2464 
3 *1343:10 *2247:B 10.675 
*END

*D_NET *1344 0.00275305
*CONN
*I *2265:A I *D sky130_fd_sc_hd__xor2_1
*I *2266:A I *D sky130_fd_sc_hd__and2_1
*I *3199:X O *D sky130_fd_sc_hd__a21o_1
*CAP
1 *2265:A 0.000104419
2 *2266:A 4.98643e-05
3 *3199:X 0.00084038
4 *1344:10 0.000994663
5 *2265:A *2266:B 0.000179656
6 *2265:A *1348:10 2.48938e-05
7 *2266:A *2266:B 5.71472e-05
8 *2073:B *1344:10 5.57914e-05
9 *2074:A1 *1344:10 0
10 *2074:B1 *1344:10 0
11 *3197:B *1344:10 8.15939e-05
12 *3198:B *1344:10 5.71472e-05
13 *3199:A1 *1344:10 1.32552e-05
14 *185:8 *1344:10 0
15 *253:12 *1344:10 0.000108839
16 *254:14 *2265:A 0
17 *254:14 *1344:10 0
18 *1202:10 *1344:10 0.000185396
*RES
1 *3199:X *1344:10 30.175 
2 *1344:10 *2266:A 14.7464 
3 *1344:10 *2265:A 16.6571 
*END

*D_NET *1345 0.000884839
*CONN
*I *3204:A1 I *D sky130_fd_sc_hd__a21o_1
*I *3203:A I *D sky130_fd_sc_hd__xor2_1
*I *3200:X O *D sky130_fd_sc_hd__xor2_1
*CAP
1 *3204:A1 9.48958e-05
2 *3203:A 0.000119021
3 *3200:X 0
4 *1345:4 0.000213917
5 *3204:A1 *3204:B1 3.14163e-05
6 *3200:A *3204:A1 0
7 *3200:B *3204:A1 0
8 *3204:A2 *3203:A 0.00017309
9 *254:14 *3203:A 0.000197269
10 *1284:6 *3203:A 5.52302e-05
*RES
1 *3200:X *1345:4 9.3 
2 *1345:4 *3203:A 21.8 
3 *1345:4 *3204:A1 10.9786 
*END

*D_NET *1346 0.000876408
*CONN
*I *3204:B1 I *D sky130_fd_sc_hd__a21o_1
*I *3201:X O *D sky130_fd_sc_hd__and2_1
*CAP
1 *3204:B1 0.000252905
2 *3201:X 0.000252905
3 *3204:B1 *1349:10 0.000265447
4 *3200:A *3204:B1 1.74352e-05
5 *3200:B *3204:B1 5.62995e-05
6 *3204:A1 *3204:B1 3.14163e-05
*RES
1 *3201:X *3204:B1 23.975 
*END

*D_NET *1347 0.000204928
*CONN
*I *2847:A I *D sky130_fd_sc_hd__or2_1
*I *2802:X O *D sky130_fd_sc_hd__and2_1
*CAP
1 *2847:A 7.56217e-05
2 *2802:X 7.56217e-05
3 *2847:A *2847:B 2.89016e-05
4 *13:189 *2847:A 2.47833e-05
*RES
1 *2802:X *2847:A 19.9571 
*END

*D_NET *1348 0.000992308
*CONN
*I *2265:B I *D sky130_fd_sc_hd__xor2_1
*I *2266:B I *D sky130_fd_sc_hd__and2_1
*I *3203:X O *D sky130_fd_sc_hd__xor2_1
*CAP
1 *2265:B 0
2 *2266:B 0.000177189
3 *3203:X 0.000188117
4 *1348:10 0.000365306
5 *2265:A *2266:B 0.000179656
6 *2265:A *1348:10 2.48938e-05
7 *2266:A *2266:B 5.71472e-05
8 *2268:B1 *2266:B 0
9 *2268:B1 *1348:10 0
10 *254:14 *1348:10 0
11 *427:14 *1348:10 0
12 *432:12 *2266:B 0
13 *432:12 *1348:10 0
*RES
1 *3203:X *1348:10 17.1929 
2 *1348:10 *2266:B 17.8357 
3 *1348:10 *2265:B 13.8 
*END

*D_NET *1349 0.00372738
*CONN
*I *2285:A I *D sky130_fd_sc_hd__and2_1
*I *2284:A I *D sky130_fd_sc_hd__xor2_1
*I *3204:X O *D sky130_fd_sc_hd__a21o_1
*CAP
1 *2285:A 0.00017228
2 *2284:A 4.26984e-05
3 *3204:X 0.000702928
4 *1349:10 0.000917907
5 *2285:A *2285:B 1.78353e-05
6 *2287:B1 *2285:A 0.000143804
7 *2287:B1 *1349:10 0.000173804
8 *3204:B1 *1349:10 0.000265447
9 *254:14 *2285:A 0.000201127
10 *254:14 *1349:10 0.00102326
11 *447:10 *2285:A 6.62868e-05
12 *1211:12 *1349:10 0
13 *1212:14 *1349:10 0
14 *1280:12 *1349:10 0
*RES
1 *3204:X *1349:10 30.0857 
2 *1349:10 *2284:A 14.3357 
3 *1349:10 *2285:A 18.5321 
*END

*D_NET *1350 0.000746043
*CONN
*I *3207:A I *D sky130_fd_sc_hd__xor2_1
*I *3208:A1 I *D sky130_fd_sc_hd__a21o_1
*I *3205:X O *D sky130_fd_sc_hd__xor2_1
*CAP
1 *3207:A 0
2 *3208:A1 0.000134041
3 *3205:X 0.000138745
4 *1350:8 0.000272787
5 *3208:A1 *3208:B1 2.4958e-05
6 *3207:B *3208:A1 0.000175512
7 *443:10 *3208:A1 0
8 *1220:24 *1350:8 0
*RES
1 *3205:X *1350:8 11.4964 
2 *1350:8 *3208:A1 21.1571 
3 *1350:8 *3207:A 9.3 
*END

*D_NET *1351 0.000715243
*CONN
*I *3208:B1 I *D sky130_fd_sc_hd__a21o_1
*I *3206:X O *D sky130_fd_sc_hd__and2_1
*CAP
1 *3208:B1 0.000229496
2 *3206:X 0.000229496
3 *3143:A2 *3208:B1 0
4 *3205:B *3208:B1 5.5782e-05
5 *3207:B *3208:B1 0.000175512
6 *3208:A1 *3208:B1 2.4958e-05
7 *443:10 *3208:B1 0
*RES
1 *3206:X *3208:B1 32.5107 
*END

*D_NET *1352 0.000671602
*CONN
*I *2284:B I *D sky130_fd_sc_hd__xor2_1
*I *2285:B I *D sky130_fd_sc_hd__and2_1
*I *3207:X O *D sky130_fd_sc_hd__xor2_1
*CAP
1 *2284:B 3.08975e-05
2 *2285:B 0.000116383
3 *3207:X 0.000145852
4 *1352:6 0.000293133
5 *2285:A *2285:B 1.78353e-05
6 *2287:B1 *2285:B 6.75007e-05
7 *254:14 *2285:B 0
8 *443:10 *2285:B 0
9 *1212:14 *2285:B 0
*RES
1 *3207:X *1352:6 11.4786 
2 *1352:6 *2285:B 20.8536 
3 *1352:6 *2284:B 9.83571 
*END

*D_NET *1353 0.00202341
*CONN
*I *2301:A I *D sky130_fd_sc_hd__xor2_1
*I *2302:A I *D sky130_fd_sc_hd__and2_1
*I *3208:X O *D sky130_fd_sc_hd__a21o_1
*CAP
1 *2301:A 0
2 *2302:A 0.000155392
3 *3208:X 0.000606981
4 *1353:12 0.000762373
5 *2302:A *2301:B 9.77274e-05
6 *2302:A *2302:B 1.04232e-05
7 *2302:A *1356:6 3.18676e-05
8 *2298:A *1353:12 0
9 *2298:B *1353:12 0
10 *3143:A2 *1353:12 0
11 *443:10 *1353:12 0
12 *454:12 *2302:A 1.21289e-05
13 *454:12 *1353:12 0.000346515
*RES
1 *3208:X *1353:12 30.675 
2 *1353:12 *2302:A 12.7464 
3 *1353:12 *2301:A 9.3 
*END

*D_NET *1354 0.00083116
*CONN
*I *3211:A I *D sky130_fd_sc_hd__xor2_1
*I *3212:A1 I *D sky130_fd_sc_hd__a21o_1
*I *3209:X O *D sky130_fd_sc_hd__xor2_1
*CAP
1 *3211:A 4.57835e-05
2 *3212:A1 0.000156215
3 *3209:X 0
4 *1354:4 0.000201999
5 *2075:A *3212:A1 5.30637e-06
6 *3211:B *3211:A 0.000153279
7 *3212:A2 *3212:A1 0.000150625
8 *125:6 *3212:A1 4.01768e-05
9 *258:12 *3212:A1 0
10 *1289:16 *3211:A 7.77751e-05
*RES
1 *3209:X *1354:4 9.3 
2 *1354:4 *3212:A1 21.1929 
3 *1354:4 *3211:A 11.0857 
*END

*D_NET *1355 0.000736827
*CONN
*I *3212:B1 I *D sky130_fd_sc_hd__a21o_1
*I *3210:X O *D sky130_fd_sc_hd__and2_1
*CAP
1 *3212:B1 0.000228356
2 *3210:X 0.000228356
3 *3212:B1 *1357:12 7.48356e-05
4 *3210:B *3212:B1 0.000125731
5 *3212:A2 *3212:B1 7.95487e-05
*RES
1 *3210:X *3212:B1 32.2071 
*END

*D_NET *1356 0.00145373
*CONN
*I *2301:B I *D sky130_fd_sc_hd__xor2_1
*I *2302:B I *D sky130_fd_sc_hd__and2_1
*I *3211:X O *D sky130_fd_sc_hd__xor2_1
*CAP
1 *2301:B 2.4259e-05
2 *2302:B 1.99857e-05
3 *3211:X 0.000462822
4 *1356:6 0.000507067
5 *2302:A *2301:B 9.77274e-05
6 *2302:A *2302:B 1.04232e-05
7 *2302:A *1356:6 3.18676e-05
8 *454:12 *2301:B 0.000188586
9 *454:12 *1356:6 1.33343e-05
10 *1289:16 *1356:6 9.7659e-05
*RES
1 *3211:X *1356:6 17.6393 
2 *1356:6 *2302:B 9.72857 
3 *1356:6 *2301:B 11.0679 
*END

*D_NET *1357 0.00183246
*CONN
*I *2319:A I *D sky130_fd_sc_hd__xor2_1
*I *2320:A I *D sky130_fd_sc_hd__and2_1
*I *3212:X O *D sky130_fd_sc_hd__a21o_1
*CAP
1 *2319:A 0
2 *2320:A 2.50291e-05
3 *3212:X 0.000408103
4 *1357:12 0.000433132
5 *2320:A *2319:B 0.00010096
6 *3210:A *1357:12 0.00020042
7 *3210:B *1357:12 0.000202128
8 *3212:B1 *1357:12 7.48356e-05
9 *470:16 *2320:A 0.000144773
10 *470:16 *1357:12 9.90367e-05
11 *471:12 *1357:12 1.76039e-05
12 *1229:16 *1357:12 0.000126439
*RES
1 *3212:X *1357:12 28.4786 
2 *1357:12 *2320:A 10.6571 
3 *1357:12 *2319:A 9.3 
*END

*D_NET *1358 0.000516007
*CONN
*I *2847:B I *D sky130_fd_sc_hd__or2_1
*I *2813:X O *D sky130_fd_sc_hd__and2_1
*CAP
1 *2847:B 0.000138928
2 *2813:X 0.000138928
3 *2847:B *2924:A 4.0342e-06
4 *2847:A *2847:B 2.89016e-05
5 *2951:B *2847:B 0
6 *13:172 *2847:B 5.52238e-05
7 *13:189 *2847:B 0.000149992
*RES
1 *2813:X *2847:B 22.1714 
*END

*D_NET *1359 0.000805858
*CONN
*I *3216:A I *D sky130_fd_sc_hd__xor2_1
*I *3217:A1 I *D sky130_fd_sc_hd__a21o_1
*I *3214:X O *D sky130_fd_sc_hd__xor2_1
*CAP
1 *3216:A 9.93641e-05
2 *3217:A1 6.58868e-05
3 *3214:X 6.30319e-05
4 *1359:6 0.000228283
5 *3217:A1 *3217:B1 3.92757e-05
6 *3217:A1 *1362:12 0
7 *1359:6 *3217:B1 3.69047e-06
8 *3216:B *3216:A 0.000153279
9 *3216:B *3217:A1 0.000153047
*RES
1 *3214:X *1359:6 10.2464 
2 *1359:6 *3217:A1 20.2464 
3 *1359:6 *3216:A 11.4964 
*END

*D_NET *1360 0.000934255
*CONN
*I *3217:B1 I *D sky130_fd_sc_hd__a21o_1
*I *3215:X O *D sky130_fd_sc_hd__and2_1
*CAP
1 *3217:B1 0.000342276
2 *3215:X 0.000342276
3 *3217:B1 *1362:12 0
4 *3214:A *3217:B1 0.000186662
5 *3216:B *3217:B1 1.5942e-05
6 *3217:A1 *3217:B1 3.92757e-05
7 *1294:10 *3217:B1 4.1331e-06
8 *1297:12 *3217:B1 0
9 *1359:6 *3217:B1 3.69047e-06
*RES
1 *3215:X *3217:B1 32.6536 
*END

*D_NET *1361 0.00623426
*CONN
*I *2319:B I *D sky130_fd_sc_hd__xor2_1
*I *2320:B I *D sky130_fd_sc_hd__and2_1
*I *3216:X O *D sky130_fd_sc_hd__xor2_1
*CAP
1 *2319:B 6.42768e-05
2 *2320:B 2.23854e-05
3 *3216:X 0.00125044
4 *1361:16 0.00106523
5 *1361:12 0.00222901
6 *1361:12 *1951:A 4.16899e-05
7 *1361:12 *1951:B 0.000126639
8 *1361:12 *1963:A2 9.90367e-05
9 *1361:12 *1447:14 0.000224366
10 *1953:A *1361:12 9.92409e-05
11 *1954:B1 *1361:12 4.55215e-05
12 *1962:A *1361:12 3.30352e-05
13 *2019:A *1361:12 4.87953e-05
14 *2080:A *1361:16 5.33005e-05
15 *2080:B *2320:B 0
16 *2080:B *1361:16 2.28499e-05
17 *2082:B1 *1361:16 5.52238e-05
18 *2086:B *1361:12 0
19 *2087:A2 *1361:12 0.000158484
20 *2320:A *2319:B 0.00010096
21 *2322:B1 *1361:16 1.32552e-05
22 *132:8 *1361:12 5.33334e-05
23 *143:12 *1361:12 0.000360894
24 *470:16 *2319:B 4.88637e-05
25 *470:16 *1361:16 1.74352e-05
*RES
1 *3216:X *1361:12 42.6571 
2 *1361:12 *1361:16 15.3393 
3 *1361:16 *2320:B 9.72857 
4 *1361:16 *2319:B 11.0679 
*END

*D_NET *1362 0.00162048
*CONN
*I *2336:A I *D sky130_fd_sc_hd__xor2_1
*I *2337:A I *D sky130_fd_sc_hd__and2_1
*I *3217:X O *D sky130_fd_sc_hd__a21o_1
*CAP
1 *2336:A 0.000140691
2 *2337:A 0
3 *3217:X 0.000436438
4 *1362:12 0.000577129
5 *2336:A *2336:B 0.000240905
6 *1362:12 *1365:10 0.000225314
7 *3216:B *1362:12 0
8 *3217:A1 *1362:12 0
9 *3217:B1 *1362:12 0
10 *1297:12 *1362:12 0
*RES
1 *3217:X *1362:12 26.05 
2 *1362:12 *2337:A 9.3 
3 *1362:12 *2336:A 12.7464 
*END

*D_NET *1363 0.000851872
*CONN
*I *3221:A1 I *D sky130_fd_sc_hd__a21o_1
*I *3220:A I *D sky130_fd_sc_hd__xor2_1
*I *3218:X O *D sky130_fd_sc_hd__xor2_1
*CAP
1 *3221:A1 0
2 *3220:A 0.000108508
3 *3218:X 0.000251985
4 *1363:12 0.000360492
5 *3221:A2 *3220:A 0.000130887
6 *514:14 *1363:12 0
7 *1298:12 *1363:12 0
*RES
1 *3218:X *1363:12 21.6036 
2 *1363:12 *3220:A 11.925 
3 *1363:12 *3221:A1 9.3 
*END

*D_NET *1364 0.000772006
*CONN
*I *3221:B1 I *D sky130_fd_sc_hd__a21o_1
*I *3219:X O *D sky130_fd_sc_hd__and2_1
*CAP
1 *3221:B1 0.000236218
2 *3219:X 0.000236218
3 *3221:B1 *1366:14 0.000146523
4 *514:14 *3221:B1 0.000153047
*RES
1 *3219:X *3221:B1 32.9571 
*END

*D_NET *1365 0.00236569
*CONN
*I *2336:B I *D sky130_fd_sc_hd__xor2_1
*I *2337:B I *D sky130_fd_sc_hd__and2_1
*I *3220:X O *D sky130_fd_sc_hd__xor2_1
*CAP
1 *2336:B 0.000144832
2 *2337:B 0
3 *3220:X 0.000524356
4 *1365:10 0.000669187
5 *2336:A *2336:B 0.000240905
6 *2340:B1 *2336:B 0.000188586
7 *2358:A *1365:10 3.18676e-05
8 *2362:B1 *1365:10 3.05446e-05
9 *271:6 *1365:10 0.0003101
10 *1362:12 *1365:10 0.000225314
*RES
1 *3220:X *1365:10 24.5857 
2 *1365:10 *2337:B 13.8 
3 *1365:10 *2336:B 17.55 
*END

*D_NET *1366 0.00195642
*CONN
*I *2354:A I *D sky130_fd_sc_hd__xor2_1
*I *2355:A I *D sky130_fd_sc_hd__and2_1
*I *3221:X O *D sky130_fd_sc_hd__a21o_1
*CAP
1 *2354:A 0
2 *2355:A 0.000180861
3 *3221:X 0.000574201
4 *1366:14 0.000755062
5 *2355:A *2354:B 0.000190599
6 *2368:A *2355:A 2.2351e-05
7 *3221:B1 *1366:14 0.000146523
8 *514:8 *2355:A 1.10868e-05
9 *514:8 *1366:14 7.57312e-05
*RES
1 *3221:X *1366:14 26.3536 
2 *1366:14 *2355:A 12.7464 
3 *1366:14 *2354:A 9.3 
*END

*D_NET *1367 0.000760549
*CONN
*I *3226:A1 I *D sky130_fd_sc_hd__a21o_1
*I *3225:A I *D sky130_fd_sc_hd__xor2_1
*I *3222:X O *D sky130_fd_sc_hd__xor2_1
*CAP
1 *3226:A1 9.56134e-05
2 *3225:A 0
3 *3222:X 0.000122939
4 *1367:12 0.000218553
5 *3226:A1 *1371:16 9.3988e-05
6 *1367:12 *1371:16 7.1704e-05
7 *3226:A2 *3226:A1 0.000123352
8 *3226:A2 *1367:12 3.43995e-05
*RES
1 *3222:X *1367:12 16.4071 
2 *1367:12 *3225:A 13.8 
3 *1367:12 *3226:A1 15.9786 
*END

*D_NET *1368 0.000989098
*CONN
*I *3226:B1 I *D sky130_fd_sc_hd__a21o_1
*I *3223:X O *D sky130_fd_sc_hd__and2_1
*CAP
1 *3226:B1 0.000254714
2 *3223:X 0.000254714
3 *3226:B1 *1370:16 0.000196276
4 *3226:B1 *1371:16 9.83388e-05
5 *3155:B *3226:B1 0.000104974
6 *1239:12 *3226:B1 0
7 *1302:18 *3226:B1 8.00806e-05
*RES
1 *3223:X *3226:B1 33.0286 
*END

*D_NET *1369 0.00022721
*CONN
*I *2858:A I *D sky130_fd_sc_hd__or2_1
*I *2825:X O *D sky130_fd_sc_hd__and2_1
*CAP
1 *2858:A 3.32706e-05
2 *2825:X 3.32706e-05
3 *18:25 *2858:A 0.000104974
4 *38:313 *2858:A 5.56943e-05
*RES
1 *2825:X *2858:A 28.9393 
*END

*D_NET *1370 0.00174149
*CONN
*I *2354:B I *D sky130_fd_sc_hd__xor2_1
*I *2355:B I *D sky130_fd_sc_hd__and2_1
*I *3225:X O *D sky130_fd_sc_hd__xor2_1
*CAP
1 *2354:B 6.82597e-05
2 *2355:B 0
3 *3225:X 0.000409388
4 *1370:16 0.000477648
5 *2355:A *2354:B 0.000190599
6 *2368:A *2354:B 0.000137983
7 *2370:A *1370:16 8.46259e-06
8 *2370:B *1370:16 0.000147718
9 *3155:A *1370:16 2.84026e-05
10 *3226:B1 *1370:16 0.000196276
11 *514:8 *2354:B 1.98839e-05
12 *1302:18 *1370:16 5.68722e-05
*RES
1 *3225:X *1370:16 26.9071 
2 *1370:16 *2355:B 9.3 
3 *1370:16 *2354:B 11.4964 
*END

*D_NET *1371 0.00873177
*CONN
*I *2372:A I *D sky130_fd_sc_hd__xor2_1
*I *2373:A I *D sky130_fd_sc_hd__and2_1
*I *3226:X O *D sky130_fd_sc_hd__a21o_1
*CAP
1 *2372:A 3.39029e-05
2 *2373:A 0.000574051
3 *3226:X 0.00126563
4 *1371:18 0.000813722
5 *1371:16 0.0014714
6 *2373:A *2373:B 6.8445e-06
7 *2374:A *2373:A 6.32273e-05
8 *2374:B *2373:A 0.000153884
9 *2771:A *1371:16 0
10 *3098:A *1371:16 0.000211423
11 *3153:A *1371:16 0
12 *3153:B *1371:16 0
13 *3156:A1 *1371:16 6.07328e-05
14 *3156:B1 *1371:16 4.25716e-05
15 *3162:B1 *1371:16 0.0003103
16 *3226:A1 *1371:16 9.3988e-05
17 *3226:A2 *1371:16 5.49489e-05
18 *3226:B1 *1371:16 9.83388e-05
19 *9:13 *1371:16 1.26352e-05
20 *9:21 *1371:16 0
21 *9:29 *1371:16 0
22 *9:29 *1371:18 0
23 *10:137 *1371:16 0
24 *29:62 *1371:16 0
25 *516:12 *1371:16 0
26 *520:14 *2372:A 2.59355e-05
27 *520:14 *2373:A 0.000265704
28 *996:10 *1371:16 0.000120506
29 *1244:10 *1371:16 0
30 *1247:12 *1371:16 0
31 *1251:10 *2373:A 8.25098e-05
32 *1251:10 *1371:16 1.43864e-05
33 *1251:10 *1371:18 0.000725324
34 *1302:18 *1371:16 0
35 *1306:14 *1371:16 0.0013825
36 *1307:10 *2373:A 7.90803e-05
37 *1307:10 *1371:18 0.000696526
38 *1367:12 *1371:16 7.1704e-05
*RES
1 *3226:X *1371:16 45.0946 
2 *1371:16 *1371:18 9.38393 
3 *1371:18 *2373:A 22.675 
4 *1371:18 *2372:A 14.3357 
*END

*D_NET *1372 0.00253709
*CONN
*I *3229:A I *D sky130_fd_sc_hd__xor2_1
*I *3230:A1 I *D sky130_fd_sc_hd__a21o_1
*I *3227:X O *D sky130_fd_sc_hd__xor2_1
*CAP
1 *3229:A 0.000419756
2 *3230:A1 0.000300196
3 *3227:X 5.9385e-05
4 *1372:8 0.000779337
5 *2379:A2 *3229:A 0.000212517
6 *2845:A *3230:A1 0.000228508
7 *3229:B *3229:A 5.65955e-05
8 *3230:A2 *3229:A 0
9 *19:25 *1372:8 7.38537e-05
10 *41:243 *3229:A 9.21933e-05
11 *521:12 *3229:A 0.000188838
12 *521:12 *3230:A1 0.000125908
13 *1310:10 *3230:A1 0
*RES
1 *3227:X *1372:8 15.1571 
2 *1372:8 *3230:A1 19.1393 
3 *1372:8 *3229:A 23.3893 
*END

*D_NET *1373 0.000838981
*CONN
*I *3230:B1 I *D sky130_fd_sc_hd__a21o_1
*I *3228:X O *D sky130_fd_sc_hd__and2_1
*CAP
1 *3230:B1 0.000253687
2 *3228:X 0.000253687
3 *2845:A *3230:B1 5.68713e-05
4 *3230:A2 *3230:B1 0.000246531
5 *1310:10 *3230:B1 2.82057e-05
*RES
1 *3228:X *3230:B1 33.1714 
*END

*D_NET *1374 0.00197733
*CONN
*I *2373:B I *D sky130_fd_sc_hd__and2_1
*I *2372:B I *D sky130_fd_sc_hd__xor2_1
*I *3229:X O *D sky130_fd_sc_hd__xor2_1
*CAP
1 *2373:B 0.000262943
2 *2372:B 0
3 *3229:X 0.000230391
4 *1374:12 0.000493334
5 *2373:A *2373:B 6.8445e-06
6 *2374:A *2373:B 0.000239422
7 *2374:B *2373:B 0.000112072
8 *2375:A1 *1374:12 3.4846e-06
9 *2375:B1 *2373:B 0.000228334
10 *41:243 *1374:12 0.000230155
11 *520:14 *2373:B 4.53378e-05
12 *1307:10 *1374:12 0.00012501
*RES
1 *3229:X *1374:12 22.1214 
2 *1374:12 *2372:B 9.3 
3 *1374:12 *2373:B 15.925 
*END

*D_NET *1375 0.00264463
*CONN
*I *2390:A I *D sky130_fd_sc_hd__and2_1
*I *2389:A I *D sky130_fd_sc_hd__xor2_1
*I *3230:X O *D sky130_fd_sc_hd__a21o_1
*CAP
1 *2390:A 0
2 *2389:A 0.000139675
3 *3230:X 0.00063395
4 *1375:10 0.000773625
5 *2389:A *2390:B 0.000174797
6 *2389:A *1378:10 3.34366e-05
7 *1375:10 *2390:B 2.31791e-05
8 *2845:A *1375:10 0.000183726
9 *12:30 *1375:10 0
10 *12:36 *1375:10 0
11 *22:127 *1375:10 0.000282527
12 *22:129 *2389:A 6.95205e-05
13 *22:129 *1375:10 0.000126186
14 *535:10 *2389:A 4.58194e-05
15 *1009:10 *1375:10 0
16 *1311:10 *1375:10 0.000158192
*RES
1 *3230:X *1375:10 27.2286 
2 *1375:10 *2389:A 17.3 
3 *1375:10 *2390:A 13.8 
*END

*D_NET *1376 0.0016115
*CONN
*I *3233:A I *D sky130_fd_sc_hd__xor2_1
*I *3234:A1 I *D sky130_fd_sc_hd__a21o_1
*I *3231:X O *D sky130_fd_sc_hd__xor2_1
*CAP
1 *3233:A 0.000111885
2 *3234:A1 0.000139869
3 *3231:X 3.72884e-05
4 *1376:8 0.000289042
5 *2865:B *3234:A1 2.14757e-05
6 *3234:A2 *3233:A 0.000394719
7 *3234:A2 *3234:A1 0.000251493
8 *12:36 *3233:A 0.000223443
9 *12:36 *3234:A1 0.000117388
10 *1311:10 *3233:A 2.48938e-05
*RES
1 *3231:X *1376:8 14.3357 
2 *1376:8 *3234:A1 17.6036 
3 *1376:8 *3233:A 19.0857 
*END

*D_NET *1377 0.000848776
*CONN
*I *3234:B1 I *D sky130_fd_sc_hd__a21o_1
*I *3232:X O *D sky130_fd_sc_hd__and2_1
*CAP
1 *3234:B1 0.000198743
2 *3232:X 0.000198743
3 *3231:A *3234:B1 1.38323e-05
4 *3232:A *3234:B1 6.05161e-06
5 *31:40 *3234:B1 0.000148189
6 *41:40 *3234:B1 0.000148189
7 *1075:14 *3234:B1 0.000135028
*RES
1 *3232:X *3234:B1 31.3143 
*END

*D_NET *1378 0.00134932
*CONN
*I *2390:B I *D sky130_fd_sc_hd__and2_1
*I *2389:B I *D sky130_fd_sc_hd__xor2_1
*I *3233:X O *D sky130_fd_sc_hd__xor2_1
*CAP
1 *2390:B 0.000122714
2 *2389:B 0
3 *3233:X 0.00013579
4 *1378:10 0.000258504
5 *2389:A *2390:B 0.000174797
6 *2389:A *1378:10 3.34366e-05
7 *2402:A *1378:10 0.00010096
8 *3234:A2 *1378:10 1.02504e-05
9 *22:129 *1378:10 0
10 *31:70 *2390:B 7.32272e-05
11 *1311:10 *2390:B 0.000189441
12 *1311:10 *1378:10 0.000227021
13 *1375:10 *2390:B 2.31791e-05
*RES
1 *3233:X *1378:10 17.6036 
2 *1378:10 *2389:B 13.8 
3 *1378:10 *2390:B 17.7107 
*END

*D_NET *1379 0.00240509
*CONN
*I *2408:B I *D sky130_fd_sc_hd__xor2_1
*I *2409:B I *D sky130_fd_sc_hd__and2_1
*I *3234:X O *D sky130_fd_sc_hd__a21o_1
*CAP
1 *2408:B 0
2 *2409:B 9.06948e-05
3 *3234:X 0.000507019
4 *1379:12 0.000597714
5 *2408:A *2409:B 0.000140018
6 *2411:B1 *2409:B 0.000105163
7 *2411:B1 *1379:12 2.14658e-05
8 *2925:B *1379:12 0.000222878
9 *2932:A *1379:12 3.28494e-05
10 *12:40 *1379:12 0
11 *31:40 *1379:12 5.93856e-05
12 *32:38 *1379:12 0.000215896
13 *32:44 *1379:12 0.000126609
14 *41:40 *1379:12 0.000103267
15 *42:173 *1379:12 0.000102053
16 *1075:14 *1379:12 8.00806e-05
17 *1081:12 *1379:12 0
*RES
1 *3234:X *1379:12 30.9071 
2 *1379:12 *2409:B 12.3179 
3 *1379:12 *2408:B 9.3 
*END

*D_NET *1380 0.000620957
*CONN
*I *2858:B I *D sky130_fd_sc_hd__or2_1
*I *2836:X O *D sky130_fd_sc_hd__and2_1
*CAP
1 *2858:B 0.000138751
2 *2836:X 0.000138751
3 *2825:B *2858:B 0.000136951
4 *13:138 *2858:B 0.000103253
5 *18:25 *2858:B 0.000103253
*RES
1 *2836:X *2858:B 30.2964 
*END

*D_NET *1381 0.000703871
*CONN
*I *3350:A I *D sky130_fd_sc_hd__and2_1
*I *3349:A I *D sky130_fd_sc_hd__xor2_1
*I *3236:X O *D sky130_fd_sc_hd__xor2_1
*CAP
1 *3350:A 0.000103739
2 *3349:A 0
3 *3236:X 9.92805e-05
4 *1381:8 0.000203019
5 *3350:A *3350:B 0.000181803
6 *1381:8 *3236:A 0
7 *3237:B *1381:8 0
8 *1084:14 *3350:A 1.38323e-05
9 *1084:14 *1381:8 0.000102197
*RES
1 *3236:X *1381:8 11.4964 
2 *1381:8 *3349:A 9.3 
3 *1381:8 *3350:A 11.4786 
*END

*D_NET *1382 0.0032011
*CONN
*I *3283:B I *D sky130_fd_sc_hd__xor2_1
*I *3284:B I *D sky130_fd_sc_hd__and2_1
*I *3237:X O *D sky130_fd_sc_hd__and2_1
*CAP
1 *3283:B 0.000128229
2 *3284:B 0
3 *3237:X 0.000552992
4 *1382:14 0.000681222
5 *3283:B *3286:B1 0.00018372
6 *1382:14 *3236:A 9.90431e-05
7 *2453:A *3283:B 1.21258e-05
8 *2870:B *1382:14 0
9 *2871:A *1382:14 2.00751e-05
10 *2878:B *1382:14 9.21958e-05
11 *2879:B *1382:14 0.000362531
12 *2882:B *1382:14 0.000104974
13 *3284:A *3283:B 0.00016178
14 *3284:A *1382:14 5.52302e-05
15 *5:122 *1382:14 7.92879e-05
16 *5:128 *1382:14 0.000130188
17 *12:178 *1382:14 4.8476e-05
18 *33:277 *1382:14 0.000484571
19 *41:203 *1382:14 4.46186e-06
20 *578:8 *1382:14 0
21 *1030:12 *1382:14 0
22 *1132:12 *1382:14 0
*RES
1 *3237:X *1382:14 33.8714 
2 *1382:14 *3284:B 9.3 
3 *1382:14 *3283:B 13.05 
*END

*D_NET *1383 0.0011247
*CONN
*I *3286:A2 I *D sky130_fd_sc_hd__a21o_1
*I *3285:B I *D sky130_fd_sc_hd__xor2_1
*I *3238:X O *D sky130_fd_sc_hd__xor2_1
*CAP
1 *3286:A2 0
2 *3285:B 9.55608e-05
3 *3238:X 9.70965e-05
4 *1383:8 0.000192657
5 *3285:B *3285:A 0.000242256
6 *3285:B *1427:8 9.25014e-06
7 *1383:8 *1384:8 0.000115971
8 *3238:A *1383:8 0
9 *3238:B *1383:8 0
10 *15:238 *1383:8 0.000112995
11 *19:88 *3285:B 4.87953e-05
12 *30:197 *3285:B 1.21258e-05
13 *1133:10 *3285:B 0.000197991
*RES
1 *3238:X *1383:8 11.9071 
2 *1383:8 *3285:B 21.8 
3 *1383:8 *3286:A2 9.3 
*END

*D_NET *1384 0.00907667
*CONN
*I *3298:B I *D sky130_fd_sc_hd__xor2_1
*I *3299:A2 I *D sky130_fd_sc_hd__a21o_1
*I *3239:X O *D sky130_fd_sc_hd__and2_1
*CAP
1 *3298:B 0.000222873
2 *3299:A2 0
3 *3239:X 0.000916618
4 *1384:10 0.001576
5 *1384:8 0.00226974
6 *3298:B *3295:B1 0
7 *3298:B *3298:A 6.1684e-05
8 *3298:B *3299:A1 0.000106542
9 *3298:B *3299:B1 4.16021e-05
10 *3298:B *1443:8 0
11 *1384:8 *1430:8 2.87555e-06
12 *1384:10 *3295:B1 0
13 *1384:10 *3299:B1 4.1331e-06
14 *2450:A *1384:8 3.57315e-05
15 *2452:B *1384:8 2.95726e-05
16 *2453:B *1384:10 0.000435505
17 *2455:A *1384:8 7.61932e-05
18 *2520:A *1384:10 0
19 *2522:A *1384:10 0.000342495
20 *2582:B *1384:10 7.50697e-05
21 *2645:B *1384:10 0.000236099
22 *2649:B *1384:10 7.83366e-05
23 *2706:B *1384:10 0.00022124
24 *3238:A *1384:8 0.00014183
25 *11:216 *1384:10 0
26 *15:238 *1384:8 0.000131801
27 *18:125 *1384:10 0.000125243
28 *29:220 *1384:10 0.000385717
29 *38:107 *1384:10 8.33655e-05
30 *39:114 *1384:10 0
31 *39:129 *1384:10 0.000169569
32 *39:174 *1384:10 0.000512907
33 *40:238 *1384:10 0.000176234
34 *40:240 *1384:10 0.000380866
35 *626:6 *1384:8 1.58163e-05
36 *686:12 *1384:10 4.15432e-05
37 *800:12 *1384:10 4.41989e-05
38 *858:10 *1384:10 0
39 *1036:12 *1384:10 0
40 *1229:16 *3298:B 1.92905e-05
41 *1383:8 *1384:8 0.000115971
*RES
1 *3239:X *1384:8 25.8357 
2 *1384:8 *1384:10 37.4643 
3 *1384:10 *3299:A2 13.8 
4 *1384:10 *3298:B 19.0143 
*END

*D_NET *1385 0.0012481
*CONN
*I *1988:A I *D sky130_fd_sc_hd__xor2_1
*I *1989:A I *D sky130_fd_sc_hd__and2_1
*I *3240:X O *D sky130_fd_sc_hd__xor2_1
*CAP
1 *1988:A 4.49762e-05
2 *1989:A 9.10201e-05
3 *3240:X 0.000341591
4 *1385:10 0.000477588
5 *1988:A *1988:B 0.000144773
6 *1989:A *1988:B 4.7194e-05
7 *1989:A *1463:10 0.00010096
8 *5:274 *1385:10 0
9 *1270:12 *1385:10 0
*RES
1 *3240:X *1385:10 23.5857 
2 *1385:10 *1989:A 11.4964 
3 *1385:10 *1988:A 10.6571 
*END

*D_NET *1386 0.00329925
*CONN
*I *3336:A I *D sky130_fd_sc_hd__xor2_1
*I *3337:A I *D sky130_fd_sc_hd__and2_1
*I *3241:X O *D sky130_fd_sc_hd__and2_1
*CAP
1 *3336:A 9.07997e-05
2 *3337:A 0
3 *3241:X 0.00121721
4 *1386:10 0.00130801
5 *2552:A *3336:A 2.58997e-05
6 *2552:A *1386:10 5.80706e-06
7 *2553:B *1386:10 0.000396898
8 *7:68 *1386:10 2.95641e-05
9 *7:78 *1386:10 3.4879e-05
10 *17:103 *3336:A 3.17067e-05
11 *17:103 *1386:10 3.92854e-05
12 *17:130 *3336:A 7.38748e-05
13 *26:121 *3336:A 0
14 *716:8 *3336:A 2.37761e-05
15 *716:8 *1386:10 2.15363e-05
*RES
1 *3241:X *1386:10 28.925 
2 *1386:10 *3337:A 13.8 
3 *1386:10 *3336:A 16.3536 
*END

*D_NET *1387 0.00125816
*CONN
*I *3244:A I *D sky130_fd_sc_hd__xor2_1
*I *3245:A1 I *D sky130_fd_sc_hd__a21o_1
*I *3242:X O *D sky130_fd_sc_hd__xor2_1
*CAP
1 *3244:A 0.000225988
2 *3245:A1 0.000308488
3 *3242:X 8.24997e-05
4 *3244:A *1390:6 7.49387e-06
5 *3245:A1 *3245:B1 8.19593e-05
6 *3245:A1 *1390:6 0.000181796
7 *3244:B *3244:A 0.000128146
8 *3245:A2 *3244:A 5.56564e-05
9 *3245:A2 *3245:A1 3.51368e-05
10 *36:100 *3244:A 0.000128146
11 *37:208 *3245:A1 2.28499e-05
*RES
1 *3242:X *3245:A1 21.2071 
2 *3245:A1 *3244:A 31.4214 
*END

*D_NET *1388 0.000738571
*CONN
*I *3245:B1 I *D sky130_fd_sc_hd__a21o_1
*I *3243:X O *D sky130_fd_sc_hd__and2_1
*CAP
1 *3245:B1 0.000248987
2 *3243:X 0.000248987
3 *3242:A *3245:B1 1.56e-05
4 *3242:B *3245:B1 9.90367e-05
5 *3245:A1 *3245:B1 8.19593e-05
6 *37:208 *3245:B1 4.40008e-05
*RES
1 *3243:X *3245:B1 23.2607 
*END

*D_NET *1389 0.00489595
*CONN
*I *1992:A I *D sky130_fd_sc_hd__xor2_1
*I *1993:A I *D sky130_fd_sc_hd__and2_1
*I *3244:X O *D sky130_fd_sc_hd__xor2_1
*CAP
1 *1992:A 0
2 *1993:A 0.000156338
3 *3244:X 0.00173561
4 *1389:10 0.00189195
5 *1993:A *1993:B 0.000185098
6 *1993:A *1996:A2 0
7 *1993:A *1474:14 2.44318e-05
8 *1389:10 *1993:B 2.31791e-05
9 *1389:10 *1996:A2 0
10 *1389:10 *3336:B 9.60875e-05
11 *1389:10 *3348:A2 8.07313e-05
12 *2555:A *1389:10 2.59355e-05
13 *88:8 *1389:10 0.0001399
14 *91:10 *1389:10 0.000536685
15 *1177:14 *1389:10 0
*RES
1 *3244:X *1389:10 42.4607 
2 *1389:10 *1993:A 17.2464 
3 *1389:10 *1992:A 13.8 
*END

*D_NET *1390 0.00478734
*CONN
*I *3345:A I *D sky130_fd_sc_hd__and2_1
*I *3344:A I *D sky130_fd_sc_hd__xor2_1
*I *3245:X O *D sky130_fd_sc_hd__a21o_1
*CAP
1 *3345:A 8.43299e-05
2 *3344:A 0.000102086
3 *3245:X 0.001552
4 *1390:6 0.00173841
5 *3345:A *3345:B 0.000151984
6 *2502:A *1390:6 5.33334e-05
7 *2502:B *1390:6 2.89114e-05
8 *2742:A *1390:6 7.61932e-05
9 *2742:B *1390:6 7.1274e-05
10 *3244:A *1390:6 7.49387e-06
11 *3245:A1 *1390:6 0.000181796
12 *3245:A2 *1390:6 0.000267377
13 *33:210 *1390:6 4.87953e-05
14 *37:208 *1390:6 0.000181796
15 *668:10 *1390:6 0.000227532
16 *891:12 *1390:6 1.40306e-05
17 *1095:10 *3345:A 0
*RES
1 *3245:X *1390:6 35.3 
2 *1390:6 *3344:A 10.9786 
3 *1390:6 *3345:A 20.2464 
*END

*D_NET *1391 0.000581757
*CONN
*I *2950:A I *D sky130_fd_sc_hd__xor2_1
*I *2951:A I *D sky130_fd_sc_hd__and2_1
*I *2847:X O *D sky130_fd_sc_hd__or2_1
*CAP
1 *2950:A 0.000129138
2 *2951:A 0
3 *2847:X 1.95172e-05
4 *1391:6 0.000148655
5 *2951:B *2950:A 0.000157818
6 *13:189 *2950:A 9.47613e-05
7 *13:189 *1391:6 3.18676e-05
*RES
1 *2847:X *1391:6 9.83571 
2 *1391:6 *2951:A 9.3 
3 *1391:6 *2950:A 12.7286 
*END

*D_NET *1392 0.00142308
*CONN
*I *3336:B I *D sky130_fd_sc_hd__xor2_1
*I *3337:B I *D sky130_fd_sc_hd__and2_1
*I *3247:X O *D sky130_fd_sc_hd__xor2_1
*CAP
1 *3336:B 4.61053e-05
2 *3337:B 0.00010159
3 *3247:X 0.000173343
4 *1392:8 0.000321039
5 *3337:B *3339:A2 5.53499e-05
6 *3337:B *1470:14 3.34366e-05
7 *1392:8 *3339:A2 1.19402e-05
8 *2552:B *3337:B 2.59355e-05
9 *2553:B *3337:B 5.52302e-05
10 *17:103 *3337:B 7.90803e-05
11 *17:130 *3337:B 0.00012401
12 *17:130 *1392:8 0.00029993
13 *25:213 *1392:8 0
14 *1389:10 *3336:B 9.60875e-05
*RES
1 *3247:X *1392:8 18.175 
2 *1392:8 *3337:B 16.8893 
3 *1392:8 *3336:B 14.7464 
*END

*D_NET *1393 0.00409902
*CONN
*I *3341:B I *D sky130_fd_sc_hd__and2_1
*I *3340:B I *D sky130_fd_sc_hd__xor2_1
*I *3248:X O *D sky130_fd_sc_hd__and2_1
*CAP
1 *3341:B 8.60789e-05
2 *3340:B 0
3 *3248:X 0.00103805
4 *1393:10 0.00112413
5 *3032:A *1393:10 7.92879e-05
6 *3032:B *1393:10 0.000128154
7 *3341:A *3341:B 0.000177948
8 *20:97 *3341:B 4.97121e-06
9 *20:97 *1393:10 0.000265893
10 *831:8 *1393:10 0.00013966
11 *890:6 *1393:10 0.000139907
12 *1092:14 *1393:10 0.000415833
13 *1095:8 *3341:B 5.52302e-05
14 *1095:10 *3341:B 0.000106542
15 *1095:10 *1393:10 0.00033733
*RES
1 *3248:X *1393:10 34.3179 
2 *1393:10 *3340:B 13.8 
3 *1393:10 *3341:B 16.8893 
*END

*D_NET *1394 0.000907317
*CONN
*I *3252:A1 I *D sky130_fd_sc_hd__a21o_1
*I *3251:A I *D sky130_fd_sc_hd__xor2_1
*I *3249:X O *D sky130_fd_sc_hd__xor2_1
*CAP
1 *3252:A1 0
2 *3251:A 0.000118946
3 *3249:X 0.00011835
4 *1394:8 0.000237296
5 *1394:8 *3252:B1 0.000136898
6 *1394:8 *1397:16 3.97677e-05
7 *3252:A2 *3251:A 8.68886e-05
8 *3252:A2 *1394:8 3.51393e-05
9 *4:189 *3251:A 3.49887e-05
10 *4:189 *1394:8 9.90431e-05
*RES
1 *3249:X *1394:8 12.3179 
2 *1394:8 *3251:A 12.05 
3 *1394:8 *3252:A1 9.3 
*END

*D_NET *1395 0.000975518
*CONN
*I *3252:B1 I *D sky130_fd_sc_hd__a21o_1
*I *3250:X O *D sky130_fd_sc_hd__and2_1
*CAP
1 *3252:B1 0.000215707
2 *3250:X 0.000215707
3 *3252:B1 *3249:A 0.00014183
4 *4:199 *3252:B1 0.000265377
5 *1394:8 *3252:B1 0.000136898
*RES
1 *3250:X *3252:B1 23.7964 
*END

*D_NET *1396 0.0108238
*CONN
*I *3347:B I *D sky130_fd_sc_hd__xor2_1
*I *3348:A2 I *D sky130_fd_sc_hd__a21o_1
*I *3251:X O *D sky130_fd_sc_hd__xor2_1
*CAP
1 *3347:B 0
2 *3348:A2 0.000188759
3 *3251:X 0.00443783
4 *1396:16 0.00462659
5 *3348:A1 *3348:A2 0
6 *3348:B1 *3348:A2 0
7 *4:181 *1396:16 0.00117491
8 *5:109 *1396:16 9.60337e-06
9 *37:208 *1396:16 0.000162575
10 *91:10 *3348:A2 0.00014285
11 *1177:14 *3348:A2 0
12 *1389:10 *3348:A2 8.07313e-05
*RES
1 *3251:X *1396:16 31.0937 
2 *1396:16 *3348:A2 17.7107 
3 *1396:16 *3347:B 13.8 
*END

*D_NET *1397 0.00587942
*CONN
*I *3350:B I *D sky130_fd_sc_hd__and2_1
*I *3349:B I *D sky130_fd_sc_hd__xor2_1
*I *3252:X O *D sky130_fd_sc_hd__a21o_1
*CAP
1 *3350:B 0.000113855
2 *3349:B 0
3 *3252:X 0.00135995
4 *1397:16 0.00147381
5 *1983:A *1397:16 5.33005e-05
6 *2736:B *1397:16 0
7 *2769:B *1397:16 0
8 *3350:A *3350:B 0.000181803
9 *3352:A1 *3350:B 7.16452e-05
10 *4:189 *1397:16 0.000526773
11 *23:304 *1397:16 0.00129111
12 *30:120 *1397:16 4.72917e-05
13 *30:131 *1397:16 0.000291809
14 *39:216 *1397:16 0
15 *557:12 *1397:16 0.000315887
16 *619:12 *1397:16 0
17 *1084:14 *3350:B 9.71197e-05
18 *1084:14 *1397:16 1.52978e-05
19 *1097:12 *1397:16 0
20 *1100:10 *1397:16 0
21 *1394:8 *1397:16 3.97677e-05
*RES
1 *3252:X *1397:16 46.175 
2 *1397:16 *3349:B 9.3 
3 *1397:16 *3350:B 12.3179 
*END

*D_NET *1398 0.00119836
*CONN
*I *3255:A I *D sky130_fd_sc_hd__xor2_1
*I *3256:A1 I *D sky130_fd_sc_hd__a21o_1
*I *3253:X O *D sky130_fd_sc_hd__xor2_1
*CAP
1 *3255:A 0.000236718
2 *3256:A1 0
3 *3253:X 0.00011693
4 *1398:12 0.000353648
5 *2557:A *1398:12 0
6 *3256:A2 *3255:A 0.000157301
7 *7:84 *1398:12 8.15095e-05
8 *7:94 *1398:12 2.79421e-05
9 *17:146 *1398:12 4.87953e-05
10 *27:160 *1398:12 0.000175519
*RES
1 *3253:X *1398:12 21.4964 
2 *1398:12 *3256:A1 9.3 
3 *1398:12 *3255:A 13.1393 
*END

*D_NET *1399 0.00088304
*CONN
*I *3256:B1 I *D sky130_fd_sc_hd__a21o_1
*I *3254:X O *D sky130_fd_sc_hd__and2_1
*CAP
1 *3256:B1 0.000233454
2 *3254:X 0.000233454
3 *3253:B *3256:B1 0
4 *3254:A *3256:B1 0
5 *7:94 *3256:B1 0
6 *27:160 *3256:B1 0.000315172
7 *1099:8 *3256:B1 0.00010096
*RES
1 *3254:X *3256:B1 32.6179 
*END

*D_NET *1400 0.00301781
*CONN
*I *1997:A I *D sky130_fd_sc_hd__xor2_1
*I *1998:A I *D sky130_fd_sc_hd__and2_1
*I *3255:X O *D sky130_fd_sc_hd__xor2_1
*CAP
1 *1997:A 0.000202561
2 *1998:A 0
3 *3255:X 0.00100571
4 *1400:6 0.00120827
5 *1997:B *1997:A 0.000137944
6 *2000:B1 *1997:A 2.02303e-05
7 *2805:B *1400:6 5.49544e-05
8 *2806:B *1400:6 8.54e-05
9 *2808:A *1400:6 4.82947e-05
10 *23:220 *1400:6 9.41642e-05
11 *95:12 *1400:6 0.000160287
*RES
1 *3255:X *1400:6 26.2643 
2 *1400:6 *1998:A 9.3 
3 *1400:6 *1997:A 13.4607 
*END

*D_NET *1401 0.000961177
*CONN
*I *3351:B I *D sky130_fd_sc_hd__xor2_1
*I *3352:A2 I *D sky130_fd_sc_hd__a21o_1
*I *3256:X O *D sky130_fd_sc_hd__a21o_1
*CAP
1 *3351:B 0.000105345
2 *3352:A2 0
3 *3256:X 0.000289992
4 *1401:10 0.000395337
5 *2498:A *3351:B 0
6 *3351:A *3351:B 0.000123295
7 *27:160 *3351:B 0
8 *27:160 *1401:10 0
9 *37:111 *3351:B 0
10 *37:111 *1401:10 0
11 *104:10 *3351:B 4.72071e-05
*RES
1 *3256:X *1401:10 17.5143 
2 *1401:10 *3352:A2 13.8 
3 *1401:10 *3351:B 16.3536 
*END

*D_NET *1402 0.00114311
*CONN
*I *3250:A I *D sky130_fd_sc_hd__and2_1
*I *3249:A I *D sky130_fd_sc_hd__xor2_1
*I *2858:X O *D sky130_fd_sc_hd__or2_1
*CAP
1 *3250:A 0
2 *3249:A 0.000128223
3 *2858:X 0.000138409
4 *1402:12 0.000266632
5 *3249:B *3249:A 0.000155327
6 *3250:B *3249:A 2.01466e-05
7 *3252:B1 *3249:A 0.00014183
8 *18:25 *1402:12 0.000151141
9 *38:313 *1402:12 7.62707e-05
10 *40:85 *1402:12 3.32631e-05
11 *565:6 *3249:A 3.18676e-05
*RES
1 *2858:X *1402:12 21.1929 
2 *1402:12 *3249:A 12.8714 
3 *1402:12 *3250:A 9.3 
*END

*D_NET *1403 0.00192264
*CONN
*I *3342:B I *D sky130_fd_sc_hd__xor2_1
*I *3343:A2 I *D sky130_fd_sc_hd__a21o_1
*I *3258:X O *D sky130_fd_sc_hd__xor2_1
*CAP
1 *3342:B 2.94119e-05
2 *3343:A2 8.84302e-05
3 *3258:X 0.000493751
4 *1403:8 0.000611594
5 *3040:A *1403:8 0
6 *3040:B *1403:8 0
7 *3043:B1 *1403:8 0
8 *3342:A *3342:B 0.000139913
9 *3343:A1 *3343:A2 0.000197276
10 *3343:B1 *1403:8 5.38886e-05
11 *20:97 *1403:8 0
12 *20:123 *1403:8 0
13 *95:12 *3343:A2 6.19181e-05
14 *95:12 *1403:8 0.000106542
15 *100:12 *3343:A2 0
16 *100:12 *1403:8 0
17 *838:10 *1403:8 0
18 *1095:10 *1403:8 0
19 *1103:16 *3342:B 0.000139913
20 *1195:12 *1403:8 0
*RES
1 *3258:X *1403:8 23.0321 
2 *1403:8 *3343:A2 16.3536 
3 *1403:8 *3342:B 15.1571 
*END

*D_NET *1404 0.00344675
*CONN
*I *3272:B I *D sky130_fd_sc_hd__xor2_1
*I *3273:A2 I *D sky130_fd_sc_hd__a21o_1
*I *3259:X O *D sky130_fd_sc_hd__and2_1
*CAP
1 *3272:B 0.000197142
2 *3273:A2 0.000283736
3 *3259:X 0.000603606
4 *1404:10 0.00108448
5 *3272:B *3272:A 0
6 *3273:A2 *3272:A 0.000127476
7 *3273:A2 *3273:A1 0.000178847
8 *3273:A2 *3355:B 2.59355e-05
9 *2811:A *1404:10 4.85033e-05
10 *2812:B *1404:10 0.000306317
11 *3355:A *3273:A2 3.35803e-05
12 *25:258 *3272:B 0.000176234
13 *25:258 *1404:10 0.000365674
14 *36:187 *3272:B 0
15 *36:187 *1404:10 0
16 *105:6 *3273:A2 3.69047e-06
17 *107:16 *1404:10 0
18 *1198:18 *1404:10 1.15281e-05
*RES
1 *3259:X *1404:10 23.5321 
2 *1404:10 *3273:A2 19.2821 
3 *1404:10 *3272:B 17.8179 
*END

*D_NET *1405 0.000939397
*CONN
*I *3263:A1 I *D sky130_fd_sc_hd__a21o_1
*I *3262:A I *D sky130_fd_sc_hd__xor2_1
*I *3260:X O *D sky130_fd_sc_hd__xor2_1
*CAP
1 *3263:A1 0
2 *3262:A 0.000119598
3 *3260:X 0.000157544
4 *1405:8 0.000277142
5 *3262:A *3263:B1 1.97695e-05
6 *3262:A *3359:A 2.24763e-05
7 *1405:8 *3263:B1 0.000137437
8 *1405:8 *3359:A 9.60771e-05
9 *1405:8 *1430:8 7.43578e-06
10 *3263:A2 *3262:A 6.61807e-05
11 *3263:A2 *1405:8 3.57366e-05
*RES
1 *3260:X *1405:8 13.1393 
2 *1405:8 *3262:A 11.925 
3 *1405:8 *3263:A1 9.3 
*END

*D_NET *1406 0.00096729
*CONN
*I *3263:B1 I *D sky130_fd_sc_hd__a21o_1
*I *3261:X O *D sky130_fd_sc_hd__and2_1
*CAP
1 *3263:B1 0.000347954
2 *3261:X 0.000347954
3 *3263:B1 *1430:8 2.40107e-05
4 *3260:A *3263:B1 7.61932e-05
5 *3260:B *3263:B1 1.39726e-05
6 *3262:A *3263:B1 1.97695e-05
7 *1405:8 *3263:B1 0.000137437
*RES
1 *3261:X *3263:B1 24.4929 
*END

*D_NET *1407 0.00132721
*CONN
*I *3353:A I *D sky130_fd_sc_hd__xor2_1
*I *3354:A I *D sky130_fd_sc_hd__and2_1
*I *3262:X O *D sky130_fd_sc_hd__xor2_1
*CAP
1 *3353:A 0.000134301
2 *3354:A 0
3 *3262:X 0.000439475
4 *1407:6 0.000573776
5 *3353:A *3354:B 0.000179656
6 *27:149 *3353:A 0
7 *104:10 *3353:A 0
*RES
1 *3262:X *1407:6 16.4071 
2 *1407:6 *3354:A 9.3 
3 *1407:6 *3353:A 21.3893 
*END

*D_NET *1408 0.00149855
*CONN
*I *3358:A I *D sky130_fd_sc_hd__xor2_1
*I *3359:A I *D sky130_fd_sc_hd__and2_1
*I *3263:X O *D sky130_fd_sc_hd__a21o_1
*CAP
1 *3358:A 0.000169155
2 *3359:A 0.000479979
3 *3263:X 0.000310824
4 *3358:A *3359:B 0.00011262
5 *3358:A *1429:10 2.95841e-05
6 *3262:A *3359:A 2.24763e-05
7 *3263:A2 *3359:A 4.87854e-05
8 *38:142 *3359:A 0.000125731
9 *734:10 *3359:A 7.83659e-05
10 *1199:18 *3359:A 2.49484e-05
11 *1405:8 *3359:A 9.60771e-05
*RES
1 *3263:X *3359:A 32.6536 
2 *3359:A *3358:A 22.0464 
*END

*D_NET *1409 0.000786541
*CONN
*I *3266:A I *D sky130_fd_sc_hd__xor2_1
*I *3267:A1 I *D sky130_fd_sc_hd__a21o_1
*I *3264:X O *D sky130_fd_sc_hd__xor2_1
*CAP
1 *3266:A 0.000209729
2 *3267:A1 9.90259e-05
3 *3264:X 6.30319e-05
4 *1409:6 0.000371787
5 *3267:A1 *3267:B1 3.92757e-05
6 *3267:A1 *1412:12 0
7 *1409:6 *3267:B1 3.69047e-06
8 *104:10 *3267:A1 0
*RES
1 *3264:X *1409:6 10.2464 
2 *1409:6 *3267:A1 20.2464 
3 *1409:6 *3266:A 12.7286 
*END

*D_NET *1410 0.000839472
*CONN
*I *3267:B1 I *D sky130_fd_sc_hd__a21o_1
*I *3265:X O *D sky130_fd_sc_hd__and2_1
*CAP
1 *3267:B1 0.000314157
2 *3265:X 0.000314157
3 *3267:B1 *1412:12 2.34204e-05
4 *3264:A *3267:B1 0.000144773
5 *3267:A1 *3267:B1 3.92757e-05
6 *38:142 *3267:B1 0
7 *104:10 *3267:B1 0
8 *1409:6 *3267:B1 3.69047e-06
*RES
1 *3265:X *3267:B1 32.2429 
*END

*D_NET *1411 0.000651347
*CONN
*I *3354:B I *D sky130_fd_sc_hd__and2_1
*I *3353:B I *D sky130_fd_sc_hd__xor2_1
*I *3266:X O *D sky130_fd_sc_hd__xor2_1
*CAP
1 *3354:B 9.29039e-05
2 *3353:B 0
3 *3266:X 0.000142942
4 *1411:10 0.000235846
5 *3353:A *3354:B 0.000179656
6 *27:149 *3354:B 0
7 *27:149 *1411:10 0
8 *104:10 *3354:B 0
9 *104:10 *1411:10 0
*RES
1 *3266:X *1411:10 15.9786 
2 *1411:10 *3353:B 13.8 
3 *1411:10 *3354:B 16.3536 
*END

*D_NET *1412 0.00158444
*CONN
*I *3358:B I *D sky130_fd_sc_hd__xor2_1
*I *3359:B I *D sky130_fd_sc_hd__and2_1
*I *3267:X O *D sky130_fd_sc_hd__a21o_1
*CAP
1 *3358:B 0
2 *3359:B 5.1686e-05
3 *3267:X 0.000479841
4 *1412:12 0.000531527
5 *3359:B *1429:10 0.000186662
6 *3267:A1 *1412:12 0
7 *3267:B1 *1412:12 2.34204e-05
8 *3358:A *3359:B 0.00011262
9 *38:142 *1412:12 0
10 *845:12 *1412:12 0
11 *1022:16 *1412:12 0.000181395
12 *1198:18 *1412:12 1.72894e-05
*RES
1 *3267:X *1412:12 27.7643 
2 *1412:12 *3359:B 11.4964 
3 *1412:12 *3358:B 9.3 
*END

*D_NET *1413 0.000179713
*CONN
*I *2913:A I *D sky130_fd_sc_hd__or2_1
*I *2869:X O *D sky130_fd_sc_hd__and2_1
*CAP
1 *2913:A 4.41892e-05
2 *2869:X 4.41892e-05
3 *34:89 *2913:A 5.33882e-05
4 *42:84 *2913:A 3.79467e-05
*RES
1 *2869:X *2913:A 28.9393 
*END

*D_NET *1414 0.00158874
*CONN
*I *3272:A I *D sky130_fd_sc_hd__xor2_1
*I *3273:A1 I *D sky130_fd_sc_hd__a21o_1
*I *3270:X O *D sky130_fd_sc_hd__xor2_1
*CAP
1 *3272:A 0.000166142
2 *3273:A1 0.000175898
3 *3270:X 0.000116856
4 *1414:10 0.000458896
5 *3272:B *3272:A 0
6 *3273:A2 *3272:A 0.000127476
7 *3273:A2 *3273:A1 0.000178847
8 *36:187 *3272:A 0.000128154
9 *36:187 *1414:10 0.000117369
10 *37:97 *1414:10 0.000110844
11 *105:6 *3273:A1 8.25843e-06
*RES
1 *3270:X *1414:10 21.1571 
2 *1414:10 *3273:A1 11.4786 
3 *1414:10 *3272:A 21.3 
*END

*D_NET *1415 0.00094881
*CONN
*I *3273:B1 I *D sky130_fd_sc_hd__a21o_1
*I *3271:X O *D sky130_fd_sc_hd__and2_1
*CAP
1 *3273:B1 0.00035216
2 *3271:X 0.00035216
3 *3273:B1 *1417:10 3.34366e-05
4 *3271:A *3273:B1 8.58629e-05
5 *26:196 *3273:B1 7.6351e-05
6 *27:149 *3273:B1 0
7 *964:6 *3273:B1 4.884e-05
*RES
1 *3271:X *3273:B1 32.9571 
*END

*D_NET *1416 0.000797508
*CONN
*I *3356:A2 I *D sky130_fd_sc_hd__a21o_1
*I *3355:B I *D sky130_fd_sc_hd__xor2_1
*I *3272:X O *D sky130_fd_sc_hd__xor2_1
*CAP
1 *3356:A2 0
2 *3355:B 7.85938e-05
3 *3272:X 9.23912e-05
4 *1416:8 0.000170985
5 *3273:A2 *3355:B 2.59355e-05
6 *3355:A *3355:B 5.52238e-05
7 *3356:A1 *3355:B 0.000149904
8 *26:196 *3355:B 2.82057e-05
9 *37:97 *3355:B 0.000196269
*RES
1 *3272:X *1416:8 10.675 
2 *1416:8 *3355:B 21.3893 
3 *1416:8 *3356:A2 9.3 
*END

*D_NET *1417 0.00275857
*CONN
*I *3363:B I *D sky130_fd_sc_hd__and2_1
*I *3362:B I *D sky130_fd_sc_hd__xor2_1
*I *3273:X O *D sky130_fd_sc_hd__a21o_1
*CAP
1 *3363:B 0.000206987
2 *3362:B 0.000200651
3 *3273:X 0.000433051
4 *1417:10 0.000840689
5 *3362:B *3362:A 3.57366e-05
6 *2008:B *1417:10 0.00019117
7 *2009:A1 *1417:10 0.000128154
8 *3273:B1 *1417:10 3.34366e-05
9 *3364:A *3362:B 0
10 *3365:A1 *3362:B 5.90899e-05
11 *3365:B1 *3363:B 0.000176504
12 *3365:B1 *1417:10 3.34295e-05
13 *26:196 *3363:B 1.78353e-05
14 *26:196 *1417:10 0.000152466
15 *27:149 *3363:B 0
16 *27:149 *1417:10 0
17 *105:6 *1417:10 5.71472e-05
18 *108:10 *1417:10 0.000146474
19 *117:14 *3363:B 4.57445e-05
*RES
1 *3273:X *1417:10 24.7821 
2 *1417:10 *3362:B 17.1214 
3 *1417:10 *3363:B 18.3357 
*END

*D_NET *1418 0.00133791
*CONN
*I *3276:A I *D sky130_fd_sc_hd__xor2_1
*I *3277:A1 I *D sky130_fd_sc_hd__a21o_1
*I *3274:X O *D sky130_fd_sc_hd__xor2_1
*CAP
1 *3276:A 0.000101139
2 *3277:A1 6.60636e-05
3 *3274:X 0.000145224
4 *1418:6 0.000312427
5 *3277:A1 *3277:B1 4.15914e-05
6 *3275:B *3276:A 0
7 *3275:B *1418:6 0.000183726
8 *3276:B *3276:A 5.71472e-05
9 *3276:B *3277:A1 0.00015234
10 *17:206 *3277:A1 4.78818e-05
11 *29:239 *1418:6 0.000137983
12 *113:10 *3277:A1 0
13 *1136:16 *3276:A 3.14193e-05
14 *1136:16 *1418:6 6.09688e-05
*RES
1 *3274:X *1418:6 12.7107 
2 *1418:6 *3277:A1 20.55 
3 *1418:6 *3276:A 11.3893 
*END

*D_NET *1419 0.000209209
*CONN
*I *3277:B1 I *D sky130_fd_sc_hd__a21o_1
*I *3275:X O *D sky130_fd_sc_hd__and2_1
*CAP
1 *3277:B1 6.9146e-05
2 *3275:X 6.9146e-05
3 *3277:B1 *1430:16 0
4 *3276:B *3277:B1 2.00751e-05
5 *3277:A1 *3277:B1 4.15914e-05
6 *17:206 *3277:B1 9.25014e-06
*RES
1 *3275:X *3277:B1 29.2429 
*END

*D_NET *1420 0.00247988
*CONN
*I *3360:B I *D sky130_fd_sc_hd__xor2_1
*I *3361:A2 I *D sky130_fd_sc_hd__a21o_1
*I *3276:X O *D sky130_fd_sc_hd__xor2_1
*CAP
1 *3360:B 3.72467e-05
2 *3361:A2 0
3 *3276:X 0.000815211
4 *1420:12 0.000852458
5 *3361:A1 *3360:B 0.000111383
6 *3361:B1 *1420:12 4.1331e-06
7 *28:123 *1420:12 0.000340781
8 *28:133 *1420:12 0
9 *38:115 *1420:12 0
10 *38:125 *3360:B 5.33433e-05
11 *38:125 *1420:12 0
12 *38:142 *1420:12 0
13 *110:12 *1420:12 2.8266e-06
14 *113:10 *1420:12 0
15 *685:12 *1420:12 0
16 *1199:24 *1420:12 0.000262498
*RES
1 *3276:X *1420:12 32.55 
2 *1420:12 *3361:A2 9.3 
3 *1420:12 *3360:B 10.675 
*END

*D_NET *1421 0.00169312
*CONN
*I *3367:A I *D sky130_fd_sc_hd__and2_1
*I *3366:A I *D sky130_fd_sc_hd__xor2_1
*I *3277:X O *D sky130_fd_sc_hd__a21o_1
*CAP
1 *3367:A 4.5965e-05
2 *3366:A 0
3 *3277:X 0.000361225
4 *1421:10 0.00040719
5 *3367:A *3367:B 2.82057e-05
6 *1421:10 *1430:16 0
7 *1421:10 *1433:10 0.00010096
8 *2642:B *1421:10 5.01213e-05
9 *3370:B1 *3367:A 0.000127446
10 *3370:B1 *1421:10 0.000224592
11 *122:8 *3367:A 0.000166983
12 *122:8 *1421:10 0.000154762
13 *794:8 *1421:10 2.56694e-05
*RES
1 *3277:X *1421:10 21.55 
2 *1421:10 *3366:A 13.8 
3 *1421:10 *3367:A 16.05 
*END

*D_NET *1422 0.00108131
*CONN
*I *3282:A1 I *D sky130_fd_sc_hd__a21o_1
*I *3281:A I *D sky130_fd_sc_hd__xor2_1
*I *3278:X O *D sky130_fd_sc_hd__xor2_1
*CAP
1 *3282:A1 0.000138212
2 *3281:A 0.000154093
3 *3278:X 0
4 *1422:4 0.000292305
5 *3281:A *1425:10 9.41642e-05
6 *2689:A *3282:A1 0.000153047
7 *2760:B *3282:A1 1.03037e-05
8 *3282:A2 *3282:A1 2.89114e-05
9 *35:206 *3281:A 5.96516e-05
10 *37:89 *3282:A1 0.000150625
*RES
1 *3278:X *1422:4 9.3 
2 *1422:4 *3281:A 11.9071 
3 *1422:4 *3282:A1 21.1929 
*END

*D_NET *1423 0.00094829
*CONN
*I *3282:B1 I *D sky130_fd_sc_hd__a21o_1
*I *3279:X O *D sky130_fd_sc_hd__and2_1
*CAP
1 *3282:B1 0.000192972
2 *3279:X 0.000192972
3 *2631:A *3282:B1 9.34004e-05
4 *3279:B *3282:B1 0.000139826
5 *11:218 *3282:B1 1.15172e-05
6 *20:244 *3282:B1 0.000317602
*RES
1 *3279:X *3282:B1 32.6179 
*END

*D_NET *1424 0.000443347
*CONN
*I *2913:B I *D sky130_fd_sc_hd__or2_1
*I *2880:X O *D sky130_fd_sc_hd__and2_1
*CAP
1 *2913:B 0.000142196
2 *2880:X 0.000142196
3 *18:25 *2913:B 5.56943e-05
4 *38:313 *2913:B 0.00010326
*RES
1 *2880:X *2913:B 30.2964 
*END

*D_NET *1425 0.00349583
*CONN
*I *3363:A I *D sky130_fd_sc_hd__and2_1
*I *3362:A I *D sky130_fd_sc_hd__xor2_1
*I *3281:X O *D sky130_fd_sc_hd__xor2_1
*CAP
1 *3363:A 0
2 *3362:A 0.000107525
3 *3281:X 0.000456773
4 *1425:10 0.000564298
5 *2694:A *1425:10 0.000285413
6 *2694:B *1425:10 0.000100823
7 *3281:A *1425:10 9.41642e-05
8 *3362:B *3362:A 3.57366e-05
9 *3364:A *3362:A 0
10 *3365:A1 *3362:A 2.27416e-05
11 *26:196 *1425:10 2.59093e-05
12 *26:211 *1425:10 0.000196836
13 *26:228 *1425:10 0.000421403
14 *27:143 *1425:10 0.000754903
15 *35:206 *1425:10 9.41642e-05
16 *36:187 *3362:A 9.57064e-05
17 *36:187 *1425:10 8.71059e-06
18 *37:89 *1425:10 4.08132e-05
19 *37:97 *3362:A 9.24491e-05
20 *37:97 *1425:10 9.74588e-05
*RES
1 *3281:X *1425:10 29.4429 
2 *1425:10 *3362:A 17.0143 
3 *1425:10 *3363:A 13.8 
*END

*D_NET *1426 0.00429883
*CONN
*I *3367:B I *D sky130_fd_sc_hd__and2_1
*I *3366:B I *D sky130_fd_sc_hd__xor2_1
*I *3282:X O *D sky130_fd_sc_hd__a21o_1
*CAP
1 *3367:B 0.000115667
2 *3366:B 5.73281e-05
3 *3282:X 0.00115984
4 *1426:18 0.00133284
5 *3367:B *3369:B 1.76135e-05
6 *1426:18 *3369:B 0.000113448
7 *1426:18 *1433:10 8.86717e-05
8 *2641:A *1426:18 7.49387e-06
9 *2760:B *1426:18 7.02611e-05
10 *2976:B *1426:18 0.000278819
11 *3367:A *3367:B 2.82057e-05
12 *3369:A *3366:B 3.99614e-06
13 *3369:A *1426:18 4.29414e-05
14 *3370:A1 *1426:18 5.33005e-05
15 *3370:B1 *3367:B 0.000173804
16 *10:202 *1426:18 0.000219711
17 *11:218 *3366:B 1.58163e-05
18 *11:218 *1426:18 2.95726e-05
19 *18:140 *1426:18 7.06678e-05
20 *27:112 *3367:B 0
21 *28:119 *1426:18 0.000167998
22 *113:10 *3367:B 0
23 *113:10 *1426:18 0.000141791
24 *793:6 *1426:18 9.15975e-05
25 *1124:12 *1426:18 1.74352e-05
*RES
1 *3282:X *1426:18 39.175 
2 *1426:18 *3366:B 10.2643 
3 *1426:18 *3367:B 21.1571 
*END

*D_NET *1427 0.000968136
*CONN
*I *3285:A I *D sky130_fd_sc_hd__xor2_1
*I *3286:A1 I *D sky130_fd_sc_hd__a21o_1
*I *3283:X O *D sky130_fd_sc_hd__xor2_1
*CAP
1 *3285:A 0.000140334
2 *3286:A1 0
3 *3283:X 9.11222e-05
4 *1427:8 0.000231456
5 *3285:A *3286:B1 5.80706e-06
6 *1427:8 *3286:B1 6.42242e-05
7 *3285:B *3285:A 0.000242256
8 *3285:B *1427:8 9.25014e-06
9 *6:107 *3285:A 0
10 *6:107 *1427:8 0
11 *19:88 *3285:A 1.74352e-05
12 *30:197 *3285:A 5.33433e-05
13 *1133:10 *3285:A 1.41029e-05
14 *1133:10 *1427:8 9.8804e-05
*RES
1 *3283:X *1427:8 16.3536 
2 *1427:8 *3286:A1 13.8 
3 *1427:8 *3285:A 17.6036 
*END

*D_NET *1428 0.00105501
*CONN
*I *3286:B1 I *D sky130_fd_sc_hd__a21o_1
*I *3284:X O *D sky130_fd_sc_hd__and2_1
*CAP
1 *3286:B1 0.000370853
2 *3284:X 0.000370853
3 *2453:A *3286:B1 5.95522e-05
4 *3283:B *3286:B1 0.00018372
5 *3285:A *3286:B1 5.80706e-06
6 *6:107 *3286:B1 0
7 *1427:8 *3286:B1 6.42242e-05
*RES
1 *3284:X *3286:B1 33.0643 
*END

*D_NET *1429 0.00736755
*CONN
*I *3365:A2 I *D sky130_fd_sc_hd__a21o_1
*I *3364:B I *D sky130_fd_sc_hd__xor2_1
*I *3285:X O *D sky130_fd_sc_hd__xor2_1
*CAP
1 *3365:A2 2.39445e-05
2 *3364:B 0.000295456
3 *3285:X 0.00120456
4 *1429:10 0.00152396
5 *2007:A *1429:10 0.000142856
6 *2007:B *1429:10 3.18676e-05
7 *2009:A2 *1429:10 2.59355e-05
8 *2009:B1 *1429:10 0.000100625
9 *2572:A *1429:10 0.000139907
10 *2572:B *1429:10 5.74499e-06
11 *2575:A *1429:10 7.77751e-05
12 *3358:A *1429:10 2.95841e-05
13 *3359:B *1429:10 0.000186662
14 *3364:A *3364:B 0.000148826
15 *3365:A1 *3364:B 0.000312222
16 *19:88 *1429:10 0.000861158
17 *26:196 *3365:A2 7.22594e-05
18 *26:196 *1429:10 0.000369818
19 *28:133 *1429:10 3.1521e-05
20 *30:197 *1429:10 6.20656e-05
21 *37:97 *3365:A2 4.25523e-05
22 *37:97 *1429:10 0.000196422
23 *110:12 *1429:10 5.71472e-05
24 *116:8 *3364:B 0
25 *1022:22 *1429:10 0.00139577
26 *1132:34 *3364:B 2.89114e-05
*RES
1 *3285:X *1429:10 46.5321 
2 *1429:10 *3364:B 18.8893 
3 *1429:10 *3365:A2 14.8357 
*END

*D_NET *1430 0.00941225
*CONN
*I *3373:B I *D sky130_fd_sc_hd__xor2_1
*I *3374:A2 I *D sky130_fd_sc_hd__a21o_1
*I *3286:X O *D sky130_fd_sc_hd__a21o_1
*CAP
1 *3373:B 0.000152791
2 *3374:A2 0
3 *3286:X 0.000724106
4 *1430:16 0.00179454
5 *1430:8 0.00236585
6 *1430:16 *3295:B1 0
7 *1430:16 *1436:10 8.91726e-05
8 *1430:16 *1439:10 0
9 *2450:A *1430:8 0.000356028
10 *2642:B *1430:16 5.24274e-05
11 *3260:A *1430:8 3.97677e-05
12 *3260:B *1430:8 0.000269428
13 *3263:B1 *1430:8 2.40107e-05
14 *3277:B1 *1430:16 0
15 *3374:A1 *3373:B 0
16 *15:238 *1430:8 0.00010096
17 *17:206 *1430:16 2.68527e-05
18 *19:88 *1430:16 7.6644e-05
19 *27:89 *1430:16 0.00129635
20 *29:239 *1430:16 0.000105449
21 *29:241 *1430:16 0.000585649
22 *29:247 *1430:16 0.000531943
23 *122:8 *1430:16 0.000300352
24 *194:10 *3373:B 0.00020042
25 *626:6 *1430:8 2.59355e-05
26 *794:8 *1430:16 0
27 *858:10 *1430:16 1.03182e-05
28 *1217:10 *3373:B 7.77652e-05
29 *1217:10 *1430:16 0.000195176
30 *1384:8 *1430:8 2.87555e-06
31 *1405:8 *1430:8 7.43578e-06
32 *1421:10 *1430:16 0
*RES
1 *3286:X *1430:8 23.3714 
2 *1430:8 *1430:16 47.75 
3 *1430:16 *3374:A2 9.3 
4 *1430:16 *3373:B 22.2107 
*END

*D_NET *1431 0.00155418
*CONN
*I *3289:A I *D sky130_fd_sc_hd__xor2_1
*I *3290:A1 I *D sky130_fd_sc_hd__a21o_1
*I *3287:X O *D sky130_fd_sc_hd__xor2_1
*CAP
1 *3289:A 0.000109148
2 *3290:A1 0
3 *3287:X 0.000333324
4 *1431:8 0.000442473
5 *3289:A *1434:12 2.00751e-05
6 *1431:8 *3290:B1 0
7 *2520:A *1431:8 0
8 *2588:A *1431:8 0.000175505
9 *2588:B *3289:A 5.97719e-05
10 *2588:B *1431:8 2.49484e-05
11 *3289:B *3289:A 0.000165269
12 *7:213 *3289:A 6.1079e-05
13 *7:213 *1431:8 0
14 *39:129 *1431:8 0
15 *40:230 *1431:8 0
16 *746:8 *3289:A 1.02504e-05
17 *746:8 *1431:8 0.000152333
*RES
1 *3287:X *1431:8 21.2107 
2 *1431:8 *3290:A1 13.8 
3 *1431:8 *3289:A 16.9964 
*END

*D_NET *1432 0.00178045
*CONN
*I *3290:B1 I *D sky130_fd_sc_hd__a21o_1
*I *3288:X O *D sky130_fd_sc_hd__and2_1
*CAP
1 *3290:B1 0.00030984
2 *3288:X 0.00030984
3 *2585:A *3290:B1 0.000181803
4 *2586:B *3290:B1 8.56716e-05
5 *2588:A *3290:B1 7.32272e-05
6 *3287:B *3290:B1 9.80173e-05
7 *40:230 *3290:B1 0.000123903
8 *1133:10 *3290:B1 0.00058416
9 *1136:16 *3290:B1 1.39841e-05
10 *1431:8 *3290:B1 0
*RES
1 *3288:X *3290:B1 37.725 
*END

*D_NET *1433 0.00274899
*CONN
*I *3369:B I *D sky130_fd_sc_hd__xor2_1
*I *3370:A2 I *D sky130_fd_sc_hd__a21o_1
*I *3289:X O *D sky130_fd_sc_hd__xor2_1
*CAP
1 *3369:B 0.000151795
2 *3370:A2 0
3 *3289:X 0.000877956
4 *1433:10 0.00102975
5 *3367:B *3369:B 1.76135e-05
6 *3369:A *3369:B 5.71472e-05
7 *3370:A1 *3369:B 0.000137939
8 *3370:A1 *1433:10 1.02504e-05
9 *3370:B1 *3369:B 4.97121e-06
10 *7:213 *1433:10 5.52238e-05
11 *113:10 *3369:B 0
12 *113:10 *1433:10 0
13 *794:8 *1433:10 0.000103267
14 *1421:10 *1433:10 0.00010096
15 *1426:18 *3369:B 0.000113448
16 *1426:18 *1433:10 8.86717e-05
*RES
1 *3289:X *1433:10 28.1571 
2 *1433:10 *3370:A2 13.8 
3 *1433:10 *3369:B 17.425 
*END

*D_NET *1434 0.00482427
*CONN
*I *3375:B I *D sky130_fd_sc_hd__xor2_1
*I *3376:B I *D sky130_fd_sc_hd__and2_1
*I *3290:X O *D sky130_fd_sc_hd__a21o_1
*CAP
1 *3375:B 5.16647e-05
2 *3376:B 0
3 *3290:X 0.00105427
4 *1434:12 0.00110594
5 *1434:12 *1443:8 0
6 *2585:A *1434:12 5.52302e-05
7 *2586:B *1434:12 0.000128154
8 *2588:B *1434:12 7.83659e-05
9 *2826:B *1434:12 2.28428e-05
10 *2885:A *1434:12 0.000684987
11 *2885:B *1434:12 0.000548586
12 *2886:B *1434:12 2.37761e-05
13 *2895:A *1434:12 5.33882e-05
14 *3144:A *1434:12 0
15 *3289:A *1434:12 2.00751e-05
16 *3289:B *1434:12 0
17 *3375:A *3375:B 0.000197092
18 *11:216 *1434:12 0
19 *26:249 *1434:12 2.78729e-05
20 *35:206 *1434:12 3.0285e-05
21 *36:240 *1434:12 7.38652e-05
22 *36:265 *1434:12 1.17968e-05
23 *977:10 *1434:12 0
24 *1036:12 *1434:12 0
25 *1043:12 *1434:12 0.000317602
26 *1133:10 *1434:12 0
27 *1220:12 *1434:12 0.000236275
28 *1293:6 *3375:B 0.000102207
*RES
1 *3290:X *1434:12 44.7643 
2 *1434:12 *3376:B 9.3 
3 *1434:12 *3375:B 11.4964 
*END

*D_NET *1435 0.000643849
*CONN
*I *2924:A I *D sky130_fd_sc_hd__or2_1
*I *2891:X O *D sky130_fd_sc_hd__and2_1
*CAP
1 *2924:A 0.000221721
2 *2891:X 0.000221721
3 *2924:A *2924:B 5.33882e-05
4 *2127:B *2924:A 5.33005e-05
5 *2802:B *2924:A 3.5707e-05
6 *2813:B *2924:A 4.58976e-05
7 *2847:B *2924:A 4.0342e-06
8 *13:172 *2924:A 8.0786e-06
*RES
1 *2891:X *2924:A 31.1179 
*END

*D_NET *1436 0.0010033
*CONN
*I *3294:A I *D sky130_fd_sc_hd__xor2_1
*I *3295:A1 I *D sky130_fd_sc_hd__a21o_1
*I *3292:X O *D sky130_fd_sc_hd__xor2_1
*CAP
1 *3294:A 9.79558e-05
2 *3295:A1 0.000118066
3 *3292:X 6.5454e-05
4 *1436:10 0.000281476
5 *3295:A2 *3294:A 6.71755e-05
6 *3295:A2 *3295:A1 9.7659e-05
7 *26:232 *3295:A1 1.32552e-05
8 *122:8 *1436:10 0.00017309
9 *1430:16 *1436:10 8.91726e-05
*RES
1 *3292:X *1436:10 20.55 
2 *1436:10 *3295:A1 11.4786 
3 *1436:10 *3294:A 11.0857 
*END

*D_NET *1437 0.000235216
*CONN
*I *3295:B1 I *D sky130_fd_sc_hd__a21o_1
*I *3293:X O *D sky130_fd_sc_hd__and2_1
*CAP
1 *3295:B1 0.000117608
2 *3293:X 0.000117608
3 *3298:B *3295:B1 0
4 *1384:10 *3295:B1 0
5 *1430:16 *3295:B1 0
*RES
1 *3293:X *3295:B1 29.5464 
*END

*D_NET *1438 0.00151906
*CONN
*I *3371:A I *D sky130_fd_sc_hd__xor2_1
*I *3372:A I *D sky130_fd_sc_hd__and2_1
*I *3294:X O *D sky130_fd_sc_hd__xor2_1
*CAP
1 *3371:A 3.75429e-05
2 *3372:A 0.000136122
3 *3294:X 0.000286457
4 *1438:10 0.000460122
5 *3372:A *3371:B 9.31893e-05
6 *3372:A *1442:8 5.62995e-05
7 *3374:B1 *3372:A 0.00014285
8 *3374:B1 *1438:10 3.80808e-05
9 *122:8 *3371:A 0
10 *122:8 *1438:10 0
11 *126:12 *3371:A 5.83304e-05
12 *126:12 *1438:10 9.91086e-05
13 *194:10 *1438:10 0
14 *917:14 *1438:10 0.00010096
15 *1229:16 *3372:A 9.99644e-06
*RES
1 *3294:X *1438:10 19.425 
2 *1438:10 *3372:A 17.2286 
3 *1438:10 *3371:A 14.5321 
*END

*D_NET *1439 0.00162549
*CONN
*I *3378:A2 I *D sky130_fd_sc_hd__a21o_1
*I *3377:B I *D sky130_fd_sc_hd__xor2_1
*I *3295:X O *D sky130_fd_sc_hd__a21o_1
*CAP
1 *3378:A2 0.000173369
2 *3377:B 0
3 *3295:X 0.000458586
4 *1439:10 0.000631955
5 *1439:10 *3298:A 8.15939e-05
6 *1439:10 *3299:A1 0.000104227
7 *1439:10 *1443:8 0
8 *2015:B *1439:10 0
9 *3377:A *3378:A2 0.000175755
10 *122:8 *1439:10 0
11 *127:12 *1439:10 0
12 *1430:16 *1439:10 0
*RES
1 *3295:X *1439:10 27.2286 
2 *1439:10 *3377:B 9.3 
3 *1439:10 *3378:A2 13.05 
*END

*D_NET *1440 0.0010042
*CONN
*I *3298:A I *D sky130_fd_sc_hd__xor2_1
*I *3299:A1 I *D sky130_fd_sc_hd__a21o_1
*I *3296:X O *D sky130_fd_sc_hd__xor2_1
*CAP
1 *3298:A 5.78356e-05
2 *3299:A1 0.000192866
3 *3296:X 3.92359e-05
4 *1440:8 0.000289937
5 *3298:A *1443:8 0
6 *3298:B *3298:A 6.1684e-05
7 *3298:B *3299:A1 0.000106542
8 *26:232 *3299:A1 1.50524e-05
9 *1217:10 *1440:8 5.52238e-05
10 *1439:10 *3298:A 8.15939e-05
11 *1439:10 *3299:A1 0.000104227
*RES
1 *3296:X *1440:8 14.3357 
2 *1440:8 *3299:A1 17.7107 
3 *1440:8 *3298:A 15.7464 
*END

*D_NET *1441 0.000555978
*CONN
*I *3299:B1 I *D sky130_fd_sc_hd__a21o_1
*I *3297:X O *D sky130_fd_sc_hd__and2_1
*CAP
1 *3299:B1 0.000166492
2 *3297:X 0.000166492
3 *3299:B1 *1443:8 3.92757e-05
4 *3296:B *3299:B1 0.000137983
5 *3298:B *3299:B1 4.16021e-05
6 *1036:12 *3299:B1 0
7 *1384:10 *3299:B1 4.1331e-06
*RES
1 *3297:X *3299:B1 30.6 
*END

*D_NET *1442 0.000780087
*CONN
*I *3371:B I *D sky130_fd_sc_hd__xor2_1
*I *3372:B I *D sky130_fd_sc_hd__and2_1
*I *3298:X O *D sky130_fd_sc_hd__xor2_1
*CAP
1 *3371:B 6.25726e-05
2 *3372:B 0
3 *3298:X 0.000113185
4 *1442:8 0.000175757
5 *3372:A *3371:B 9.31893e-05
6 *3372:A *1442:8 5.62995e-05
7 *3373:A *3371:B 0
8 *1229:16 *3371:B 0.000100625
9 *1229:16 *1442:8 0.000178459
*RES
1 *3298:X *1442:8 12.7286 
2 *1442:8 *3372:B 9.3 
3 *1442:8 *3371:B 11.4964 
*END

*D_NET *1443 0.00197846
*CONN
*I *1953:B I *D sky130_fd_sc_hd__xor2_1
*I *1954:A2 I *D sky130_fd_sc_hd__a21o_1
*I *3299:X O *D sky130_fd_sc_hd__a21o_1
*CAP
1 *1953:B 0.000203543
2 *1954:A2 9.71715e-05
3 *3299:X 0.000438438
4 *1443:8 0.000739153
5 *1954:A1 *1953:B 0
6 *1954:B1 *1953:B 0
7 *3298:A *1443:8 0
8 *3298:B *1443:8 0
9 *3299:B1 *1443:8 3.92757e-05
10 *3377:A *1954:A2 5.7661e-06
11 *3378:B1 *1953:B 2.16719e-05
12 *3378:B1 *1954:A2 9.71197e-05
13 *3378:B1 *1443:8 5.10822e-05
14 *127:12 *1953:B 2.84398e-05
15 *127:12 *1443:8 5.33882e-05
16 *130:8 *1954:A2 5.52238e-05
17 *135:12 *1953:B 0
18 *977:10 *1443:8 0.000148189
19 *1434:12 *1443:8 0
20 *1439:10 *1443:8 0
*RES
1 *3299:X *1443:8 22.425 
2 *1443:8 *1954:A2 16.0143 
3 *1443:8 *1953:B 17.4964 
*END

*D_NET *1444 0.000748552
*CONN
*I *3303:A I *D sky130_fd_sc_hd__xor2_1
*I *3304:A1 I *D sky130_fd_sc_hd__a21o_1
*I *3300:X O *D sky130_fd_sc_hd__xor2_1
*CAP
1 *3303:A 5.30494e-05
2 *3304:A1 0
3 *3300:X 8.96757e-05
4 *1444:10 0.000142725
5 *1444:10 *1455:10 0
6 *2720:A *1444:10 0.000177227
7 *2885:B *3303:A 1.74352e-05
8 *3303:B *3303:A 4.88637e-05
9 *3304:A2 *3303:A 3.99614e-06
10 *7:225 *3303:A 0.000186669
11 *806:6 *3303:A 2.89114e-05
*RES
1 *3300:X *1444:10 20.55 
2 *1444:10 *3304:A1 9.3 
3 *1444:10 *3303:A 11.4964 
*END

*D_NET *1445 0.000778672
*CONN
*I *3304:B1 I *D sky130_fd_sc_hd__a21o_1
*I *3301:X O *D sky130_fd_sc_hd__and2_1
*CAP
1 *3304:B1 0.000229336
2 *3301:X 0.000229336
3 *2720:A *3304:B1 0.000125724
4 *3301:A *3304:B1 0.000136958
5 *30:252 *3304:B1 2.47833e-05
6 *40:198 *3304:B1 3.2534e-05
7 *1087:12 *3304:B1 0
*RES
1 *3301:X *3304:B1 31.4214 
*END

*D_NET *1446 0.000630098
*CONN
*I *2924:B I *D sky130_fd_sc_hd__or2_1
*I *2902:X O *D sky130_fd_sc_hd__and2_1
*CAP
1 *2924:B 0.000192623
2 *2902:X 0.000192623
3 *2127:B *2924:B 6.42242e-05
4 *2802:A *2924:B 2.19778e-05
5 *2802:B *2924:B 0
6 *2813:A *2924:B 6.65302e-05
7 *2813:B *2924:B 6.8646e-06
8 *2924:A *2924:B 5.33882e-05
9 *3:175 *2924:B 3.18676e-05
10 *4:221 *2924:B 0
11 *5:109 *2924:B 0
*RES
1 *2902:X *2924:B 31.9036 
*END

*D_NET *1447 0.00659586
*CONN
*I *1952:A I *D sky130_fd_sc_hd__and2_1
*I *1951:A I *D sky130_fd_sc_hd__xor2_1
*I *3303:X O *D sky130_fd_sc_hd__xor2_1
*CAP
1 *1952:A 0
2 *1951:A 0.000155696
3 *3303:X 0.00162556
4 *1447:14 0.000310696
5 *1447:10 0.00178056
6 *1951:A *1951:B 0.000240905
7 *1954:B1 *1951:A 0.000186662
8 *2019:A *1447:10 0
9 *2019:B *1447:10 0
10 *2022:B1 *1447:10 5.57914e-05
11 *2704:A *1447:10 0
12 *2707:B *1447:10 0
13 *2885:B *1447:10 0.000534229
14 *3073:B *1447:10 4.52768e-05
15 *3145:B *1447:10 0
16 *3148:B1 *1447:10 0.000118775
17 *132:8 *1951:A 0
18 *857:12 *1447:10 0.000123295
19 *1137:14 *1447:10 0.000670371
20 *1142:10 *1447:10 1.50181e-05
21 *1145:10 *1447:10 0.000385371
22 *1221:10 *1447:10 0
23 *1222:10 *1447:10 8.15939e-05
24 *1225:16 *1447:10 0
25 *1361:12 *1951:A 4.16899e-05
26 *1361:12 *1447:14 0.000224366
*RES
1 *3303:X *1447:10 47.2107 
2 *1447:10 *1447:14 8.32143 
3 *1447:14 *1951:A 13.5679 
4 *1447:14 *1952:A 9.3 
*END

*D_NET *1448 0.00475712
*CONN
*I *1960:A I *D sky130_fd_sc_hd__and2_1
*I *1959:A I *D sky130_fd_sc_hd__xor2_1
*I *3304:X O *D sky130_fd_sc_hd__a21o_1
*CAP
1 *1960:A 0.000144263
2 *1959:A 0
3 *3304:X 0.001293
4 *1448:16 0.00143726
5 *1960:A *1960:B 0.000108082
6 *1448:16 *3307:A 4.48113e-05
7 *1448:16 *3308:B1 0.000150625
8 *1448:16 *1452:10 0.000317602
9 *1448:16 *1455:10 0
10 *1963:B1 *1960:A 0.000142856
11 *2720:A *1448:16 0.000676605
12 *2823:B *1448:16 0
13 *2835:A *1448:16 0.000149911
14 *2885:B *1448:16 0.00010096
15 *2998:B *1448:16 0
16 *3307:B *1448:16 0
17 *11:199 *1448:16 3.69697e-05
18 *21:138 *1448:16 0
19 *39:95 *1448:16 0
20 *140:12 *1448:16 0
21 *206:24 *1448:16 0.000145686
22 *865:14 *1448:16 0
23 *976:12 *1448:16 0
24 *983:10 *1448:16 8.49861e-06
25 *1087:12 *1448:16 0
*RES
1 *3304:X *1448:16 46.1393 
2 *1448:16 *1959:A 9.3 
3 *1448:16 *1960:A 12.7464 
*END

*D_NET *1449 0.000647444
*CONN
*I *3307:A I *D sky130_fd_sc_hd__xor2_1
*I *3308:A1 I *D sky130_fd_sc_hd__a21o_1
*I *3305:X O *D sky130_fd_sc_hd__xor2_1
*CAP
1 *3307:A 4.87586e-05
2 *3308:A1 0.000177342
3 *3305:X 0.000128584
4 *3307:B *3307:A 0.000127439
5 *1229:10 *3308:A1 0.000120509
6 *1448:16 *3307:A 4.48113e-05
*RES
1 *3305:X *3308:A1 21.2071 
2 *3308:A1 *3307:A 29.2429 
*END

*D_NET *1450 0.000732516
*CONN
*I *3308:B1 I *D sky130_fd_sc_hd__a21o_1
*I *3306:X O *D sky130_fd_sc_hd__and2_1
*CAP
1 *3308:B1 0.000264636
2 *3306:X 0.000264636
3 *983:10 *3308:B1 5.26184e-05
4 *1448:16 *3308:B1 0.000150625
*RES
1 *3306:X *3308:B1 31.725 
*END

*D_NET *1451 0.00346165
*CONN
*I *1951:B I *D sky130_fd_sc_hd__xor2_1
*I *1952:B I *D sky130_fd_sc_hd__and2_1
*I *3307:X O *D sky130_fd_sc_hd__xor2_1
*CAP
1 *1951:B 5.75458e-05
2 *1952:B 0
3 *3307:X 0.00108231
4 *1451:12 0.00113985
5 *1951:A *1951:B 0.000240905
6 *1954:B1 *1451:12 0
7 *3147:A *1451:12 2.65105e-05
8 *3147:B *1451:12 1.92905e-05
9 *3148:A2 *1451:12 1.92789e-05
10 *132:8 *1951:B 0
11 *135:12 *1451:12 0
12 *1294:10 *1451:12 0.000749318
13 *1361:12 *1951:B 0.000126639
*RES
1 *3307:X *1451:12 33.5857 
2 *1451:12 *1952:B 9.3 
3 *1451:12 *1951:B 11.9071 
*END

*D_NET *1452 0.00101701
*CONN
*I *1959:B I *D sky130_fd_sc_hd__xor2_1
*I *1960:B I *D sky130_fd_sc_hd__and2_1
*I *3308:X O *D sky130_fd_sc_hd__a21o_1
*CAP
1 *1959:B 0
2 *1960:B 0.000106439
3 *3308:X 0.000105592
4 *1452:10 0.000212031
5 *1960:A *1960:B 0.000108082
6 *206:24 *1452:10 0.000167266
7 *1448:16 *1452:10 0.000317602
*RES
1 *3308:X *1452:10 22.3714 
2 *1452:10 *1960:B 11.4964 
3 *1452:10 *1959:B 9.3 
*END

*D_NET *1453 0.000753658
*CONN
*I *3311:A I *D sky130_fd_sc_hd__xor2_1
*I *3312:A1 I *D sky130_fd_sc_hd__a21o_1
*I *3309:X O *D sky130_fd_sc_hd__xor2_1
*CAP
1 *3311:A 6.92704e-05
2 *3312:A1 5.51189e-05
3 *3309:X 0.000163428
4 *1453:12 0.000287817
5 *3312:A2 *3311:A 6.56534e-05
6 *3312:A2 *3312:A1 5.52238e-05
7 *41:192 *1453:12 5.71472e-05
8 *42:80 *1453:12 0
9 *812:12 *1453:12 0
10 *1087:12 *1453:12 0
*RES
1 *3309:X *1453:12 21.0857 
2 *1453:12 *3312:A1 10.2464 
3 *1453:12 *3311:A 10.675 
*END

*D_NET *1454 0.000543387
*CONN
*I *3312:B1 I *D sky130_fd_sc_hd__a21o_1
*I *3310:X O *D sky130_fd_sc_hd__and2_1
*CAP
1 *3312:B1 0.000184707
2 *3310:X 0.000184707
3 *3312:B1 *1456:8 4.58194e-05
4 *18:59 *3312:B1 0.000128154
5 *25:74 *3312:B1 0
*RES
1 *3310:X *3312:B1 31.0107 
*END

*D_NET *1455 0.00758147
*CONN
*I *1962:B I *D sky130_fd_sc_hd__xor2_1
*I *1963:A2 I *D sky130_fd_sc_hd__a21o_1
*I *3311:X O *D sky130_fd_sc_hd__xor2_1
*CAP
1 *1962:B 0
2 *1963:A2 4.05491e-05
3 *3311:X 4.74148e-05
4 *1455:12 4.05491e-05
5 *1455:10 0.00206083
6 *1455:8 0.00210825
7 *1962:A *1963:A2 5.73295e-05
8 *1963:B1 *1455:10 0
9 *2019:A *1455:10 0
10 *2019:B *1455:10 0
11 *2467:B *1455:10 0.000150618
12 *2524:B *1455:10 0.000152333
13 *2643:A *1455:10 5.01876e-06
14 *2720:A *1455:10 0
15 *2722:B *1455:10 0
16 *2822:B *1455:10 0.000172134
17 *2823:B *1455:10 0.000346056
18 *3307:B *1455:10 0
19 *18:109 *1455:10 0.000257346
20 *31:218 *1455:10 0
21 *37:52 *1455:10 0.000321341
22 *42:74 *1455:10 0.000187733
23 *42:76 *1455:10 4.73656e-05
24 *42:80 *1455:10 0.000267814
25 *138:14 *1455:10 0.00116397
26 *140:12 *1455:10 5.57914e-05
27 *637:12 *1455:10 0
28 *691:10 *1455:10 0
29 *871:12 *1455:10 0
30 *983:10 *1455:10 0
31 *1361:12 *1963:A2 9.90367e-05
32 *1444:10 *1455:10 0
33 *1448:16 *1455:10 0
*RES
1 *3311:X *1455:8 14.3357 
2 *1455:8 *1455:10 48.0893 
3 *1455:10 *1455:12 4.5 
4 *1455:12 *1963:A2 10.675 
5 *1455:12 *1962:B 9.3 
*END

*D_NET *1456 0.00180968
*CONN
*I *1970:B I *D sky130_fd_sc_hd__xor2_1
*I *1971:A2 I *D sky130_fd_sc_hd__a21o_1
*I *3312:X O *D sky130_fd_sc_hd__a21o_1
*CAP
1 *1970:B 0
2 *1971:A2 9.98055e-05
3 *3312:X 0.000653469
4 *1456:8 0.000753274
5 *1970:A *1971:A2 0.000239879
6 *1970:A *1456:8 1.74352e-05
7 *3312:B1 *1456:8 4.58194e-05
*RES
1 *3312:X *1456:8 18.8893 
2 *1456:8 *1971:A2 11.9071 
3 *1456:8 *1970:B 9.3 
*END

*D_NET *1457 0.00179847
*CONN
*I *2937:A I *D sky130_fd_sc_hd__xor2_1
*I *2938:A I *D sky130_fd_sc_hd__and2_1
*I *2913:X O *D sky130_fd_sc_hd__or2_1
*CAP
1 *2937:A 8.23362e-05
2 *2938:A 0.000138298
3 *2913:X 0.000260573
4 *1457:10 0.000481208
5 *2937:B *2937:A 9.41642e-05
6 *2937:B *2938:A 1.98839e-05
7 *2938:B *2938:A 6.77527e-05
8 *34:89 *1457:10 0
9 *42:84 *1457:10 0.0005261
10 *571:10 *1457:10 0.000128154
*RES
1 *2913:X *1457:10 25.1036 
2 *1457:10 *2938:A 11.925 
3 *1457:10 *2937:A 10.6571 
*END

*D_NET *1458 0.00122454
*CONN
*I *2043:B I *D sky130_fd_sc_hd__xor2_1
*I *2044:B I *D sky130_fd_sc_hd__and2_1
*I *3314:X O *D sky130_fd_sc_hd__xor2_1
*CAP
1 *2043:B 4.05636e-05
2 *2044:B 0.000167061
3 *3314:X 0.000188895
4 *1458:8 0.000396519
5 *2043:A *2043:B 9.90431e-05
6 *2044:A *2044:B 7.7311e-05
7 *2044:A *1458:8 7.79781e-06
8 *2473:A *1458:8 9.24491e-05
9 *3315:A *1458:8 0.000127446
10 *3315:B *1458:8 0
11 *5:62 *2044:B 0
12 *5:62 *1458:8 0
13 *6:269 *1458:8 0
14 *13:116 *1458:8 2.74584e-05
15 *224:8 *2044:B 0
*RES
1 *3314:X *1458:8 18.175 
2 *1458:8 *2044:B 17.425 
3 *1458:8 *2043:B 14.7464 
*END

*D_NET *1459 0.00287526
*CONN
*I *1984:B I *D sky130_fd_sc_hd__xor2_1
*I *1985:B I *D sky130_fd_sc_hd__and2_1
*I *3315:X O *D sky130_fd_sc_hd__and2_1
*CAP
1 *1984:B 0
2 *1985:B 0.000106317
3 *3315:X 0.000700466
4 *1459:6 0.000806783
5 *1985:B *1462:12 0
6 *1984:A *1985:B 0.000176234
7 *1984:A *1459:6 5.52302e-05
8 *2338:B *1459:6 0.000273269
9 *2479:A *1459:6 0.000149489
10 *27:197 *1985:B 7.43578e-06
11 *34:136 *1459:6 0.000526414
12 *36:316 *1985:B 7.36267e-05
*RES
1 *3315:X *1459:6 23.8 
2 *1459:6 *1985:B 21.3893 
3 *1459:6 *1984:B 9.3 
*END

*D_NET *1460 0.00103493
*CONN
*I *3318:A I *D sky130_fd_sc_hd__xor2_1
*I *3319:A1 I *D sky130_fd_sc_hd__a21o_1
*I *3316:X O *D sky130_fd_sc_hd__xor2_1
*CAP
1 *3318:A 7.65943e-05
2 *3319:A1 0
3 *3316:X 0.000165921
4 *1460:12 0.000242516
5 *3318:A *1463:10 0.000181803
6 *2394:A *1460:12 1.90303e-05
7 *3319:A2 *3318:A 0.000123383
8 *5:109 *1460:12 0.000150618
9 *33:277 *1460:12 7.50601e-05
*RES
1 *3316:X *1460:12 21.1929 
2 *1460:12 *3319:A1 9.3 
3 *1460:12 *3318:A 11.925 
*END

*D_NET *1461 0.000644757
*CONN
*I *3319:B1 I *D sky130_fd_sc_hd__a21o_1
*I *3317:X O *D sky130_fd_sc_hd__and2_1
*CAP
1 *3319:B1 0.000248758
2 *3317:X 0.000248758
3 *3319:B1 *1463:10 5.33334e-05
4 *15:165 *3319:B1 9.39088e-05
5 *23:281 *3319:B1 0
*RES
1 *3317:X *3319:B1 32.5464 
*END

*D_NET *1462 0.00282363
*CONN
*I *2047:B I *D sky130_fd_sc_hd__xor2_1
*I *2048:B I *D sky130_fd_sc_hd__and2_1
*I *3318:X O *D sky130_fd_sc_hd__xor2_1
*CAP
1 *2047:B 0
2 *2048:B 0.000125439
3 *3318:X 0.000824541
4 *1462:12 0.00094998
5 *1984:A *1462:12 0
6 *1985:B *1462:12 0
7 *2047:A *2048:B 0.000170893
8 *2047:A *1462:12 5.33005e-05
9 *2427:A *1462:12 1.41029e-05
10 *2547:A *1462:12 0
11 *3:206 *1462:12 0
12 *16:58 *1462:12 0.000141722
13 *23:275 *2048:B 0
14 *23:275 *1462:12 0.000210583
15 *26:79 *1462:12 0
16 *27:197 *1462:12 0
17 *36:316 *2048:B 5.77261e-05
18 *36:316 *1462:12 0
19 *36:339 *1462:12 0.00012401
20 *168:14 *1462:12 0
21 *602:14 *1462:12 0.000151333
*RES
1 *3318:X *1462:12 35.9964 
2 *1462:12 *2048:B 21.3893 
3 *1462:12 *2047:B 9.3 
*END

*D_NET *1463 0.0042436
*CONN
*I *1989:B I *D sky130_fd_sc_hd__and2_1
*I *1988:B I *D sky130_fd_sc_hd__xor2_1
*I *3319:X O *D sky130_fd_sc_hd__a21o_1
*CAP
1 *1989:B 0
2 *1988:B 0.000117928
3 *3319:X 0.00124199
4 *1463:10 0.00135992
5 *1988:A *1988:B 0.000144773
6 *1989:A *1988:B 4.7194e-05
7 *1989:A *1463:10 0.00010096
8 *1991:B1 *1988:B 0.000188586
9 *2603:A *1463:10 2.89114e-05
10 *2603:B *1463:10 0.000270326
11 *2614:A *1463:10 2.89114e-05
12 *3269:A *1463:10 2.89114e-05
13 *3269:B *1463:10 0.000281078
14 *3318:A *1463:10 0.000181803
15 *3319:A2 *1463:10 1.02936e-05
16 *3319:B1 *1463:10 5.33334e-05
17 *28:184 *1463:10 6.25878e-05
18 *37:135 *1988:B 0
19 *602:14 *1463:10 9.60875e-05
*RES
1 *3319:X *1463:10 31.2286 
2 *1463:10 *1988:B 13.05 
3 *1463:10 *1989:B 9.3 
*END

*D_NET *1464 0.00320199
*CONN
*I *1986:B I *D sky130_fd_sc_hd__xor2_1
*I *1987:A2 I *D sky130_fd_sc_hd__a21o_1
*I *3320:X O *D sky130_fd_sc_hd__xor2_1
*CAP
1 *1986:B 0
2 *1987:A2 0.00014859
3 *3320:X 0.00101257
4 *1464:14 0.00116116
5 *1986:A *1987:A2 0.000125057
6 *3019:A1 *1464:14 0.000274288
7 *3119:B *1464:14 2.95726e-05
8 *3121:B1 *1464:14 0.00024424
9 *16:97 *1464:14 0.00010326
10 *36:58 *1464:14 0.00010326
*RES
1 *3320:X *1464:14 36.2107 
2 *1464:14 *1987:A2 12.3179 
3 *1464:14 *1986:B 9.3 
*END

*D_NET *1465 0.00351043
*CONN
*I *3329:B I *D sky130_fd_sc_hd__xor2_1
*I *3330:A2 I *D sky130_fd_sc_hd__a21o_1
*I *3321:X O *D sky130_fd_sc_hd__and2_1
*CAP
1 *3329:B 0.000288254
2 *3330:A2 2.13113e-05
3 *3321:X 0.000784198
4 *1465:6 0.00109376
5 *3329:B *1474:14 5.23735e-05
6 *2551:B *1465:6 0.000139861
7 *2554:B *1465:6 5.50052e-05
8 *2616:A *1465:6 9.75679e-05
9 *2616:B *1465:6 5.49995e-05
10 *35:75 *1465:6 0.000185403
11 *35:88 *1465:6 0.000185465
12 *168:16 *3329:B 7.69499e-05
13 *168:16 *1465:6 0.00021456
14 *770:10 *1465:6 0.000182799
15 *1266:10 *3329:B 7.79189e-05
*RES
1 *3321:X *1465:6 24.6214 
2 *1465:6 *3330:A2 9.72857 
3 *1465:6 *3329:B 24.1571 
*END

*D_NET *1466 0.000990078
*CONN
*I *3325:A I *D sky130_fd_sc_hd__xor2_1
*I *3326:A1 I *D sky130_fd_sc_hd__a21o_1
*I *3322:X O *D sky130_fd_sc_hd__xor2_1
*CAP
1 *3325:A 1.7838e-05
2 *3326:A1 9.36054e-05
3 *3322:X 8.99987e-05
4 *1466:8 0.000201442
5 *3326:A1 *1991:A2 0
6 *1990:A *3325:A 4.38128e-05
7 *1990:A *1466:8 5.52302e-05
8 *1991:B1 *1466:8 9.16074e-05
9 *3325:B *3325:A 7.43578e-06
10 *3325:B *3326:A1 0.000177234
11 *3325:B *1466:8 0
12 *7:68 *3326:A1 5.7599e-05
13 *17:103 *3326:A1 0
14 *169:10 *3326:A1 5.66157e-05
15 *169:10 *1466:8 9.7659e-05
*RES
1 *3322:X *1466:8 11.9071 
2 *1466:8 *3326:A1 21.1571 
3 *1466:8 *3325:A 9.83571 
*END

*D_NET *1467 0.000436444
*CONN
*I *3326:B1 I *D sky130_fd_sc_hd__a21o_1
*I *3323:X O *D sky130_fd_sc_hd__and2_1
*CAP
1 *3326:B1 4.09658e-05
2 *3323:X 4.09658e-05
3 *8:42 *3326:B1 0.000125057
4 *26:121 *3326:B1 0.000229456
*RES
1 *3323:X *3326:B1 20.7786 
*END

*D_NET *1468 0.00152149
*CONN
*I *3236:A I *D sky130_fd_sc_hd__xor2_1
*I *3237:A I *D sky130_fd_sc_hd__and2_1
*I *2924:X O *D sky130_fd_sc_hd__or2_1
*CAP
1 *3236:A 0.000138273
2 *3237:A 0.000452987
3 *2924:X 0.000314714
4 *2061:B *3237:A 2.06178e-05
5 *2127:A *3237:A 0
6 *2127:B *3237:A 0
7 *2802:B *3237:A 0.000270229
8 *3237:B *3236:A 0.000196066
9 *5:109 *3237:A 0
10 *5:122 *3237:A 0
11 *1084:14 *3236:A 2.9561e-05
12 *1381:8 *3236:A 0
13 *1382:14 *3236:A 9.90431e-05
*RES
1 *2924:X *3237:A 34.1 
2 *3237:A *3236:A 22.0464 
*END

*D_NET *1469 0.000917828
*CONN
*I *1990:B I *D sky130_fd_sc_hd__xor2_1
*I *1991:A2 I *D sky130_fd_sc_hd__a21o_1
*I *3325:X O *D sky130_fd_sc_hd__xor2_1
*CAP
1 *1990:B 5.36271e-05
2 *1991:A2 0.000176349
3 *3325:X 0
4 *1469:4 0.000229976
5 *1990:A *1990:B 4.87953e-05
6 *1991:A1 *1991:A2 5.71472e-05
7 *1991:B1 *1991:A2 0.000101545
8 *3326:A1 *1991:A2 0
9 *17:103 *1991:A2 0.000167313
10 *1089:18 *1991:A2 8.30753e-05
*RES
1 *3325:X *1469:4 9.3 
2 *1469:4 *1991:A2 22.7464 
3 *1469:4 *1990:B 10.2464 
*END

*D_NET *1470 0.00224126
*CONN
*I *3338:B I *D sky130_fd_sc_hd__xor2_1
*I *3339:A2 I *D sky130_fd_sc_hd__a21o_1
*I *3326:X O *D sky130_fd_sc_hd__a21o_1
*CAP
1 *3338:B 2.80081e-05
2 *3339:A2 8.67291e-05
3 *3326:X 0.000501324
4 *1470:14 0.000616061
5 *2552:B *3338:B 0.000139907
6 *2552:B *1470:14 9.71197e-05
7 *2553:B *3338:B 1.69961e-05
8 *2553:B *1470:14 5.33433e-05
9 *3337:B *3339:A2 5.53499e-05
10 *3337:B *1470:14 3.34366e-05
11 *3338:A *3338:B 9.71197e-05
12 *3338:A *3339:A2 0.000193125
13 *3338:A *1470:14 9.10431e-06
14 *8:42 *1470:14 0.000104328
15 *17:103 *1470:14 5.74562e-05
16 *26:121 *1470:14 0.000139907
17 *35:99 *1470:14 0
18 *35:116 *1470:14 0
19 *1392:8 *3339:A2 1.19402e-05
*RES
1 *3326:X *1470:14 26.2464 
2 *1470:14 *3339:A2 20.8536 
3 *1470:14 *3338:B 10.6571 
*END

*D_NET *1471 0.000832359
*CONN
*I *3329:A I *D sky130_fd_sc_hd__xor2_1
*I *3330:A1 I *D sky130_fd_sc_hd__a21o_1
*I *3327:X O *D sky130_fd_sc_hd__xor2_1
*CAP
1 *3329:A 0.000104058
2 *3330:A1 0.000231233
3 *3327:X 0.000335291
4 *3329:A *1473:8 0
5 *3330:A1 *3330:B1 7.78851e-05
6 *3327:A *3330:A1 3.69047e-06
7 *770:10 *3330:A1 8.02007e-05
*RES
1 *3327:X *3330:A1 31.3143 
2 *3327:X *3329:A 20.3857 
*END

*D_NET *1472 0.000717623
*CONN
*I *3330:B1 I *D sky130_fd_sc_hd__a21o_1
*I *3328:X O *D sky130_fd_sc_hd__and2_1
*CAP
1 *3330:B1 0.000120473
2 *3328:X 0.000120473
3 *3327:B *3330:B1 5.48581e-05
4 *3330:A1 *3330:B1 7.78851e-05
5 *770:10 *3330:B1 0
6 *1266:10 *3330:B1 0.000343934
*RES
1 *3328:X *3330:B1 31.975 
*END

*D_NET *1473 0.000754433
*CONN
*I *2052:A I *D sky130_fd_sc_hd__xor2_1
*I *2053:A I *D sky130_fd_sc_hd__and2_1
*I *3329:X O *D sky130_fd_sc_hd__xor2_1
*CAP
1 *2052:A 6.12882e-05
2 *2053:A 7.10692e-05
3 *3329:X 6.50838e-05
4 *1473:8 0.000197441
5 *2053:A *1474:14 0.000198698
6 *2052:B *2053:A 0.000153054
7 *2054:A *1473:8 0
8 *2054:B *2053:A 7.79781e-06
9 *3329:A *1473:8 0
10 *235:10 *2053:A 0
*RES
1 *3329:X *1473:8 10.2643 
2 *1473:8 *2053:A 20.8536 
3 *1473:8 *2052:A 10.2464 
*END

*D_NET *1474 0.0041038
*CONN
*I *1995:B I *D sky130_fd_sc_hd__xor2_1
*I *1996:A2 I *D sky130_fd_sc_hd__a21o_1
*I *3330:X O *D sky130_fd_sc_hd__a21o_1
*CAP
1 *1995:B 4.26987e-05
2 *1996:A2 0.000109958
3 *3330:X 0.00130286
4 *1474:14 0.00145552
5 *1996:A2 *1993:B 0
6 *1474:14 *1993:B 5.71472e-05
7 *1474:14 *1475:10 4.1331e-06
8 *1993:A *1996:A2 0
9 *1993:A *1474:14 2.44318e-05
10 *1995:A *1995:B 5.52238e-05
11 *1995:A *1996:A2 0.000177227
12 *1996:B1 *1995:B 1.39841e-05
13 *1996:B1 *1474:14 5.41494e-05
14 *2053:A *1474:14 0.000198698
15 *2054:B *1474:14 0
16 *3038:A *1474:14 0.00015304
17 *3039:A2 *1474:14 3.37687e-05
18 *3329:B *1474:14 5.23735e-05
19 *3332:A *1474:14 0
20 *3332:B *1474:14 0
21 *168:16 *1474:14 0.000315158
22 *171:10 *1474:14 0
23 *1173:10 *1474:14 4.16114e-05
24 *1177:14 *1996:A2 1.18064e-05
25 *1266:10 *1474:14 0
26 *1389:10 *1996:A2 0
*RES
1 *3330:X *1474:14 43.9964 
2 *1474:14 *1996:A2 20.8536 
3 *1474:14 *1995:B 10.2464 
*END

*D_NET *1475 0.000959744
*CONN
*I *3333:A I *D sky130_fd_sc_hd__xor2_1
*I *3334:A1 I *D sky130_fd_sc_hd__a21o_1
*I *3331:X O *D sky130_fd_sc_hd__xor2_1
*CAP
1 *3333:A 8.06676e-05
2 *3334:A1 0.00010271
3 *3331:X 0.000128928
4 *1475:10 0.000312306
5 *1475:10 *3334:B1 0
6 *3332:A *1475:10 0
7 *3333:B *3333:A 0.000109466
8 *3333:B *3334:A1 0.000186662
9 *90:10 *3333:A 1.74352e-05
10 *90:10 *3334:A1 1.74352e-05
11 *1474:14 *1475:10 4.1331e-06
*RES
1 *3331:X *1475:10 20.55 
2 *1475:10 *3334:A1 11.4786 
3 *1475:10 *3333:A 11.0857 
*END

*D_NET *1476 0.000852717
*CONN
*I *3334:B1 I *D sky130_fd_sc_hd__a21o_1
*I *3332:X O *D sky130_fd_sc_hd__and2_1
*CAP
1 *3334:B1 0.000171224
2 *3332:X 0.000171224
3 *3332:A *3334:B1 6.8646e-06
4 *3332:B *3334:B1 0.000126439
5 *171:10 *3334:B1 5.52302e-05
6 *891:12 *3334:B1 4.1331e-06
7 *1095:10 *3334:B1 0.000317602
8 *1475:10 *3334:B1 0
*RES
1 *3332:X *3334:B1 32.2071 
*END

*D_NET *1477 0.000882059
*CONN
*I *1992:B I *D sky130_fd_sc_hd__xor2_1
*I *1993:B I *D sky130_fd_sc_hd__and2_1
*I *3333:X O *D sky130_fd_sc_hd__xor2_1
*CAP
1 *1992:B 0
2 *1993:B 0.000149572
3 *3333:X 6.54139e-05
4 *1477:6 0.000214986
5 *1993:A *1993:B 0.000185098
6 *1996:A2 *1993:B 0
7 *90:10 *1477:6 0.000186662
8 *1389:10 *1993:B 2.31791e-05
9 *1474:14 *1993:B 5.71472e-05
*RES
1 *3333:X *1477:6 11.0679 
2 *1477:6 *1993:B 21.3893 
3 *1477:6 *1992:B 9.3 
*END

*D_NET *1478 0.00191832
*CONN
*I *3345:B I *D sky130_fd_sc_hd__and2_1
*I *3344:B I *D sky130_fd_sc_hd__xor2_1
*I *3334:X O *D sky130_fd_sc_hd__a21o_1
*CAP
1 *3345:B 0.000115586
2 *3344:B 0
3 *3334:X 0.000451378
4 *1478:10 0.000566965
5 *3345:A *3345:B 0.000151984
6 *3348:B1 *1478:10 0
7 *90:10 *1478:10 0.000357952
8 *100:12 *3345:B 0.000104818
9 *100:12 *1478:10 7.85777e-05
10 *891:12 *1478:10 9.10569e-05
11 *1095:10 *3345:B 0
12 *1095:10 *1478:10 0
*RES
1 *3334:X *1478:10 21.5857 
2 *1478:10 *3344:B 13.8 
3 *1478:10 *3345:B 16.8893 
*END
