*SPEF "ieee 1481-1999"
*DESIGN "full_eff"
*DATE "15:04:22 Sunday September 06, 2026"
*VENDOR "The OpenROAD Project"
*PROGRAM "OpenROAD"
*VERSION "dcf36133a369abc8f3c5e5738cd4d82e4903c0e0"
*DESIGN_FLOW "NAME_SCOPE LOCAL" "PIN_CAP NONE"
*DIVIDER /
*DELIMITER :
*BUS_DELIMITER []
*T_UNIT 1 NS
*C_UNIT 1 PF
*R_UNIT 1 OHM
*L_UNIT 1 HENRY

*NAME_MAP
*3 a[0]
*4 a[1]
*5 a[2]
*6 a[3]
*7 b[0]
*8 b[1]
*9 b[2]
*10 b[3]
*11 p[0]
*12 p[1]
*13 p[2]
*14 p[3]
*15 p[4]
*16 p[5]
*17 p[6]
*18 p[7]
*19 n10
*20 n100
*21 n101
*22 n102
*23 n103
*24 n104
*25 n106
*26 n107
*27 n108
*28 n109
*29 n11
*30 n110
*31 n111
*32 n112
*33 n113
*34 n115
*35 n116
*36 n117
*37 n118
*38 n119
*39 n12
*40 n120
*41 n121
*42 n122
*43 n125
*44 n126
*45 n127
*46 n128
*47 n129
*48 n13
*49 n14
*50 n15
*51 n16
*52 n17
*53 n18
*54 n19
*55 n20
*56 n21
*57 n22
*58 n23
*59 n24
*60 n25
*61 n26
*62 n27
*63 n28
*64 n29
*65 n30
*66 n31
*67 n32
*68 n33
*69 n34
*70 n35
*71 n36
*72 n37
*73 n38
*74 n39
*75 n40
*76 n41
*77 n42
*78 n44
*79 n45
*80 n46
*81 n47
*82 n48
*83 n49
*84 n50
*85 n51
*86 n52
*87 n53
*88 n54
*89 n55
*90 n56
*91 n57
*92 n58
*93 n59
*94 n60
*95 n61
*96 n62
*97 n63
*98 n64
*99 n65
*100 n66
*101 n67
*102 n68
*103 n69
*104 n70
*105 n72
*106 n73
*107 n74
*108 n75
*109 n76
*110 n77
*111 n78
*112 n79
*113 n8
*114 n80
*115 n81
*116 n82
*117 n83
*118 n84
*119 n85
*120 n86
*121 n87
*122 n88
*123 n89
*124 n90
*125 n91
*126 n92
*127 n93
*128 n94
*129 n95
*130 n97
*131 n98
*132 n99
*133 PHY_EDGE_ROW_0_Left_13
*134 PHY_EDGE_ROW_0_Right_0
*135 PHY_EDGE_ROW_10_Left_23
*136 PHY_EDGE_ROW_10_Right_10
*137 PHY_EDGE_ROW_11_Left_24
*138 PHY_EDGE_ROW_11_Right_11
*139 PHY_EDGE_ROW_12_Left_25
*140 PHY_EDGE_ROW_12_Right_12
*141 PHY_EDGE_ROW_1_Left_14
*142 PHY_EDGE_ROW_1_Right_1
*143 PHY_EDGE_ROW_2_Left_15
*144 PHY_EDGE_ROW_2_Right_2
*145 PHY_EDGE_ROW_3_Left_16
*146 PHY_EDGE_ROW_3_Right_3
*147 PHY_EDGE_ROW_4_Left_17
*148 PHY_EDGE_ROW_4_Right_4
*149 PHY_EDGE_ROW_5_Left_18
*150 PHY_EDGE_ROW_5_Right_5
*151 PHY_EDGE_ROW_6_Left_19
*152 PHY_EDGE_ROW_6_Right_6
*153 PHY_EDGE_ROW_7_Left_20
*154 PHY_EDGE_ROW_7_Right_7
*155 PHY_EDGE_ROW_8_Left_21
*156 PHY_EDGE_ROW_8_Right_8
*157 PHY_EDGE_ROW_9_Left_22
*158 PHY_EDGE_ROW_9_Right_9
*159 TAP_TAPCELL_ROW_0_26
*160 TAP_TAPCELL_ROW_0_27
*161 TAP_TAPCELL_ROW_10_37
*162 TAP_TAPCELL_ROW_11_38
*163 TAP_TAPCELL_ROW_12_39
*164 TAP_TAPCELL_ROW_12_40
*165 TAP_TAPCELL_ROW_1_28
*166 TAP_TAPCELL_ROW_2_29
*167 TAP_TAPCELL_ROW_3_30
*168 TAP_TAPCELL_ROW_4_31
*169 TAP_TAPCELL_ROW_5_32
*170 TAP_TAPCELL_ROW_6_33
*171 TAP_TAPCELL_ROW_7_34
*172 TAP_TAPCELL_ROW_8_35
*173 TAP_TAPCELL_ROW_9_36
*174 g0
*175 g1
*176 g10
*177 g100
*178 g101
*179 g102
*180 g103
*181 g104
*182 g105
*183 g106
*184 g107
*185 g108
*186 g109
*187 g11
*188 g110
*189 g111
*190 g112
*191 g113
*192 g114
*193 g115
*194 g116
*195 g117
*196 g118
*197 g119
*198 g12
*199 g120
*200 g121
*201 g13
*202 g14
*203 g15
*204 g16
*205 g17
*206 g18
*207 g19
*208 g2
*209 g20
*210 g21
*211 g22
*212 g23
*213 g24
*214 g25
*215 g26
*216 g27
*217 g28
*218 g29
*219 g3
*220 g30
*221 g31
*222 g32
*223 g33
*224 g34
*225 g35
*226 g36
*227 g37
*228 g38
*229 g39
*230 g4
*231 g40
*232 g41
*233 g42
*234 g43
*235 g44
*236 g45
*237 g46
*238 g47
*239 g48
*240 g49
*241 g5
*242 g50
*243 g51
*244 g52
*245 g53
*246 g54
*247 g55
*248 g56
*249 g57
*250 g58
*251 g59
*252 g6
*253 g60
*254 g61
*255 g62
*256 g63
*257 g64
*258 g65
*259 g66
*260 g67
*261 g68
*262 g69
*263 g7
*264 g70
*265 g71
*266 g72
*267 g73
*268 g74
*269 g75
*270 g76
*271 g77
*272 g78
*273 g79
*274 g8
*275 g80
*276 g81
*277 g82
*278 g83
*279 g84
*280 g85
*281 g86
*282 g87
*283 g88
*284 g89
*285 g9
*286 g90
*287 g91
*288 g92
*289 g93
*290 g94
*291 g95
*292 g96
*293 g97
*294 g98
*295 g99

*PORTS
a[0] I
a[1] I
a[2] I
a[3] I
b[0] I
b[1] I
b[2] I
b[3] I
p[0] O
p[1] O
p[2] O
p[3] O
p[4] O
p[5] O
p[6] O
p[7] O

*D_NET *3 0.00504069
*CONN
*P a[0] I
*I *252:A I *D sky130_fd_sc_hd__nand2_1
*I *230:A I *D sky130_fd_sc_hd__nand2_4
*I *174:A I *D sky130_fd_sc_hd__nand2_1
*I *208:A I *D sky130_fd_sc_hd__nand2_1
*CAP
1 a[0] 0.000456886
2 *252:A 0.000238488
3 *230:A 2.22847e-05
4 *174:A 2.06808e-05
5 *208:A 0.000126559
6 *3:39 0.000580621
7 *3:17 0.000287599
8 *3:9 0.000917094
9 *174:A *175:A 5.7661e-06
10 *174:A *274:A 2.47631e-06
11 *208:A *175:A 2.27416e-05
12 *208:A *208:B 0.000293038
13 *208:A *274:A 2.65105e-05
14 *208:A *285:A 8.28621e-05
15 *208:A *52:8 4.40835e-05
16 *252:A *241:A 5.25774e-05
17 *252:A *252:B 5.7661e-06
18 *252:A *4:24 9.96243e-05
19 *3:9 p[0] 0.000688069
20 *3:9 *176:A 1.08359e-05
21 *3:9 *187:A 0.000200406
22 *3:17 p[0] 0.000236244
23 *3:17 *175:A 7.93358e-05
24 *3:17 *176:B 0.000197945
25 *3:17 *187:A 5.52238e-05
26 *3:17 *274:A 1.08059e-05
27 *3:17 *4:24 1.98839e-05
28 *3:39 *176:A 1.31516e-05
29 *3:39 *187:A 8.50152e-05
30 *3:39 *4:24 8.23804e-05
31 *3:39 *54:16 7.57312e-05
*RES
1 a[0] *3:9 13.8036 
2 *3:9 *3:17 9.58929 
3 *3:17 *208:A 13.55 
4 *3:17 *174:A 9.72857 
5 *3:9 *3:39 10.2857 
6 *3:39 *230:A 9.72857 
7 *3:39 *252:A 13.9607 
*END

*D_NET *4 0.00700237
*CONN
*P a[1] I
*I *176:A I *D sky130_fd_sc_hd__nand2_2
*I *202:A I *D sky130_fd_sc_hd__nand2_1
*I *198:A I *D sky130_fd_sc_hd__nand2_1
*I *274:A I *D sky130_fd_sc_hd__nand2_1
*CAP
1 a[1] 0.000492438
2 *176:A 5.23204e-05
3 *202:A 0.000189391
4 *198:A 7.07529e-05
5 *274:A 0.000368349
6 *4:24 0.00142537
7 *4:11 0.00153358
8 *4:9 0.000544759
9 *176:A p[0] 3.17148e-05
10 *198:A *198:B 6.8646e-06
11 *198:A *201:A 7.6644e-05
12 *198:A *237:A 0.00012401
13 *202:A *201:A 7.90803e-05
14 *202:A *237:A 7.22594e-05
15 *202:A *252:B 9.95937e-05
16 *202:A *9:11 0
17 *202:A *10:11 9.25014e-06
18 *274:A p[0] 0.00020562
19 *274:A *175:A 0.000151406
20 *274:A *285:A 1.3701e-05
21 *4:9 p[0] 0.000577604
22 *4:24 p[0] 5.33005e-05
23 *4:24 *187:A 1.21258e-05
24 *4:24 *237:A 1.21258e-05
25 *4:24 *238:B 2.44318e-05
26 *4:24 *240:A 2.87555e-06
27 *4:24 *241:A 5.25774e-05
28 *4:24 *252:B 0.000355009
29 *4:24 *263:A 1.32552e-05
30 *4:24 *54:16 7.38537e-05
31 *4:24 *56:8 1.24368e-05
32 *174:A *274:A 2.47631e-06
33 *208:A *274:A 2.65105e-05
34 *252:A *4:24 9.96243e-05
35 *3:9 *176:A 1.08359e-05
36 *3:17 *274:A 1.08059e-05
37 *3:17 *4:24 1.98839e-05
38 *3:39 *176:A 1.31516e-05
39 *3:39 *4:24 8.23804e-05
*RES
1 a[1] *4:9 13.1964 
2 *4:9 *4:11 4.5 
3 *4:11 *274:A 14.9786 
4 *4:11 *4:24 19.8214 
5 *4:24 *198:A 15.7464 
6 *4:24 *202:A 17.4964 
7 *4:9 *176:A 14.8357 
*END

*D_NET *5 0.00568315
*CONN
*P a[2] I
*I *211:A I *D sky130_fd_sc_hd__nand2_1
*I *209:A I *D sky130_fd_sc_hd__nand2_1
*I *206:A I *D sky130_fd_sc_hd__nand2_1
*I *204:A I *D sky130_fd_sc_hd__nand2_1
*CAP
1 a[2] 0.000556086
2 *211:A 8.96399e-05
3 *209:A 2.05717e-05
4 *206:A 0
5 *204:A 0.000345308
6 *5:27 0.000914232
7 *5:19 0.00115133
8 *5:5 0.00120756
9 *204:A *206:B 0.000141941
10 *204:A *255:B 2.87077e-05
11 *204:A *7:32 0.000201539
12 *209:A *209:B 5.38444e-06
13 *211:A *220:B 5.54817e-06
14 *211:A *251:A 9.20733e-05
15 *211:A *10:45 0.000203876
16 *211:A *101:12 6.35274e-05
17 *5:5 *10:7 0
18 *5:19 *209:B 2.14658e-05
19 *5:19 *210:A 7.61932e-05
20 *5:19 *248:A 1.49188e-05
21 *5:19 *248:B 6.9276e-05
22 *5:19 *250:A 3.29959e-05
23 *5:19 *250:B 6.36036e-05
24 *5:19 *9:11 0
25 *5:19 *96:23 4.9071e-05
26 *5:27 *209:B 5.58005e-05
27 *5:27 *210:A 3.18676e-05
28 *5:27 *245:A 1.54969e-05
29 *5:27 *245:B 9.83442e-05
30 *5:27 *8:24 0
31 *5:27 *95:10 0.000126792
*RES
1 a[2] *5:5 1.645 
2 *5:5 *5:19 16.6107 
3 *5:19 *5:27 19.8929 
4 *5:27 *204:A 16.4429 
5 *5:27 *206:A 9.3 
6 *5:19 *209:A 9.72857 
7 *5:5 *211:A 20.5225 
*END

*D_NET *6 0.00569907
*CONN
*P a[3] I
*I *213:A I *D sky130_fd_sc_hd__nand2_1
*I *220:A I *D sky130_fd_sc_hd__nand2_1
*I *217:A I *D sky130_fd_sc_hd__nand2_1
*I *215:A I *D sky130_fd_sc_hd__nand2_1
*CAP
1 a[3] 0.000279445
2 *213:A 0
3 *220:A 0.000364665
4 *217:A 1.90348e-05
5 *215:A 0
6 *6:46 0.000858268
7 *6:29 0.000963633
8 *6:15 0.000768509
9 *220:A *217:B 0.000141807
10 *220:A *220:B 1.92535e-05
11 *220:A *277:B 5.66971e-05
12 *220:A *278:A 0.000232399
13 *220:A *279:B 4.84159e-05
14 *220:A *122:14 2.47593e-05
15 *6:15 p[3] 0.000480626
16 *6:15 *214:A 1.84336e-05
17 *6:15 *283:A 0
18 *6:15 *7:5 0.000369591
19 *6:29 p[3] 0.000100165
20 *6:29 *215:B 0.000144205
21 *6:29 *258:C 0.000141941
22 *6:29 *283:A 5.66971e-05
23 *6:29 *283:B 0.000141036
24 *6:29 *106:14 4.77002e-05
25 *6:46 *267:A 1.11823e-05
26 *6:46 *267:B 5.49995e-05
27 *6:46 *268:A 5.49489e-05
28 *6:46 *268:B 0.000113614
29 *6:46 *116:16 0.000187042
*RES
1 a[3] *6:15 11.9047 
2 *6:15 *6:29 19.3393 
3 *6:29 *215:A 9.3 
4 *6:29 *6:46 9.875 
5 *6:46 *217:A 9.72857 
6 *6:46 *220:A 17.2464 
7 *6:15 *213:A 9.3 
*END

*D_NET *7 0.00429639
*CONN
*P b[0] I
*I *204:B I *D sky130_fd_sc_hd__nand2_1
*I *174:B I *D sky130_fd_sc_hd__nand2_1
*I *274:B I *D sky130_fd_sc_hd__nand2_1
*I *213:B I *D sky130_fd_sc_hd__nand2_1
*CAP
1 b[0] 0.000152239
2 *204:B 0
3 *174:B 9.51988e-05
4 *274:B 0
5 *213:B 1.41253e-05
6 *7:32 0.000767712
7 *7:24 0.00117134
8 *7:5 0.000665187
9 *174:B *208:B 2.4595e-05
10 *213:B p[3] 1.01912e-05
11 *7:5 *8:7 0.000389403
12 *7:24 p[3] 0
13 *7:24 *256:A 8.53251e-05
14 *7:24 *258:C 0
15 *7:24 *283:A 4.65158e-06
16 *7:24 *283:B 1.90936e-05
17 *7:24 *8:7 0.000154161
18 *7:24 *102:26 3.67279e-06
19 *7:32 *205:A 3.13637e-05
20 *7:32 *208:B 9.87983e-06
21 *7:32 *223:A 0
22 *7:32 *235:B 0
23 *7:32 *253:B 1.24368e-05
24 *7:32 *255:A 2.10446e-05
25 *7:32 *255:B 8.10737e-06
26 *7:32 *8:24 0
27 *7:32 *78:12 5.56943e-05
28 *7:32 *102:26 2.98475e-05
29 *204:A *7:32 0.000201539
30 *6:15 *7:5 0.000369591
*RES
1 b[0] *7:5 1.09353 
2 *7:5 *213:B 17.4868 
3 *7:5 *7:24 13.5954 
4 *7:24 *7:32 17.0536 
5 *7:32 *274:B 13.8 
6 *7:32 *174:B 15.1571 
7 *7:24 *204:B 9.3 
*END

*D_NET *8 0.0064504
*CONN
*P b[1] I
*I *206:B I *D sky130_fd_sc_hd__nand2_1
*I *176:B I *D sky130_fd_sc_hd__nand2_2
*I *208:B I *D sky130_fd_sc_hd__nand2_1
*I *215:B I *D sky130_fd_sc_hd__nand2_1
*CAP
1 b[1] 0.000837209
2 *206:B 5.54113e-05
3 *176:B 0.000163156
4 *208:B 0.000378571
5 *215:B 0.000217155
6 *8:24 0.00106342
7 *8:22 0.000802288
8 *8:7 0.00127955
9 *208:B *52:8 4.52936e-05
10 *215:B *258:B 0
11 *215:B *258:C 0
12 *8:7 p[2] 0
13 *8:22 *258:B 0
14 *8:22 *258:C 0
15 *8:24 *231:A 0
16 *8:24 *231:B 0
17 *8:24 *235:A 0.000127446
18 *8:24 *235:B 0.000125731
19 *8:24 *78:12 0
20 *174:B *208:B 2.4595e-05
21 *204:A *206:B 0.000141941
22 *208:A *208:B 0.000293038
23 *3:17 *176:B 0.000197945
24 *5:27 *8:24 0
25 *6:29 *215:B 0.000144205
26 *7:5 *8:7 0.000389403
27 *7:24 *8:7 0.000154161
28 *7:32 *208:B 9.87983e-06
29 *7:32 *8:24 0
*RES
1 b[1] *8:7 5.8728 
2 *8:7 *215:B 18.1839 
3 *8:7 *8:22 3.91964 
4 *8:22 *8:24 9.08036 
5 *8:24 *208:B 19.9875 
6 *8:24 *176:B 16.5768 
7 *8:22 *206:B 15.1571 
*END

*D_NET *9 0.00691108
*CONN
*P b[2] I
*I *217:B I *D sky130_fd_sc_hd__nand2_1
*I *209:B I *D sky130_fd_sc_hd__nand2_1
*I *230:B I *D sky130_fd_sc_hd__nand2_4
*I *198:B I *D sky130_fd_sc_hd__nand2_1
*CAP
1 b[2] 0.000642529
2 *217:B 0.000575577
3 *209:B 6.92718e-05
4 *230:B 0.00010308
5 *198:B 0.000253285
6 *9:43 0.000909486
7 *9:32 0.000876377
8 *9:11 0.00140447
9 *198:B *237:A 0.000120832
10 *198:B *237:B 9.03638e-05
11 *198:B *240:A 3.69697e-05
12 *198:B *246:A 0
13 *198:B *252:B 0.000168939
14 *209:B *245:A 8.99655e-05
15 *217:B *210:A 6.23278e-05
16 *217:B *261:A 0.000174544
17 *217:B *269:A 0.000129173
18 *217:B *108:8 0.000127939
19 *230:B *246:A 0
20 *230:B *88:10 0
21 *9:11 *203:A 0
22 *9:11 *240:A 2.72545e-05
23 *9:11 *246:A 0
24 *9:11 *252:B 3.34366e-05
25 *9:11 *10:7 0.000564027
26 *9:11 *10:11 0
27 *9:32 *240:B 2.59355e-05
28 *9:32 *91:12 3.56482e-05
29 *9:43 *236:A 0
30 *9:43 *243:A 5.58941e-05
31 *9:43 *245:A 4.75715e-05
32 *9:43 *246:A 0
33 *9:43 *91:12 5.48581e-05
34 *198:A *198:B 6.8646e-06
35 *202:A *9:11 0
36 *209:A *209:B 5.38444e-06
37 *220:A *217:B 0.000141807
38 *5:19 *209:B 2.14658e-05
39 *5:19 *9:11 0
40 *5:27 *209:B 5.58005e-05
*RES
1 b[2] *9:11 8.2087 
2 *9:11 *198:B 19.3714 
3 *9:11 *9:32 14.875 
4 *9:32 *230:B 15.4429 
5 *9:32 *9:43 5.28571 
6 *9:43 *209:B 15.5857 
7 *9:43 *217:B 25.9607 
*END

*D_NET *10 0.0057722
*CONN
*P b[3] I
*I *220:B I *D sky130_fd_sc_hd__nand2_1
*I *211:B I *D sky130_fd_sc_hd__nand2_1
*I *202:B I *D sky130_fd_sc_hd__nand2_1
*I *252:B I *D sky130_fd_sc_hd__nand2_1
*CAP
1 b[3] 0.000356951
2 *220:B 0.000365604
3 *211:B 0
4 *202:B 0
5 *252:B 0.000352505
6 *10:45 0.000819001
7 *10:11 0.000496043
8 *10:7 0.000953885
9 *220:B *279:A 0.000219764
10 *220:B *279:B 4.13389e-05
11 *252:B *237:A 2.61337e-05
12 *252:B *238:B 0.000236367
13 *252:B *263:A 5.04589e-05
14 *10:11 *203:A 0.000149762
15 *10:11 *96:12 0
16 *10:45 *250:B 0.000149843
17 *10:45 *251:A 2.65774e-05
18 *10:45 *58:12 6.32633e-05
19 *10:45 *96:12 0
20 *198:B *252:B 0.000168939
21 *202:A *252:B 9.95937e-05
22 *202:A *10:11 9.25014e-06
23 *211:A *220:B 5.54817e-06
24 *211:A *10:45 0.000203876
25 *220:A *220:B 1.92535e-05
26 *252:A *252:B 5.7661e-06
27 *4:24 *252:B 0.000355009
28 *5:5 *10:7 0
29 *9:11 *252:B 3.34366e-05
30 *9:11 *10:7 0.000564027
31 *9:11 *10:11 0
*RES
1 b[3] *10:7 4.98293 
2 *10:7 *10:11 7.50893 
3 *10:11 *252:B 27.1929 
4 *10:11 *202:B 9.3 
5 *10:7 *10:45 8.6875 
6 *10:45 *211:B 13.8 
7 *10:45 *220:B 20.4607 
*END

*D_NET *11 0.00238138
*CONN
*P p[0] O
*I *175:Y O *D sky130_fd_sc_hd__inv_1
*CAP
1 p[0] 0.000294414
2 *175:Y 0.000294414
3 *176:A p[0] 3.17148e-05
4 *274:A p[0] 0.00020562
5 *3:9 p[0] 0.000688069
6 *3:17 p[0] 0.000236244
7 *4:9 p[0] 0.000577604
8 *4:24 p[0] 5.33005e-05
*RES
1 *175:Y p[0] 29.0232 
*END

*D_NET *12 0.000812445
*CONN
*P p[1] O
*I *225:Y O *D sky130_fd_sc_hd__nand2_1
*CAP
1 p[1] 0.000394852
2 *225:Y 0.000394852
3 p[1] p[2] 0
4 p[1] *225:A 2.27416e-05
*RES
1 *225:Y p[1] 22.1639 
*END

*D_NET *13 0.00153128
*CONN
*P p[2] O
*I *256:Y O *D sky130_fd_sc_hd__nand2_1
*CAP
1 p[2] 0.000622702
2 *256:Y 0.000622702
3 p[2] *256:A 0.000206934
4 p[2] *256:B 7.89362e-05
5 p[1] p[2] 0
6 *8:7 p[2] 0
*RES
1 *256:Y p[2] 21.2972 
*END

*D_NET *14 0.00160485
*CONN
*P p[3] O
*I *283:Y O *D sky130_fd_sc_hd__nand2_1
*CAP
1 p[3] 0.000506932
2 *283:Y 0.000506932
3 p[3] *214:A 0
4 *213:B p[3] 1.01912e-05
5 *6:15 p[3] 0.000480626
6 *6:29 p[3] 0.000100165
7 *7:24 p[3] 0
*RES
1 *283:Y p[3] 24.0612 
*END

*D_NET *15 0.000854937
*CONN
*P p[4] O
*I *293:Y O *D sky130_fd_sc_hd__nand2_1
*CAP
1 p[4] 0.000423751
2 *293:Y 0.000423751
3 p[4] *293:A 7.43578e-06
*RES
1 *293:Y p[4] 21.3794 
*END

*D_NET *16 0.0017954
*CONN
*P p[5] O
*I *183:Y O *D sky130_fd_sc_hd__nand2_1
*CAP
1 p[5] 0.000854401
2 *183:Y 0.000854401
3 p[5] *183:A 7.83587e-05
4 p[5] *183:B 0
5 p[5] *195:B 8.23597e-06
6 p[5] *294:A 0
7 p[5] *30:12 0
*RES
1 *183:Y p[5] 29.8536 
*END

*D_NET *17 0.00185338
*CONN
*P p[6] O
*I *193:Y O *D sky130_fd_sc_hd__nand2_2
*CAP
1 p[6] 0.000797348
2 *193:Y 0.000797348
3 p[6] p[7] 0
4 p[6] *190:B 8.36572e-05
5 p[6] *192:B 5.52302e-05
6 p[6] *193:A 3.14078e-05
7 p[6] *193:B 1.88048e-05
8 p[6] *34:6 1.24368e-05
9 p[6] *40:25 5.71472e-05
*RES
1 *193:Y p[6] 29.7464 
*END

*D_NET *18 0.00179013
*CONN
*P p[7] O
*I *194:Y O *D sky130_fd_sc_hd__nand2_1
*CAP
1 p[7] 0.000816269
2 *194:Y 0.000816269
3 p[7] *193:A 0.00010096
4 p[7] *194:B 2.89114e-05
5 p[7] *38:8 2.77173e-05
6 p[6] p[7] 0
*RES
1 *194:Y p[7] 28.9429 
*END

*D_NET *19 0.000374347
*CONN
*I *219:A I *D sky130_fd_sc_hd__inv_1
*I *208:Y O *D sky130_fd_sc_hd__nand2_1
*CAP
1 *219:A 0.00017317
2 *208:Y 0.00017317
3 *219:A *29:10 2.80081e-05
*RES
1 *208:Y *219:A 30.6045 
*END

*D_NET *20 0.000232104
*CONN
*I *289:B I *D sky130_fd_sc_hd__nand2_1
*I *288:Y O *D sky130_fd_sc_hd__nand2_1
*CAP
1 *289:B 2.96894e-05
2 *288:Y 2.96894e-05
3 *289:B *288:A 4.22908e-05
4 *289:B *288:B 0.000110665
5 *289:B *289:A 1.97695e-05
*RES
1 *288:Y *289:B 19.975 
*END

*D_NET *21 0.00139419
*CONN
*I *290:A I *D sky130_fd_sc_hd__nand2_1
*I *291:A I *D sky130_fd_sc_hd__nand2_1
*I *289:Y O *D sky130_fd_sc_hd__nand2_1
*CAP
1 *290:A 0.000141274
2 *291:A 0.00020318
3 *289:Y 6.5717e-05
4 *21:8 0.000410171
5 *290:A *292:A 0
6 *290:A *294:A 2.01767e-05
7 *290:A *294:B 0.000186662
8 *290:A *130:10 0
9 *291:A *293:A 3.99614e-06
10 *291:A *293:B 0
11 *291:A *294:B 0.000274288
12 *291:A *22:22 3.53387e-05
13 *21:8 *294:A 5.33882e-05
14 *21:8 *130:10 0
*RES
1 *289:Y *21:8 15.1393 
2 *21:8 *291:A 17.9429 
3 *21:8 *290:A 16.9607 
*END

*D_NET *22 0.00104531
*CONN
*I *291:B I *D sky130_fd_sc_hd__nand2_1
*I *292:B I *D sky130_fd_sc_hd__nand2_1
*I *294:B I *D sky130_fd_sc_hd__nand2_1
*I *290:Y O *D sky130_fd_sc_hd__nand2_1
*CAP
1 *291:B 0
2 *292:B 8.72612e-06
3 *294:B 7.99584e-05
4 *290:Y 0.00014761
5 *22:22 7.63772e-05
6 *292:B *292:A 2.44318e-05
7 *292:B *293:A 3.18676e-05
8 *294:B *25:8 0
9 *22:22 *292:A 0.000162619
10 *22:22 *293:A 1.74352e-05
11 *290:A *294:B 0.000186662
12 *291:A *294:B 0.000274288
13 *291:A *22:22 3.53387e-05
*RES
1 *290:Y *294:B 21.6179 
2 *290:Y *22:22 11.4964 
3 *22:22 *292:B 9.83571 
4 *22:22 *291:B 9.3 
*END

*D_NET *23 0.000714522
*CONN
*I *293:A I *D sky130_fd_sc_hd__nand2_1
*I *291:Y O *D sky130_fd_sc_hd__nand2_1
*CAP
1 *293:A 0.000242082
2 *291:Y 0.000242082
3 *293:A *292:A 3.61629e-06
4 *293:A *293:B 0.000166006
5 p[4] *293:A 7.43578e-06
6 *291:A *293:A 3.99614e-06
7 *292:B *293:A 3.18676e-05
8 *22:22 *293:A 1.74352e-05
*RES
1 *291:Y *293:A 23.3143 
*END

*D_NET *24 0.000286404
*CONN
*I *293:B I *D sky130_fd_sc_hd__nand2_1
*I *292:Y O *D sky130_fd_sc_hd__nand2_1
*CAP
1 *293:B 4.13822e-05
2 *292:Y 4.13822e-05
3 *293:B *292:A 3.76337e-05
4 *291:A *293:B 0
5 *293:A *293:B 0.000166006
*RES
1 *292:Y *293:B 20.2786 
*END

*D_NET *25 0.00116574
*CONN
*I *180:B I *D sky130_fd_sc_hd__nand2_1
*I *195:B I *D sky130_fd_sc_hd__nand2_1
*I *182:A I *D sky130_fd_sc_hd__nand2_1
*I *294:Y O *D sky130_fd_sc_hd__nand2_1
*CAP
1 *180:B 0
2 *195:B 0.000304937
3 *182:A 0
4 *294:Y 0.000127257
5 *25:19 0.000393687
6 *25:8 0.000216007
7 *195:B *294:A 0
8 *25:8 *182:B 1.97695e-05
9 *25:19 *180:A 3.45371e-05
10 *25:19 *182:B 4.80569e-05
11 *25:19 *183:B 1.32552e-05
12 p[5] *195:B 8.23597e-06
13 *294:B *25:8 0
*RES
1 *294:Y *25:8 11.4964 
2 *25:8 *182:A 9.3 
3 *25:8 *25:19 2.21429 
4 *25:19 *195:B 26.153 
5 *25:19 *180:B 9.3 
*END

*D_NET *26 0.00131012
*CONN
*I *184:A I *D sky130_fd_sc_hd__nand2_1
*I *177:B I *D sky130_fd_sc_hd__nand2_1
*I *178:B I *D sky130_fd_sc_hd__nand2_1
*I *295:Y O *D sky130_fd_sc_hd__nand2_1
*CAP
1 *184:A 0.000154289
2 *177:B 4.61809e-05
3 *178:B 0.000160266
4 *295:Y 8.47187e-05
5 *26:17 0.00020047
6 *26:6 0.000244985
7 *178:B *178:A 3.44308e-05
8 *178:B *179:A 5.52238e-05
9 *178:B *179:B 0.000108279
10 *178:B *116:16 1.13883e-05
11 *184:A *30:12 5.62964e-05
12 *26:6 *177:A 9.99853e-05
13 *26:6 *179:A 4.25176e-05
14 *26:6 *295:B 1.10868e-05
*RES
1 *295:Y *26:6 11.0679 
2 *26:6 *178:B 12.6214 
3 *26:6 *26:17 4.5 
4 *26:17 *177:B 14.5321 
5 *26:17 *184:A 16.7107 
*END

*D_NET *27 0.000252623
*CONN
*I *179:A I *D sky130_fd_sc_hd__nand2_1
*I *177:Y O *D sky130_fd_sc_hd__nand2_1
*CAP
1 *179:A 3.02432e-05
2 *177:Y 3.02432e-05
3 *179:A *177:A 1.3701e-05
4 *179:A *178:A 3.1367e-05
5 *179:A *179:B 1.8461e-05
6 *179:A *295:B 3.08664e-05
7 *178:B *179:A 5.52238e-05
8 *26:6 *179:A 4.25176e-05
*RES
1 *177:Y *179:A 19.975 
*END

*D_NET *28 0.000238167
*CONN
*I *179:B I *D sky130_fd_sc_hd__nand2_1
*I *178:Y O *D sky130_fd_sc_hd__nand2_1
*CAP
1 *179:B 2.72051e-05
2 *178:Y 2.72051e-05
3 *179:B *178:A 4.10796e-05
4 *179:B *116:16 1.59373e-05
5 *178:B *179:B 0.000108279
6 *179:A *179:B 1.8461e-05
*RES
1 *178:Y *179:B 19.975 
*END

*D_NET *29 0.00105137
*CONN
*I *222:B I *D sky130_fd_sc_hd__nand2_1
*I *224:A I *D sky130_fd_sc_hd__nand2_1
*I *219:Y O *D sky130_fd_sc_hd__inv_1
*CAP
1 *222:B 0
2 *224:A 0.000153633
3 *219:Y 0.000315543
4 *29:10 0.000469176
5 *224:A *223:A 1.5942e-05
6 *224:A *75:10 6.32633e-05
7 *29:10 *223:A 5.80706e-06
8 *219:A *29:10 2.80081e-05
*RES
1 *219:Y *29:10 18.1304 
2 *29:10 *224:A 16.5857 
3 *29:10 *222:B 13.8 
*END

*D_NET *30 0.00121145
*CONN
*I *180:A I *D sky130_fd_sc_hd__nand2_1
*I *181:A I *D sky130_fd_sc_hd__nand2_1
*I *195:A I *D sky130_fd_sc_hd__nand2_1
*I *179:Y O *D sky130_fd_sc_hd__nand2_1
*CAP
1 *180:A 0.000173134
2 *181:A 9.0527e-06
3 *195:A 0
4 *179:Y 0.000152639
5 *30:21 0.000278015
6 *30:12 0.000248467
7 *180:A *181:B 6.62158e-05
8 *180:A *182:B 1.33343e-05
9 *180:A *183:A 2.13481e-06
10 *181:A *181:B 9.71439e-06
11 *30:12 *184:B 0.000141729
12 *30:21 *183:A 2.51343e-06
13 *30:21 *184:B 2.36643e-05
14 p[5] *30:12 0
15 *184:A *30:12 5.62964e-05
16 *25:19 *180:A 3.45371e-05
*RES
1 *179:Y *30:12 21.6036 
2 *30:12 *195:A 9.3 
3 *30:12 *30:21 1.78571 
4 *30:21 *181:A 9.72857 
5 *30:21 *180:A 12.7241 
*END

*D_NET *31 0.000501616
*CONN
*I *181:B I *D sky130_fd_sc_hd__nand2_1
*I *182:B I *D sky130_fd_sc_hd__nand2_1
*I *180:Y O *D sky130_fd_sc_hd__nand2_1
*CAP
1 *181:B 0.000107581
2 *182:B 4.40121e-05
3 *180:Y 0
4 *31:4 0.000151593
5 *181:B *183:A 1.24368e-05
6 *182:B *183:B 2.89016e-05
7 *180:A *181:B 6.62158e-05
8 *180:A *182:B 1.33343e-05
9 *181:A *181:B 9.71439e-06
10 *25:8 *182:B 1.97695e-05
11 *25:19 *182:B 4.80569e-05
*RES
1 *180:Y *31:4 9.3 
2 *31:4 *182:B 10.675 
3 *31:4 *181:B 12.6304 
*END

*D_NET *32 0.000408647
*CONN
*I *183:A I *D sky130_fd_sc_hd__nand2_1
*I *181:Y O *D sky130_fd_sc_hd__nand2_1
*CAP
1 *183:A 0.000156601
2 *181:Y 0.000156601
3 *183:A *183:B 0
4 p[5] *183:A 7.83587e-05
5 *180:A *183:A 2.13481e-06
6 *181:B *183:A 1.24368e-05
7 *30:21 *183:A 2.51343e-06
*RES
1 *181:Y *183:A 30.0821 
*END

*D_NET *33 0.000605874
*CONN
*I *183:B I *D sky130_fd_sc_hd__nand2_1
*I *182:Y O *D sky130_fd_sc_hd__nand2_1
*CAP
1 *183:B 0.000239427
2 *182:Y 0.000239427
3 *183:B *294:A 0
4 *183:B *70:12 4.1331e-06
5 *183:B *116:16 8.07313e-05
6 p[5] *183:B 0
7 *182:B *183:B 2.89016e-05
8 *183:A *183:B 0
9 *25:19 *183:B 1.32552e-05
*RES
1 *182:Y *183:B 31.85 
*END

*D_NET *34 0.00117354
*CONN
*I *190:B I *D sky130_fd_sc_hd__nand2_2
*I *192:A I *D sky130_fd_sc_hd__nand2_1
*I *184:Y O *D sky130_fd_sc_hd__nand2_1
*CAP
1 *190:B 3.8923e-05
2 *192:A 0.000151233
3 *184:Y 0.000206656
4 *34:6 0.000396812
5 *190:B *193:A 4.87953e-05
6 *190:B *38:8 0
7 *192:A *192:B 4.23086e-05
8 *192:A *193:A 1.04232e-05
9 *192:A *193:B 0.000149911
10 *192:A *125:12 3.4846e-06
11 *34:6 *193:A 2.89016e-05
12 p[6] *190:B 8.36572e-05
13 p[6] *34:6 1.24368e-05
*RES
1 *184:Y *34:6 12.7107 
2 *34:6 *192:A 21.5857 
3 *34:6 *190:B 10.675 
*END

*D_NET *35 0.000969193
*CONN
*I *186:B I *D sky130_fd_sc_hd__nand2_1
*I *194:A I *D sky130_fd_sc_hd__nand2_1
*I *188:B I *D sky130_fd_sc_hd__nand2_1
*I *185:Y O *D sky130_fd_sc_hd__nand2_1
*CAP
1 *186:B 0
2 *194:A 0.000143294
3 *188:B 9.58911e-06
4 *185:Y 6.20438e-05
5 *35:8 0.000214927
6 *188:B *185:B 5.71472e-05
7 *188:B *189:B 2.28499e-05
8 *194:A *189:A 0.00015234
9 *194:A *189:B 7.80714e-06
10 *194:A *40:25 2.66026e-05
11 *194:A *126:10 4.46186e-06
12 *35:8 *185:A 5.52302e-05
13 *35:8 *185:B 6.42778e-05
14 *35:8 *188:A 5.7661e-06
15 *35:8 *189:B 0.000142856
*RES
1 *185:Y *35:8 11.4964 
2 *35:8 *188:B 9.83571 
3 *35:8 *194:A 21.1571 
4 *35:8 *186:B 9.3 
*END

*D_NET *36 0.000330993
*CONN
*I *189:A I *D sky130_fd_sc_hd__nand2_1
*I *186:Y O *D sky130_fd_sc_hd__nand2_1
*CAP
1 *189:A 4.90052e-05
2 *186:Y 4.90052e-05
3 *189:A *189:B 8.06427e-05
4 *194:A *189:A 0.00015234
*RES
1 *186:Y *189:A 29.5464 
*END

*D_NET *37 0.000690373
*CONN
*I *189:B I *D sky130_fd_sc_hd__nand2_1
*I *188:Y O *D sky130_fd_sc_hd__nand2_1
*CAP
1 *189:B 0.000209244
2 *188:Y 0.000209244
3 *189:B *185:B 1.02936e-05
4 *189:B *188:A 7.43578e-06
5 *188:B *189:B 2.28499e-05
6 *189:A *189:B 8.06427e-05
7 *194:A *189:B 7.80714e-06
8 *35:8 *189:B 0.000142856
*RES
1 *188:Y *189:B 32.0286 
*END

*D_NET *38 0.000812283
*CONN
*I *191:A I *D sky130_fd_sc_hd__nand2_1
*I *190:A I *D sky130_fd_sc_hd__nand2_2
*I *189:Y O *D sky130_fd_sc_hd__nand2_1
*CAP
1 *191:A 0
2 *190:A 2.72962e-05
3 *189:Y 0.000169326
4 *38:8 0.000196622
5 *190:A *193:A 0.000188586
6 *190:A *40:25 6.97409e-05
7 *38:8 *193:A 2.44318e-05
8 *38:8 *194:B 5.52302e-05
9 *38:8 *40:25 5.33334e-05
10 p[7] *38:8 2.77173e-05
11 *190:B *38:8 0
*RES
1 *189:Y *38:8 12.7286 
2 *38:8 *190:A 11.0679 
3 *38:8 *191:A 9.3 
*END

*D_NET *39 0.000463131
*CONN
*I *241:A I *D sky130_fd_sc_hd__inv_2
*I *230:Y O *D sky130_fd_sc_hd__nand2_4
*CAP
1 *241:A 0.000161039
2 *230:Y 0.000161039
3 *241:A *48:10 3.58978e-05
4 *252:A *241:A 5.25774e-05
5 *4:24 *241:A 5.25774e-05
*RES
1 *230:Y *241:A 31.1 
*END

*D_NET *40 0.00130013
*CONN
*I *194:B I *D sky130_fd_sc_hd__nand2_1
*I *191:B I *D sky130_fd_sc_hd__nand2_1
*I *192:B I *D sky130_fd_sc_hd__nand2_1
*I *190:Y O *D sky130_fd_sc_hd__nand2_2
*CAP
1 *194:B 1.40355e-05
2 *191:B 0
3 *192:B 0.000113202
4 *190:Y 0
5 *40:25 0.000297961
6 *40:4 0.000397127
7 *192:B *193:B 8.00806e-05
8 *40:25 *193:A 9.22103e-06
9 *40:25 *193:B 0
10 p[6] *192:B 5.52302e-05
11 p[6] *40:25 5.71472e-05
12 p[7] *194:B 2.89114e-05
13 *190:A *40:25 6.97409e-05
14 *192:A *192:B 4.23086e-05
15 *194:A *40:25 2.66026e-05
16 *38:8 *194:B 5.52302e-05
17 *38:8 *40:25 5.33334e-05
*RES
1 *190:Y *40:4 9.3 
2 *40:4 *192:B 20.7821 
3 *40:4 *40:25 13.4464 
4 *40:25 *191:B 9.3 
5 *40:25 *194:B 9.83571 
*END

*D_NET *41 0.000894188
*CONN
*I *193:A I *D sky130_fd_sc_hd__nand2_2
*I *191:Y O *D sky130_fd_sc_hd__nand2_1
*CAP
1 *193:A 0.000225731
2 *191:Y 0.000225731
3 p[6] *193:A 3.14078e-05
4 p[7] *193:A 0.00010096
5 *190:A *193:A 0.000188586
6 *190:B *193:A 4.87953e-05
7 *192:A *193:A 1.04232e-05
8 *34:6 *193:A 2.89016e-05
9 *38:8 *193:A 2.44318e-05
10 *40:25 *193:A 9.22103e-06
*RES
1 *191:Y *193:A 23.6714 
*END

*D_NET *42 0.000361721
*CONN
*I *193:B I *D sky130_fd_sc_hd__nand2_2
*I *192:Y O *D sky130_fd_sc_hd__nand2_1
*CAP
1 *193:B 5.64624e-05
2 *192:Y 5.64624e-05
3 p[6] *193:B 1.88048e-05
4 *192:A *193:B 0.000149911
5 *192:B *193:B 8.00806e-05
6 *40:25 *193:B 0
*RES
1 *192:Y *193:B 29.5464 
*END

*D_NET *43 0.000415814
*CONN
*I *184:B I *D sky130_fd_sc_hd__nand2_1
*I *195:Y O *D sky130_fd_sc_hd__nand2_1
*CAP
1 *184:B 0.000125211
2 *195:Y 0.000125211
3 *30:12 *184:B 0.000141729
4 *30:21 *184:B 2.36643e-05
*RES
1 *195:Y *184:B 21.2071 
*END

*D_NET *44 0.000297318
*CONN
*I *236:B I *D sky130_fd_sc_hd__nand2_1
*I *196:Y O *D sky130_fd_sc_hd__nand2_1
*CAP
1 *236:B 0.000148659
2 *196:Y 0.000148659
3 *236:B *196:B 0
*RES
1 *196:Y *236:B 20.7964 
*END

*D_NET *45 0.000440836
*CONN
*I *196:A I *D sky130_fd_sc_hd__nand2_1
*I *197:Y O *D sky130_fd_sc_hd__nand2_1
*CAP
1 *196:A 0.000167712
2 *197:Y 0.000167712
3 *196:A *231:B 7.45447e-05
4 *196:A *80:8 3.08664e-05
*RES
1 *197:Y *196:A 30.7429 
*END

*D_NET *46 0.000298777
*CONN
*I *262:B I *D sky130_fd_sc_hd__nand2_1
*I *199:Y O *D sky130_fd_sc_hd__nand2_1
*CAP
1 *262:B 0.000107551
2 *199:Y 0.000107551
3 *262:B *262:A 5.65955e-05
4 *262:B *64:10 2.70794e-05
*RES
1 *199:Y *262:B 20.7964 
*END

*D_NET *47 0.000992063
*CONN
*I *248:B I *D sky130_fd_sc_hd__nand2_1
*I *200:Y O *D sky130_fd_sc_hd__nand2_1
*CAP
1 *248:B 0.000287418
2 *200:Y 0.000287418
3 *248:B *248:A 0.00022138
4 *248:B *58:16 0.000126572
5 *5:19 *248:B 6.9276e-05
*RES
1 *200:Y *248:B 23.2786 
*END

*D_NET *48 0.000789353
*CONN
*I *227:B I *D sky130_fd_sc_hd__nand2_4
*I *229:A I *D sky130_fd_sc_hd__nand2_1
*I *241:Y O *D sky130_fd_sc_hd__inv_2
*CAP
1 *227:B 0
2 *229:A 0.000149286
3 *241:Y 0.00018105
4 *48:10 0.000330336
5 *229:A *236:A 2.38651e-06
6 *229:A *79:8 5.00645e-05
7 *48:10 *54:16 4.03318e-05
8 *241:A *48:10 3.58978e-05
*RES
1 *241:Y *48:10 16.6929 
2 *48:10 *229:A 16.5857 
3 *48:10 *227:B 13.8 
*END

*D_NET *49 0.00075664
*CONN
*I *263:A I *D sky130_fd_sc_hd__inv_1
*I *252:Y O *D sky130_fd_sc_hd__nand2_1
*CAP
1 *263:A 0.000188698
2 *252:Y 0.000188698
3 *263:A *238:B 9.89412e-05
4 *263:A *240:A 0.0001399
5 *263:A *50:6 7.66879e-05
6 *252:B *263:A 5.04589e-05
7 *4:24 *263:A 1.32552e-05
*RES
1 *252:Y *263:A 23.1313 
*END

*D_NET *50 0.000587175
*CONN
*I *239:A I *D sky130_fd_sc_hd__nand2_1
*I *237:B I *D sky130_fd_sc_hd__nand2_1
*I *263:Y O *D sky130_fd_sc_hd__inv_1
*CAP
1 *239:A 0
2 *237:B 0.000117655
3 *263:Y 1.52627e-05
4 *50:6 0.000132918
5 *237:B *246:A 5.80706e-06
6 *237:B *88:10 7.17932e-05
7 *50:6 *238:B 7.66879e-05
8 *198:B *237:B 9.03638e-05
9 *263:A *50:6 7.66879e-05
*RES
1 *263:Y *50:6 10.0411 
2 *50:6 *237:B 21.1571 
3 *50:6 *239:A 9.3 
*END

*D_NET *51 0.000212671
*CONN
*I *285:A I *D sky130_fd_sc_hd__inv_1
*I *274:Y O *D sky130_fd_sc_hd__nand2_1
*CAP
1 *285:A 5.80541e-05
2 *274:Y 5.80541e-05
3 *285:A *52:8 0
4 *208:A *285:A 8.28621e-05
5 *274:A *285:A 1.3701e-05
*RES
1 *274:Y *285:A 20.2563 
*END

*D_NET *52 0.000711388
*CONN
*I *222:A I *D sky130_fd_sc_hd__nand2_1
*I *223:A I *D sky130_fd_sc_hd__nand2_1
*I *285:Y O *D sky130_fd_sc_hd__inv_1
*CAP
1 *222:A 0
2 *223:A 0.000124161
3 *285:Y 0.000112251
4 *52:8 0.000236412
5 *223:A *75:10 0.000127439
6 *208:A *52:8 4.40835e-05
7 *208:B *52:8 4.52936e-05
8 *224:A *223:A 1.5942e-05
9 *285:A *52:8 0
10 *7:32 *223:A 0
11 *29:10 *223:A 5.80706e-06
*RES
1 *285:Y *52:8 11.7018 
2 *52:8 *223:A 20.55 
3 *52:8 *222:A 9.3 
*END

*D_NET *53 0.000672916
*CONN
*I *187:A I *D sky130_fd_sc_hd__inv_2
*I *176:Y O *D sky130_fd_sc_hd__nand2_2
*CAP
1 *187:A 0.000158879
2 *176:Y 0.000158879
3 *187:A *228:A 2.38651e-06
4 *3:9 *187:A 0.000200406
5 *3:17 *187:A 5.52238e-05
6 *3:39 *187:A 8.50152e-05
7 *4:24 *187:A 1.21258e-05
*RES
1 *176:Y *187:A 31.4036 
*END

*D_NET *54 0.00121063
*CONN
*I *227:A I *D sky130_fd_sc_hd__nand2_4
*I *228:A I *D sky130_fd_sc_hd__nand2_1
*I *187:Y O *D sky130_fd_sc_hd__inv_2
*CAP
1 *227:A 0
2 *228:A 0.000130662
3 *187:Y 0.00033626
4 *54:16 0.000466921
5 *228:A *79:8 8.44838e-05
6 *187:A *228:A 2.38651e-06
7 *3:39 *54:16 7.57312e-05
8 *4:24 *54:16 7.38537e-05
9 *48:10 *54:16 4.03318e-05
*RES
1 *187:Y *54:16 23.9071 
2 *54:16 *228:A 20.55 
3 *54:16 *227:A 9.3 
*END

*D_NET *55 0.000611805
*CONN
*I *201:A I *D sky130_fd_sc_hd__inv_1
*I *198:Y O *D sky130_fd_sc_hd__nand2_1
*CAP
1 *201:A 0.000216667
2 *198:Y 0.000216667
3 *201:A *237:A 6.05161e-06
4 *201:A *56:8 1.66955e-05
5 *198:A *201:A 7.6644e-05
6 *202:A *201:A 7.90803e-05
*RES
1 *198:Y *201:A 31.1402 
*END

*D_NET *56 0.00101194
*CONN
*I *238:A I *D sky130_fd_sc_hd__nand2_1
*I *237:A I *D sky130_fd_sc_hd__nand2_1
*I *201:Y O *D sky130_fd_sc_hd__inv_1
*CAP
1 *238:A 0
2 *237:A 0.000217623
3 *201:Y 8.01639e-05
4 *56:8 0.000297787
5 *237:A *240:A 6.05161e-06
6 *56:8 *238:B 1.97695e-05
7 *198:A *237:A 0.00012401
8 *198:B *237:A 0.000120832
9 *201:A *237:A 6.05161e-06
10 *201:A *56:8 1.66955e-05
11 *202:A *237:A 7.22594e-05
12 *252:B *237:A 2.61337e-05
13 *4:24 *237:A 1.21258e-05
14 *4:24 *56:8 1.24368e-05
*RES
1 *201:Y *56:8 10.7732 
2 *56:8 *237:A 23.175 
3 *56:8 *238:A 9.3 
*END

*D_NET *57 0.000424102
*CONN
*I *203:A I *D sky130_fd_sc_hd__inv_1
*I *202:Y O *D sky130_fd_sc_hd__nand2_1
*CAP
1 *203:A 0.000126181
2 *202:Y 0.000126181
3 *203:A *246:A 0
4 *203:A *96:12 2.19778e-05
5 *9:11 *203:A 0
6 *10:11 *203:A 0.000149762
*RES
1 *202:Y *203:A 30.2384 
*END

*D_NET *58 0.00105978
*CONN
*I *200:A I *D sky130_fd_sc_hd__nand2_1
*I *247:A I *D sky130_fd_sc_hd__nand2_1
*I *248:A I *D sky130_fd_sc_hd__nand2_1
*I *203:Y O *D sky130_fd_sc_hd__inv_1
*CAP
1 *200:A 0
2 *247:A 5.70734e-06
3 *248:A 5.02918e-05
4 *203:Y 0.000128048
5 *58:16 0.000101683
6 *58:12 0.000173731
7 *247:A *247:B 5.7661e-06
8 *247:A *249:B 1.04232e-05
9 *248:A *249:B 3.18676e-05
10 *248:A *96:23 4.18425e-05
11 *58:16 *200:B 3.46677e-05
12 *58:16 *247:B 1.04232e-05
13 *58:16 *249:B 2.89016e-05
14 *58:16 *96:23 1.02936e-05
15 *248:B *248:A 0.00022138
16 *248:B *58:16 0.000126572
17 *5:19 *248:A 1.49188e-05
18 *10:45 *58:12 6.32633e-05
*RES
1 *203:Y *58:12 20.2732 
2 *58:12 *58:16 1.78571 
3 *58:16 *248:A 11.4964 
4 *58:16 *247:A 9.72857 
5 *58:12 *200:A 9.3 
*END

*D_NET *59 0.000257549
*CONN
*I *205:A I *D sky130_fd_sc_hd__inv_1
*I *204:Y O *D sky130_fd_sc_hd__nand2_1
*CAP
1 *205:A 4.21793e-05
2 *204:Y 4.21793e-05
3 *205:A *253:B 1.79034e-05
4 *205:A *255:A 7.17133e-06
5 *205:A *255:B 0.000116752
6 *7:32 *205:A 3.13637e-05
*RES
1 *204:Y *205:A 20.2563 
*END

*D_NET *60 0.000762074
*CONN
*I *253:B I *D sky130_fd_sc_hd__nand2_1
*I *255:A I *D sky130_fd_sc_hd__nand2_1
*I *205:Y O *D sky130_fd_sc_hd__inv_1
*CAP
1 *253:B 0.000210894
2 *255:A 6.91917e-05
3 *205:Y 0
4 *60:4 0.000280086
5 *253:B *255:B 5.09655e-06
6 *253:B *256:A 3.75868e-05
7 *253:B *102:26 2.29031e-05
8 *255:A *255:B 7.77597e-05
9 *205:A *253:B 1.79034e-05
10 *205:A *255:A 7.17133e-06
11 *7:32 *253:B 1.24368e-05
12 *7:32 *255:A 2.10446e-05
*RES
1 *205:Y *60:4 9.3 
2 *60:4 *255:A 11.0768 
3 *60:4 *253:B 21.3982 
*END

*D_NET *61 0.000237539
*CONN
*I *207:A I *D sky130_fd_sc_hd__inv_1
*I *206:Y O *D sky130_fd_sc_hd__nand2_1
*CAP
1 *207:A 0.000106999
2 *206:Y 0.000106999
3 *207:A *259:C 2.3541e-05
*RES
1 *206:Y *207:A 29.4795 
*END

*D_NET *62 0.00080199
*CONN
*I *258:B I *D sky130_fd_sc_hd__xor3_2
*I *259:B I *D sky130_fd_sc_hd__maj3_2
*I *207:Y O *D sky130_fd_sc_hd__inv_1
*CAP
1 *258:B 0.000103227
2 *259:B 0.000162915
3 *207:Y 5.13826e-05
4 *62:6 0.000317525
5 *259:B *259:A 3.1001e-05
6 *259:B *259:C 0.000100165
7 *62:6 *259:C 3.57752e-05
8 *215:B *258:B 0
9 *8:22 *258:B 0
*RES
1 *207:Y *62:6 10.0411 
2 *62:6 *259:B 12.6393 
3 *62:6 *258:B 19.9429 
*END

*D_NET *63 0.000823479
*CONN
*I *210:A I *D sky130_fd_sc_hd__inv_1
*I *209:Y O *D sky130_fd_sc_hd__nand2_1
*CAP
1 *210:A 0.000266831
2 *209:Y 0.000266831
3 *210:A *260:A 3.50746e-05
4 *210:A *64:6 3.49632e-05
5 *210:A *100:8 4.9391e-05
6 *217:B *210:A 6.23278e-05
7 *5:19 *210:A 7.61932e-05
8 *5:27 *210:A 3.18676e-05
*RES
1 *209:Y *210:A 32.158 
*END

*D_NET *64 0.000656744
*CONN
*I *260:B I *D sky130_fd_sc_hd__nand2_1
*I *199:B I *D sky130_fd_sc_hd__nand2_1
*I *262:A I *D sky130_fd_sc_hd__nand2_1
*I *210:Y O *D sky130_fd_sc_hd__inv_1
*CAP
1 *260:B 1.63453e-05
2 *199:B 0
3 *262:A 8.21744e-06
4 *210:Y 8.52821e-05
5 *64:10 7.54773e-05
6 *64:6 0.000168887
7 *260:B *260:A 4.1896e-06
8 *260:B *100:12 9.35228e-06
9 *262:A *264:B 2.36643e-05
10 *64:6 *100:8 9.85599e-06
11 *64:6 *100:12 4.37451e-05
12 *64:10 *264:B 5.65955e-05
13 *64:10 *100:12 3.64933e-05
14 *210:A *64:6 3.49632e-05
15 *262:B *262:A 5.65955e-05
16 *262:B *64:10 2.70794e-05
*RES
1 *210:Y *64:6 10.8625 
2 *64:6 *64:10 1.78571 
3 *64:10 *262:A 9.83571 
4 *64:10 *199:B 9.3 
5 *64:6 *260:B 9.72857 
*END

*D_NET *65 0.000200611
*CONN
*I *212:A I *D sky130_fd_sc_hd__inv_1
*I *211:Y O *D sky130_fd_sc_hd__nand2_1
*CAP
1 *212:A 0.000100306
2 *211:Y 0.000100306
*RES
1 *211:Y *212:A 20.2563 
*END

*D_NET *66 0.00147355
*CONN
*I *270:B I *D sky130_fd_sc_hd__nand2_1
*I *272:A I *D sky130_fd_sc_hd__nand2_1
*I *212:Y O *D sky130_fd_sc_hd__inv_1
*CAP
1 *270:B 0.000157556
2 *272:A 0.000205048
3 *212:Y 0.000179848
4 *66:12 0.000542451
5 *270:B *270:A 0.000104769
6 *270:B *118:6 1.62025e-05
7 *272:A *270:A 5.49995e-05
8 *272:A *272:B 5.46383e-06
9 *272:A *273:A 1.47872e-05
10 *272:A *273:B 2.60464e-05
11 *272:A *118:10 1.85914e-05
12 *66:12 *101:12 0.000147784
*RES
1 *212:Y *66:12 21.1839 
2 *66:12 *272:A 12.2107 
3 *66:12 *270:B 11.8 
*END

*D_NET *67 0.00069753
*CONN
*I *214:A I *D sky130_fd_sc_hd__inv_1
*I *213:Y O *D sky130_fd_sc_hd__nand2_1
*CAP
1 *214:A 0.000319682
2 *213:Y 0.000319682
3 *214:A *283:A 3.9733e-05
4 *214:A *284:A 0
5 p[3] *214:A 0
6 *6:15 *214:A 1.84336e-05
*RES
1 *213:Y *214:A 33.0777 
*END

*D_NET *68 0.0010798
*CONN
*I *280:B I *D sky130_fd_sc_hd__nand2_1
*I *282:A I *D sky130_fd_sc_hd__nand2_1
*I *214:Y O *D sky130_fd_sc_hd__inv_1
*CAP
1 *280:B 0.00015981
2 *282:A 0
3 *214:Y 0.000202505
4 *68:12 0.000362315
5 *280:B *280:A 5.66971e-05
6 *280:B *282:B 3.65727e-05
7 *280:B *106:14 5.49995e-05
8 *280:B *127:6 4.63305e-05
9 *280:B *127:8 1.02301e-05
10 *68:12 *216:A 0
11 *68:12 *284:A 0.000150342
*RES
1 *214:Y *68:12 21.3982 
2 *68:12 *282:A 9.3 
3 *68:12 *280:B 12.7464 
*END

*D_NET *69 0.000274134
*CONN
*I *216:A I *D sky130_fd_sc_hd__inv_1
*I *215:Y O *D sky130_fd_sc_hd__nand2_1
*CAP
1 *216:A 0.000137067
2 *215:Y 0.000137067
3 *68:12 *216:A 0
*RES
1 *215:Y *216:A 29.8277 
*END

*D_NET *70 0.000888781
*CONN
*I *288:A I *D sky130_fd_sc_hd__nand2_1
*I *286:B I *D sky130_fd_sc_hd__nand2_1
*I *216:Y O *D sky130_fd_sc_hd__inv_1
*CAP
1 *288:A 0.000162943
2 *286:B 0
3 *216:Y 0.000174611
4 *70:12 0.000337554
5 *288:A *286:A 5.7661e-06
6 *288:A *287:A 3.93247e-05
7 *288:A *288:B 3.53302e-05
8 *288:A *289:A 5.17614e-05
9 *288:A *131:6 1.21289e-05
10 *70:12 *294:A 4.1331e-06
11 *70:12 *131:19 1.88048e-05
12 *183:B *70:12 4.1331e-06
13 *289:B *288:A 4.22908e-05
*RES
1 *216:Y *70:12 20.6839 
2 *70:12 *286:B 9.3 
3 *70:12 *288:A 13.1571 
*END

*D_NET *71 0.000272226
*CONN
*I *218:A I *D sky130_fd_sc_hd__inv_1
*I *217:Y O *D sky130_fd_sc_hd__nand2_1
*CAP
1 *218:A 0.000136113
2 *217:Y 0.000136113
3 *218:A *116:16 0
*RES
1 *217:Y *218:A 29.8277 
*END

*D_NET *72 0.000935847
*CONN
*I *295:B I *D sky130_fd_sc_hd__nand2_1
*I *178:A I *D sky130_fd_sc_hd__nand2_1
*I *218:Y O *D sky130_fd_sc_hd__inv_1
*CAP
1 *295:B 8.50525e-05
2 *178:A 7.57121e-05
3 *218:Y 0.000140704
4 *72:14 0.000301469
5 *178:A *116:16 9.83388e-05
6 *295:B *177:A 4.64641e-05
7 *72:14 *116:16 3.92757e-05
8 *178:B *178:A 3.44308e-05
9 *179:A *178:A 3.1367e-05
10 *179:A *295:B 3.08664e-05
11 *179:B *178:A 4.10796e-05
12 *26:6 *295:B 1.10868e-05
*RES
1 *218:Y *72:14 20.5054 
2 *72:14 *178:A 11.4964 
3 *72:14 *295:B 11.0857 
*END

*D_NET *73 0.000270976
*CONN
*I *221:A I *D sky130_fd_sc_hd__inv_1
*I *220:Y O *D sky130_fd_sc_hd__nand2_1
*CAP
1 *221:A 0.000107597
2 *220:Y 0.000107597
3 *221:A *278:B 0
4 *221:A *126:10 5.5782e-05
*RES
1 *220:Y *221:A 29.8277 
*END

*D_NET *74 0.0008766
*CONN
*I *185:B I *D sky130_fd_sc_hd__nand2_1
*I *188:A I *D sky130_fd_sc_hd__nand2_1
*I *221:Y O *D sky130_fd_sc_hd__inv_1
*CAP
1 *185:B 0.000172071
2 *188:A 4.60506e-05
3 *221:Y 0.000120103
4 *74:12 0.000338225
5 *185:B *185:A 5.52302e-05
6 *74:12 *126:10 0
7 *188:B *185:B 5.71472e-05
8 *189:B *185:B 1.02936e-05
9 *189:B *188:A 7.43578e-06
10 *35:8 *185:B 6.42778e-05
11 *35:8 *188:A 5.7661e-06
*RES
1 *221:Y *74:12 19.9696 
2 *74:12 *188:A 10.2286 
3 *74:12 *185:B 12.7286 
*END

*D_NET *75 0.000809429
*CONN
*I *226:A I *D sky130_fd_sc_hd__inv_1
*I *223:B I *D sky130_fd_sc_hd__nand2_1
*I *224:B I *D sky130_fd_sc_hd__nand2_1
*I *222:Y O *D sky130_fd_sc_hd__nand2_1
*CAP
1 *226:A 0.00014445
2 *223:B 0
3 *224:B 0
4 *222:Y 5.14628e-05
5 *75:21 0.000247995
6 *75:10 0.000155007
7 *75:21 *225:A 1.58163e-05
8 *75:21 *225:B 3.99614e-06
9 *223:A *75:10 0.000127439
10 *224:A *75:10 6.32633e-05
*RES
1 *222:Y *75:10 19.9429 
2 *75:10 *224:B 9.3 
3 *75:10 *75:21 2.21429 
4 *75:21 *223:B 9.3 
5 *75:21 *226:A 11.6348 
*END

*D_NET *76 0.000630906
*CONN
*I *225:A I *D sky130_fd_sc_hd__nand2_1
*I *223:Y O *D sky130_fd_sc_hd__nand2_1
*CAP
1 *225:A 0.000237281
2 *223:Y 0.000237281
3 *225:A *225:B 0.000117787
4 p[1] *225:A 2.27416e-05
5 *75:21 *225:A 1.58163e-05
*RES
1 *223:Y *225:A 21.9214 
*END

*D_NET *77 0.000228118
*CONN
*I *225:B I *D sky130_fd_sc_hd__nand2_1
*I *224:Y O *D sky130_fd_sc_hd__nand2_1
*CAP
1 *225:B 5.31677e-05
2 *224:Y 5.31677e-05
3 *225:A *225:B 0.000117787
4 *75:21 *225:B 3.99614e-06
*RES
1 *224:Y *225:B 19.975 
*END

*D_NET *78 0.00139976
*CONN
*I *196:B I *D sky130_fd_sc_hd__nand2_1
*I *232:B I *D sky130_fd_sc_hd__nand2_1
*I *234:A I *D sky130_fd_sc_hd__nand2_1
*I *226:Y O *D sky130_fd_sc_hd__inv_1
*CAP
1 *196:B 0.000265121
2 *232:B 1.17582e-05
3 *234:A 2.75827e-05
4 *226:Y 9.8648e-05
5 *78:21 0.000355331
6 *78:12 0.000204682
7 *196:B *232:A 3.65607e-05
8 *196:B *233:B 9.90431e-05
9 *196:B *234:B 1.55885e-05
10 *196:B *82:8 0.00014183
11 *232:B *234:B 4.61598e-05
12 *234:A *234:B 5.7661e-06
13 *78:21 *234:B 2.27416e-05
14 *78:21 *235:B 1.32552e-05
15 *236:B *196:B 0
16 *7:32 *78:12 5.56943e-05
17 *8:24 *78:12 0
*RES
1 *226:Y *78:12 19.9696 
2 *78:12 *234:A 10.0321 
3 *78:12 *78:21 1.35714 
4 *78:21 *232:B 10.0321 
5 *78:21 *196:B 14.2643 
*END

*D_NET *79 0.000807552
*CONN
*I *236:A I *D sky130_fd_sc_hd__nand2_1
*I *229:B I *D sky130_fd_sc_hd__nand2_1
*I *228:B I *D sky130_fd_sc_hd__nand2_1
*I *227:Y O *D sky130_fd_sc_hd__nand2_4
*CAP
1 *236:A 0.000194514
2 *229:B 2.3671e-05
3 *228:B 0
4 *227:Y 8.9508e-05
5 *79:10 2.3671e-05
6 *79:8 0.000284022
7 *229:B *81:6 5.52302e-05
8 *236:A *231:B 0
9 *236:A *245:A 0
10 *228:A *79:8 8.44838e-05
11 *229:A *236:A 2.38651e-06
12 *229:A *79:8 5.00645e-05
13 *9:43 *236:A 0
*RES
1 *227:Y *79:8 16.05 
2 *79:8 *79:10 4.5 
3 *79:10 *228:B 9.3 
4 *79:10 *229:B 9.83571 
5 *79:8 *236:A 17.3179 
*END

*D_NET *80 0.000966243
*CONN
*I *197:A I *D sky130_fd_sc_hd__nand2_1
*I *231:A I *D sky130_fd_sc_hd__nand2_1
*I *228:Y O *D sky130_fd_sc_hd__nand2_1
*CAP
1 *197:A 0
2 *231:A 0.00022001
3 *228:Y 8.78635e-05
4 *80:8 0.000307874
5 *231:A *231:B 0.000216155
6 *80:8 *197:B 5.38444e-06
7 *80:8 *231:B 4.73286e-05
8 *80:8 *81:6 5.07619e-05
9 *196:A *80:8 3.08664e-05
10 *8:24 *231:A 0
*RES
1 *228:Y *80:8 11.4964 
2 *80:8 *231:A 22.925 
3 *80:8 *197:A 9.3 
*END

*D_NET *81 0.00118872
*CONN
*I *197:B I *D sky130_fd_sc_hd__nand2_1
*I *231:B I *D sky130_fd_sc_hd__nand2_1
*I *229:Y O *D sky130_fd_sc_hd__nand2_1
*CAP
1 *197:B 2.04856e-05
2 *231:B 0.000223153
3 *229:Y 0.000126016
4 *81:6 0.000369655
5 *196:A *231:B 7.45447e-05
6 *229:B *81:6 5.52302e-05
7 *231:A *231:B 0.000216155
8 *236:A *231:B 0
9 *8:24 *231:B 0
10 *80:8 *197:B 5.38444e-06
11 *80:8 *231:B 4.73286e-05
12 *80:8 *81:6 5.07619e-05
*RES
1 *229:Y *81:6 11.4786 
2 *81:6 *231:B 23.2286 
3 *81:6 *197:B 9.72857 
*END

*D_NET *82 0.000606758
*CONN
*I *233:A I *D sky130_fd_sc_hd__nand2_1
*I *232:A I *D sky130_fd_sc_hd__nand2_1
*I *231:Y O *D sky130_fd_sc_hd__nand2_1
*CAP
1 *233:A 0
2 *232:A 4.66309e-05
3 *231:Y 6.58457e-05
4 *82:8 0.000112477
5 *232:A *233:B 5.2714e-05
6 *232:A *234:B 3.57366e-05
7 *232:A *235:A 0.00010096
8 *82:8 *233:B 1.40034e-05
9 *196:B *232:A 3.65607e-05
10 *196:B *82:8 0.00014183
*RES
1 *231:Y *82:8 11.0857 
2 *82:8 *232:A 11.6393 
3 *82:8 *233:A 9.3 
*END

*D_NET *83 0.000518354
*CONN
*I *233:B I *D sky130_fd_sc_hd__nand2_1
*I *234:B I *D sky130_fd_sc_hd__nand2_1
*I *232:Y O *D sky130_fd_sc_hd__nand2_1
*CAP
1 *233:B 2.83612e-05
2 *234:B 5.63655e-05
3 *232:Y 0
4 *83:4 8.47267e-05
5 *234:B *235:B 5.71472e-05
6 *196:B *233:B 9.90431e-05
7 *196:B *234:B 1.55885e-05
8 *232:A *233:B 5.2714e-05
9 *232:A *234:B 3.57366e-05
10 *232:B *234:B 4.61598e-05
11 *234:A *234:B 5.7661e-06
12 *78:21 *234:B 2.27416e-05
13 *82:8 *233:B 1.40034e-05
*RES
1 *232:Y *83:4 9.3 
2 *83:4 *234:B 11.4071 
3 *83:4 *233:B 10.675 
*END

*D_NET *84 0.000490872
*CONN
*I *235:A I *D sky130_fd_sc_hd__nand2_1
*I *233:Y O *D sky130_fd_sc_hd__nand2_1
*CAP
1 *235:A 0.000131233
2 *233:Y 0.000131233
3 *232:A *235:A 0.00010096
4 *8:24 *235:A 0.000127446
*RES
1 *233:Y *235:A 30.1893 
*END

*D_NET *85 0.000467841
*CONN
*I *235:B I *D sky130_fd_sc_hd__nand2_1
*I *234:Y O *D sky130_fd_sc_hd__nand2_1
*CAP
1 *235:B 0.000135854
2 *234:Y 0.000135854
3 *234:B *235:B 5.71472e-05
4 *7:32 *235:B 0
5 *8:24 *235:B 0.000125731
6 *78:21 *235:B 1.32552e-05
*RES
1 *234:Y *235:B 30.1893 
*END

*D_NET *86 0.000850928
*CONN
*I *254:A I *D sky130_fd_sc_hd__nand2_1
*I *253:A I *D sky130_fd_sc_hd__nand2_1
*I *235:Y O *D sky130_fd_sc_hd__nand2_1
*CAP
1 *254:A 7.57205e-05
2 *253:A 0
3 *235:Y 0.000294059
4 *86:10 0.00036978
5 *254:A *254:B 6.20656e-05
6 *254:A *102:26 3.18676e-05
7 *86:10 *102:26 1.74352e-05
*RES
1 *235:Y *86:10 14.0857 
2 *86:10 *253:A 9.3 
3 *86:10 *254:A 11.5143 
*END

*D_NET *87 0.000939674
*CONN
*I *242:B I *D sky130_fd_sc_hd__nand2_2
*I *244:A I *D sky130_fd_sc_hd__nand2_1
*I *236:Y O *D sky130_fd_sc_hd__nand2_1
*CAP
1 *242:B 0.000146157
2 *244:A 1.68697e-05
3 *236:Y 0.000119448
4 *87:6 0.000282475
5 *242:B *243:A 0.000137597
6 *242:B *244:B 5.65955e-05
7 *242:B *245:B 1.32056e-05
8 *242:B *92:8 6.39253e-05
9 *244:A *92:8 3.41517e-06
10 *87:6 *245:B 9.99853e-05
*RES
1 *236:Y *87:6 11.4786 
2 *87:6 *244:A 9.72857 
3 *87:6 *242:B 12.7286 
*END

*D_NET *88 0.00196703
*CONN
*I *246:A I *D sky130_fd_sc_hd__nand2_1
*I *239:B I *D sky130_fd_sc_hd__nand2_1
*I *238:B I *D sky130_fd_sc_hd__nand2_1
*I *237:Y O *D sky130_fd_sc_hd__nand2_1
*CAP
1 *246:A 0.000294863
2 *239:B 0
3 *238:B 8.9785e-05
4 *237:Y 0.000246852
5 *88:12 8.9785e-05
6 *88:10 0.000541715
7 *238:B *240:A 1.56e-05
8 *246:A *240:B 0.000125724
9 *246:A *91:12 0
10 *246:A *96:12 2.89114e-05
11 *198:B *246:A 0
12 *203:A *246:A 0
13 *230:B *246:A 0
14 *230:B *88:10 0
15 *237:B *246:A 5.80706e-06
16 *237:B *88:10 7.17932e-05
17 *252:B *238:B 0.000236367
18 *263:A *238:B 9.89412e-05
19 *4:24 *238:B 2.44318e-05
20 *9:11 *246:A 0
21 *9:43 *246:A 0
22 *50:6 *238:B 7.66879e-05
23 *56:8 *238:B 1.97695e-05
*RES
1 *237:Y *88:10 17.1036 
2 *88:10 *88:12 4.5 
3 *88:12 *238:B 12.7464 
4 *88:12 *239:B 9.3 
5 *88:10 *246:A 19.3179 
*END

*D_NET *89 0.00078927
*CONN
*I *240:A I *D sky130_fd_sc_hd__nand2_1
*I *238:Y O *D sky130_fd_sc_hd__nand2_1
*CAP
1 *240:A 0.000217447
2 *238:Y 0.000217447
3 *240:A *240:B 0.000125724
4 *198:B *240:A 3.69697e-05
5 *237:A *240:A 6.05161e-06
6 *238:B *240:A 1.56e-05
7 *263:A *240:A 0.0001399
8 *4:24 *240:A 2.87555e-06
9 *9:11 *240:A 2.72545e-05
*RES
1 *238:Y *240:A 31.4214 
*END

*D_NET *90 0.000430005
*CONN
*I *240:B I *D sky130_fd_sc_hd__nand2_1
*I *239:Y O *D sky130_fd_sc_hd__nand2_1
*CAP
1 *240:B 6.84024e-05
2 *239:Y 6.84024e-05
3 *240:B *91:12 1.58163e-05
4 *240:A *240:B 0.000125724
5 *246:A *240:B 0.000125724
6 *9:32 *240:B 2.59355e-05
*RES
1 *239:Y *240:B 29.7786 
*END

*D_NET *91 0.00149473
*CONN
*I *242:A I *D sky130_fd_sc_hd__nand2_2
*I *243:A I *D sky130_fd_sc_hd__nand2_1
*I *240:Y O *D sky130_fd_sc_hd__nand2_1
*CAP
1 *242:A 0
2 *243:A 0.000191645
3 *240:Y 0.000374122
4 *91:12 0.000565767
5 *243:A *245:A 5.7616e-05
6 *243:A *92:8 5.76905e-06
7 *240:B *91:12 1.58163e-05
8 *242:B *243:A 0.000137597
9 *246:A *91:12 0
10 *9:32 *91:12 3.56482e-05
11 *9:43 *243:A 5.58941e-05
12 *9:43 *91:12 5.48581e-05
*RES
1 *240:Y *91:12 23.6571 
2 *91:12 *243:A 21.7911 
3 *91:12 *242:A 9.3 
*END

*D_NET *92 0.000680802
*CONN
*I *246:B I *D sky130_fd_sc_hd__nand2_1
*I *243:B I *D sky130_fd_sc_hd__nand2_1
*I *244:B I *D sky130_fd_sc_hd__nand2_1
*I *242:Y O *D sky130_fd_sc_hd__nand2_2
*CAP
1 *246:B 0.000129639
2 *243:B 0
3 *244:B 1.5834e-05
4 *242:Y 0.000259714
5 *92:8 0.000145909
6 *242:B *244:B 5.65955e-05
7 *242:B *92:8 6.39253e-05
8 *243:A *92:8 5.76905e-06
9 *244:A *92:8 3.41517e-06
*RES
1 *242:Y *92:8 11.8 
2 *92:8 *244:B 9.83571 
3 *92:8 *243:B 9.3 
4 *242:Y *246:B 20.7786 
*END

*D_NET *93 0.000618803
*CONN
*I *245:A I *D sky130_fd_sc_hd__nand2_1
*I *243:Y O *D sky130_fd_sc_hd__nand2_1
*CAP
1 *245:A 0.000204076
2 *243:Y 0.000204076
3 *209:B *245:A 8.99655e-05
4 *236:A *245:A 0
5 *243:A *245:A 5.7616e-05
6 *5:27 *245:A 1.54969e-05
7 *9:43 *245:A 4.75715e-05
*RES
1 *243:Y *245:A 31.225 
*END

*D_NET *94 0.000636795
*CONN
*I *245:B I *D sky130_fd_sc_hd__nand2_1
*I *244:Y O *D sky130_fd_sc_hd__nand2_1
*CAP
1 *245:B 0.00021263
2 *244:Y 0.00021263
3 *242:B *245:B 1.32056e-05
4 *5:27 *245:B 9.83442e-05
5 *87:6 *245:B 9.99853e-05
*RES
1 *244:Y *245:B 31.1357 
*END

*D_NET *95 0.00254861
*CONN
*I *258:A I *D sky130_fd_sc_hd__xor3_2
*I *259:A I *D sky130_fd_sc_hd__maj3_2
*I *245:Y O *D sky130_fd_sc_hd__nand2_1
*CAP
1 *258:A 0.0004066
2 *259:A 0.000175573
3 *245:Y 0.000369623
4 *95:10 0.000951796
5 *258:A *266:A 0.000260999
6 *258:A *107:10 0.000100248
7 *258:A *111:12 0.000101771
8 *259:A *107:10 2.42054e-05
9 *259:B *259:A 3.1001e-05
10 *5:27 *95:10 0.000126792
*RES
1 *245:Y *95:10 19.7464 
2 *95:10 *259:A 16.8179 
3 *95:10 *258:A 22.1036 
*END

*D_NET *96 0.00147476
*CONN
*I *200:B I *D sky130_fd_sc_hd__nand2_1
*I *247:B I *D sky130_fd_sc_hd__nand2_1
*I *249:A I *D sky130_fd_sc_hd__nand2_1
*I *246:Y O *D sky130_fd_sc_hd__nand2_1
*CAP
1 *200:B 8.47489e-05
2 *247:B 9.32664e-06
3 *249:A 0
4 *246:Y 0.000335412
5 *96:23 0.000236233
6 *96:12 0.00047757
7 *247:B *249:B 9.7049e-06
8 *96:23 *249:B 0.000118806
9 *203:A *96:12 2.19778e-05
10 *246:A *96:12 2.89114e-05
11 *247:A *247:B 5.7661e-06
12 *248:A *96:23 4.18425e-05
13 *5:19 *96:23 4.9071e-05
14 *10:11 *96:12 0
15 *10:45 *96:12 0
16 *58:16 *200:B 3.46677e-05
17 *58:16 *247:B 1.04232e-05
18 *58:16 *96:23 1.02936e-05
*RES
1 *246:Y *96:12 23.3357 
2 *96:12 *249:A 9.3 
3 *96:12 *96:23 3.33929 
4 *96:23 *247:B 9.72857 
5 *96:23 *200:B 11.0857 
*END

*D_NET *97 0.000651707
*CONN
*I *251:A I *D sky130_fd_sc_hd__inv_1
*I *249:B I *D sky130_fd_sc_hd__nand2_1
*I *247:Y O *D sky130_fd_sc_hd__nand2_1
*CAP
1 *251:A 0.000129008
2 *249:B 2.96714e-05
3 *247:Y 0.00015868
4 *251:A *101:12 1.59935e-05
5 *211:A *251:A 9.20733e-05
6 *247:A *249:B 1.04232e-05
7 *247:B *249:B 9.7049e-06
8 *248:A *249:B 3.18676e-05
9 *10:45 *251:A 2.65774e-05
10 *58:16 *249:B 2.89016e-05
11 *96:23 *249:B 0.000118806
*RES
1 *247:Y *249:B 19.975 
2 *247:Y *251:A 30.1938 
*END

*D_NET *98 0.000330788
*CONN
*I *250:A I *D sky130_fd_sc_hd__nand2_1
*I *248:Y O *D sky130_fd_sc_hd__nand2_1
*CAP
1 *250:A 0.000121421
2 *248:Y 0.000121421
3 *250:A *250:B 2.64184e-05
4 *250:A *100:8 2.85321e-05
5 *5:19 *250:A 3.29959e-05
*RES
1 *248:Y *250:A 30.0821 
*END

*D_NET *99 0.000355278
*CONN
*I *250:B I *D sky130_fd_sc_hd__nand2_1
*I *249:Y O *D sky130_fd_sc_hd__nand2_1
*CAP
1 *250:B 5.77066e-05
2 *249:Y 5.77066e-05
3 *250:A *250:B 2.64184e-05
4 *5:19 *250:B 6.36036e-05
5 *10:45 *250:B 0.000149843
*RES
1 *249:Y *250:B 29.5464 
*END

*D_NET *100 0.00163827
*CONN
*I *260:A I *D sky130_fd_sc_hd__nand2_1
*I *199:A I *D sky130_fd_sc_hd__nand2_1
*I *261:A I *D sky130_fd_sc_hd__nand2_1
*I *250:Y O *D sky130_fd_sc_hd__nand2_1
*CAP
1 *260:A 7.67967e-06
2 *199:A 0
3 *261:A 0.000130079
4 *250:Y 0.000381658
5 *100:12 0.000204068
6 *100:8 0.000463328
7 *261:A *264:B 6.02811e-05
8 *210:A *260:A 3.50746e-05
9 *210:A *100:8 4.9391e-05
10 *217:B *261:A 0.000174544
11 *250:A *100:8 2.85321e-05
12 *260:B *260:A 4.1896e-06
13 *260:B *100:12 9.35228e-06
14 *64:6 *100:8 9.85599e-06
15 *64:6 *100:12 4.37451e-05
16 *64:10 *100:12 3.64933e-05
*RES
1 *250:Y *100:8 15.6036 
2 *100:8 *100:12 1.78571 
3 *100:12 *261:A 21.0857 
4 *100:12 *199:A 9.3 
5 *100:8 *260:A 9.72857 
*END

*D_NET *101 0.00113945
*CONN
*I *270:A I *D sky130_fd_sc_hd__nand2_1
*I *271:A I *D sky130_fd_sc_hd__nand2_1
*I *251:Y O *D sky130_fd_sc_hd__inv_1
*CAP
1 *270:A 5.34266e-05
2 *271:A 0
3 *251:Y 0.000267965
4 *101:12 0.000321391
5 *270:A *271:B 1.56939e-05
6 *270:A *273:A 3.61656e-05
7 *270:A *118:6 3.11088e-05
8 *270:A *118:10 9.86486e-06
9 *101:12 *279:A 1.67642e-05
10 *211:A *101:12 6.35274e-05
11 *251:A *101:12 1.59935e-05
12 *270:B *270:A 0.000104769
13 *272:A *270:A 5.49995e-05
14 *66:12 *101:12 0.000147784
*RES
1 *251:Y *101:12 23.4161 
2 *101:12 *271:A 9.3 
3 *101:12 *270:A 11.5143 
*END

*D_NET *102 0.00164187
*CONN
*I *255:B I *D sky130_fd_sc_hd__nand2_1
*I *257:A I *D sky130_fd_sc_hd__inv_2
*I *254:B I *D sky130_fd_sc_hd__nand2_1
*I *253:Y O *D sky130_fd_sc_hd__nand2_1
*CAP
1 *255:B 0.000330346
2 *257:A 0
3 *254:B 0.0001177
4 *253:Y 0.00028848
5 *102:26 0.000501126
6 *204:A *255:B 2.87077e-05
7 *205:A *255:B 0.000116752
8 *253:B *255:B 5.09655e-06
9 *253:B *102:26 2.29031e-05
10 *254:A *254:B 6.20656e-05
11 *254:A *102:26 3.18676e-05
12 *255:A *255:B 7.77597e-05
13 *7:24 *102:26 3.67279e-06
14 *7:32 *255:B 8.10737e-06
15 *7:32 *102:26 2.98475e-05
16 *86:10 *102:26 1.74352e-05
*RES
1 *253:Y *254:B 20.7964 
2 *253:Y *102:26 21.1929 
3 *102:26 *257:A 9.3 
4 *102:26 *255:B 14.8357 
*END

*D_NET *103 0.000688197
*CONN
*I *256:A I *D sky130_fd_sc_hd__nand2_1
*I *254:Y O *D sky130_fd_sc_hd__nand2_1
*CAP
1 *256:A 0.000165701
2 *254:Y 0.000165701
3 *256:A *256:B 2.69483e-05
4 p[2] *256:A 0.000206934
5 *253:B *256:A 3.75868e-05
6 *7:24 *256:A 8.53251e-05
*RES
1 *254:Y *256:A 31.6714 
*END

*D_NET *104 0.000233764
*CONN
*I *256:B I *D sky130_fd_sc_hd__nand2_1
*I *255:Y O *D sky130_fd_sc_hd__nand2_1
*CAP
1 *256:B 6.39399e-05
2 *255:Y 6.39399e-05
3 p[2] *256:B 7.89362e-05
4 *256:A *256:B 2.69483e-05
*RES
1 *255:Y *256:B 29.2429 
*END

*D_NET *105 0.00167671
*CONN
*I *258:C I *D sky130_fd_sc_hd__xor3_2
*I *259:C I *D sky130_fd_sc_hd__maj3_2
*I *257:Y O *D sky130_fd_sc_hd__inv_2
*CAP
1 *258:C 0.000209415
2 *259:C 0.000364717
3 *257:Y 0.000112563
4 *105:8 0.000686694
5 *258:C *283:B 1.89507e-06
6 *207:A *259:C 2.3541e-05
7 *215:B *258:C 0
8 *259:B *259:C 0.000100165
9 *6:29 *258:C 0.000141941
10 *7:24 *258:C 0
11 *8:22 *258:C 0
12 *62:6 *259:C 3.57752e-05
*RES
1 *257:Y *105:8 15.7464 
2 *105:8 *259:C 20.4964 
3 *105:8 *258:C 17.7107 
*END

*D_NET *106 0.000874354
*CONN
*I *281:A I *D sky130_fd_sc_hd__nand2_1
*I *280:A I *D sky130_fd_sc_hd__nand2_1
*I *258:X O *D sky130_fd_sc_hd__xor3_2
*CAP
1 *281:A 0
2 *280:A 6.58081e-06
3 *258:X 0.000199593
4 *106:14 0.000206174
5 *280:A *127:6 5.66971e-05
6 *106:14 *283:A 4.94484e-05
7 *106:14 *283:B 0.000145535
8 *106:14 *284:A 9.15842e-06
9 *106:14 *127:6 4.17702e-05
10 *280:B *280:A 5.66971e-05
11 *280:B *106:14 5.49995e-05
12 *6:29 *106:14 4.77002e-05
*RES
1 *258:X *106:14 22.55 
2 *106:14 *280:A 9.83571 
3 *106:14 *281:A 9.3 
*END

*D_NET *107 0.000983955
*CONN
*I *267:A I *D sky130_fd_sc_hd__nand2_1
*I *265:B I *D sky130_fd_sc_hd__nand2_2
*I *259:X O *D sky130_fd_sc_hd__maj3_2
*CAP
1 *267:A 0.000168884
2 *265:B 0
3 *259:X 0.000162996
4 *107:10 0.000331879
5 *267:A *267:B 0.000115006
6 *267:A *268:B 4.10796e-05
7 *267:A *111:12 5.54817e-06
8 *107:10 *111:12 2.2927e-05
9 *258:A *107:10 0.000100248
10 *259:A *107:10 2.42054e-05
11 *6:46 *267:A 1.11823e-05
*RES
1 *259:X *107:10 16.6929 
2 *107:10 *265:B 13.8 
3 *107:10 *267:A 17.2464 
*END

*D_NET *108 0.000707018
*CONN
*I *269:A I *D sky130_fd_sc_hd__nand2_1
*I *261:B I *D sky130_fd_sc_hd__nand2_1
*I *260:Y O *D sky130_fd_sc_hd__nand2_1
*CAP
1 *269:A 0.000135136
2 *261:B 0
3 *260:Y 6.23167e-05
4 *108:8 0.000197453
5 *269:A *117:6 5.49995e-05
6 *217:B *269:A 0.000129173
7 *217:B *108:8 0.000127939
*RES
1 *260:Y *108:8 15.4429 
2 *108:8 *261:B 13.8 
3 *108:8 *269:A 17.1929 
*END

*D_NET *109 0.000173432
*CONN
*I *264:A I *D sky130_fd_sc_hd__nand2_1
*I *261:Y O *D sky130_fd_sc_hd__nand2_1
*CAP
1 *264:A 8.6716e-05
2 *261:Y 8.6716e-05
*RES
1 *261:Y *264:A 19.975 
*END

*D_NET *110 0.000524371
*CONN
*I *264:B I *D sky130_fd_sc_hd__nand2_1
*I *262:Y O *D sky130_fd_sc_hd__nand2_1
*CAP
1 *264:B 0.000182762
2 *262:Y 0.000182762
3 *264:B *111:12 1.83053e-05
4 *261:A *264:B 6.02811e-05
5 *262:A *264:B 2.36643e-05
6 *64:10 *264:B 5.65955e-05
*RES
1 *262:Y *264:B 30.725 
*END

*D_NET *111 0.0013548
*CONN
*I *265:A I *D sky130_fd_sc_hd__nand2_2
*I *266:A I *D sky130_fd_sc_hd__nand2_1
*I *264:Y O *D sky130_fd_sc_hd__nand2_1
*CAP
1 *265:A 0
2 *266:A 0.000111451
3 *264:Y 0.000305472
4 *111:12 0.000416923
5 *266:A *266:B 7.99318e-05
6 *266:A *112:8 3.14779e-05
7 *258:A *266:A 0.000260999
8 *258:A *111:12 0.000101771
9 *264:B *111:12 1.83053e-05
10 *267:A *111:12 5.54817e-06
11 *107:10 *111:12 2.2927e-05
*RES
1 *264:Y *111:12 22.425 
2 *111:12 *266:A 12.7464 
3 *111:12 *265:A 9.3 
*END

*D_NET *112 0.00111524
*CONN
*I *269:B I *D sky130_fd_sc_hd__nand2_1
*I *267:B I *D sky130_fd_sc_hd__nand2_1
*I *266:B I *D sky130_fd_sc_hd__nand2_1
*I *265:Y O *D sky130_fd_sc_hd__nand2_2
*CAP
1 *269:B 0.000125961
2 *267:B 0.000126502
3 *266:B 9.26961e-05
4 *265:Y 0
5 *112:8 0.000290954
6 *112:4 0.000197716
7 *266:A *266:B 7.99318e-05
8 *266:A *112:8 3.14779e-05
9 *267:A *267:B 0.000115006
10 *6:46 *267:B 5.49995e-05
*RES
1 *265:Y *112:4 9.3 
2 *112:4 *112:8 1.375 
3 *112:8 *266:B 11.0857 
4 *112:8 *267:B 20.7821 
5 *112:4 *269:B 11.4786 
*END

*D_NET *113 0.000369293
*CONN
*I *175:A I *D sky130_fd_sc_hd__inv_1
*I *174:Y O *D sky130_fd_sc_hd__nand2_1
*CAP
1 *175:A 5.50218e-05
2 *174:Y 5.50218e-05
3 *174:A *175:A 5.7661e-06
4 *208:A *175:A 2.27416e-05
5 *274:A *175:A 0.000151406
6 *3:17 *175:A 7.93358e-05
*RES
1 *174:Y *175:A 20.9705 
*END

*D_NET *114 0.000317031
*CONN
*I *268:A I *D sky130_fd_sc_hd__nand2_1
*I *266:Y O *D sky130_fd_sc_hd__nand2_1
*CAP
1 *268:A 0.000131041
2 *266:Y 0.000131041
3 *6:46 *268:A 5.49489e-05
*RES
1 *266:Y *268:A 29.7786 
*END

*D_NET *115 0.000234122
*CONN
*I *268:B I *D sky130_fd_sc_hd__nand2_1
*I *267:Y O *D sky130_fd_sc_hd__nand2_1
*CAP
1 *268:B 3.97142e-05
2 *267:Y 3.97142e-05
3 *267:A *268:B 4.10796e-05
4 *6:46 *268:B 0.000113614
*RES
1 *267:Y *268:B 19.975 
*END

*D_NET *116 0.00216128
*CONN
*I *286:A I *D sky130_fd_sc_hd__nand2_1
*I *287:A I *D sky130_fd_sc_hd__nand2_1
*I *268:Y O *D sky130_fd_sc_hd__nand2_1
*CAP
1 *286:A 1.24159e-05
2 *287:A 6.18823e-05
3 *268:Y 0.00071158
4 *116:16 0.000785878
5 *287:A *289:A 1.3701e-05
6 *287:A *131:6 9.80173e-05
7 *178:A *116:16 9.83388e-05
8 *178:B *116:16 1.13883e-05
9 *179:B *116:16 1.59373e-05
10 *183:B *116:16 8.07313e-05
11 *218:A *116:16 0
12 *288:A *286:A 5.7661e-06
13 *288:A *287:A 3.93247e-05
14 *6:46 *116:16 0.000187042
15 *72:14 *116:16 3.92757e-05
*RES
1 *268:Y *116:16 29.0143 
2 *116:16 *287:A 11.0857 
3 *116:16 *286:A 9.72857 
*END

*D_NET *117 0.0008788
*CONN
*I *275:B I *D sky130_fd_sc_hd__nand2_1
*I *277:A I *D sky130_fd_sc_hd__nand2_1
*I *269:Y O *D sky130_fd_sc_hd__nand2_1
*CAP
1 *275:B 0.000104532
2 *277:A 0.000112619
3 *269:Y 0.000192017
4 *117:6 0.000409168
5 *275:B *121:8 5.46383e-06
6 *269:A *117:6 5.49995e-05
*RES
1 *269:Y *117:6 12.3 
2 *117:6 *277:A 20.2464 
3 *117:6 *275:B 11.0857 
*END

*D_NET *118 0.00145054
*CONN
*I *271:B I *D sky130_fd_sc_hd__nand2_1
*I *279:A I *D sky130_fd_sc_hd__nand2_1
*I *272:B I *D sky130_fd_sc_hd__nand2_1
*I *270:Y O *D sky130_fd_sc_hd__nand2_1
*CAP
1 *271:B 1.20725e-05
2 *279:A 0.000118056
3 *272:B 5.73778e-05
4 *270:Y 3.49834e-05
5 *118:10 0.000298433
6 *118:6 0.000170055
7 *271:B *273:A 4.99222e-06
8 *272:B *273:B 0.00010435
9 *272:B *121:8 0.000161504
10 *118:10 *273:A 9.93578e-05
11 *118:10 *273:B 1.24368e-05
12 *118:10 *121:8 4.34677e-05
13 *220:B *279:A 0.000219764
14 *270:A *271:B 1.56939e-05
15 *270:A *118:6 3.11088e-05
16 *270:A *118:10 9.86486e-06
17 *270:B *118:6 1.62025e-05
18 *272:A *272:B 5.46383e-06
19 *272:A *118:10 1.85914e-05
20 *101:12 *279:A 1.67642e-05
*RES
1 *270:Y *118:6 10.2464 
2 *118:6 *118:10 2.60714 
3 *118:10 *272:B 11.3893 
4 *118:10 *279:A 21.1571 
5 *118:6 *271:B 9.72857 
*END

*D_NET *119 0.000254781
*CONN
*I *273:A I *D sky130_fd_sc_hd__nand2_1
*I *271:Y O *D sky130_fd_sc_hd__nand2_1
*CAP
1 *273:A 4.03725e-05
2 *271:Y 4.03725e-05
3 *273:A *273:B 1.87331e-05
4 *270:A *273:A 3.61656e-05
5 *271:B *273:A 4.99222e-06
6 *272:A *273:A 1.47872e-05
7 *118:10 *273:A 9.93578e-05
*RES
1 *271:Y *273:A 19.975 
*END

*D_NET *120 0.000262559
*CONN
*I *273:B I *D sky130_fd_sc_hd__nand2_1
*I *272:Y O *D sky130_fd_sc_hd__nand2_1
*CAP
1 *273:B 5.04965e-05
2 *272:Y 5.04965e-05
3 *272:A *273:B 2.60464e-05
4 *272:B *273:B 0.00010435
5 *273:A *273:B 1.87331e-05
6 *118:10 *273:B 1.24368e-05
*RES
1 *272:Y *273:B 19.975 
*END

*D_NET *121 0.0011028
*CONN
*I *275:A I *D sky130_fd_sc_hd__nand2_1
*I *276:A I *D sky130_fd_sc_hd__nand2_1
*I *273:Y O *D sky130_fd_sc_hd__nand2_1
*CAP
1 *275:A 0
2 *276:A 0.000129
3 *273:Y 0.000266297
4 *121:8 0.000395297
5 *276:A *122:10 0.000101771
6 *272:B *121:8 0.000161504
7 *275:B *121:8 5.46383e-06
8 *118:10 *121:8 4.34677e-05
*RES
1 *273:Y *121:8 13.3357 
2 *121:8 *276:A 20.55 
3 *121:8 *275:A 9.3 
*END

*D_NET *122 0.000788972
*CONN
*I *279:B I *D sky130_fd_sc_hd__nand2_1
*I *276:B I *D sky130_fd_sc_hd__nand2_1
*I *277:B I *D sky130_fd_sc_hd__nand2_1
*I *275:Y O *D sky130_fd_sc_hd__nand2_1
*CAP
1 *279:B 0.000137956
2 *276:B 0
3 *277:B 1.63173e-05
4 *275:Y 5.74023e-05
5 *122:14 6.26364e-05
6 *122:10 0.000241678
7 *220:A *277:B 5.66971e-05
8 *220:A *279:B 4.84159e-05
9 *220:A *122:14 2.47593e-05
10 *220:B *279:B 4.13389e-05
11 *276:A *122:10 0.000101771
*RES
1 *275:Y *122:10 19.6393 
2 *122:10 *122:14 0.964286 
3 *122:14 *277:B 9.83571 
4 *122:14 *276:B 9.3 
5 *122:10 *279:B 11.9071 
*END

*D_NET *123 0.000715014
*CONN
*I *278:A I *D sky130_fd_sc_hd__nand2_1
*I *276:Y O *D sky130_fd_sc_hd__nand2_1
*CAP
1 *278:A 0.000199358
2 *276:Y 0.000199358
3 *278:A *278:B 8.39e-05
4 *220:A *278:A 0.000232399
*RES
1 *276:Y *278:A 32.0286 
*END

*D_NET *124 0.000240232
*CONN
*I *278:B I *D sky130_fd_sc_hd__nand2_1
*I *277:Y O *D sky130_fd_sc_hd__nand2_1
*CAP
1 *278:B 7.8166e-05
2 *277:Y 7.8166e-05
3 *221:A *278:B 0
4 *278:A *278:B 8.39e-05
*RES
1 *277:Y *278:B 29.5464 
*END

*D_NET *125 0.00112532
*CONN
*I *177:A I *D sky130_fd_sc_hd__nand2_1
*I *295:A I *D sky130_fd_sc_hd__nand2_1
*I *278:Y O *D sky130_fd_sc_hd__nand2_1
*CAP
1 *177:A 7.97366e-05
2 *295:A 0
3 *278:Y 0.000401106
4 *125:12 0.000480843
5 *179:A *177:A 1.3701e-05
6 *192:A *125:12 3.4846e-06
7 *295:B *177:A 4.64641e-05
8 *26:6 *177:A 9.99853e-05
*RES
1 *278:Y *125:12 23.3536 
2 *125:12 *295:A 9.3 
3 *125:12 *177:A 11.5143 
*END

*D_NET *126 0.000621662
*CONN
*I *185:A I *D sky130_fd_sc_hd__nand2_1
*I *186:A I *D sky130_fd_sc_hd__nand2_1
*I *279:Y O *D sky130_fd_sc_hd__nand2_1
*CAP
1 *185:A 1.16062e-05
2 *186:A 0
3 *279:Y 0.000213873
4 *126:10 0.000225479
5 *185:B *185:A 5.52302e-05
6 *194:A *126:10 4.46186e-06
7 *221:A *126:10 5.5782e-05
8 *35:8 *185:A 5.52302e-05
9 *74:12 *126:10 0
*RES
1 *279:Y *126:10 22.3714 
2 *126:10 *186:A 9.3 
3 *126:10 *185:A 9.83571 
*END

*D_NET *127 0.00130395
*CONN
*I *282:B I *D sky130_fd_sc_hd__nand2_1
*I *281:B I *D sky130_fd_sc_hd__nand2_1
*I *284:A I *D sky130_fd_sc_hd__inv_1
*I *280:Y O *D sky130_fd_sc_hd__nand2_1
*CAP
1 *282:B 8.97995e-05
2 *281:B 0
3 *284:A 0.000267097
4 *280:Y 7.50076e-05
5 *127:8 0.000280622
6 *127:6 0.000178332
7 *284:A *130:10 6.98553e-06
8 *127:6 *283:A 5.50052e-05
9 *214:A *284:A 0
10 *280:A *127:6 5.66971e-05
11 *280:B *282:B 3.65727e-05
12 *280:B *127:6 4.63305e-05
13 *280:B *127:8 1.02301e-05
14 *68:12 *284:A 0.000150342
15 *106:14 *284:A 9.15842e-06
16 *106:14 *127:6 4.17702e-05
*RES
1 *280:Y *127:6 11.0679 
2 *127:6 *127:8 0.428571 
3 *127:8 *284:A 23.5187 
4 *127:8 *281:B 9.3 
5 *127:6 *282:B 11.0857 
*END

*D_NET *128 0.000496167
*CONN
*I *283:A I *D sky130_fd_sc_hd__nand2_1
*I *281:Y O *D sky130_fd_sc_hd__nand2_1
*CAP
1 *283:A 0.000145316
2 *281:Y 0.000145316
3 *214:A *283:A 3.9733e-05
4 *6:15 *283:A 0
5 *6:29 *283:A 5.66971e-05
6 *7:24 *283:A 4.65158e-06
7 *106:14 *283:A 4.94484e-05
8 *127:6 *283:A 5.50052e-05
*RES
1 *281:Y *283:A 30.3143 
*END

*D_NET *129 0.000553073
*CONN
*I *283:B I *D sky130_fd_sc_hd__nand2_1
*I *282:Y O *D sky130_fd_sc_hd__nand2_1
*CAP
1 *283:B 0.000122757
2 *282:Y 0.000122757
3 *258:C *283:B 1.89507e-06
4 *6:29 *283:B 0.000141036
5 *7:24 *283:B 1.90936e-05
6 *106:14 *283:B 0.000145535
*RES
1 *282:Y *283:B 30.6 
*END

*D_NET *130 0.00116785
*CONN
*I *292:A I *D sky130_fd_sc_hd__nand2_1
*I *290:B I *D sky130_fd_sc_hd__nand2_1
*I *284:Y O *D sky130_fd_sc_hd__inv_1
*CAP
1 *292:A 0.000245143
2 *290:B 0
3 *284:Y 0.000221137
4 *130:10 0.00046628
5 *284:A *130:10 6.98553e-06
6 *290:A *292:A 0
7 *290:A *130:10 0
8 *292:B *292:A 2.44318e-05
9 *293:A *292:A 3.61629e-06
10 *293:B *292:A 3.76337e-05
11 *21:8 *130:10 0
12 *22:22 *292:A 0.000162619
*RES
1 *284:Y *130:10 16.8982 
2 *130:10 *290:B 13.8 
3 *130:10 *292:A 17.9786 
*END

*D_NET *131 0.00151152
*CONN
*I *294:A I *D sky130_fd_sc_hd__nand2_1
*I *287:B I *D sky130_fd_sc_hd__nand2_1
*I *288:B I *D sky130_fd_sc_hd__nand2_1
*I *286:Y O *D sky130_fd_sc_hd__nand2_1
*CAP
1 *294:A 0.00014561
2 *287:B 0
3 *288:B 0.000214477
4 *286:Y 0.000118264
5 *131:19 0.000191468
6 *131:6 0.000378599
7 *288:B *289:A 5.52238e-05
8 *131:6 *289:A 5.52302e-05
9 p[5] *294:A 0
10 *183:B *294:A 0
11 *195:B *294:A 0
12 *287:A *131:6 9.80173e-05
13 *288:A *288:B 3.53302e-05
14 *288:A *131:6 1.21289e-05
15 *289:B *288:B 0.000110665
16 *290:A *294:A 2.01767e-05
17 *21:8 *294:A 5.33882e-05
18 *70:12 *294:A 4.1331e-06
19 *70:12 *131:19 1.88048e-05
*RES
1 *286:Y *131:6 11.0679 
2 *131:6 *288:B 12.6214 
3 *131:6 *131:19 5.23214 
4 *131:19 *287:B 13.8 
5 *131:19 *294:A 16.6571 
*END

*D_NET *132 0.000264893
*CONN
*I *289:A I *D sky130_fd_sc_hd__nand2_1
*I *287:Y O *D sky130_fd_sc_hd__nand2_1
*CAP
1 *289:A 3.46036e-05
2 *287:Y 3.46036e-05
3 *287:A *289:A 1.3701e-05
4 *288:A *289:A 5.17614e-05
5 *288:B *289:A 5.52238e-05
6 *289:B *289:A 1.97695e-05
7 *131:6 *289:A 5.52302e-05
*RES
1 *287:Y *289:A 19.975 
*END
