*SPEF "ieee 1481-1999"
*DESIGN "full_gain"
*DATE "15:04:03 Sunday September 06, 2026"
*VENDOR "The OpenROAD Project"
*PROGRAM "OpenROAD"
*VERSION "dcf36133a369abc8f3c5e5738cd4d82e4903c0e0"
*DESIGN_FLOW "NAME_SCOPE LOCAL" "PIN_CAP NONE"
*DIVIDER /
*DELIMITER :
*BUS_DELIMITER []
*T_UNIT 1 NS
*C_UNIT 1 PF
*R_UNIT 1 OHM
*L_UNIT 1 HENRY

*NAME_MAP
*3 a[0]
*4 a[1]
*5 a[2]
*6 a[3]
*7 b[0]
*8 b[1]
*9 b[2]
*10 b[3]
*11 p[0]
*12 p[1]
*13 p[2]
*14 p[3]
*15 p[4]
*16 p[5]
*17 p[6]
*18 p[7]
*19 n10
*20 n100
*21 n101
*22 n102
*23 n103
*24 n104
*25 n106
*26 n107
*27 n108
*28 n109
*29 n11
*30 n110
*31 n111
*32 n112
*33 n113
*34 n115
*35 n116
*36 n117
*37 n118
*38 n119
*39 n12
*40 n120
*41 n121
*42 n122
*43 n125
*44 n126
*45 n127
*46 n128
*47 n129
*48 n13
*49 n14
*50 n15
*51 n16
*52 n17
*53 n18
*54 n19
*55 n20
*56 n21
*57 n22
*58 n23
*59 n24
*60 n25
*61 n26
*62 n27
*63 n28
*64 n29
*65 n30
*66 n31
*67 n32
*68 n33
*69 n34
*70 n35
*71 n36
*72 n37
*73 n38
*74 n39
*75 n40
*76 n41
*77 n42
*78 n44
*79 n45
*80 n46
*81 n47
*82 n48
*83 n49
*84 n50
*85 n51
*86 n52
*87 n53
*88 n54
*89 n55
*90 n56
*91 n57
*92 n58
*93 n59
*94 n60
*95 n61
*96 n62
*97 n63
*98 n64
*99 n65
*100 n66
*101 n67
*102 n68
*103 n69
*104 n70
*105 n72
*106 n73
*107 n74
*108 n75
*109 n76
*110 n77
*111 n78
*112 n79
*113 n8
*114 n80
*115 n81
*116 n82
*117 n83
*118 n84
*119 n85
*120 n86
*121 n87
*122 n88
*123 n89
*124 n90
*125 n91
*126 n92
*127 n93
*128 n94
*129 n95
*130 n97
*131 n98
*132 n99
*133 PHY_EDGE_ROW_0_Left_13
*134 PHY_EDGE_ROW_0_Right_0
*135 PHY_EDGE_ROW_10_Left_23
*136 PHY_EDGE_ROW_10_Right_10
*137 PHY_EDGE_ROW_11_Left_24
*138 PHY_EDGE_ROW_11_Right_11
*139 PHY_EDGE_ROW_12_Left_25
*140 PHY_EDGE_ROW_12_Right_12
*141 PHY_EDGE_ROW_1_Left_14
*142 PHY_EDGE_ROW_1_Right_1
*143 PHY_EDGE_ROW_2_Left_15
*144 PHY_EDGE_ROW_2_Right_2
*145 PHY_EDGE_ROW_3_Left_16
*146 PHY_EDGE_ROW_3_Right_3
*147 PHY_EDGE_ROW_4_Left_17
*148 PHY_EDGE_ROW_4_Right_4
*149 PHY_EDGE_ROW_5_Left_18
*150 PHY_EDGE_ROW_5_Right_5
*151 PHY_EDGE_ROW_6_Left_19
*152 PHY_EDGE_ROW_6_Right_6
*153 PHY_EDGE_ROW_7_Left_20
*154 PHY_EDGE_ROW_7_Right_7
*155 PHY_EDGE_ROW_8_Left_21
*156 PHY_EDGE_ROW_8_Right_8
*157 PHY_EDGE_ROW_9_Left_22
*158 PHY_EDGE_ROW_9_Right_9
*159 TAP_TAPCELL_ROW_0_26
*160 TAP_TAPCELL_ROW_0_27
*161 TAP_TAPCELL_ROW_10_37
*162 TAP_TAPCELL_ROW_11_38
*163 TAP_TAPCELL_ROW_12_39
*164 TAP_TAPCELL_ROW_12_40
*165 TAP_TAPCELL_ROW_1_28
*166 TAP_TAPCELL_ROW_2_29
*167 TAP_TAPCELL_ROW_3_30
*168 TAP_TAPCELL_ROW_4_31
*169 TAP_TAPCELL_ROW_5_32
*170 TAP_TAPCELL_ROW_6_33
*171 TAP_TAPCELL_ROW_7_34
*172 TAP_TAPCELL_ROW_8_35
*173 TAP_TAPCELL_ROW_9_36
*174 g0
*175 g1
*176 g10
*177 g100
*178 g101
*179 g102
*180 g103
*181 g104
*182 g105
*183 g106
*184 g107
*185 g108
*186 g109
*187 g11
*188 g110
*189 g111
*190 g112
*191 g113
*192 g114
*193 g115
*194 g116
*195 g117
*196 g118
*197 g119
*198 g12
*199 g120
*200 g121
*201 g13
*202 g14
*203 g15
*204 g16
*205 g17
*206 g18
*207 g19
*208 g2
*209 g20
*210 g21
*211 g22
*212 g23
*213 g24
*214 g25
*215 g26
*216 g27
*217 g28
*218 g29
*219 g3
*220 g30
*221 g31
*222 g32
*223 g33
*224 g34
*225 g35
*226 g36
*227 g37
*228 g38
*229 g39
*230 g4
*231 g40
*232 g41
*233 g42
*234 g43
*235 g44
*236 g45
*237 g46
*238 g47
*239 g48
*240 g49
*241 g5
*242 g50
*243 g51
*244 g52
*245 g53
*246 g54
*247 g55
*248 g56
*249 g57
*250 g58
*251 g59
*252 g6
*253 g60
*254 g61
*255 g62
*256 g63
*257 g64
*258 g65
*259 g66
*260 g67
*261 g68
*262 g69
*263 g7
*264 g70
*265 g71
*266 g72
*267 g73
*268 g74
*269 g75
*270 g76
*271 g77
*272 g78
*273 g79
*274 g8
*275 g80
*276 g81
*277 g82
*278 g83
*279 g84
*280 g85
*281 g86
*282 g87
*283 g88
*284 g89
*285 g9
*286 g90
*287 g91
*288 g92
*289 g93
*290 g94
*291 g95
*292 g96
*293 g97
*294 g98
*295 g99

*PORTS
a[0] I
a[1] I
a[2] I
a[3] I
b[0] I
b[1] I
b[2] I
b[3] I
p[0] O
p[1] O
p[2] O
p[3] O
p[4] O
p[5] O
p[6] O
p[7] O

*D_NET *3 0.00492107
*CONN
*P a[0] I
*I *252:A I *D sky130_fd_sc_hd__nand2_1
*I *230:A I *D sky130_fd_sc_hd__nand2_4
*I *174:A I *D sky130_fd_sc_hd__nand2_1
*I *208:A I *D sky130_fd_sc_hd__nand2_1
*CAP
1 a[0] 0.00046502
2 *252:A 0.00029223
3 *230:A 0
4 *174:A 0
5 *208:A 0.00028646
6 *3:41 0.000582738
7 *3:13 0.000485132
8 *3:7 0.000954202
9 *208:A *175:A 5.33005e-05
10 *208:A *208:B 5.43838e-05
11 *208:A *222:A 9.7049e-06
12 *208:A *274:A 8.89178e-05
13 *208:A *285:A 8.28621e-05
14 *208:A *8:13 0
15 *208:A *52:6 7.90536e-05
16 *252:A *241:A 5.20751e-05
17 *252:A *252:B 1.97695e-05
18 *252:A *9:21 0.000105163
19 *252:A *54:8 0
20 *252:A *79:12 3.99614e-06
21 *3:7 p[0] 0.000567001
22 *3:7 *4:7 0
23 *3:13 p[0] 9.02232e-05
24 *3:13 *175:A 0.00010867
25 *3:13 *187:A 0.000100684
26 *3:13 *208:B 0.000230475
27 *3:13 *274:A 1.13127e-05
28 *3:41 *229:A 2.36643e-05
29 *3:41 *48:16 0.000142152
30 *3:41 *54:8 3.18747e-05
*RES
1 a[0] *3:7 17.3393 
2 *3:7 *3:13 5.5 
3 *3:13 *208:A 23.8357 
4 *3:13 *174:A 9.3 
5 *3:7 *3:41 4.96429 
6 *3:41 *230:A 9.3 
7 *3:41 *252:A 14.8 
*END

*D_NET *4 0.00644415
*CONN
*P a[1] I
*I *202:A I *D sky130_fd_sc_hd__nand2_1
*I *198:A I *D sky130_fd_sc_hd__nand2_1
*I *274:A I *D sky130_fd_sc_hd__nand2_1
*I *176:A I *D sky130_fd_sc_hd__nand2_2
*CAP
1 a[1] 0.000521618
2 *202:A 1.50539e-05
3 *198:A 7.45788e-05
4 *274:A 0.000486668
5 *176:A 0
6 *4:39 0.00129612
7 *4:18 0.00178792
8 *4:7 0.00061638
9 *198:A *238:A 1.46717e-05
10 *198:A *252:B 3.92757e-05
11 *198:A *9:11 6.42242e-05
12 *202:A *252:B 2.72545e-05
13 *202:A *9:11 3.17163e-05
14 *274:A *175:A 6.05161e-06
15 *274:A *208:B 0.00010096
16 *274:A *231:A 3.69047e-06
17 *274:A *285:A 1.3701e-05
18 *274:A *7:28 0
19 *274:A *82:12 1.48545e-05
20 *4:7 p[0] 0.000567001
21 *4:7 *208:B 2.84494e-05
22 *4:18 *229:A 0
23 *4:18 *8:13 0
24 *4:39 *228:B 0.000139631
25 *4:39 *231:A 3.14193e-05
26 *4:39 *231:B 0.000143651
27 *4:39 *238:B 2.89114e-05
28 *4:39 *239:A 5.52238e-05
29 *4:39 *240:A 4.55107e-05
30 *4:39 *240:B 1.74352e-05
31 *4:39 *10:15 3.32631e-05
32 *4:39 *80:6 9.76435e-06
33 *4:39 *81:6 8.42609e-05
34 *4:39 *91:12 4.46608e-05
35 *208:A *274:A 8.89178e-05
36 *3:7 *4:7 0
37 *3:13 *274:A 1.13127e-05
*RES
1 a[1] *4:7 13.9821 
2 *4:7 *176:A 13.8 
3 *4:7 *4:18 6.14286 
4 *4:18 *274:A 25.4429 
5 *4:18 *4:39 19.8214 
6 *4:39 *198:A 15.4429 
7 *4:39 *202:A 14.5321 
*END

*D_NET *5 0.00491113
*CONN
*P a[2] I
*I *209:A I *D sky130_fd_sc_hd__nand2_1
*I *206:A I *D sky130_fd_sc_hd__nand2_1
*I *204:A I *D sky130_fd_sc_hd__nand2_1
*I *211:A I *D sky130_fd_sc_hd__nand2_1
*CAP
1 a[2] 0.000493991
2 *209:A 0
3 *206:A 0
4 *204:A 0.000292842
5 *211:A 3.20638e-05
6 *5:26 0.000663652
7 *5:24 0.00125192
8 *5:7 0.00140716
9 *204:A *204:B 5.46383e-06
10 *204:A *105:10 1.24368e-05
11 *211:A *251:A 9.13861e-05
12 *211:A *10:39 4.6657e-05
13 *5:7 *9:11 0
14 *5:7 *10:7 0
15 *5:24 *209:B 0.00030367
16 *5:24 *210:A 1.13883e-05
17 *5:24 *251:A 8.43916e-06
18 *5:24 *100:10 0.000282246
19 *5:24 *101:10 7.81355e-06
*RES
1 a[2] *5:7 4.91087 
2 *5:7 *211:A 14.9875 
3 *5:7 *5:24 16.75 
4 *5:24 *5:26 5.875 
5 *5:26 *204:A 14.3893 
6 *5:26 *206:A 9.3 
7 *5:24 *209:A 9.3 
*END

*D_NET *6 0.00563553
*CONN
*P a[3] I
*I *213:A I *D sky130_fd_sc_hd__nand2_1
*I *217:A I *D sky130_fd_sc_hd__nand2_1
*I *220:A I *D sky130_fd_sc_hd__nand2_1
*I *215:A I *D sky130_fd_sc_hd__nand2_1
*CAP
1 a[3] 0.000260244
2 *213:A 9.23596e-05
3 *217:A 0
4 *220:A 0.000351386
5 *215:A 1.67863e-05
6 *6:28 0.000789046
7 *6:17 0.00087485
8 *6:9 0.000773007
9 *213:A *213:B 0.000144512
10 *213:A *214:A 6.09899e-05
11 *213:A *284:A 0.000129868
12 *213:A *68:12 0
13 *215:A *215:B 5.46383e-06
14 *220:A *217:B 0.00027221
15 *220:A *220:B 1.92535e-05
16 *220:A *278:A 7.64135e-05
17 *220:A *278:B 8.64109e-05
18 *220:A *122:16 0.000109744
19 *220:A *125:14 3.07386e-05
20 *6:9 p[3] 0.000365563
21 *6:9 *213:B 0.000118912
22 *6:9 *283:A 9.60337e-06
23 *6:9 *7:7 0.000419291
24 *6:9 *8:7 8.33218e-06
25 *6:9 *68:12 0
26 *6:9 *106:14 0
27 *6:17 *215:B 5.4959e-05
28 *6:17 *280:B 0.000272371
29 *6:17 *282:B 3.24049e-05
30 *6:28 *215:B 4.51148e-05
31 *6:28 *267:A 5.49489e-05
32 *6:28 *268:A 5.49489e-05
33 *6:28 *268:B 5.07619e-05
34 *6:28 *116:12 5.50313e-05
*RES
1 a[3] *6:9 6.13874 
2 *6:9 *6:17 12.5714 
3 *6:17 *215:A 9.72857 
4 *6:17 *6:28 8.35714 
5 *6:28 *220:A 17.3 
6 *6:28 *217:A 9.3 
7 *6:9 *213:A 16.7107 
*END

*D_NET *7 0.00511184
*CONN
*P b[0] I
*I *213:B I *D sky130_fd_sc_hd__nand2_1
*I *174:B I *D sky130_fd_sc_hd__nand2_1
*I *274:B I *D sky130_fd_sc_hd__nand2_1
*I *204:B I *D sky130_fd_sc_hd__nand2_1
*CAP
1 b[0] 0.000152335
2 *213:B 0.000177937
3 *174:B 0.000136144
4 *274:B 0
5 *204:B 1.44119e-05
6 *7:28 0.000749882
7 *7:15 0.00122369
8 *7:7 0.000925812
9 *204:B *255:B 1.19813e-05
10 *213:B p[3] 7.77686e-05
11 *213:B *283:A 2.42657e-05
12 *213:B *284:A 1.41029e-05
13 *7:7 *8:7 0.000410063
14 *7:15 p[2] 1.31795e-06
15 *7:15 *205:A 3.75122e-05
16 *7:15 *255:B 0.000274036
17 *7:15 *256:B 1.62025e-05
18 *7:15 *257:A 7.70374e-06
19 *7:15 *283:A 6.27272e-06
20 *7:28 *205:A 2.85234e-05
21 *7:28 *223:A 0
22 *7:28 *224:A 0
23 *7:28 *235:B 0
24 *7:28 *253:B 0
25 *7:28 *8:13 0
26 *7:28 *29:10 0
27 *7:28 *78:12 5.56943e-05
28 *7:28 *105:10 7.80059e-05
29 *204:A *204:B 5.46383e-06
30 *213:A *213:B 0.000144512
31 *274:A *7:28 0
32 *6:9 *213:B 0.000118912
33 *6:9 *7:7 0.000419291
*RES
1 b[0] *7:7 4.5756 
2 *7:7 *7:15 14.0982 
3 *7:15 *204:B 9.72857 
4 *7:15 *7:28 15.1786 
5 *7:28 *274:B 13.8 
6 *7:28 *174:B 15.1571 
7 *7:7 *213:B 18.6304 
*END

*D_NET *8 0.00629124
*CONN
*P b[1] I
*I *215:B I *D sky130_fd_sc_hd__nand2_1
*I *206:B I *D sky130_fd_sc_hd__nand2_1
*I *176:B I *D sky130_fd_sc_hd__nand2_2
*I *208:B I *D sky130_fd_sc_hd__nand2_1
*CAP
1 b[1] 0.00088142
2 *215:B 0.00026113
3 *206:B 0
4 *176:B 0
5 *208:B 0.000433169
6 *8:13 0.00102001
7 *8:9 0.000775004
8 *8:7 0.00133072
9 *208:B p[0] 7.90536e-05
10 *208:B *175:A 1.21289e-05
11 *208:B *222:A 1.04232e-05
12 *208:B *285:A 6.69286e-05
13 *208:B *52:6 3.48705e-05
14 *215:B *258:B 2.30389e-05
15 *215:B *258:C 0
16 *8:7 p[2] 0
17 *8:9 *207:A 0.000127939
18 *8:9 *258:B 1.84336e-05
19 *8:9 *258:C 0
20 *8:13 *229:A 0
21 *8:13 *235:A 0.000128154
22 *8:13 *78:12 0
23 *8:13 *82:12 0.000150625
24 *208:A *208:B 5.43838e-05
25 *208:A *8:13 0
26 *215:A *215:B 5.46383e-06
27 *274:A *208:B 0.00010096
28 *3:13 *208:B 0.000230475
29 *4:7 *208:B 2.84494e-05
30 *4:18 *8:13 0
31 *6:9 *8:7 8.33218e-06
32 *6:17 *215:B 5.4959e-05
33 *6:28 *215:B 4.51148e-05
34 *7:7 *8:7 0.000410063
35 *7:28 *8:13 0
*RES
1 b[1] *8:7 6.089 
2 *8:7 *8:9 3.91964 
3 *8:9 *8:13 10.375 
4 *8:13 *208:B 23.0679 
5 *8:13 *176:B 13.8 
6 *8:9 *206:B 13.8 
7 *8:7 *215:B 19.0054 
*END

*D_NET *9 0.00646578
*CONN
*P b[2] I
*I *198:B I *D sky130_fd_sc_hd__nand2_1
*I *230:B I *D sky130_fd_sc_hd__nand2_4
*I *217:B I *D sky130_fd_sc_hd__nand2_1
*I *209:B I *D sky130_fd_sc_hd__nand2_1
*CAP
1 b[2] 0.000535585
2 *198:B 0
3 *230:B 0
4 *217:B 0.000540303
5 *209:B 8.94345e-05
6 *9:25 0.00113756
7 *9:21 0.00096309
8 *9:11 0.000990855
9 *209:B *210:A 4.23554e-05
10 *209:B *64:6 4.30073e-05
11 *209:B *100:10 1.24368e-05
12 *217:B *277:A 0.00012249
13 *217:B *100:16 0.000174682
14 *217:B *125:14 3.46801e-05
15 *9:11 *203:A 2.28904e-05
16 *9:11 *10:7 0.00049094
17 *9:11 *10:15 5.74289e-05
18 *9:11 *88:30 0
19 *9:21 *201:A 5.55971e-05
20 *9:21 *237:A 3.18676e-05
21 *9:21 *237:B 2.44318e-05
22 *9:21 *252:B 5.24952e-05
23 *9:21 *263:A 0.000138683
24 *9:21 *50:6 1.96517e-05
25 *9:21 *56:6 1.22159e-05
26 *9:25 *239:A 0
27 *9:25 *245:A 4.57445e-05
28 *9:25 *246:B 0
29 *9:25 *88:30 0
30 *9:25 *91:12 5.03694e-05
31 *198:A *9:11 6.42242e-05
32 *202:A *9:11 3.17163e-05
33 *220:A *217:B 0.00027221
34 *252:A *9:21 0.000105163
35 *5:7 *9:11 0
36 *5:24 *209:B 0.00030367
*RES
1 b[2] *9:11 13.3305 
2 *9:11 *9:21 9.64286 
3 *9:21 *9:25 13.7321 
4 *9:25 *209:B 17.1214 
5 *9:25 *217:B 24.6393 
6 *9:21 *230:B 9.3 
7 *9:11 *198:B 9.3 
*END

*D_NET *10 0.00525462
*CONN
*P b[3] I
*I *220:B I *D sky130_fd_sc_hd__nand2_1
*I *211:B I *D sky130_fd_sc_hd__nand2_1
*I *202:B I *D sky130_fd_sc_hd__nand2_1
*I *252:B I *D sky130_fd_sc_hd__nand2_1
*CAP
1 b[3] 0.00028909
2 *220:B 0.000652248
3 *211:B 0
4 *202:B 0
5 *252:B 0.000262364
6 *10:39 0.000879222
7 *10:15 0.00058661
8 *10:7 0.000840309
9 *220:B *212:A 0.000126272
10 *220:B *278:A 5.10039e-05
11 *220:B *279:B 5.66971e-05
12 *220:B *66:12 0.000144132
13 *220:B *122:16 1.47658e-05
14 *252:B *201:A 1.04232e-05
15 *252:B *237:A 5.52238e-05
16 *252:B *237:B 5.52302e-05
17 *252:B *238:A 0.000127439
18 *252:B *263:A 0.00010867
19 *252:B *50:6 3.33174e-05
20 *252:B *56:6 3.33238e-05
21 *252:B *88:10 5.71472e-05
22 *10:15 *203:A 0
23 *10:15 *239:A 0
24 *10:15 *240:B 0
25 *10:15 *247:B 0
26 *10:39 *247:B 0
27 *10:39 *251:A 1.72984e-05
28 *10:39 *58:12 6.74911e-05
29 *198:A *252:B 3.92757e-05
30 *202:A *252:B 2.72545e-05
31 *211:A *10:39 4.6657e-05
32 *220:A *220:B 1.92535e-05
33 *252:A *252:B 1.97695e-05
34 *4:39 *10:15 3.32631e-05
35 *5:7 *10:7 0
36 *9:11 *10:7 0.00049094
37 *9:11 *10:15 5.74289e-05
38 *9:21 *252:B 5.24952e-05
*RES
1 b[3] *10:7 4.76673 
2 *10:7 *10:15 10.2232 
3 *10:15 *252:B 24.6214 
4 *10:15 *202:B 9.3 
5 *10:7 *10:39 4.83036 
6 *10:39 *211:B 13.8 
7 *10:39 *220:B 26.5321 
*END

*D_NET *11 0.00213862
*CONN
*P p[0] O
*I *175:Y O *D sky130_fd_sc_hd__inv_1
*CAP
1 p[0] 0.000417672
2 *175:Y 0.000417672
3 *208:B p[0] 7.90536e-05
4 *3:7 p[0] 0.000567001
5 *3:13 p[0] 9.02232e-05
6 *4:7 p[0] 0.000567001
*RES
1 *175:Y p[0] 28.7196 
*END

*D_NET *12 0.000819631
*CONN
*P p[1] O
*I *225:Y O *D sky130_fd_sc_hd__nand2_1
*CAP
1 p[1] 0.000393881
2 *225:Y 0.000393881
3 p[1] p[2] 0
4 p[1] *225:A 3.18676e-05
*RES
1 *225:Y p[1] 21.4866 
*END

*D_NET *13 0.000905901
*CONN
*P p[2] O
*I *256:Y O *D sky130_fd_sc_hd__nand2_1
*CAP
1 p[2] 0.000452292
2 *256:Y 0.000452292
3 p[1] p[2] 0
4 *7:15 p[2] 1.31795e-06
5 *8:7 p[2] 0
*RES
1 *256:Y p[2] 22.8412 
*END

*D_NET *14 0.00141164
*CONN
*P p[3] O
*I *283:Y O *D sky130_fd_sc_hd__nand2_1
*CAP
1 p[3] 0.000480526
2 *283:Y 0.000480526
3 p[3] *283:A 7.25873e-06
4 *213:B p[3] 7.77686e-05
5 *6:9 p[3] 0.000365563
*RES
1 *283:Y p[3] 22.0975 
*END

*D_NET *15 0.00175628
*CONN
*P p[4] O
*I *293:Y O *D sky130_fd_sc_hd__nand2_1
*CAP
1 p[4] 0.000796497
2 *293:Y 0.000796497
3 p[4] *284:A 4.33587e-05
4 p[4] *130:10 0.000119924
*RES
1 *293:Y p[4] 28.6256 
*END

*D_NET *16 0.00223357
*CONN
*P p[5] O
*I *183:Y O *D sky130_fd_sc_hd__nand2_1
*CAP
1 p[5] 0.00105182
2 *183:Y 0.00105182
3 p[5] *178:B 4.23644e-06
4 p[5] *179:B 3.13687e-05
5 p[5] *183:A 1.83136e-05
6 p[5] *30:12 7.6021e-05
*RES
1 *183:Y p[5] 34.0589 
*END

*D_NET *17 0.00193763
*CONN
*P p[6] O
*I *193:Y O *D sky130_fd_sc_hd__nand2_2
*CAP
1 p[6] 0.000562883
2 *193:Y 0.000562883
3 p[6] p[7] 0.000472558
4 p[6] *190:A 1.39726e-05
5 p[6] *191:A 3.69697e-05
6 p[6] *191:B 8.00806e-05
7 p[6] *193:B 5.52302e-05
8 p[6] *194:A 0
9 p[6] *194:B 0.000153047
*RES
1 *193:Y p[6] 28.7018 
*END

*D_NET *18 0.00117605
*CONN
*P p[7] O
*I *194:Y O *D sky130_fd_sc_hd__nand2_1
*CAP
1 p[7] 0.000351745
2 *194:Y 0.000351745
3 p[6] p[7] 0.000472558
*RES
1 *194:Y p[7] 24.1125 
*END

*D_NET *19 0.000378761
*CONN
*I *219:A I *D sky130_fd_sc_hd__inv_1
*I *208:Y O *D sky130_fd_sc_hd__nand2_1
*CAP
1 *219:A 0.000175377
2 *208:Y 0.000175377
3 *219:A *29:10 2.80081e-05
*RES
1 *208:Y *219:A 30.6045 
*END

*D_NET *20 0.000231642
*CONN
*I *289:B I *D sky130_fd_sc_hd__nand2_1
*I *288:Y O *D sky130_fd_sc_hd__nand2_1
*CAP
1 *289:B 3.79869e-05
2 *288:Y 3.79869e-05
3 *289:B *288:A 3.31648e-05
4 *289:B *288:B 0.000102734
5 *289:B *289:A 1.97695e-05
*RES
1 *288:Y *289:B 19.975 
*END

*D_NET *21 0.00100573
*CONN
*I *291:A I *D sky130_fd_sc_hd__nand2_1
*I *290:A I *D sky130_fd_sc_hd__nand2_1
*I *289:Y O *D sky130_fd_sc_hd__nand2_1
*CAP
1 *291:A 9.44324e-05
2 *290:A 0
3 *289:Y 0.000240421
4 *21:14 0.000334853
5 *291:A *294:B 2.44318e-05
6 *291:A *22:8 5.75275e-05
7 *21:14 *288:B 0.00011121
8 *21:14 *290:B 0
9 *21:14 *294:A 0
10 *21:14 *294:B 0.00014285
11 *21:14 *130:10 0
*RES
1 *289:Y *21:14 22.55 
2 *21:14 *290:A 9.3 
3 *21:14 *291:A 11.5143 
*END

*D_NET *22 0.000877776
*CONN
*I *294:B I *D sky130_fd_sc_hd__nand2_1
*I *291:B I *D sky130_fd_sc_hd__nand2_1
*I *292:B I *D sky130_fd_sc_hd__nand2_1
*I *290:Y O *D sky130_fd_sc_hd__nand2_1
*CAP
1 *294:B 0.000142545
2 *291:B 0
3 *292:B 2.03529e-05
4 *290:Y 0
5 *22:8 9.3447e-05
6 *22:4 0.000215639
7 *292:B *292:A 2.44318e-05
8 *294:B *182:A 0
9 *22:8 *292:A 0.000156551
10 *291:A *294:B 2.44318e-05
11 *291:A *22:8 5.75275e-05
12 *21:14 *294:B 0.00014285
*RES
1 *290:Y *22:4 9.3 
2 *22:4 *22:8 2.19643 
3 *22:8 *292:B 9.83571 
4 *22:8 *291:B 9.3 
5 *22:4 *294:B 12.3179 
*END

*D_NET *23 0.000449002
*CONN
*I *293:A I *D sky130_fd_sc_hd__nand2_1
*I *291:Y O *D sky130_fd_sc_hd__nand2_1
*CAP
1 *293:A 0.000108591
2 *291:Y 0.000108591
3 *293:A *288:B 0
4 *293:A *292:A 5.52238e-05
5 *293:A *293:B 7.50505e-05
6 *293:A *130:10 0.000101545
*RES
1 *291:Y *293:A 30.0821 
*END

*D_NET *24 0.000504388
*CONN
*I *293:B I *D sky130_fd_sc_hd__nand2_1
*I *292:Y O *D sky130_fd_sc_hd__nand2_1
*CAP
1 *293:B 0.000165151
2 *292:Y 0.000165151
3 *293:B *292:A 9.90367e-05
4 *293:A *293:B 7.50505e-05
*RES
1 *292:Y *293:B 30.4929 
*END

*D_NET *25 0.000889058
*CONN
*I *195:B I *D sky130_fd_sc_hd__nand2_1
*I *180:B I *D sky130_fd_sc_hd__nand2_1
*I *182:A I *D sky130_fd_sc_hd__nand2_1
*I *294:Y O *D sky130_fd_sc_hd__nand2_1
*CAP
1 *195:B 0.00012045
2 *180:B 1.02833e-05
3 *182:A 1.60352e-05
4 *294:Y 0.000113476
5 *25:15 0.000200947
6 *25:6 0.000199725
7 *180:B *181:B 3.99614e-06
8 *180:B *182:B 1.04232e-05
9 *182:A *182:B 5.7661e-06
10 *195:B *180:A 5.65955e-05
11 *195:B *181:B 4.83631e-05
12 *195:B *182:B 3.18676e-05
13 *195:B *30:23 3.92619e-05
14 *25:15 *182:B 3.18676e-05
15 *294:B *182:A 0
*RES
1 *294:Y *25:6 11.0679 
2 *25:6 *182:A 9.72857 
3 *25:6 *25:15 1.35714 
4 *25:15 *180:B 9.72857 
5 *25:15 *195:B 12.3179 
*END

*D_NET *26 0.0016459
*CONN
*I *184:A I *D sky130_fd_sc_hd__nand2_1
*I *177:B I *D sky130_fd_sc_hd__nand2_1
*I *178:B I *D sky130_fd_sc_hd__nand2_1
*I *295:Y O *D sky130_fd_sc_hd__nand2_1
*CAP
1 *184:A 0.000192962
2 *177:B 0
3 *178:B 0.000220439
4 *295:Y 0.000127395
5 *26:19 0.000239882
6 *26:6 0.000394753
7 *178:B *178:A 0.000203831
8 *178:B *179:B 1.64616e-05
9 *178:B *287:A 0
10 *184:A *30:12 7.2412e-05
11 *184:A *72:12 3.4846e-06
12 *26:6 *177:A 1.56e-05
13 *26:6 *178:A 0.000139424
14 *26:19 *72:12 1.50171e-05
15 p[5] *178:B 4.23644e-06
*RES
1 *295:Y *26:6 11.0679 
2 *26:6 *178:B 12.6214 
3 *26:6 *26:19 5.23214 
4 *26:19 *177:B 13.8 
5 *26:19 *184:A 17.1929 
*END

*D_NET *27 0.000199323
*CONN
*I *179:A I *D sky130_fd_sc_hd__nand2_1
*I *177:Y O *D sky130_fd_sc_hd__nand2_1
*CAP
1 *179:A 5.85414e-05
2 *177:Y 5.85414e-05
3 *179:A *177:A 1.17091e-05
4 *179:A *178:A 5.07619e-05
5 *179:A *179:B 1.97695e-05
*RES
1 *177:Y *179:A 19.975 
*END

*D_NET *28 0.000190065
*CONN
*I *179:B I *D sky130_fd_sc_hd__nand2_1
*I *178:Y O *D sky130_fd_sc_hd__nand2_1
*CAP
1 *179:B 4.00874e-05
2 *178:Y 4.00874e-05
3 *179:B *178:A 4.22908e-05
4 p[5] *179:B 3.13687e-05
5 *178:B *179:B 1.64616e-05
6 *179:A *179:B 1.97695e-05
*RES
1 *178:Y *179:B 19.975 
*END

*D_NET *29 0.00103025
*CONN
*I *222:B I *D sky130_fd_sc_hd__nand2_1
*I *224:A I *D sky130_fd_sc_hd__nand2_1
*I *219:Y O *D sky130_fd_sc_hd__inv_1
*CAP
1 *222:B 0
2 *224:A 0.000148084
3 *219:Y 0.000319765
4 *29:10 0.000467849
5 *224:A *75:10 6.65398e-05
6 *219:A *29:10 2.80081e-05
7 *7:28 *224:A 0
8 *7:28 *29:10 0
*RES
1 *219:Y *29:10 18.1304 
2 *29:10 *224:A 16.5857 
3 *29:10 *222:B 13.8 
*END

*D_NET *30 0.00104588
*CONN
*I *181:A I *D sky130_fd_sc_hd__nand2_1
*I *180:A I *D sky130_fd_sc_hd__nand2_1
*I *195:A I *D sky130_fd_sc_hd__nand2_1
*I *179:Y O *D sky130_fd_sc_hd__nand2_1
*CAP
1 *181:A 0
2 *180:A 7.56554e-05
3 *195:A 0
4 *179:Y 0.000130048
5 *30:23 0.000170116
6 *30:12 0.000224509
7 *180:A *183:A 2.08554e-05
8 *30:12 *184:B 0.000139632
9 *30:23 *181:B 1.71067e-05
10 *30:23 *184:B 2.36643e-05
11 p[5] *30:12 7.6021e-05
12 *184:A *30:12 7.2412e-05
13 *195:B *180:A 5.65955e-05
14 *195:B *30:23 3.92619e-05
*RES
1 *179:Y *30:12 21.6036 
2 *30:12 *195:A 9.3 
3 *30:12 *30:23 2.21429 
4 *30:23 *180:A 19.7821 
5 *30:23 *181:A 9.3 
*END

*D_NET *31 0.0003797
*CONN
*I *181:B I *D sky130_fd_sc_hd__nand2_1
*I *182:B I *D sky130_fd_sc_hd__nand2_1
*I *180:Y O *D sky130_fd_sc_hd__nand2_1
*CAP
1 *181:B 5.20216e-05
2 *182:B 6.3133e-05
3 *180:Y 0
4 *31:4 0.000115155
5 *180:B *181:B 3.99614e-06
6 *180:B *182:B 1.04232e-05
7 *182:A *182:B 5.7661e-06
8 *195:B *181:B 4.83631e-05
9 *195:B *182:B 3.18676e-05
10 *25:15 *182:B 3.18676e-05
11 *30:23 *181:B 1.71067e-05
*RES
1 *180:Y *31:4 9.3 
2 *31:4 *182:B 10.675 
3 *31:4 *181:B 10.675 
*END

*D_NET *32 0.000429974
*CONN
*I *183:A I *D sky130_fd_sc_hd__nand2_1
*I *181:Y O *D sky130_fd_sc_hd__nand2_1
*CAP
1 *183:A 0.000192499
2 *181:Y 0.000192499
3 *183:A *183:B 0
4 *183:A *287:B 0
5 *183:A *116:12 5.80706e-06
6 p[5] *183:A 1.83136e-05
7 *180:A *183:A 2.08554e-05
*RES
1 *181:Y *183:A 31.2786 
*END

*D_NET *33 0.000655812
*CONN
*I *183:B I *D sky130_fd_sc_hd__nand2_1
*I *182:Y O *D sky130_fd_sc_hd__nand2_1
*CAP
1 *183:B 0.000202437
2 *182:Y 0.000202437
3 *183:B *287:A 0.000108082
4 *183:B *294:A 0
5 *183:B *131:6 0.000142856
6 *183:A *183:B 0
*RES
1 *182:Y *183:B 31.85 
*END

*D_NET *34 0.000601998
*CONN
*I *190:B I *D sky130_fd_sc_hd__nand2_2
*I *192:A I *D sky130_fd_sc_hd__nand2_1
*I *184:Y O *D sky130_fd_sc_hd__nand2_1
*CAP
1 *190:B 9.73427e-05
2 *192:A 0
3 *184:Y 0.000177776
4 *34:8 0.000275118
5 *190:B *190:A 0
6 *190:B *193:B 5.17614e-05
*RES
1 *184:Y *34:8 12.3179 
2 *34:8 *192:A 9.3 
3 *34:8 *190:B 11.5143 
*END

*D_NET *35 0.00143897
*CONN
*I *186:B I *D sky130_fd_sc_hd__nand2_1
*I *188:B I *D sky130_fd_sc_hd__nand2_1
*I *194:A I *D sky130_fd_sc_hd__nand2_1
*I *185:Y O *D sky130_fd_sc_hd__nand2_1
*CAP
1 *186:B 1.79444e-05
2 *188:B 0
3 *194:A 0.000267959
4 *185:Y 2.98335e-05
5 *35:10 0.000487297
6 *35:6 0.000267116
7 *186:B *185:A 1.61893e-05
8 *194:A *189:B 0.000154762
9 *194:A *191:A 3.69772e-05
10 *194:A *193:A 8.15939e-05
11 *194:A *74:12 5.80706e-06
12 *35:6 *185:A 2.27416e-05
13 *35:10 *185:A 3.67257e-05
14 *35:10 *185:B 1.40245e-05
15 p[6] *194:A 0
*RES
1 *185:Y *35:6 9.83571 
2 *35:6 *35:10 2.91071 
3 *35:10 *194:A 24.2286 
4 *35:10 *188:B 9.3 
5 *35:6 *186:B 10.0321 
*END

*D_NET *36 0.000375059
*CONN
*I *189:A I *D sky130_fd_sc_hd__nand2_1
*I *186:Y O *D sky130_fd_sc_hd__nand2_1
*CAP
1 *189:A 0.000117006
2 *186:Y 0.000117006
3 *189:A *185:B 5.71472e-05
4 *189:A *189:B 8.39e-05
*RES
1 *186:Y *189:A 30.0821 
*END

*D_NET *37 0.000322499
*CONN
*I *189:B I *D sky130_fd_sc_hd__nand2_1
*I *188:Y O *D sky130_fd_sc_hd__nand2_1
*CAP
1 *189:B 4.19184e-05
2 *188:Y 4.19184e-05
3 *189:A *189:B 8.39e-05
4 *194:A *189:B 0.000154762
*RES
1 *188:Y *189:B 29.5464 
*END

*D_NET *38 0.00119333
*CONN
*I *191:A I *D sky130_fd_sc_hd__nand2_1
*I *190:A I *D sky130_fd_sc_hd__nand2_2
*I *189:Y O *D sky130_fd_sc_hd__nand2_1
*CAP
1 *191:A 0.000102579
2 *190:A 0.00011992
3 *189:Y 0.000159361
4 *38:6 0.00038186
5 *190:A *193:B 0.000129371
6 *191:A *191:B 6.16958e-05
7 *191:A *193:A 0.000150625
8 p[6] *190:A 1.39726e-05
9 p[6] *191:A 3.69697e-05
10 *190:B *190:A 0
11 *194:A *191:A 3.69772e-05
*RES
1 *189:Y *38:6 11.4786 
2 *38:6 *190:A 11.6214 
3 *38:6 *191:A 21.4607 
*END

*D_NET *39 0.000457705
*CONN
*I *241:A I *D sky130_fd_sc_hd__inv_2
*I *230:Y O *D sky130_fd_sc_hd__nand2_4
*CAP
1 *241:A 0.000202815
2 *230:Y 0.000202815
3 *241:A *48:16 0
4 *252:A *241:A 5.20751e-05
*RES
1 *230:Y *241:A 31.1 
*END

*D_NET *40 0.00116375
*CONN
*I *194:B I *D sky130_fd_sc_hd__nand2_1
*I *191:B I *D sky130_fd_sc_hd__nand2_1
*I *192:B I *D sky130_fd_sc_hd__nand2_1
*I *190:Y O *D sky130_fd_sc_hd__nand2_2
*CAP
1 *194:B 0.000146299
2 *191:B 0.000158358
3 *192:B 8.0285e-05
4 *190:Y 8.0285e-05
5 *40:24 0.000304657
6 *192:B *193:B 9.90431e-05
7 p[6] *191:B 8.00806e-05
8 p[6] *194:B 0.000153047
9 *191:A *191:B 6.16958e-05
*RES
1 *190:Y *192:B 29.2786 
2 *190:Y *40:24 13.8 
3 *40:24 *191:B 17.4964 
4 *40:24 *194:B 16.6929 
*END

*D_NET *41 0.000502338
*CONN
*I *193:A I *D sky130_fd_sc_hd__nand2_2
*I *191:Y O *D sky130_fd_sc_hd__nand2_1
*CAP
1 *193:A 0.000135059
2 *191:Y 0.000135059
3 *191:A *193:A 0.000150625
4 *194:A *193:A 8.15939e-05
*RES
1 *191:Y *193:A 30.4929 
*END

*D_NET *42 0.000657561
*CONN
*I *193:B I *D sky130_fd_sc_hd__nand2_2
*I *192:Y O *D sky130_fd_sc_hd__nand2_1
*CAP
1 *193:B 0.000161078
2 *192:Y 0.000161078
3 p[6] *193:B 5.52302e-05
4 *190:A *193:B 0.000129371
5 *190:B *193:B 5.17614e-05
6 *192:B *193:B 9.90431e-05
*RES
1 *192:Y *193:B 22.4393 
*END

*D_NET *43 0.00042604
*CONN
*I *184:B I *D sky130_fd_sc_hd__nand2_1
*I *195:Y O *D sky130_fd_sc_hd__nand2_1
*CAP
1 *184:B 0.000131372
2 *195:Y 0.000131372
3 *30:12 *184:B 0.000139632
4 *30:23 *184:B 2.36643e-05
*RES
1 *195:Y *184:B 21.2071 
*END

*D_NET *44 0.000297318
*CONN
*I *236:B I *D sky130_fd_sc_hd__nand2_1
*I *196:Y O *D sky130_fd_sc_hd__nand2_1
*CAP
1 *236:B 0.000148659
2 *196:Y 0.000148659
3 *236:B *196:B 0
*RES
1 *196:Y *236:B 20.7964 
*END

*D_NET *45 0.000457275
*CONN
*I *196:A I *D sky130_fd_sc_hd__nand2_1
*I *197:Y O *D sky130_fd_sc_hd__nand2_1
*CAP
1 *196:A 0.000209603
2 *197:Y 0.000209603
3 *196:A *231:A 7.20217e-06
4 *196:A *80:6 3.08664e-05
5 *196:A *82:12 0
*RES
1 *197:Y *196:A 30.7429 
*END

*D_NET *46 0.000474237
*CONN
*I *261:B I *D sky130_fd_sc_hd__nand2_1
*I *199:Y O *D sky130_fd_sc_hd__nand2_1
*CAP
1 *261:B 8.04087e-05
2 *199:Y 8.04087e-05
3 *261:B *260:A 5.46383e-06
4 *261:B *260:B 6.17872e-05
5 *261:B *262:A 3.03589e-05
6 *261:B *264:A 3.87535e-05
7 *261:B *64:12 7.74068e-05
8 *261:B *100:16 9.96487e-05
*RES
1 *199:Y *261:B 29.9036 
*END

*D_NET *47 0.000847329
*CONN
*I *247:B I *D sky130_fd_sc_hd__nand2_1
*I *200:Y O *D sky130_fd_sc_hd__nand2_1
*CAP
1 *247:B 0.000334663
2 *200:Y 0.000334663
3 *247:B *200:A 2.89114e-05
4 *247:B *203:A 8.25512e-05
5 *247:B *246:A 0
6 *247:B *58:12 6.65398e-05
7 *10:15 *247:B 0
8 *10:39 *247:B 0
*RES
1 *200:Y *247:B 33.4571 
*END

*D_NET *48 0.00120921
*CONN
*I *227:B I *D sky130_fd_sc_hd__nand2_2
*I *229:A I *D sky130_fd_sc_hd__nand2_1
*I *241:Y O *D sky130_fd_sc_hd__inv_2
*CAP
1 *227:B 0
2 *229:A 0.000137073
3 *241:Y 0.000288124
4 *48:16 0.000425197
5 *229:A *228:A 1.23589e-05
6 *229:A *54:8 5.49544e-05
7 *229:A *79:12 5.85008e-05
8 *48:16 *54:8 5.32153e-05
9 *48:16 *79:12 1.39726e-05
10 *241:A *48:16 0
11 *3:41 *229:A 2.36643e-05
12 *3:41 *48:16 0.000142152
13 *4:18 *229:A 0
14 *8:13 *229:A 0
*RES
1 *241:Y *48:16 23.0857 
2 *48:16 *229:A 21.0857 
3 *48:16 *227:B 9.3 
*END

*D_NET *49 0.000343998
*CONN
*I *263:A I *D sky130_fd_sc_hd__inv_1
*I *252:Y O *D sky130_fd_sc_hd__nand2_1
*CAP
1 *263:A 4.83225e-05
2 *252:Y 4.83225e-05
3 *252:B *263:A 0.00010867
4 *9:21 *263:A 0.000138683
*RES
1 *252:Y *263:A 20.667 
*END

*D_NET *50 0.000636573
*CONN
*I *237:B I *D sky130_fd_sc_hd__nand2_1
*I *239:A I *D sky130_fd_sc_hd__nand2_1
*I *263:Y O *D sky130_fd_sc_hd__inv_1
*CAP
1 *237:B 9.27121e-06
2 *239:A 0.000137618
3 *263:Y 7.39503e-06
4 *50:6 0.000154285
5 *239:A *238:A 0
6 *239:A *240:B 3.93247e-05
7 *239:A *88:10 0.000100823
8 *252:B *237:B 5.52302e-05
9 *252:B *50:6 3.33174e-05
10 *4:39 *239:A 5.52238e-05
11 *9:21 *237:B 2.44318e-05
12 *9:21 *50:6 1.96517e-05
13 *9:25 *239:A 0
14 *10:15 *239:A 0
*RES
1 *263:Y *50:6 9.63036 
2 *50:6 *239:A 21.2107 
3 *50:6 *237:B 9.83571 
*END

*D_NET *51 0.000226845
*CONN
*I *285:A I *D sky130_fd_sc_hd__inv_1
*I *274:Y O *D sky130_fd_sc_hd__nand2_1
*CAP
1 *285:A 3.16768e-05
2 *274:Y 3.16768e-05
3 *208:A *285:A 8.28621e-05
4 *208:B *285:A 6.69286e-05
5 *274:A *285:A 1.3701e-05
*RES
1 *274:Y *285:A 20.2563 
*END

*D_NET *52 0.000765044
*CONN
*I *223:A I *D sky130_fd_sc_hd__nand2_1
*I *222:A I *D sky130_fd_sc_hd__nand2_1
*I *285:Y O *D sky130_fd_sc_hd__inv_1
*CAP
1 *223:A 7.81684e-05
2 *222:A 3.15332e-05
3 *285:Y 0.000142071
4 *52:6 0.000251773
5 *223:A *75:10 0.000127446
6 *208:A *222:A 9.7049e-06
7 *208:A *52:6 7.90536e-05
8 *208:B *222:A 1.04232e-05
9 *208:B *52:6 3.48705e-05
10 *7:28 *223:A 0
*RES
1 *285:Y *52:6 11.2732 
2 *52:6 *222:A 10.0321 
3 *52:6 *223:A 19.9429 
*END

*D_NET *53 0.000172088
*CONN
*I *187:A I *D sky130_fd_sc_hd__inv_2
*I *176:Y O *D sky130_fd_sc_hd__nand2_2
*CAP
1 *187:A 3.5702e-05
2 *176:Y 3.5702e-05
3 *3:13 *187:A 0.000100684
*RES
1 *176:Y *187:A 19.5464 
*END

*D_NET *54 0.000881817
*CONN
*I *227:A I *D sky130_fd_sc_hd__nand2_2
*I *228:A I *D sky130_fd_sc_hd__nand2_1
*I *187:Y O *D sky130_fd_sc_hd__inv_2
*CAP
1 *227:A 0
2 *228:A 0.000151379
3 *187:Y 0.000114998
4 *54:8 0.000266377
5 *228:A *236:A 1.00332e-05
6 *228:A *79:12 0.000121254
7 *54:8 *79:12 6.53721e-05
8 *229:A *228:A 1.23589e-05
9 *229:A *54:8 5.49544e-05
10 *252:A *54:8 0
11 *3:41 *54:8 3.18747e-05
12 *48:16 *54:8 5.32153e-05
*RES
1 *187:Y *54:8 11.9071 
2 *54:8 *228:A 20.55 
3 *54:8 *227:A 9.3 
*END

*D_NET *55 0.000214553
*CONN
*I *201:A I *D sky130_fd_sc_hd__inv_1
*I *198:Y O *D sky130_fd_sc_hd__nand2_1
*CAP
1 *201:A 7.42662e-05
2 *198:Y 7.42662e-05
3 *252:B *201:A 1.04232e-05
4 *9:21 *201:A 5.55971e-05
*RES
1 *198:Y *201:A 20.2563 
*END

*D_NET *56 0.000557038
*CONN
*I *238:A I *D sky130_fd_sc_hd__nand2_1
*I *237:A I *D sky130_fd_sc_hd__nand2_1
*I *201:Y O *D sky130_fd_sc_hd__inv_1
*CAP
1 *238:A 0.000102902
2 *237:A 1.03356e-05
3 *201:Y 6.33064e-06
4 *56:6 0.000119569
5 *238:A *88:10 4.03318e-05
6 *238:A *88:30 2.8266e-06
7 *198:A *238:A 1.46717e-05
8 *239:A *238:A 0
9 *252:B *237:A 5.52238e-05
10 *252:B *238:A 0.000127439
11 *252:B *56:6 3.33238e-05
12 *9:21 *237:A 3.18676e-05
13 *9:21 *56:6 1.22159e-05
*RES
1 *201:Y *56:6 9.63036 
2 *56:6 *237:A 9.83571 
3 *56:6 *238:A 20.55 
*END

*D_NET *57 0.000393282
*CONN
*I *203:A I *D sky130_fd_sc_hd__inv_1
*I *202:Y O *D sky130_fd_sc_hd__nand2_1
*CAP
1 *203:A 0.00014392
2 *202:Y 0.00014392
3 *203:A *88:30 0
4 *247:B *203:A 8.25512e-05
5 *9:11 *203:A 2.28904e-05
6 *10:15 *203:A 0
*RES
1 *202:Y *203:A 30.2384 
*END

*D_NET *58 0.000555951
*CONN
*I *248:A I *D sky130_fd_sc_hd__nand2_1
*I *247:A I *D sky130_fd_sc_hd__nand2_1
*I *203:Y O *D sky130_fd_sc_hd__inv_1
*CAP
1 *248:A 9.62927e-05
2 *247:A 0
3 *203:Y 8.59037e-05
4 *58:12 0.000182196
5 *248:A *249:A 0
6 *248:A *97:8 5.75275e-05
7 *247:B *58:12 6.65398e-05
8 *10:39 *58:12 6.74911e-05
*RES
1 *203:Y *58:12 20.2732 
2 *58:12 *247:A 9.3 
3 *58:12 *248:A 11.5143 
*END

*D_NET *59 0.000467378
*CONN
*I *205:A I *D sky130_fd_sc_hd__inv_1
*I *204:Y O *D sky130_fd_sc_hd__nand2_1
*CAP
1 *205:A 9.8929e-05
2 *204:Y 9.8929e-05
3 *205:A *255:B 5.52091e-05
4 *205:A *257:A 2.80741e-05
5 *205:A *105:10 0.000120201
6 *7:15 *205:A 3.75122e-05
7 *7:28 *205:A 2.85234e-05
*RES
1 *204:Y *205:A 21.4884 
*END

*D_NET *60 0.000736636
*CONN
*I *255:A I *D sky130_fd_sc_hd__nand2_1
*I *253:B I *D sky130_fd_sc_hd__nand2_1
*I *205:Y O *D sky130_fd_sc_hd__inv_1
*CAP
1 *255:A 0
2 *253:B 0.000214232
3 *205:Y 3.03127e-05
4 *60:6 0.000244544
5 *253:B *254:A 4.80569e-05
6 *253:B *254:B 0.000108748
7 *253:B *86:8 1.40034e-05
8 *60:6 *255:B 7.6739e-05
9 *7:28 *253:B 0
*RES
1 *205:Y *60:6 10.0411 
2 *60:6 *253:B 22.2286 
3 *60:6 *255:A 9.3 
*END

*D_NET *61 0.000307892
*CONN
*I *207:A I *D sky130_fd_sc_hd__inv_1
*I *206:Y O *D sky130_fd_sc_hd__nand2_1
*CAP
1 *207:A 7.69407e-05
2 *206:Y 7.69407e-05
3 *207:A *258:A 2.53112e-06
4 *207:A *259:C 2.3541e-05
5 *8:9 *207:A 0.000127939
*RES
1 *206:Y *207:A 29.4795 
*END

*D_NET *62 0.000915588
*CONN
*I *258:B I *D sky130_fd_sc_hd__xor3_2
*I *259:B I *D sky130_fd_sc_hd__maj3_2
*I *207:Y O *D sky130_fd_sc_hd__inv_1
*CAP
1 *258:B 6.02722e-05
2 *259:B 0.000158658
3 *207:Y 5.13826e-05
4 *62:6 0.000270313
5 *258:B *258:A 0.000126416
6 *259:B *258:A 4.75803e-05
7 *259:B *259:C 9.75679e-05
8 *259:B *95:16 2.61505e-05
9 *62:6 *259:C 3.57752e-05
10 *215:B *258:B 2.30389e-05
11 *8:9 *258:B 1.84336e-05
*RES
1 *207:Y *62:6 10.0411 
2 *62:6 *259:B 12.6393 
3 *62:6 *258:B 19.9429 
*END

*D_NET *63 0.00020605
*CONN
*I *210:A I *D sky130_fd_sc_hd__inv_1
*I *209:Y O *D sky130_fd_sc_hd__nand2_1
*CAP
1 *210:A 7.61533e-05
2 *209:Y 7.61533e-05
3 *209:B *210:A 4.23554e-05
4 *5:24 *210:A 1.13883e-05
*RES
1 *209:Y *210:A 20.2563 
*END

*D_NET *64 0.00125665
*CONN
*I *199:B I *D sky130_fd_sc_hd__nand2_1
*I *260:B I *D sky130_fd_sc_hd__nand2_1
*I *262:A I *D sky130_fd_sc_hd__nand2_1
*I *210:Y O *D sky130_fd_sc_hd__inv_1
*CAP
1 *199:B 0
2 *260:B 0.000136512
3 *262:A 0.000116075
4 *210:Y 3.22531e-05
5 *64:12 0.000329864
6 *64:6 0.00010953
7 *260:B *260:A 3.15102e-05
8 *260:B *108:6 5.74499e-06
9 *262:A *262:B 0.000129629
10 *262:A *264:A 5.21313e-05
11 *262:A *264:B 7.60962e-05
12 *64:12 *100:16 2.4741e-05
13 *209:B *64:6 4.30073e-05
14 *261:B *260:B 6.17872e-05
15 *261:B *262:A 3.03589e-05
16 *261:B *64:12 7.74068e-05
*RES
1 *210:Y *64:6 10.0411 
2 *64:6 *64:12 10.6429 
3 *64:12 *262:A 12.9071 
4 *64:12 *260:B 11.3893 
5 *64:6 *199:B 9.3 
*END

*D_NET *65 0.000297526
*CONN
*I *212:A I *D sky130_fd_sc_hd__inv_1
*I *211:Y O *D sky130_fd_sc_hd__nand2_1
*CAP
1 *212:A 8.5627e-05
2 *211:Y 8.5627e-05
3 *220:B *212:A 0.000126272
*RES
1 *211:Y *212:A 29.4795 
*END

*D_NET *66 0.000773177
*CONN
*I *272:A I *D sky130_fd_sc_hd__nand2_1
*I *270:B I *D sky130_fd_sc_hd__nand2_1
*I *212:Y O *D sky130_fd_sc_hd__inv_1
*CAP
1 *272:A 0
2 *270:B 7.47097e-05
3 *212:Y 0.000119605
4 *66:12 0.000194315
5 *270:B *272:B 5.8646e-05
6 *270:B *273:B 8.48678e-06
7 *270:B *118:6 9.58689e-05
8 *66:12 *270:A 7.74135e-05
9 *220:B *66:12 0.000144132
*RES
1 *212:Y *66:12 20.5768 
2 *66:12 *270:B 11.5143 
3 *66:12 *272:A 9.3 
*END

*D_NET *67 0.000237981
*CONN
*I *214:A I *D sky130_fd_sc_hd__inv_1
*I *213:Y O *D sky130_fd_sc_hd__nand2_1
*CAP
1 *214:A 8.84955e-05
2 *213:Y 8.84955e-05
3 *213:A *214:A 6.09899e-05
*RES
1 *213:Y *214:A 20.2563 
*END

*D_NET *68 0.00113852
*CONN
*I *280:B I *D sky130_fd_sc_hd__nand2_1
*I *282:A I *D sky130_fd_sc_hd__nand2_1
*I *214:Y O *D sky130_fd_sc_hd__inv_1
*CAP
1 *280:B 8.66931e-05
2 *282:A 0
3 *214:Y 0.000241827
4 *68:12 0.00032852
5 *280:B *280:A 5.66971e-05
6 *280:B *281:B 1.02301e-05
7 *280:B *282:B 3.65727e-05
8 *280:B *106:14 5.49995e-05
9 *280:B *127:6 4.63305e-05
10 *68:12 *284:A 0
11 *68:12 *106:14 4.27842e-06
12 *213:A *68:12 0
13 *6:9 *68:12 0
14 *6:17 *280:B 0.000272371
*RES
1 *214:Y *68:12 21.3982 
2 *68:12 *282:A 9.3 
3 *68:12 *280:B 12.7464 
*END

*D_NET *69 0.000269566
*CONN
*I *216:A I *D sky130_fd_sc_hd__inv_1
*I *215:Y O *D sky130_fd_sc_hd__nand2_1
*CAP
1 *216:A 0.000134783
2 *215:Y 0.000134783
3 *216:A *116:12 0
*RES
1 *215:Y *216:A 29.8277 
*END

*D_NET *70 0.00162337
*CONN
*I *286:B I *D sky130_fd_sc_hd__nand2_1
*I *288:A I *D sky130_fd_sc_hd__nand2_1
*I *216:Y O *D sky130_fd_sc_hd__inv_1
*CAP
1 *286:B 3.63198e-05
2 *288:A 0.000316131
3 *216:Y 0.000263789
4 *70:10 0.000616239
5 *286:B *287:B 0
6 *286:B *116:12 2.84494e-05
7 *288:A *287:A 0.000186662
8 *288:A *288:B 5.62491e-05
9 *288:A *289:A 4.01768e-05
10 *288:A *131:6 9.22103e-06
11 *70:10 *116:12 3.69697e-05
12 *289:B *288:A 3.31648e-05
*RES
1 *216:Y *70:10 17.2196 
2 *70:10 *288:A 18.7643 
3 *70:10 *286:B 14.5321 
*END

*D_NET *71 0.000268267
*CONN
*I *218:A I *D sky130_fd_sc_hd__inv_1
*I *217:Y O *D sky130_fd_sc_hd__nand2_1
*CAP
1 *218:A 0.000134133
2 *217:Y 0.000134133
*RES
1 *217:Y *218:A 29.783 
*END

*D_NET *72 0.00109002
*CONN
*I *295:B I *D sky130_fd_sc_hd__nand2_1
*I *178:A I *D sky130_fd_sc_hd__nand2_1
*I *218:Y O *D sky130_fd_sc_hd__inv_1
*CAP
1 *295:B 0
2 *178:A 0.000107073
3 *218:Y 0.000171917
4 *72:12 0.00027899
5 *178:A *177:A 4.40003e-05
6 *72:12 *125:14 3.3231e-05
7 *178:B *178:A 0.000203831
8 *179:A *178:A 5.07619e-05
9 *179:B *178:A 4.22908e-05
10 *184:A *72:12 3.4846e-06
11 *26:6 *178:A 0.000139424
12 *26:19 *72:12 1.50171e-05
*RES
1 *218:Y *72:12 20.6839 
2 *72:12 *178:A 13.1571 
3 *72:12 *295:B 9.3 
*END

*D_NET *73 0.000318446
*CONN
*I *221:A I *D sky130_fd_sc_hd__inv_1
*I *220:Y O *D sky130_fd_sc_hd__nand2_1
*CAP
1 *221:A 0.000159223
2 *220:Y 0.000159223
3 *221:A *125:14 0
4 *221:A *126:10 0
*RES
1 *220:Y *221:A 30.2384 
*END

*D_NET *74 0.00111242
*CONN
*I *185:B I *D sky130_fd_sc_hd__nand2_1
*I *188:A I *D sky130_fd_sc_hd__nand2_1
*I *221:Y O *D sky130_fd_sc_hd__inv_1
*CAP
1 *185:B 0.000172741
2 *188:A 0
3 *221:Y 0.000173996
4 *74:12 0.000346737
5 *185:B *185:A 0.000216246
6 *74:12 *126:10 0.000125724
7 *189:A *185:B 5.71472e-05
8 *194:A *74:12 5.80706e-06
9 *35:10 *185:B 1.40245e-05
*RES
1 *221:Y *74:12 21.0946 
2 *74:12 *188:A 9.3 
3 *74:12 *185:B 13.4786 
*END

*D_NET *75 0.000819352
*CONN
*I *226:A I *D sky130_fd_sc_hd__inv_1
*I *223:B I *D sky130_fd_sc_hd__nand2_1
*I *224:B I *D sky130_fd_sc_hd__nand2_1
*I *222:Y O *D sky130_fd_sc_hd__nand2_1
*CAP
1 *226:A 0.00014445
2 *223:B 0
3 *224:B 0
4 *222:Y 4.73954e-05
5 *75:21 0.00023404
6 *75:10 0.000136985
7 *75:21 *225:A 4.87953e-05
8 *75:21 *225:B 1.3701e-05
9 *223:A *75:10 0.000127446
10 *224:A *75:10 6.65398e-05
*RES
1 *222:Y *75:10 19.9429 
2 *75:10 *224:B 9.3 
3 *75:10 *75:21 2.21429 
4 *75:21 *223:B 9.3 
5 *75:21 *226:A 11.6348 
*END

*D_NET *76 0.000533503
*CONN
*I *225:A I *D sky130_fd_sc_hd__nand2_1
*I *223:Y O *D sky130_fd_sc_hd__nand2_1
*CAP
1 *225:A 0.000197656
2 *223:Y 0.000197656
3 *225:A *225:B 5.75275e-05
4 p[1] *225:A 3.18676e-05
5 *75:21 *225:A 4.87953e-05
*RES
1 *223:Y *225:A 22.0286 
*END

*D_NET *77 0.00018678
*CONN
*I *225:B I *D sky130_fd_sc_hd__nand2_1
*I *224:Y O *D sky130_fd_sc_hd__nand2_1
*CAP
1 *225:B 5.77759e-05
2 *224:Y 5.77759e-05
3 *225:A *225:B 5.75275e-05
4 *75:21 *225:B 1.3701e-05
*RES
1 *224:Y *225:B 19.975 
*END

*D_NET *78 0.00129511
*CONN
*I *196:B I *D sky130_fd_sc_hd__nand2_1
*I *232:B I *D sky130_fd_sc_hd__nand2_1
*I *234:A I *D sky130_fd_sc_hd__nand2_1
*I *226:Y O *D sky130_fd_sc_hd__inv_1
*CAP
1 *196:B 0.000285181
2 *232:B 1.17582e-05
3 *234:A 2.75827e-05
4 *226:Y 9.54666e-05
5 *78:21 0.000375391
6 *78:12 0.000201501
7 *196:B *232:A 3.62176e-05
8 *196:B *233:B 0.00010096
9 *196:B *234:B 1.74352e-05
10 *232:B *234:B 4.61598e-05
11 *234:A *234:B 5.7661e-06
12 *78:21 *234:B 2.27416e-05
13 *78:21 *235:B 1.32552e-05
14 *236:B *196:B 0
15 *7:28 *78:12 5.56943e-05
16 *8:13 *78:12 0
*RES
1 *226:Y *78:12 19.9696 
2 *78:12 *234:A 10.0321 
3 *78:12 *78:21 1.35714 
4 *78:21 *232:B 10.0321 
5 *78:21 *196:B 14.2643 
*END

*D_NET *79 0.00133886
*CONN
*I *236:A I *D sky130_fd_sc_hd__nand2_1
*I *229:B I *D sky130_fd_sc_hd__nand2_1
*I *228:B I *D sky130_fd_sc_hd__nand2_1
*I *227:Y O *D sky130_fd_sc_hd__nand2_2
*CAP
1 *236:A 0.000203811
2 *229:B 0
3 *228:B 6.66406e-05
4 *227:Y 0.000162345
5 *79:14 6.66406e-05
6 *79:12 0.000366157
7 *228:B *197:B 1.17091e-05
8 *228:B *80:6 4.87953e-05
9 *236:A *91:12 0
10 *228:A *236:A 1.00332e-05
11 *228:A *79:12 0.000121254
12 *229:A *79:12 5.85008e-05
13 *252:A *79:12 3.99614e-06
14 *4:39 *228:B 0.000139631
15 *48:16 *79:12 1.39726e-05
16 *54:8 *79:12 6.53721e-05
*RES
1 *227:Y *79:12 16.8179 
2 *79:12 *79:14 4.5 
3 *79:14 *228:B 11.5143 
4 *79:14 *229:B 9.3 
5 *79:12 *236:A 17.3179 
*END

*D_NET *80 0.00072949
*CONN
*I *197:A I *D sky130_fd_sc_hd__nand2_1
*I *231:A I *D sky130_fd_sc_hd__nand2_1
*I *228:Y O *D sky130_fd_sc_hd__nand2_1
*CAP
1 *197:A 1.02081e-05
2 *231:A 6.46616e-05
3 *228:Y 0.000132557
4 *80:6 0.000207426
5 *197:A *197:B 5.38444e-06
6 *197:A *231:B 1.04232e-05
7 *231:A *231:B 3.71331e-05
8 *231:A *82:12 3.18676e-05
9 *80:6 *231:B 4.73286e-05
10 *80:6 *81:6 5.07619e-05
11 *196:A *231:A 7.20217e-06
12 *196:A *80:6 3.08664e-05
13 *228:B *80:6 4.87953e-05
14 *274:A *231:A 3.69047e-06
15 *4:39 *231:A 3.14193e-05
16 *4:39 *80:6 9.76435e-06
*RES
1 *228:Y *80:6 12.3 
2 *80:6 *231:A 11.0857 
3 *80:6 *197:A 9.72857 
*END

*D_NET *81 0.00052504
*CONN
*I *197:B I *D sky130_fd_sc_hd__nand2_1
*I *231:B I *D sky130_fd_sc_hd__nand2_1
*I *229:Y O *D sky130_fd_sc_hd__nand2_1
*CAP
1 *197:B 7.55751e-06
2 *231:B 3.58252e-05
3 *229:Y 2.3811e-05
4 *81:6 6.71938e-05
5 *197:A *197:B 5.38444e-06
6 *197:A *231:B 1.04232e-05
7 *228:B *197:B 1.17091e-05
8 *231:A *231:B 3.71331e-05
9 *4:39 *231:B 0.000143651
10 *4:39 *81:6 8.42609e-05
11 *80:6 *231:B 4.73286e-05
12 *80:6 *81:6 5.07619e-05
*RES
1 *229:Y *81:6 10.2464 
2 *81:6 *231:B 11.0857 
3 *81:6 *197:B 9.72857 
*END

*D_NET *82 0.000984421
*CONN
*I *233:A I *D sky130_fd_sc_hd__nand2_1
*I *232:A I *D sky130_fd_sc_hd__nand2_1
*I *231:Y O *D sky130_fd_sc_hd__nand2_1
*CAP
1 *233:A 0
2 *232:A 8.08514e-05
3 *231:Y 0.000222739
4 *82:12 0.000303591
5 *232:A *233:B 5.2714e-05
6 *232:A *234:B 3.57366e-05
7 *232:A *235:A 5.52238e-05
8 *196:A *82:12 0
9 *196:B *232:A 3.62176e-05
10 *231:A *82:12 3.18676e-05
11 *274:A *82:12 1.48545e-05
12 *8:13 *82:12 0.000150625
*RES
1 *231:Y *82:12 22.0143 
2 *82:12 *232:A 11.6393 
3 *82:12 *233:A 9.3 
*END

*D_NET *83 0.000514441
*CONN
*I *233:B I *D sky130_fd_sc_hd__nand2_1
*I *234:B I *D sky130_fd_sc_hd__nand2_1
*I *232:Y O *D sky130_fd_sc_hd__nand2_1
*CAP
1 *233:B 2.87941e-05
2 *234:B 3.71897e-05
3 *232:Y 0
4 *83:4 6.59837e-05
5 *234:B *235:B 0.00010096
6 *196:B *233:B 0.00010096
7 *196:B *234:B 1.74352e-05
8 *232:A *233:B 5.2714e-05
9 *232:A *234:B 3.57366e-05
10 *232:B *234:B 4.61598e-05
11 *234:A *234:B 5.7661e-06
12 *78:21 *234:B 2.27416e-05
*RES
1 *232:Y *83:4 9.3 
2 *83:4 *234:B 11.4071 
3 *83:4 *233:B 10.675 
*END

*D_NET *84 0.000417969
*CONN
*I *235:A I *D sky130_fd_sc_hd__nand2_1
*I *233:Y O *D sky130_fd_sc_hd__nand2_1
*CAP
1 *235:A 8.35505e-05
2 *233:Y 8.35505e-05
3 *235:A *235:B 6.74911e-05
4 *232:A *235:A 5.52238e-05
5 *8:13 *235:A 0.000128154
*RES
1 *233:Y *235:A 29.7786 
*END

*D_NET *85 0.000508879
*CONN
*I *235:B I *D sky130_fd_sc_hd__nand2_1
*I *234:Y O *D sky130_fd_sc_hd__nand2_1
*CAP
1 *235:B 0.000163586
2 *234:Y 0.000163586
3 *234:B *235:B 0.00010096
4 *235:A *235:B 6.74911e-05
5 *7:28 *235:B 0
6 *78:21 *235:B 1.32552e-05
*RES
1 *234:Y *235:B 30.6 
*END

*D_NET *86 0.000877557
*CONN
*I *253:A I *D sky130_fd_sc_hd__nand2_1
*I *254:A I *D sky130_fd_sc_hd__nand2_1
*I *235:Y O *D sky130_fd_sc_hd__nand2_1
*CAP
1 *253:A 0
2 *254:A 9.10695e-05
3 *235:Y 0.00029675
4 *86:8 0.000387819
5 *254:A *254:B 2.32013e-05
6 *254:A *102:23 9.22103e-06
7 *86:8 *102:23 7.43578e-06
8 *253:B *254:A 4.80569e-05
9 *253:B *86:8 1.40034e-05
*RES
1 *235:Y *86:8 14.3714 
2 *86:8 *254:A 11.5143 
3 *86:8 *253:A 9.3 
*END

*D_NET *87 0.000442139
*CONN
*I *242:B I *D sky130_fd_sc_hd__nand2_1
*I *244:A I *D sky130_fd_sc_hd__nand2_1
*I *236:Y O *D sky130_fd_sc_hd__nand2_1
*CAP
1 *242:B 7.39625e-05
2 *244:A 1.47559e-05
3 *236:Y 9.16107e-05
4 *87:6 0.000180329
5 *242:B *244:B 7.60962e-05
6 *244:A *244:B 5.38444e-06
*RES
1 *236:Y *87:6 10.6571 
2 *87:6 *244:A 9.72857 
3 *87:6 *242:B 11.0857 
*END

*D_NET *88 0.00129411
*CONN
*I *246:A I *D sky130_fd_sc_hd__nand2_1
*I *200:A I *D sky130_fd_sc_hd__nand2_1
*I *238:B I *D sky130_fd_sc_hd__nand2_1
*I *239:B I *D sky130_fd_sc_hd__nand2_1
*I *237:Y O *D sky130_fd_sc_hd__nand2_1
*CAP
1 *246:A 9.49209e-05
2 *200:A 2.76349e-05
3 *238:B 1.64648e-05
4 *239:B 0
5 *237:Y 0.000110602
6 *88:30 0.000328203
7 *88:12 1.64648e-05
8 *88:10 0.000316249
9 *238:B *240:A 2.89114e-05
10 *246:A *246:B 9.12446e-05
11 *88:30 *246:B 4.46186e-06
12 *203:A *88:30 0
13 *238:A *88:10 4.03318e-05
14 *238:A *88:30 2.8266e-06
15 *239:A *88:10 0.000100823
16 *247:B *200:A 2.89114e-05
17 *247:B *246:A 0
18 *252:B *88:10 5.71472e-05
19 *4:39 *238:B 2.89114e-05
20 *9:11 *88:30 0
21 *9:25 *88:30 0
*RES
1 *237:Y *88:10 15.9786 
2 *88:10 *88:12 4.5 
3 *88:12 *239:B 9.3 
4 *88:12 *238:B 9.83571 
5 *88:10 *88:30 3.51786 
6 *88:30 *200:A 14.3357 
7 *88:30 *246:A 16.05 
*END

*D_NET *89 0.000589328
*CONN
*I *240:A I *D sky130_fd_sc_hd__nand2_1
*I *238:Y O *D sky130_fd_sc_hd__nand2_1
*CAP
1 *240:A 0.000168514
2 *238:Y 0.000168514
3 *240:A *240:B 0.00012073
4 *240:A *91:12 5.71472e-05
5 *238:B *240:A 2.89114e-05
6 *4:39 *240:A 4.55107e-05
*RES
1 *238:Y *240:A 22.3321 
*END

*D_NET *90 0.000239528
*CONN
*I *240:B I *D sky130_fd_sc_hd__nand2_1
*I *239:Y O *D sky130_fd_sc_hd__nand2_1
*CAP
1 *240:B 3.10195e-05
2 *239:Y 3.10195e-05
3 *239:A *240:B 3.93247e-05
4 *240:A *240:B 0.00012073
5 *4:39 *240:B 1.74352e-05
6 *10:15 *240:B 0
*RES
1 *239:Y *240:B 19.975 
*END

*D_NET *91 0.00114726
*CONN
*I *243:A I *D sky130_fd_sc_hd__nand2_1
*I *242:A I *D sky130_fd_sc_hd__nand2_1
*I *240:Y O *D sky130_fd_sc_hd__nand2_1
*CAP
1 *243:A 0
2 *242:A 2.55335e-05
3 *240:Y 0.000444535
4 *91:12 0.000470069
5 *242:A *92:19 5.49489e-05
6 *236:A *91:12 0
7 *240:A *91:12 5.71472e-05
8 *4:39 *91:12 4.46608e-05
9 *9:25 *91:12 5.03694e-05
*RES
1 *240:Y *91:12 24.4786 
2 *91:12 *242:A 9.83571 
3 *91:12 *243:A 9.3 
*END

*D_NET *92 0.00133749
*CONN
*I *200:B I *D sky130_fd_sc_hd__nand2_1
*I *246:B I *D sky130_fd_sc_hd__nand2_1
*I *243:B I *D sky130_fd_sc_hd__nand2_1
*I *244:B I *D sky130_fd_sc_hd__nand2_1
*I *242:Y O *D sky130_fd_sc_hd__nand2_1
*CAP
1 *200:B 3.08975e-05
2 *246:B 9.32025e-05
3 *243:B 0
4 *244:B 8.09723e-05
5 *242:Y 0
6 *92:26 0.000358804
7 *92:19 0.000347606
8 *92:4 0.000193874
9 *242:A *92:19 5.49489e-05
10 *242:B *244:B 7.60962e-05
11 *244:A *244:B 5.38444e-06
12 *246:A *246:B 9.12446e-05
13 *9:25 *246:B 0
14 *88:30 *246:B 4.46186e-06
*RES
1 *242:Y *92:4 9.3 
2 *92:4 *244:B 11.4071 
3 *92:4 *92:19 2.19643 
4 *92:19 *243:B 9.3 
5 *92:19 *92:26 3.82143 
6 *92:26 *246:B 20.55 
7 *92:26 *200:B 9.83571 
*END

*D_NET *93 0.000326545
*CONN
*I *245:A I *D sky130_fd_sc_hd__nand2_1
*I *243:Y O *D sky130_fd_sc_hd__nand2_1
*CAP
1 *245:A 0.0001404
2 *243:Y 0.0001404
3 *9:25 *245:A 4.57445e-05
*RES
1 *243:Y *245:A 30.1893 
*END

*D_NET *94 0.000331099
*CONN
*I *245:B I *D sky130_fd_sc_hd__nand2_1
*I *244:Y O *D sky130_fd_sc_hd__nand2_1
*CAP
1 *245:B 0.000148424
2 *244:Y 0.000148424
3 *245:B *95:16 3.42509e-05
*RES
1 *244:Y *245:B 30.1893 
*END

*D_NET *95 0.00190753
*CONN
*I *259:A I *D sky130_fd_sc_hd__maj3_2
*I *258:A I *D sky130_fd_sc_hd__xor3_2
*I *245:Y O *D sky130_fd_sc_hd__nand2_1
*CAP
1 *259:A 0
2 *258:A 0.000199545
3 *245:Y 0.00059615
4 *95:16 0.000795695
5 *258:A *259:C 5.50052e-05
6 *95:16 *107:10 2.42054e-05
7 *207:A *258:A 2.53112e-06
8 *245:B *95:16 3.42509e-05
9 *258:B *258:A 0.000126416
10 *259:B *258:A 4.75803e-05
11 *259:B *95:16 2.61505e-05
*RES
1 *245:Y *95:16 27.2643 
2 *95:16 *258:A 22.5143 
3 *95:16 *259:A 9.3 
*END

*D_NET *96 0.00016668
*CONN
*I *249:A I *D sky130_fd_sc_hd__nand2_1
*I *246:Y O *D sky130_fd_sc_hd__nand2_1
*CAP
1 *249:A 8.13421e-05
2 *246:Y 8.13421e-05
3 *249:A *97:8 3.99614e-06
4 *248:A *249:A 0
*RES
1 *246:Y *249:A 19.975 
*END

*D_NET *97 0.000698126
*CONN
*I *251:A I *D sky130_fd_sc_hd__inv_1
*I *248:B I *D sky130_fd_sc_hd__nand2_1
*I *249:B I *D sky130_fd_sc_hd__nand2_1
*I *247:Y O *D sky130_fd_sc_hd__nand2_1
*CAP
1 *251:A 0.000106889
2 *248:B 0
3 *249:B 1.8459e-05
4 *247:Y 0.000223282
5 *97:8 0.000134851
6 *249:B *250:A 2.27416e-05
7 *97:8 *250:A 1.32552e-05
8 *211:A *251:A 9.13861e-05
9 *248:A *97:8 5.75275e-05
10 *249:A *97:8 3.99614e-06
11 *5:24 *251:A 8.43916e-06
12 *10:39 *251:A 1.72984e-05
*RES
1 *247:Y *97:8 11.4964 
2 *97:8 *249:B 9.83571 
3 *97:8 *248:B 9.3 
4 *247:Y *251:A 29.8277 
*END

*D_NET *98 0.000488722
*CONN
*I *250:A I *D sky130_fd_sc_hd__nand2_1
*I *248:Y O *D sky130_fd_sc_hd__nand2_1
*CAP
1 *250:A 0.000153236
2 *248:Y 0.000153236
3 *250:A *250:B 0.000146254
4 *249:B *250:A 2.27416e-05
5 *97:8 *250:A 1.32552e-05
*RES
1 *248:Y *250:A 30.4929 
*END

*D_NET *99 0.000465675
*CONN
*I *250:B I *D sky130_fd_sc_hd__nand2_1
*I *249:Y O *D sky130_fd_sc_hd__nand2_1
*CAP
1 *250:B 0.000132211
2 *249:Y 0.000132211
3 *250:B *100:10 5.49995e-05
4 *250:A *250:B 0.000146254
*RES
1 *249:Y *250:B 30.0821 
*END

*D_NET *100 0.00154711
*CONN
*I *199:A I *D sky130_fd_sc_hd__nand2_1
*I *260:A I *D sky130_fd_sc_hd__nand2_1
*I *261:A I *D sky130_fd_sc_hd__nand2_1
*I *250:Y O *D sky130_fd_sc_hd__nand2_1
*CAP
1 *199:A 0
2 *260:A 8.23859e-05
3 *261:A 0
4 *250:Y 0.000227425
5 *100:16 0.00015024
6 *100:10 0.000295279
7 *260:A *264:A 8.48678e-06
8 *260:A *108:6 9.75679e-05
9 *209:B *100:10 1.24368e-05
10 *217:B *100:16 0.000174682
11 *250:B *100:10 5.49995e-05
12 *260:B *260:A 3.15102e-05
13 *261:B *260:A 5.46383e-06
14 *261:B *100:16 9.96487e-05
15 *5:24 *100:10 0.000282246
16 *64:12 *100:16 2.4741e-05
*RES
1 *250:Y *100:10 15.2107 
2 *100:10 *100:16 11.25 
3 *100:16 *261:A 9.3 
4 *100:16 *260:A 11.5143 
5 *100:10 *199:A 9.3 
*END

*D_NET *101 0.0016523
*CONN
*I *271:A I *D sky130_fd_sc_hd__nand2_1
*I *270:A I *D sky130_fd_sc_hd__nand2_1
*I *251:Y O *D sky130_fd_sc_hd__inv_1
*CAP
1 *271:A 7.10162e-05
2 *270:A 0.000269645
3 *251:Y 0.000260839
4 *101:10 0.000601499
5 *270:A *271:B 5.50052e-05
6 *270:A *118:6 0.000253901
7 *271:A *279:A 5.51716e-05
8 *5:24 *101:10 7.81355e-06
9 *66:12 *270:A 7.74135e-05
*RES
1 *251:Y *101:10 18.0054 
2 *101:10 *270:A 26.8357 
3 *101:10 *271:A 14.8357 
*END

*D_NET *102 0.00146184
*CONN
*I *257:A I *D sky130_fd_sc_hd__inv_1
*I *255:B I *D sky130_fd_sc_hd__nand2_1
*I *254:B I *D sky130_fd_sc_hd__nand2_1
*I *253:Y O *D sky130_fd_sc_hd__nand2_1
*CAP
1 *257:A 8.5984e-06
2 *255:B 7.81144e-05
3 *254:B 0.000123858
4 *253:Y 0
5 *102:23 0.000257606
6 *102:4 0.00029475
7 *254:B *256:A 5.52238e-05
8 *255:B *256:B 4.13389e-05
9 *204:B *255:B 1.19813e-05
10 *205:A *255:B 5.52091e-05
11 *205:A *257:A 2.80741e-05
12 *253:B *254:B 0.000108748
13 *254:A *254:B 2.32013e-05
14 *254:A *102:23 9.22103e-06
15 *7:15 *255:B 0.000274036
16 *7:15 *257:A 7.70374e-06
17 *60:6 *255:B 7.6739e-05
18 *86:8 *102:23 7.43578e-06
*RES
1 *253:Y *102:4 9.3 
2 *102:4 *254:B 12.2286 
3 *102:4 *102:23 11.4821 
4 *102:23 *255:B 12.7464 
5 *102:23 *257:A 9.58125 
*END

*D_NET *103 0.000672893
*CONN
*I *256:A I *D sky130_fd_sc_hd__nand2_1
*I *254:Y O *D sky130_fd_sc_hd__nand2_1
*CAP
1 *256:A 0.000308835
2 *254:Y 0.000308835
3 *254:B *256:A 5.52238e-05
*RES
1 *254:Y *256:A 31.725 
*END

*D_NET *104 0.000172646
*CONN
*I *256:B I *D sky130_fd_sc_hd__nand2_1
*I *255:Y O *D sky130_fd_sc_hd__nand2_1
*CAP
1 *256:B 5.75523e-05
2 *255:Y 5.75523e-05
3 *255:B *256:B 4.13389e-05
4 *7:15 *256:B 1.62025e-05
*RES
1 *255:Y *256:B 19.975 
*END

*D_NET *105 0.0018209
*CONN
*I *258:C I *D sky130_fd_sc_hd__xor3_2
*I *259:C I *D sky130_fd_sc_hd__maj3_2
*I *257:Y O *D sky130_fd_sc_hd__inv_1
*CAP
1 *258:C 0.000148887
2 *259:C 0.000288798
3 *257:Y 0.000261499
4 *105:10 0.000699184
5 *204:A *105:10 1.24368e-05
6 *205:A *105:10 0.000120201
7 *207:A *259:C 2.3541e-05
8 *215:B *258:C 0
9 *258:A *259:C 5.50052e-05
10 *259:B *259:C 9.75679e-05
11 *7:28 *105:10 7.80059e-05
12 *8:9 *258:C 0
13 *62:6 *259:C 3.57752e-05
*RES
1 *257:Y *105:10 18.5232 
2 *105:10 *259:C 19.2643 
3 *105:10 *258:C 16.3536 
*END

*D_NET *106 0.000835063
*CONN
*I *281:A I *D sky130_fd_sc_hd__nand2_1
*I *280:A I *D sky130_fd_sc_hd__nand2_1
*I *258:X O *D sky130_fd_sc_hd__xor3_2
*CAP
1 *281:A 0
2 *280:A 6.58081e-06
3 *258:X 0.000203465
4 *106:14 0.000210046
5 *280:A *127:6 5.66971e-05
6 *106:14 *283:A 5.1061e-05
7 *106:14 *283:B 0.000149467
8 *106:14 *127:6 4.17702e-05
9 *280:B *280:A 5.66971e-05
10 *280:B *106:14 5.49995e-05
11 *6:9 *106:14 0
12 *68:12 *106:14 4.27842e-06
*RES
1 *258:X *106:14 22.55 
2 *106:14 *280:A 9.83571 
3 *106:14 *281:A 9.3 
*END

*D_NET *107 0.00108561
*CONN
*I *267:A I *D sky130_fd_sc_hd__nand2_1
*I *265:B I *D sky130_fd_sc_hd__nand2_2
*I *259:X O *D sky130_fd_sc_hd__maj3_2
*CAP
1 *267:A 0.000172944
2 *265:B 5.33853e-05
3 *259:X 0.000134755
4 *107:10 0.000361084
5 *265:B *266:A 3.37871e-05
6 *265:B *112:8 3.99605e-05
7 *267:A *267:B 5.19299e-05
8 *267:A *111:12 5.66943e-05
9 *107:10 *111:12 0.000101915
10 *6:28 *267:A 5.49489e-05
11 *95:16 *107:10 2.42054e-05
*RES
1 *259:X *107:10 16.0857 
2 *107:10 *265:B 15.1929 
3 *107:10 *267:A 17.1929 
*END

*D_NET *108 0.00119994
*CONN
*I *269:A I *D sky130_fd_sc_hd__nand2_1
*I *262:B I *D sky130_fd_sc_hd__nand2_1
*I *260:Y O *D sky130_fd_sc_hd__nand2_1
*CAP
1 *269:A 0.000127084
2 *262:B 9.34738e-05
3 *260:Y 0.000111507
4 *108:6 0.000332065
5 *262:B *264:A 1.32293e-05
6 *262:B *264:B 1.59373e-05
7 *262:B *111:12 0.000186765
8 *108:6 *264:A 8.69355e-05
9 *260:A *108:6 9.75679e-05
10 *260:B *108:6 5.74499e-06
11 *262:A *262:B 0.000129629
*RES
1 *260:Y *108:6 11.4786 
2 *108:6 *262:B 12.2107 
3 *108:6 *269:A 20.55 
*END

*D_NET *109 0.000257376
*CONN
*I *264:A I *D sky130_fd_sc_hd__nand2_1
*I *261:Y O *D sky130_fd_sc_hd__nand2_1
*CAP
1 *264:A 2.89196e-05
2 *261:Y 2.89196e-05
3 *260:A *264:A 8.48678e-06
4 *261:B *264:A 3.87535e-05
5 *262:A *264:A 5.21313e-05
6 *262:B *264:A 1.32293e-05
7 *108:6 *264:A 8.69355e-05
*RES
1 *261:Y *264:A 19.975 
*END

*D_NET *110 0.00022557
*CONN
*I *264:B I *D sky130_fd_sc_hd__nand2_1
*I *262:Y O *D sky130_fd_sc_hd__nand2_1
*CAP
1 *264:B 6.67682e-05
2 *262:Y 6.67682e-05
3 *262:A *264:B 7.60962e-05
4 *262:B *264:B 1.59373e-05
*RES
1 *262:Y *264:B 19.975 
*END

*D_NET *111 0.00138327
*CONN
*I *266:A I *D sky130_fd_sc_hd__nand2_1
*I *265:A I *D sky130_fd_sc_hd__nand2_2
*I *264:Y O *D sky130_fd_sc_hd__nand2_1
*CAP
1 *266:A 0.000204804
2 *265:A 0
3 *264:Y 0.000278623
4 *111:12 0.000483427
5 *266:A *112:8 3.72591e-05
6 *262:B *111:12 0.000186765
7 *265:B *266:A 3.37871e-05
8 *267:A *111:12 5.66943e-05
9 *107:10 *111:12 0.000101915
*RES
1 *264:Y *111:12 22.8357 
2 *111:12 *265:A 9.3 
3 *111:12 *266:A 12.7464 
*END

*D_NET *112 0.000801632
*CONN
*I *269:B I *D sky130_fd_sc_hd__nand2_1
*I *266:B I *D sky130_fd_sc_hd__nand2_1
*I *267:B I *D sky130_fd_sc_hd__nand2_1
*I *265:Y O *D sky130_fd_sc_hd__nand2_2
*CAP
1 *269:B 0.000105467
2 *266:B 0
3 *267:B 0.000118082
4 *265:Y 0.000186969
5 *112:8 0.000199585
6 *267:B *268:A 6.2379e-05
7 *265:B *112:8 3.99605e-05
8 *266:A *112:8 3.72591e-05
9 *267:A *267:B 5.19299e-05
*RES
1 *265:Y *112:8 10.9786 
2 *112:8 *267:B 20.55 
3 *112:8 *266:B 9.3 
4 *265:Y *269:B 20.3679 
*END

*D_NET *113 0.000334557
*CONN
*I *175:A I *D sky130_fd_sc_hd__inv_1
*I *174:Y O *D sky130_fd_sc_hd__nand2_1
*CAP
1 *175:A 7.72031e-05
2 *174:Y 7.72031e-05
3 *208:A *175:A 5.33005e-05
4 *208:B *175:A 1.21289e-05
5 *274:A *175:A 6.05161e-06
6 *3:13 *175:A 0.00010867
*RES
1 *174:Y *175:A 20.667 
*END

*D_NET *114 0.000326305
*CONN
*I *268:A I *D sky130_fd_sc_hd__nand2_1
*I *266:Y O *D sky130_fd_sc_hd__nand2_1
*CAP
1 *268:A 0.000104489
2 *266:Y 0.000104489
3 *267:B *268:A 6.2379e-05
4 *6:28 *268:A 5.49489e-05
*RES
1 *266:Y *268:A 29.7786 
*END

*D_NET *115 0.000204018
*CONN
*I *268:B I *D sky130_fd_sc_hd__nand2_1
*I *267:Y O *D sky130_fd_sc_hd__nand2_1
*CAP
1 *268:B 7.66278e-05
2 *267:Y 7.66278e-05
3 *6:28 *268:B 5.07619e-05
*RES
1 *267:Y *268:B 19.975 
*END

*D_NET *116 0.00127139
*CONN
*I *286:A I *D sky130_fd_sc_hd__nand2_1
*I *287:A I *D sky130_fd_sc_hd__nand2_1
*I *268:Y O *D sky130_fd_sc_hd__nand2_1
*CAP
1 *286:A 0
2 *287:A 0.000110045
3 *268:Y 0.000295716
4 *116:12 0.000405761
5 *287:A *289:A 3.99614e-06
6 *287:A *131:6 3.48705e-05
7 *178:B *287:A 0
8 *183:A *116:12 5.80706e-06
9 *183:B *287:A 0.000108082
10 *216:A *116:12 0
11 *286:B *116:12 2.84494e-05
12 *288:A *287:A 0.000186662
13 *6:28 *116:12 5.50313e-05
14 *70:10 *116:12 3.69697e-05
*RES
1 *268:Y *116:12 23.3179 
2 *116:12 *287:A 12.7464 
3 *116:12 *286:A 9.3 
*END

*D_NET *117 0.00108017
*CONN
*I *277:A I *D sky130_fd_sc_hd__nand2_1
*I *275:B I *D sky130_fd_sc_hd__nand2_1
*I *269:Y O *D sky130_fd_sc_hd__nand2_1
*CAP
1 *277:A 5.9009e-05
2 *275:B 0.000144217
3 *269:Y 0.000193588
4 *117:6 0.000396814
5 *275:B *122:10 0.000102659
6 *277:A *277:B 2.37944e-05
7 *277:A *122:10 3.75959e-05
8 *217:B *277:A 0.00012249
*RES
1 *269:Y *117:6 11.4786 
2 *117:6 *275:B 12.6214 
3 *117:6 *277:A 19.9429 
*END

*D_NET *118 0.0017334
*CONN
*I *272:B I *D sky130_fd_sc_hd__nand2_1
*I *279:A I *D sky130_fd_sc_hd__nand2_1
*I *271:B I *D sky130_fd_sc_hd__nand2_1
*I *270:Y O *D sky130_fd_sc_hd__nand2_1
*CAP
1 *272:B 0.000114323
2 *279:A 0.000169522
3 *271:B 8.50137e-05
4 *270:Y 0.000196016
5 *118:6 0.000336229
6 *271:B *273:A 0.000107845
7 *271:B *275:A 3.49456e-06
8 *271:B *121:6 1.62025e-05
9 *272:B *273:B 6.04633e-05
10 *118:6 *273:A 1.24368e-05
11 *118:6 *273:B 9.84673e-05
12 *118:6 *121:6 1.4796e-05
13 *270:A *271:B 5.50052e-05
14 *270:A *118:6 0.000253901
15 *270:B *272:B 5.8646e-05
16 *270:B *118:6 9.58689e-05
17 *271:A *279:A 5.51716e-05
*RES
1 *270:Y *118:6 12.3 
2 *118:6 *271:B 11.3893 
3 *118:6 *279:A 21.1571 
4 *270:Y *272:B 20.9214 
*END

*D_NET *119 0.000271308
*CONN
*I *273:A I *D sky130_fd_sc_hd__nand2_1
*I *271:Y O *D sky130_fd_sc_hd__nand2_1
*CAP
1 *273:A 4.19433e-05
2 *271:Y 4.19433e-05
3 *273:A *273:B 1.87331e-05
4 *273:A *121:6 4.84073e-05
5 *271:B *273:A 0.000107845
6 *118:6 *273:A 1.24368e-05
*RES
1 *271:Y *273:A 19.975 
*END

*D_NET *120 0.000256415
*CONN
*I *273:B I *D sky130_fd_sc_hd__nand2_1
*I *272:Y O *D sky130_fd_sc_hd__nand2_1
*CAP
1 *273:B 3.51322e-05
2 *272:Y 3.51322e-05
3 *270:B *273:B 8.48678e-06
4 *272:B *273:B 6.04633e-05
5 *273:A *273:B 1.87331e-05
6 *118:6 *273:B 9.84673e-05
*RES
1 *272:Y *273:B 19.975 
*END

*D_NET *121 0.000793461
*CONN
*I *276:A I *D sky130_fd_sc_hd__nand2_1
*I *275:A I *D sky130_fd_sc_hd__nand2_1
*I *273:Y O *D sky130_fd_sc_hd__nand2_1
*CAP
1 *276:A 0.000148757
2 *275:A 5.60329e-05
3 *273:Y 0.00015049
4 *121:6 0.00035528
5 *271:B *275:A 3.49456e-06
6 *271:B *121:6 1.62025e-05
7 *273:A *121:6 4.84073e-05
8 *118:6 *121:6 1.4796e-05
*RES
1 *273:Y *121:6 11.8893 
2 *121:6 *275:A 10.2643 
3 *121:6 *276:A 20.2464 
*END

*D_NET *122 0.00170606
*CONN
*I *277:B I *D sky130_fd_sc_hd__nand2_1
*I *279:B I *D sky130_fd_sc_hd__nand2_1
*I *276:B I *D sky130_fd_sc_hd__nand2_1
*I *275:Y O *D sky130_fd_sc_hd__nand2_1
*CAP
1 *277:B 3.9767e-05
2 *279:B 1.64901e-05
3 *276:B 0
4 *275:Y 0.000212523
5 *122:16 0.000314128
6 *122:10 0.000549928
7 *122:16 *278:A 0.000227971
8 *220:A *122:16 0.000109744
9 *220:B *279:B 5.66971e-05
10 *220:B *122:16 1.47658e-05
11 *275:B *122:10 0.000102659
12 *277:A *277:B 2.37944e-05
13 *277:A *122:10 3.75959e-05
*RES
1 *275:Y *122:10 17.0143 
2 *122:10 *122:16 9.05357 
3 *122:16 *276:B 9.3 
4 *122:16 *279:B 9.83571 
5 *122:10 *277:B 14.5321 
*END

*D_NET *123 0.000485879
*CONN
*I *278:A I *D sky130_fd_sc_hd__nand2_1
*I *276:Y O *D sky130_fd_sc_hd__nand2_1
*CAP
1 *278:A 6.52454e-05
2 *276:Y 6.52454e-05
3 *220:A *278:A 7.64135e-05
4 *220:B *278:A 5.10039e-05
5 *122:16 *278:A 0.000227971
*RES
1 *276:Y *278:A 21.2071 
*END

*D_NET *124 0.000214466
*CONN
*I *278:B I *D sky130_fd_sc_hd__nand2_1
*I *277:Y O *D sky130_fd_sc_hd__nand2_1
*CAP
1 *278:B 3.58778e-05
2 *277:Y 3.58778e-05
3 *278:B *125:14 5.62995e-05
4 *220:A *278:B 8.64109e-05
*RES
1 *277:Y *278:B 19.975 
*END

*D_NET *125 0.00138474
*CONN
*I *177:A I *D sky130_fd_sc_hd__nand2_1
*I *295:A I *D sky130_fd_sc_hd__nand2_1
*I *278:Y O *D sky130_fd_sc_hd__nand2_1
*CAP
1 *177:A 9.0067e-05
2 *295:A 0
3 *278:Y 0.000489174
4 *125:14 0.000579241
5 *178:A *177:A 4.40003e-05
6 *179:A *177:A 1.17091e-05
7 *217:B *125:14 3.46801e-05
8 *220:A *125:14 3.07386e-05
9 *221:A *125:14 0
10 *278:B *125:14 5.62995e-05
11 *26:6 *177:A 1.56e-05
12 *72:12 *125:14 3.3231e-05
*RES
1 *278:Y *125:14 25.9071 
2 *125:14 *295:A 9.3 
3 *125:14 *177:A 11.5143 
*END

*D_NET *126 0.000911321
*CONN
*I *185:A I *D sky130_fd_sc_hd__nand2_1
*I *186:A I *D sky130_fd_sc_hd__nand2_1
*I *279:Y O *D sky130_fd_sc_hd__nand2_1
*CAP
1 *185:A 3.91099e-05
2 *186:A 0
3 *279:Y 0.000207737
4 *126:10 0.000246847
5 *185:B *185:A 0.000216246
6 *186:B *185:A 1.61893e-05
7 *221:A *126:10 0
8 *35:6 *185:A 2.27416e-05
9 *35:10 *185:A 3.67257e-05
10 *74:12 *126:10 0.000125724
*RES
1 *279:Y *126:10 22.3714 
2 *126:10 *186:A 9.3 
3 *126:10 *185:A 11.5143 
*END

*D_NET *127 0.00133574
*CONN
*I *284:A I *D sky130_fd_sc_hd__inv_1
*I *282:B I *D sky130_fd_sc_hd__nand2_1
*I *281:B I *D sky130_fd_sc_hd__nand2_1
*I *280:Y O *D sky130_fd_sc_hd__nand2_1
*CAP
1 *284:A 0.000268107
2 *282:B 7.80623e-05
3 *281:B 1.3525e-05
4 *280:Y 0.000343115
5 *127:6 0.000166595
6 *127:6 *283:A 5.50052e-05
7 p[4] *284:A 4.33587e-05
8 *213:A *284:A 0.000129868
9 *213:B *284:A 1.41029e-05
10 *280:A *127:6 5.66971e-05
11 *280:B *281:B 1.02301e-05
12 *280:B *282:B 3.65727e-05
13 *280:B *127:6 4.63305e-05
14 *6:17 *282:B 3.24049e-05
15 *68:12 *284:A 0
16 *106:14 *127:6 4.17702e-05
*RES
1 *280:Y *127:6 11.0679 
2 *127:6 *281:B 9.72857 
3 *127:6 *282:B 11.0857 
4 *280:Y *284:A 32.7741 
*END

*D_NET *128 0.000444638
*CONN
*I *283:A I *D sky130_fd_sc_hd__nand2_1
*I *281:Y O *D sky130_fd_sc_hd__nand2_1
*CAP
1 *283:A 0.000145586
2 *281:Y 0.000145586
3 p[3] *283:A 7.25873e-06
4 *213:B *283:A 2.42657e-05
5 *6:9 *283:A 9.60337e-06
6 *7:15 *283:A 6.27272e-06
7 *106:14 *283:A 5.1061e-05
8 *127:6 *283:A 5.50052e-05
*RES
1 *281:Y *283:A 30.3143 
*END

*D_NET *129 0.000432582
*CONN
*I *283:B I *D sky130_fd_sc_hd__nand2_1
*I *282:Y O *D sky130_fd_sc_hd__nand2_1
*CAP
1 *283:B 0.000141557
2 *282:Y 0.000141557
3 *106:14 *283:B 0.000149467
*RES
1 *282:Y *283:B 30.6 
*END

*D_NET *130 0.00126787
*CONN
*I *290:B I *D sky130_fd_sc_hd__nand2_1
*I *292:A I *D sky130_fd_sc_hd__nand2_1
*I *284:Y O *D sky130_fd_sc_hd__inv_1
*CAP
1 *290:B 4.67969e-05
2 *292:A 0.000129053
3 *284:Y 0.000179727
4 *130:10 0.000355577
5 *130:10 *288:B 0
6 p[4] *130:10 0.000119924
7 *292:B *292:A 2.44318e-05
8 *293:A *292:A 5.52238e-05
9 *293:A *130:10 0.000101545
10 *293:B *292:A 9.90367e-05
11 *21:14 *290:B 0
12 *21:14 *130:10 0
13 *22:8 *292:A 0.000156551
*RES
1 *284:Y *130:10 17.4161 
2 *130:10 *292:A 17.1214 
3 *130:10 *290:B 14.5321 
*END

*D_NET *131 0.00179045
*CONN
*I *294:A I *D sky130_fd_sc_hd__nand2_1
*I *287:B I *D sky130_fd_sc_hd__nand2_1
*I *288:B I *D sky130_fd_sc_hd__nand2_1
*I *286:Y O *D sky130_fd_sc_hd__nand2_1
*CAP
1 *294:A 0.000130331
2 *287:B 3.78508e-05
3 *288:B 0.000302951
4 *286:Y 0.000146512
5 *131:27 0.000168182
6 *131:6 0.000449463
7 *288:B *289:A 5.52238e-05
8 *131:6 *289:A 4.27935e-05
9 *183:A *287:B 0
10 *183:B *294:A 0
11 *183:B *131:6 0.000142856
12 *286:B *287:B 0
13 *287:A *131:6 3.48705e-05
14 *288:A *288:B 5.62491e-05
15 *288:A *131:6 9.22103e-06
16 *289:B *288:B 0.000102734
17 *293:A *288:B 0
18 *21:14 *288:B 0.00011121
19 *21:14 *294:A 0
20 *130:10 *288:B 0
*RES
1 *286:Y *131:6 12.3 
2 *131:6 *288:B 23.8179 
3 *131:6 *131:27 4.5 
4 *131:27 *287:B 14.5321 
5 *131:27 *294:A 16.05 
*END

*D_NET *132 0.000227942
*CONN
*I *289:A I *D sky130_fd_sc_hd__nand2_1
*I *287:Y O *D sky130_fd_sc_hd__nand2_1
*CAP
1 *289:A 3.29909e-05
2 *287:Y 3.29909e-05
3 *287:A *289:A 3.99614e-06
4 *288:A *289:A 4.01768e-05
5 *288:B *289:A 5.52238e-05
6 *289:B *289:A 1.97695e-05
7 *131:6 *289:A 4.27935e-05
*RES
1 *287:Y *289:A 19.975 
*END
