*SPEF "ieee 1481-1999"
*DESIGN "m8_dadda_nand9_ks"
*DATE "16:22:21 Sunday September 06, 2026"
*VENDOR "The OpenROAD Project"
*PROGRAM "OpenROAD"
*VERSION "dcf36133a369abc8f3c5e5738cd4d82e4903c0e0"
*DESIGN_FLOW "NAME_SCOPE LOCAL" "PIN_CAP NONE"
*DIVIDER /
*DELIMITER :
*BUS_DELIMITER []
*T_UNIT 1 NS
*C_UNIT 1 PF
*R_UNIT 1 OHM
*L_UNIT 1 HENRY

*NAME_MAP
*3 a[0]
*4 a[1]
*5 a[2]
*6 a[3]
*7 a[4]
*8 a[5]
*9 a[6]
*10 a[7]
*11 b[0]
*12 b[1]
*13 b[2]
*14 b[3]
*15 b[4]
*16 b[5]
*17 b[6]
*18 b[7]
*19 p[0]
*20 p[10]
*21 p[11]
*22 p[12]
*23 p[13]
*24 p[14]
*25 p[15]
*26 p[1]
*27 p[2]
*28 p[3]
*29 p[4]
*30 p[5]
*31 p[6]
*32 p[7]
*33 p[8]
*34 p[9]
*35 n100
*36 n101
*37 n102
*38 n103
*39 n104
*40 n105
*41 n106
*42 n107
*43 n108
*44 n109
*45 n110
*46 n111
*47 n112
*48 n113
*49 n114
*50 n115
*51 n116
*52 n117
*53 n118
*54 n119
*55 n120
*56 n121
*57 n122
*58 n123
*59 n124
*60 n125
*61 n126
*62 n127
*63 n128
*64 n129
*65 n130
*66 n131
*67 n132
*68 n133
*69 n134
*70 n135
*71 n136
*72 n137
*73 n138
*74 n139
*75 n140
*76 n141
*77 n142
*78 n143
*79 n144
*80 n145
*81 n146
*82 n147
*83 n148
*84 n149
*85 n150
*86 n151
*87 n152
*88 n153
*89 n154
*90 n155
*91 n156
*92 n157
*93 n158
*94 n159
*95 n16
*96 n160
*97 n161
*98 n162
*99 n163
*100 n164
*101 n165
*102 n166
*103 n167
*104 n168
*105 n169
*106 n170
*107 n171
*108 n172
*109 n173
*110 n174
*111 n175
*112 n176
*113 n177
*114 n178
*115 n179
*116 n18
*117 n180
*118 n181
*119 n182
*120 n183
*121 n184
*122 n185
*123 n186
*124 n187
*125 n188
*126 n189
*127 n19
*128 n190
*129 n191
*130 n192
*131 n193
*132 n194
*133 n195
*134 n196
*135 n197
*136 n198
*137 n199
*138 n20
*139 n200
*140 n201
*141 n202
*142 n203
*143 n204
*144 n205
*145 n206
*146 n207
*147 n208
*148 n209
*149 n21
*150 n210
*151 n211
*152 n212
*153 n213
*154 n214
*155 n215
*156 n216
*157 n217
*158 n218
*159 n219
*160 n22
*161 n220
*162 n221
*163 n222
*164 n223
*165 n224
*166 n225
*167 n226
*168 n227
*169 n228
*170 n229
*171 n23
*172 n230
*173 n231
*174 n232
*175 n233
*176 n234
*177 n235
*178 n236
*179 n237
*180 n238
*181 n239
*182 n24
*183 n240
*184 n241
*185 n242
*186 n243
*187 n244
*188 n245
*189 n246
*190 n247
*191 n248
*192 n249
*193 n25
*194 n250
*195 n251
*196 n252
*197 n253
*198 n254
*199 n255
*200 n256
*201 n257
*202 n258
*203 n259
*204 n26
*205 n260
*206 n261
*207 n262
*208 n263
*209 n264
*210 n265
*211 n266
*212 n267
*213 n268
*214 n269
*215 n27
*216 n270
*217 n271
*218 n272
*219 n273
*220 n274
*221 n275
*222 n276
*223 n277
*224 n278
*225 n279
*226 n28
*227 n280
*228 n281
*229 n282
*230 n283
*231 n284
*232 n285
*233 n286
*234 n287
*235 n288
*236 n289
*237 n29
*238 n290
*239 n291
*240 n292
*241 n293
*242 n294
*243 n295
*244 n296
*245 n297
*246 n298
*247 n299
*248 n30
*249 n300
*250 n301
*251 n302
*252 n303
*253 n304
*254 n305
*255 n306
*256 n307
*257 n308
*258 n309
*259 n31
*260 n310
*261 n311
*262 n312
*263 n313
*264 n314
*265 n315
*266 n316
*267 n317
*268 n318
*269 n319
*270 n32
*271 n320
*272 n321
*273 n322
*274 n323
*275 n324
*276 n325
*277 n326
*278 n327
*279 n328
*280 n329
*281 n33
*282 n330
*283 n331
*284 n332
*285 n333
*286 n334
*287 n335
*288 n336
*289 n337
*290 n338
*291 n339
*292 n34
*293 n340
*294 n341
*295 n342
*296 n343
*297 n344
*298 n345
*299 n346
*300 n347
*301 n348
*302 n349
*303 n35
*304 n350
*305 n351
*306 n352
*307 n353
*308 n354
*309 n355
*310 n356
*311 n357
*312 n358
*313 n359
*314 n36
*315 n360
*316 n361
*317 n362
*318 n363
*319 n364
*320 n365
*321 n366
*322 n367
*323 n368
*324 n369
*325 n37
*326 n370
*327 n371
*328 n372
*329 n373
*330 n374
*331 n375
*332 n376
*333 n377
*334 n378
*335 n379
*336 n38
*337 n380
*338 n381
*339 n382
*340 n383
*341 n384
*342 n385
*343 n386
*344 n387
*345 n388
*346 n389
*347 n39
*348 n390
*349 n391
*350 n392
*351 n393
*352 n394
*353 n395
*354 n396
*355 n397
*356 n398
*357 n399
*358 n40
*359 n400
*360 n401
*361 n402
*362 n403
*363 n404
*364 n405
*365 n406
*366 n407
*367 n408
*368 n409
*369 n41
*370 n410
*371 n411
*372 n412
*373 n413
*374 n414
*375 n415
*376 n416
*377 n417
*378 n418
*379 n419
*380 n42
*381 n420
*382 n421
*383 n422
*384 n423
*385 n424
*386 n425
*387 n426
*388 n427
*389 n428
*390 n429
*391 n43
*392 n430
*393 n431
*394 n432
*395 n433
*396 n434
*397 n435
*398 n436
*399 n437
*400 n438
*401 n439
*402 n44
*403 n440
*404 n441
*405 n442
*406 n443
*407 n444
*408 n445
*409 n446
*410 n447
*411 n448
*412 n449
*413 n45
*414 n450
*415 n451
*416 n452
*417 n453
*418 n454
*419 n455
*420 n456
*421 n457
*422 n458
*423 n459
*424 n46
*425 n460
*426 n461
*427 n462
*428 n463
*429 n464
*430 n465
*431 n466
*432 n467
*433 n468
*434 n469
*435 n47
*436 n470
*437 n471
*438 n472
*439 n473
*440 n474
*441 n475
*442 n476
*443 n477
*444 n478
*445 n479
*446 n48
*447 n480
*448 n481
*449 n482
*450 n483
*451 n484
*452 n485
*453 n486
*454 n487
*455 n488
*456 n489
*457 n49
*458 n490
*459 n491
*460 n492
*461 n493
*462 n494
*463 n496
*464 n497
*465 n498
*466 n499
*467 n50
*468 n500
*469 n501
*470 n502
*471 n503
*472 n504
*473 n505
*474 n506
*475 n507
*476 n508
*477 n509
*478 n51
*479 n510
*480 n511
*481 n512
*482 n513
*483 n514
*484 n515
*485 n516
*486 n517
*487 n518
*488 n519
*489 n52
*490 n520
*491 n521
*492 n522
*493 n523
*494 n524
*495 n525
*496 n526
*497 n527
*498 n528
*499 n529
*500 n53
*501 n530
*502 n531
*503 n532
*504 n533
*505 n534
*506 n535
*507 n536
*508 n537
*509 n538
*510 n539
*511 n54
*512 n540
*513 n541
*514 n542
*515 n543
*516 n544
*517 n545
*518 n546
*519 n547
*520 n548
*521 n549
*522 n55
*523 n550
*524 n551
*525 n552
*526 n553
*527 n554
*528 n555
*529 n556
*530 n557
*531 n558
*532 n559
*533 n56
*534 n560
*535 n561
*536 n562
*537 n563
*538 n564
*539 n565
*540 n566
*541 n567
*542 n568
*543 n569
*544 n57
*545 n570
*546 n571
*547 n572
*548 n573
*549 n574
*550 n575
*551 n576
*552 n577
*553 n578
*554 n579
*555 n58
*556 n580
*557 n581
*558 n582
*559 n583
*560 n584
*561 n585
*562 n586
*563 n587
*564 n588
*565 n589
*566 n59
*567 n590
*568 n591
*569 n592
*570 n593
*571 n594
*572 n595
*573 n596
*574 n597
*575 n598
*576 n599
*577 n60
*578 n600
*579 n601
*580 n602
*581 n603
*582 n604
*583 n605
*584 n606
*585 n607
*586 n608
*587 n609
*588 n61
*589 n610
*590 n611
*591 n612
*592 n613
*593 n614
*594 n615
*595 n616
*596 n617
*597 n618
*598 n619
*599 n62
*600 n620
*601 n621
*602 n622
*603 n623
*604 n624
*605 n625
*606 n626
*607 n627
*608 n628
*609 n629
*610 n63
*611 n630
*612 n631
*613 n632
*614 n633
*615 n634
*616 n635
*617 n636
*618 n637
*619 n638
*620 n639
*621 n64
*622 n640
*623 n641
*624 n642
*625 n643
*626 n644
*627 n645
*628 n646
*629 n648
*630 n65
*631 n66
*632 n67
*633 n68
*634 n69
*635 n70
*636 n71
*637 n72
*638 n73
*639 n74
*640 n75
*641 n76
*642 n77
*643 n78
*644 n79
*645 n80
*646 n81
*647 n82
*648 n83
*649 n84
*650 n85
*651 n86
*652 n87
*653 n88
*654 n89
*655 n90
*656 n91
*657 n92
*658 n93
*659 n94
*660 n95
*661 n96
*662 n97
*663 n98
*664 n99
*665 PHY_EDGE_ROW_0_Left_31
*666 PHY_EDGE_ROW_0_Right_0
*667 PHY_EDGE_ROW_10_Left_41
*668 PHY_EDGE_ROW_10_Right_10
*669 PHY_EDGE_ROW_11_Left_42
*670 PHY_EDGE_ROW_11_Right_11
*671 PHY_EDGE_ROW_12_Left_43
*672 PHY_EDGE_ROW_12_Right_12
*673 PHY_EDGE_ROW_13_Left_44
*674 PHY_EDGE_ROW_13_Right_13
*675 PHY_EDGE_ROW_14_Left_45
*676 PHY_EDGE_ROW_14_Right_14
*677 PHY_EDGE_ROW_15_Left_46
*678 PHY_EDGE_ROW_15_Right_15
*679 PHY_EDGE_ROW_16_Left_47
*680 PHY_EDGE_ROW_16_Right_16
*681 PHY_EDGE_ROW_17_Left_48
*682 PHY_EDGE_ROW_17_Right_17
*683 PHY_EDGE_ROW_18_Left_49
*684 PHY_EDGE_ROW_18_Right_18
*685 PHY_EDGE_ROW_19_Left_50
*686 PHY_EDGE_ROW_19_Right_19
*687 PHY_EDGE_ROW_1_Left_32
*688 PHY_EDGE_ROW_1_Right_1
*689 PHY_EDGE_ROW_20_Left_51
*690 PHY_EDGE_ROW_20_Right_20
*691 PHY_EDGE_ROW_21_Left_52
*692 PHY_EDGE_ROW_21_Right_21
*693 PHY_EDGE_ROW_22_Left_53
*694 PHY_EDGE_ROW_22_Right_22
*695 PHY_EDGE_ROW_23_Left_54
*696 PHY_EDGE_ROW_23_Right_23
*697 PHY_EDGE_ROW_24_Left_55
*698 PHY_EDGE_ROW_24_Right_24
*699 PHY_EDGE_ROW_25_Left_56
*700 PHY_EDGE_ROW_25_Right_25
*701 PHY_EDGE_ROW_26_Left_57
*702 PHY_EDGE_ROW_26_Right_26
*703 PHY_EDGE_ROW_27_Left_58
*704 PHY_EDGE_ROW_27_Right_27
*705 PHY_EDGE_ROW_28_Left_59
*706 PHY_EDGE_ROW_28_Right_28
*707 PHY_EDGE_ROW_29_Left_60
*708 PHY_EDGE_ROW_29_Right_29
*709 PHY_EDGE_ROW_2_Left_33
*710 PHY_EDGE_ROW_2_Right_2
*711 PHY_EDGE_ROW_30_Left_61
*712 PHY_EDGE_ROW_30_Right_30
*713 PHY_EDGE_ROW_3_Left_34
*714 PHY_EDGE_ROW_3_Right_3
*715 PHY_EDGE_ROW_4_Left_35
*716 PHY_EDGE_ROW_4_Right_4
*717 PHY_EDGE_ROW_5_Left_36
*718 PHY_EDGE_ROW_5_Right_5
*719 PHY_EDGE_ROW_6_Left_37
*720 PHY_EDGE_ROW_6_Right_6
*721 PHY_EDGE_ROW_7_Left_38
*722 PHY_EDGE_ROW_7_Right_7
*723 PHY_EDGE_ROW_8_Left_39
*724 PHY_EDGE_ROW_8_Right_8
*725 PHY_EDGE_ROW_9_Left_40
*726 PHY_EDGE_ROW_9_Right_9
*727 TAP_TAPCELL_ROW_0_62
*728 TAP_TAPCELL_ROW_0_63
*729 TAP_TAPCELL_ROW_0_64
*730 TAP_TAPCELL_ROW_0_65
*731 TAP_TAPCELL_ROW_0_66
*732 TAP_TAPCELL_ROW_0_67
*733 TAP_TAPCELL_ROW_10_95
*734 TAP_TAPCELL_ROW_10_96
*735 TAP_TAPCELL_ROW_10_97
*736 TAP_TAPCELL_ROW_11_100
*737 TAP_TAPCELL_ROW_11_98
*738 TAP_TAPCELL_ROW_11_99
*739 TAP_TAPCELL_ROW_12_101
*740 TAP_TAPCELL_ROW_12_102
*741 TAP_TAPCELL_ROW_12_103
*742 TAP_TAPCELL_ROW_13_104
*743 TAP_TAPCELL_ROW_13_105
*744 TAP_TAPCELL_ROW_13_106
*745 TAP_TAPCELL_ROW_14_107
*746 TAP_TAPCELL_ROW_14_108
*747 TAP_TAPCELL_ROW_14_109
*748 TAP_TAPCELL_ROW_15_110
*749 TAP_TAPCELL_ROW_15_111
*750 TAP_TAPCELL_ROW_15_112
*751 TAP_TAPCELL_ROW_16_113
*752 TAP_TAPCELL_ROW_16_114
*753 TAP_TAPCELL_ROW_16_115
*754 TAP_TAPCELL_ROW_17_116
*755 TAP_TAPCELL_ROW_17_117
*756 TAP_TAPCELL_ROW_17_118
*757 TAP_TAPCELL_ROW_18_119
*758 TAP_TAPCELL_ROW_18_120
*759 TAP_TAPCELL_ROW_18_121
*760 TAP_TAPCELL_ROW_19_122
*761 TAP_TAPCELL_ROW_19_123
*762 TAP_TAPCELL_ROW_19_124
*763 TAP_TAPCELL_ROW_1_68
*764 TAP_TAPCELL_ROW_1_69
*765 TAP_TAPCELL_ROW_1_70
*766 TAP_TAPCELL_ROW_20_125
*767 TAP_TAPCELL_ROW_20_126
*768 TAP_TAPCELL_ROW_20_127
*769 TAP_TAPCELL_ROW_21_128
*770 TAP_TAPCELL_ROW_21_129
*771 TAP_TAPCELL_ROW_21_130
*772 TAP_TAPCELL_ROW_22_131
*773 TAP_TAPCELL_ROW_22_132
*774 TAP_TAPCELL_ROW_22_133
*775 TAP_TAPCELL_ROW_23_134
*776 TAP_TAPCELL_ROW_23_135
*777 TAP_TAPCELL_ROW_23_136
*778 TAP_TAPCELL_ROW_24_137
*779 TAP_TAPCELL_ROW_24_138
*780 TAP_TAPCELL_ROW_24_139
*781 TAP_TAPCELL_ROW_25_140
*782 TAP_TAPCELL_ROW_25_141
*783 TAP_TAPCELL_ROW_25_142
*784 TAP_TAPCELL_ROW_26_143
*785 TAP_TAPCELL_ROW_26_144
*786 TAP_TAPCELL_ROW_26_145
*787 TAP_TAPCELL_ROW_27_146
*788 TAP_TAPCELL_ROW_27_147
*789 TAP_TAPCELL_ROW_27_148
*790 TAP_TAPCELL_ROW_28_149
*791 TAP_TAPCELL_ROW_28_150
*792 TAP_TAPCELL_ROW_28_151
*793 TAP_TAPCELL_ROW_29_152
*794 TAP_TAPCELL_ROW_29_153
*795 TAP_TAPCELL_ROW_29_154
*796 TAP_TAPCELL_ROW_2_71
*797 TAP_TAPCELL_ROW_2_72
*798 TAP_TAPCELL_ROW_2_73
*799 TAP_TAPCELL_ROW_30_155
*800 TAP_TAPCELL_ROW_30_156
*801 TAP_TAPCELL_ROW_30_157
*802 TAP_TAPCELL_ROW_30_158
*803 TAP_TAPCELL_ROW_30_159
*804 TAP_TAPCELL_ROW_30_160
*805 TAP_TAPCELL_ROW_3_74
*806 TAP_TAPCELL_ROW_3_75
*807 TAP_TAPCELL_ROW_3_76
*808 TAP_TAPCELL_ROW_4_77
*809 TAP_TAPCELL_ROW_4_78
*810 TAP_TAPCELL_ROW_4_79
*811 TAP_TAPCELL_ROW_5_80
*812 TAP_TAPCELL_ROW_5_81
*813 TAP_TAPCELL_ROW_5_82
*814 TAP_TAPCELL_ROW_6_83
*815 TAP_TAPCELL_ROW_6_84
*816 TAP_TAPCELL_ROW_6_85
*817 TAP_TAPCELL_ROW_7_86
*818 TAP_TAPCELL_ROW_7_87
*819 TAP_TAPCELL_ROW_7_88
*820 TAP_TAPCELL_ROW_8_89
*821 TAP_TAPCELL_ROW_8_90
*822 TAP_TAPCELL_ROW_8_91
*823 TAP_TAPCELL_ROW_9_92
*824 TAP_TAPCELL_ROW_9_93
*825 TAP_TAPCELL_ROW_9_94
*826 g0
*827 g1
*828 g10
*829 g100
*830 g101
*831 g102
*832 g103
*833 g104
*834 g105
*835 g106
*836 g107
*837 g108
*838 g109
*839 g11
*840 g110
*841 g111
*842 g112
*843 g113
*844 g114
*845 g115
*846 g116
*847 g117
*848 g118
*849 g119
*850 g12
*851 g120
*852 g121
*853 g122
*854 g123
*855 g124
*856 g125
*857 g126
*858 g127
*859 g128
*860 g129
*861 g13
*862 g130
*863 g131
*864 g132
*865 g133
*866 g134
*867 g135
*868 g136
*869 g137
*870 g138
*871 g139
*872 g14
*873 g140
*874 g141
*875 g142
*876 g143
*877 g144
*878 g145
*879 g146
*880 g147
*881 g148
*882 g149
*883 g15
*884 g150
*885 g151
*886 g152
*887 g153
*888 g154
*889 g155
*890 g156
*891 g157
*892 g158
*893 g159
*894 g16
*895 g160
*896 g161
*897 g162
*898 g163
*899 g164
*900 g165
*901 g166
*902 g167
*903 g168
*904 g169
*905 g17
*906 g170
*907 g171
*908 g172
*909 g173
*910 g174
*911 g175
*912 g176
*913 g177
*914 g178
*915 g179
*916 g18
*917 g180
*918 g181
*919 g182
*920 g183
*921 g184
*922 g185
*923 g186
*924 g187
*925 g188
*926 g189
*927 g19
*928 g190
*929 g191
*930 g192
*931 g193
*932 g194
*933 g195
*934 g196
*935 g197
*936 g198
*937 g199
*938 g2
*939 g20
*940 g200
*941 g201
*942 g202
*943 g203
*944 g204
*945 g205
*946 g206
*947 g207
*948 g208
*949 g209
*950 g21
*951 g210
*952 g211
*953 g212
*954 g213
*955 g214
*956 g215
*957 g216
*958 g217
*959 g218
*960 g219
*961 g22
*962 g220
*963 g221
*964 g222
*965 g223
*966 g224
*967 g225
*968 g226
*969 g227
*970 g228
*971 g229
*972 g23
*973 g230
*974 g231
*975 g232
*976 g233
*977 g234
*978 g235
*979 g236
*980 g237
*981 g238
*982 g239
*983 g24
*984 g240
*985 g241
*986 g242
*987 g243
*988 g244
*989 g245
*990 g246
*991 g247
*992 g248
*993 g249
*994 g25
*995 g250
*996 g251
*997 g252
*998 g253
*999 g254
*1000 g255
*1001 g256
*1002 g257
*1003 g258
*1004 g259
*1005 g26
*1006 g260
*1007 g261
*1008 g262
*1009 g263
*1010 g264
*1011 g265
*1012 g266
*1013 g267
*1014 g268
*1015 g269
*1016 g27
*1017 g270
*1018 g271
*1019 g272
*1020 g273
*1021 g274
*1022 g275
*1023 g276
*1024 g277
*1025 g278
*1026 g279
*1027 g28
*1028 g280
*1029 g281
*1030 g282
*1031 g283
*1032 g284
*1033 g285
*1034 g286
*1035 g287
*1036 g288
*1037 g289
*1038 g29
*1039 g290
*1040 g291
*1041 g292
*1042 g293
*1043 g294
*1044 g295
*1045 g296
*1046 g297
*1047 g298
*1048 g299
*1049 g3
*1050 g30
*1051 g300
*1052 g301
*1053 g302
*1054 g303
*1055 g304
*1056 g305
*1057 g306
*1058 g307
*1059 g308
*1060 g309
*1061 g31
*1062 g310
*1063 g311
*1064 g312
*1065 g313
*1066 g314
*1067 g315
*1068 g316
*1069 g317
*1070 g318
*1071 g319
*1072 g32
*1073 g320
*1074 g321
*1075 g322
*1076 g323
*1077 g324
*1078 g325
*1079 g326
*1080 g327
*1081 g328
*1082 g329
*1083 g33
*1084 g330
*1085 g331
*1086 g332
*1087 g333
*1088 g334
*1089 g335
*1090 g336
*1091 g337
*1092 g338
*1093 g339
*1094 g34
*1095 g340
*1096 g341
*1097 g342
*1098 g343
*1099 g344
*1100 g345
*1101 g346
*1102 g347
*1103 g348
*1104 g349
*1105 g35
*1106 g350
*1107 g351
*1108 g352
*1109 g353
*1110 g354
*1111 g355
*1112 g356
*1113 g357
*1114 g358
*1115 g359
*1116 g36
*1117 g360
*1118 g361
*1119 g362
*1120 g363
*1121 g364
*1122 g365
*1123 g366
*1124 g367
*1125 g368
*1126 g369
*1127 g37
*1128 g370
*1129 g371
*1130 g372
*1131 g373
*1132 g374
*1133 g375
*1134 g376
*1135 g377
*1136 g378
*1137 g379
*1138 g38
*1139 g380
*1140 g381
*1141 g382
*1142 g383
*1143 g384
*1144 g385
*1145 g386
*1146 g387
*1147 g388
*1148 g389
*1149 g39
*1150 g390
*1151 g391
*1152 g392
*1153 g393
*1154 g394
*1155 g395
*1156 g396
*1157 g397
*1158 g398
*1159 g399
*1160 g4
*1161 g40
*1162 g400
*1163 g401
*1164 g402
*1165 g403
*1166 g404
*1167 g405
*1168 g406
*1169 g407
*1170 g408
*1171 g409
*1172 g41
*1173 g410
*1174 g411
*1175 g412
*1176 g413
*1177 g414
*1178 g415
*1179 g416
*1180 g417
*1181 g418
*1182 g419
*1183 g42
*1184 g420
*1185 g421
*1186 g422
*1187 g423
*1188 g424
*1189 g425
*1190 g426
*1191 g427
*1192 g428
*1193 g429
*1194 g43
*1195 g430
*1196 g431
*1197 g432
*1198 g433
*1199 g434
*1200 g435
*1201 g436
*1202 g437
*1203 g438
*1204 g439
*1205 g44
*1206 g440
*1207 g441
*1208 g442
*1209 g443
*1210 g444
*1211 g445
*1212 g446
*1213 g447
*1214 g448
*1215 g449
*1216 g45
*1217 g450
*1218 g451
*1219 g452
*1220 g453
*1221 g454
*1222 g455
*1223 g456
*1224 g457
*1225 g458
*1226 g459
*1227 g46
*1228 g460
*1229 g461
*1230 g462
*1231 g463
*1232 g464
*1233 g465
*1234 g466
*1235 g467
*1236 g468
*1237 g469
*1238 g47
*1239 g470
*1240 g471
*1241 g472
*1242 g473
*1243 g474
*1244 g475
*1245 g476
*1246 g477
*1247 g478
*1248 g479
*1249 g48
*1250 g480
*1251 g481
*1252 g482
*1253 g483
*1254 g484
*1255 g485
*1256 g486
*1257 g487
*1258 g488
*1259 g489
*1260 g49
*1261 g490
*1262 g491
*1263 g492
*1264 g493
*1265 g494
*1266 g495
*1267 g496
*1268 g497
*1269 g498
*1270 g499
*1271 g5
*1272 g50
*1273 g500
*1274 g501
*1275 g502
*1276 g503
*1277 g504
*1278 g505
*1279 g506
*1280 g507
*1281 g508
*1282 g509
*1283 g51
*1284 g510
*1285 g511
*1286 g512
*1287 g513
*1288 g514
*1289 g515
*1290 g516
*1291 g517
*1292 g518
*1293 g519
*1294 g52
*1295 g520
*1296 g521
*1297 g522
*1298 g523
*1299 g524
*1300 g525
*1301 g526
*1302 g527
*1303 g528
*1304 g529
*1305 g53
*1306 g530
*1307 g531
*1308 g532
*1309 g533
*1310 g534
*1311 g535
*1312 g536
*1313 g537
*1314 g538
*1315 g539
*1316 g54
*1317 g540
*1318 g541
*1319 g542
*1320 g543
*1321 g544
*1322 g545
*1323 g546
*1324 g547
*1325 g548
*1326 g549
*1327 g55
*1328 g550
*1329 g551
*1330 g552
*1331 g553
*1332 g554
*1333 g555
*1334 g556
*1335 g557
*1336 g558
*1337 g559
*1338 g56
*1339 g560
*1340 g561
*1341 g562
*1342 g563
*1343 g564
*1344 g565
*1345 g566
*1346 g567
*1347 g568
*1348 g569
*1349 g57
*1350 g570
*1351 g571
*1352 g572
*1353 g573
*1354 g574
*1355 g575
*1356 g576
*1357 g577
*1358 g578
*1359 g579
*1360 g58
*1361 g580
*1362 g581
*1363 g582
*1364 g583
*1365 g584
*1366 g585
*1367 g586
*1368 g587
*1369 g588
*1370 g589
*1371 g59
*1372 g590
*1373 g591
*1374 g592
*1375 g593
*1376 g594
*1377 g595
*1378 g596
*1379 g597
*1380 g598
*1381 g599
*1382 g6
*1383 g60
*1384 g600
*1385 g601
*1386 g602
*1387 g603
*1388 g604
*1389 g605
*1390 g606
*1391 g607
*1392 g608
*1393 g609
*1394 g61
*1395 g610
*1396 g611
*1397 g612
*1398 g613
*1399 g614
*1400 g615
*1401 g616
*1402 g617
*1403 g618
*1404 g619
*1405 g62
*1406 g620
*1407 g621
*1408 g622
*1409 g623
*1410 g624
*1411 g625
*1412 g626
*1413 g627
*1414 g628
*1415 g629
*1416 g63
*1417 g630
*1418 g631
*1419 g632
*1420 g633
*1421 g634
*1422 g635
*1423 g636
*1424 g637
*1425 g638
*1426 g639
*1427 g64
*1428 g640
*1429 g641
*1430 g642
*1431 g643
*1432 g644
*1433 g645
*1434 g65
*1435 g66
*1436 g67
*1437 g68
*1438 g69
*1439 g7
*1440 g70
*1441 g71
*1442 g72
*1443 g73
*1444 g74
*1445 g75
*1446 g76
*1447 g77
*1448 g78
*1449 g79
*1450 g8
*1451 g80
*1452 g81
*1453 g82
*1454 g83
*1455 g84
*1456 g85
*1457 g86
*1458 g87
*1459 g88
*1460 g89
*1461 g9
*1462 g90
*1463 g91
*1464 g92
*1465 g93
*1466 g94
*1467 g95
*1468 g96
*1469 g97
*1470 g98
*1471 g99

*PORTS
a[0] I
a[1] I
a[2] I
a[3] I
a[4] I
a[5] I
a[6] I
a[7] I
b[0] I
b[1] I
b[2] I
b[3] I
b[4] I
b[5] I
b[6] I
b[7] I
p[0] O
p[10] O
p[11] O
p[12] O
p[13] O
p[14] O
p[15] O
p[1] O
p[2] O
p[3] O
p[4] O
p[5] O
p[6] O
p[7] O
p[8] O
p[9] O

*D_NET *3 0.0191418
*CONN
*P a[0] I
*I *1160:A I *D sky130_fd_sc_hd__nand2_1
*I *826:A I *D sky130_fd_sc_hd__nand2_1
*I *938:A I *D sky130_fd_sc_hd__nand2_1
*I *1382:A I *D sky130_fd_sc_hd__nand2_1
*I *1450:A I *D sky130_fd_sc_hd__nand2_1
*I *828:A I *D sky130_fd_sc_hd__nand2_1
*I *850:A I *D sky130_fd_sc_hd__nand2_1
*I *872:A I *D sky130_fd_sc_hd__nand2_1
*CAP
1 a[0] 0.00117009
2 *1160:A 0.00139131
3 *826:A 0.000218184
4 *938:A 0.000242901
5 *1382:A 2.03441e-05
6 *1450:A 0
7 *828:A 1.69531e-05
8 *850:A 0
9 *872:A 0.000296204
10 *3:104 0.000933294
11 *3:91 0.000883629
12 *3:76 0.00104293
13 *3:70 0.00363333
14 *3:51 0.00195834
15 *3:23 0.000547583
16 *3:15 0.00177268
17 *826:A *826:B 8.13707e-05
18 *826:A *894:A 9.71197e-05
19 *826:A *1049:A 2.3541e-05
20 *826:A *11:113 5.52238e-05
21 *828:A *839:A 5.33005e-05
22 *828:A *82:6 5.33005e-05
23 *872:A *865:B 4.34677e-05
24 *872:A *1038:A 6.38461e-05
25 *872:A *4:103 0.000222917
26 *872:A *84:10 1.16543e-05
27 *872:A *306:12 0.000342433
28 *872:A *413:6 3.49632e-05
29 *938:A *894:A 0.000129868
30 *938:A *938:B 0.000137983
31 *938:A *4:47 6.05161e-06
32 *938:A *11:113 6.51946e-05
33 *1160:A *11:15 1.13949e-05
34 *1382:A *907:B 0
35 *1382:A *1439:A 5.7661e-06
36 *3:15 *859:B 3.25078e-05
37 *3:15 *863:A 7.80714e-06
38 *3:15 *863:B 7.83587e-05
39 *3:15 *958:A 0
40 *3:15 *960:B 0
41 *3:15 *962:B 0
42 *3:15 *965:A 2.09826e-05
43 *3:15 *1437:B 0
44 *3:15 *4:9 0
45 *3:15 *16:43 0
46 *3:15 *79:28 0.000146474
47 *3:15 *237:10 4.16021e-05
48 *3:23 *861:A 0.000105171
49 *3:23 *237:10 7.71303e-05
50 *3:51 *839:A 9.41642e-05
51 *3:51 *82:6 7.47221e-05
52 *3:51 *181:14 5.41794e-05
53 *3:70 *918:B 6.96806e-05
54 *3:70 *919:A 5.74499e-06
55 *3:70 *919:B 1.98839e-05
56 *3:70 *1065:B 2.1499e-05
57 *3:70 *1067:B 4.37451e-05
58 *3:70 *1070:B 0.000221071
59 *3:70 *1071:B 2.11336e-05
60 *3:70 *1149:A 5.92441e-05
61 *3:70 *6:55 9.78337e-05
62 *3:70 *136:10 0.000110275
63 *3:70 *152:14 0
64 *3:70 *181:14 0.000140115
65 *3:70 *283:10 6.92966e-06
66 *3:70 *522:8 0.000207142
67 *3:76 *906:B 2.26327e-05
68 *3:76 *908:A 6.75007e-05
69 *3:76 *1060:A 0
70 *3:76 *1159:A 0.000204181
71 *3:76 *1164:B 9.19975e-05
72 *3:76 *1167:A 0.000133512
73 *3:76 *1434:A 0.000144732
74 *3:76 *14:108 3.28897e-05
75 *3:76 *136:10 6.73707e-06
76 *3:76 *373:10 2.3942e-05
77 *3:76 *382:12 0.000185451
78 *3:91 *906:A 7.86048e-05
79 *3:91 *906:B 1.46624e-05
80 *3:91 *907:A 0.000108293
81 *3:91 *907:B 4.56213e-05
82 *3:91 *972:A 3.55505e-05
83 *3:91 *1439:A 1.55885e-05
84 *3:91 *1461:A 6.2953e-05
85 *3:91 *347:8 5.74499e-06
86 *3:91 *382:12 3.17067e-05
87 *3:104 *894:A 7.64796e-05
88 *3:104 *950:A 2.3541e-05
89 *3:104 *1439:A 0.000204406
90 *3:104 *11:113 1.52978e-05
91 *3:104 *171:14 0.000166243
92 *3:104 *325:12 1.89596e-05
93 *3:104 *361:12 0
*RES
1 a[0] *3:15 26 
2 *3:15 *3:23 4.39286 
3 *3:23 *872:A 26.1214 
4 *3:23 *850:A 9.3 
5 *3:15 *3:51 9.05357 
6 *3:51 *828:A 14.3357 
7 *3:51 *3:70 30.9196 
8 *3:70 *3:76 15.9196 
9 *3:76 *1450:A 13.8 
10 *3:76 *3:91 11.9464 
11 *3:91 *1382:A 9.72857 
12 *3:91 *3:104 14.3929 
13 *3:104 *938:A 18.4607 
14 *3:104 *826:A 17.6393 
15 *3:70 *1160:A 23.322 
*END

*D_NET *4 0.0164168
*CONN
*P a[1] I
*I *1027:A I *D sky130_fd_sc_hd__nand2_1
*I *1050:A I *D sky130_fd_sc_hd__nand2_1
*I *1005:A I *D sky130_fd_sc_hd__nand2_1
*I *939:A I *D sky130_fd_sc_hd__nand2_1
*I *916:A I *D sky130_fd_sc_hd__nand2_1
*I *894:A I *D sky130_fd_sc_hd__nand2_1
*I *961:A I *D sky130_fd_sc_hd__nand2_1
*I *983:A I *D sky130_fd_sc_hd__nand2_1
*CAP
1 a[1] 0.000771952
2 *1027:A 9.50493e-05
3 *1050:A 6.33061e-05
4 *1005:A 8.89459e-05
5 *939:A 0
6 *916:A 0.000491582
7 *894:A 0.000191777
8 *961:A 0
9 *983:A 1.91209e-05
10 *4:103 0.000506609
11 *4:82 0.000588129
12 *4:47 0.000961321
13 *4:39 0.000759321
14 *4:32 0.00178737
15 *4:17 0.00234876
16 *4:9 0.00194651
17 *894:A *938:B 1.31516e-05
18 *894:A *1145:B 1.60258e-05
19 *894:A *11:113 5.90443e-06
20 *894:A *361:12 0
21 *916:A *938:B 0.000809108
22 *916:A *939:B 0
23 *916:A *1136:A 0.000342978
24 *916:A *1145:B 0
25 *916:A *1160:B 0
26 *916:A *1271:A 2.9766e-05
27 *916:A *11:15 4.65158e-06
28 *916:A *149:12 5.24922e-05
29 *916:A *352:12 4.57445e-05
30 *1005:A *1005:B 1.24368e-05
31 *1005:A *1016:A 6.09899e-05
32 *1005:A *1090:A 0
33 *1005:A *306:12 1.02936e-05
34 *1027:A *872:B 1.00887e-05
35 *1027:A *1027:B 9.14222e-05
36 *4:9 *859:A 0
37 *4:9 *958:A 5.58941e-05
38 *4:9 *958:B 4.70981e-05
39 *4:9 *959:B 0.000180678
40 *4:9 *960:B 6.9253e-05
41 *4:9 *16:35 0.000100301
42 *4:9 *83:10 6.91157e-05
43 *4:9 *183:10 2.96981e-05
44 *4:17 *932:B 0.00014183
45 *4:17 *934:A 0.000185643
46 *4:17 *934:B 1.21289e-05
47 *4:17 *983:B 5.52238e-05
48 *4:17 *994:A 2.89114e-05
49 *4:17 *1327:A 1.37644e-05
50 *4:17 *14:58 0.000357945
51 *4:17 *14:62 0.00022035
52 *4:17 *14:83 0.000239302
53 *4:17 *79:28 0.000138881
54 *4:17 *152:14 9.80173e-05
55 *4:32 *994:A 7.61932e-05
56 *4:32 *1158:A 3.17355e-05
57 *4:32 *1158:B 0.000146261
58 *4:32 *1163:A 0.00011366
59 *4:32 *1166:A 7.83366e-05
60 *4:32 *1249:A 0
61 *4:32 *1272:B 4.57842e-05
62 *4:32 *1283:A 0
63 *4:32 *12:30 4.60316e-05
64 *4:32 *14:83 2.14658e-05
65 *4:32 *14:108 0.000205217
66 *4:32 *266:14 0
67 *4:32 *267:10 5.78686e-05
68 *4:32 *376:8 6.35976e-05
69 *4:32 *381:8 0.000187893
70 *4:39 *1382:B 0.000271352
71 *4:47 *938:B 2.09826e-05
72 *4:47 *361:12 1.58163e-05
73 *4:82 *850:B 9.25014e-06
74 *4:82 *859:A 0
75 *4:82 *1005:B 4.02462e-05
76 *4:82 *16:35 4.75715e-05
77 *4:82 *306:12 5.33978e-05
78 *4:103 *850:B 0.000118903
79 *4:103 *1027:B 0
80 *4:103 *306:12 6.39901e-05
81 *826:A *894:A 9.71197e-05
82 *872:A *4:103 0.000222917
83 *938:A *894:A 0.000129868
84 *938:A *4:47 6.05161e-06
85 *3:15 *4:9 0
86 *3:104 *894:A 7.64796e-05
*RES
1 a[1] *4:9 16.8393 
2 *4:9 *4:17 25.7143 
3 *4:17 *983:A 9.72857 
4 *4:17 *4:32 36.8571 
5 *4:32 *961:A 9.3 
6 *4:32 *4:39 8.75 
7 *4:39 *4:47 9.02679 
8 *4:47 *894:A 18.3982 
9 *4:47 *916:A 27.5232 
10 *4:39 *939:A 9.3 
11 *4:9 *4:82 2.85714 
12 *4:82 *1005:A 15.7286 
13 *4:82 *4:103 12.2857 
14 *4:103 *1050:A 10.2464 
15 *4:103 *1027:A 20.55 
*END

*D_NET *5 0.0196504
*CONN
*P a[2] I
*I *1094:A I *D sky130_fd_sc_hd__nand2_1
*I *1072:A I *D sky130_fd_sc_hd__nand2_1
*I *1116:A I *D sky130_fd_sc_hd__nand2_1
*I *1138:A I *D sky130_fd_sc_hd__nand2_1
*I *1161:A I *D sky130_fd_sc_hd__nand2_1
*I *1183:A I *D sky130_fd_sc_hd__nand2_1
*I *1227:A I *D sky130_fd_sc_hd__nand2_1
*I *1205:A I *D sky130_fd_sc_hd__nand2_1
*CAP
1 a[2] 0.00077117
2 *1094:A 0
3 *1072:A 0.000112928
4 *1116:A 0.00034586
5 *1138:A 0.000178352
6 *1161:A 0.000639257
7 *1183:A 5.49425e-05
8 *1227:A 5.91636e-05
9 *1205:A 0
10 *5:106 0.000520616
11 *5:100 0.000991977
12 *5:66 0.000958364
13 *5:64 0.00212234
14 *5:49 0.00309434
15 *5:26 0.00223436
16 *5:17 0.000958409
17 *1072:A *939:B 1.16107e-05
18 *1116:A *1043:A 0.000170651
19 *1116:A *1045:B 0
20 *1116:A *1116:B 0.000414506
21 *1116:A *500:10 0.00014852
22 *1116:A *632:12 6.92148e-06
23 *1138:A *1138:B 5.33005e-05
24 *1138:A *1149:A 1.32293e-05
25 *1138:A *12:51 0.000137776
26 *1161:A *911:B 0.000211913
27 *1161:A *1161:B 0
28 *1161:A *1327:A 0
29 *1161:A *6:41 0
30 *1161:A *15:110 0
31 *1161:A *133:14 8.51826e-05
32 *1161:A *369:10 8.00806e-05
33 *1183:A *1183:B 2.56395e-05
34 *1227:A *16:23 0.000100074
35 *1227:A *18:36 0.000123924
36 *5:17 *6:9 1.11993e-05
37 *5:17 *6:86 0
38 *5:17 *13:5 0.000537498
39 *5:17 *14:13 0.000268707
40 *5:17 *16:23 0.00022217
41 *5:26 *13:5 0.000290549
42 *5:26 *16:23 0.000495201
43 *5:49 *865:A 4.17702e-05
44 *5:49 *868:A 2.57826e-06
45 *5:49 *868:B 8.25843e-06
46 *5:49 *870:A 2.92625e-05
47 *5:49 *883:A 6.98553e-06
48 *5:49 *967:B 0.000100074
49 *5:49 *997:B 7.38537e-05
50 *5:49 *1000:B 8.43535e-06
51 *5:49 *1002:A 0.000125997
52 *5:49 *1004:A 0.000122554
53 *5:49 *1194:A 3.46874e-05
54 *5:49 *13:5 7.26481e-05
55 *5:49 *87:8 7.88091e-05
56 *5:49 *184:10 9.58689e-05
57 *5:49 *217:6 0.000225995
58 *5:49 *218:6 2.57826e-06
59 *5:49 *259:6 0.000246711
60 *5:49 *566:6 2.92349e-05
61 *5:64 *1179:B 0.000226272
62 *5:64 *1180:B 1.16543e-05
63 *5:64 *1181:B 4.23557e-05
64 *5:64 *1183:B 1.84776e-05
65 *5:64 *1194:A 2.85321e-05
66 *5:64 *1294:B 4.04683e-05
67 *5:64 *1427:A 0.000304227
68 *5:100 *1158:A 0.000138449
69 *5:100 *1159:B 9.84729e-05
70 *5:100 *1162:A 3.50746e-05
71 *5:100 *1162:B 8.34905e-05
72 *5:100 *1427:A 8.7983e-05
73 *5:100 *1434:A 7.36252e-05
74 *5:100 *11:28 0.000230568
75 *5:100 *12:30 0.000167455
76 *5:106 *1094:B 0.000141935
77 *5:106 *11:28 4.04415e-05
78 *5:106 *12:30 0.000123924
*RES
1 a[2] *5:17 21.0536 
2 *5:17 *1205:A 13.8 
3 *5:17 *5:26 7.10714 
4 *5:26 *1227:A 15.9786 
5 *5:26 *5:49 32.7321 
6 *5:49 *1183:A 19.3357 
7 *5:49 *5:64 18.1786 
8 *5:64 *5:66 2.25 
9 *5:66 *1161:A 25.4607 
10 *5:66 *1138:A 17.2286 
11 *5:64 *5:100 22.1429 
12 *5:100 *5:106 7.10714 
13 *5:106 *1116:A 21.8714 
14 *5:106 *1072:A 15.6036 
15 *5:100 *1094:A 9.3 
*END

*D_NET *6 0.0176398
*CONN
*P a[3] I
*I *1383:A I *D sky130_fd_sc_hd__nand2_1
*I *1405:A I *D sky130_fd_sc_hd__nand2_1
*I *1360:A I *D sky130_fd_sc_hd__nand2_1
*I *1294:A I *D sky130_fd_sc_hd__nand2_1
*I *1272:A I *D sky130_fd_sc_hd__nand2_1
*I *1249:A I *D sky130_fd_sc_hd__nand2_1
*I *1316:A I *D sky130_fd_sc_hd__nand2_1
*I *1338:A I *D sky130_fd_sc_hd__nand2_1
*CAP
1 a[3] 0.00056571
2 *1383:A 1.9105e-05
3 *1405:A 0.000570847
4 *1360:A 5.22309e-05
5 *1294:A 0.000269566
6 *1272:A 0
7 *1249:A 0.000432766
8 *1316:A 0.000112693
9 *1338:A 0
10 *6:101 0.00118258
11 *6:86 0.000923443
12 *6:55 0.00132435
13 *6:41 0.0018067
14 *6:26 0.00249253
15 *6:13 0.00236525
16 *6:9 0.00147527
17 *1249:A *1048:B 0.000172443
18 *1249:A *1166:A 5.5782e-05
19 *1249:A *1272:B 7.3522e-05
20 *1249:A *12:30 7.9421e-05
21 *1249:A *266:14 0.000181523
22 *1294:A *1305:A 6.05161e-06
23 *1294:A *1427:A 5.33005e-05
24 *1294:A *286:10 0.000144732
25 *1316:A *926:B 3.51442e-05
26 *1316:A *1316:B 6.38844e-06
27 *1360:A *1371:A 2.27416e-05
28 *1383:A *1394:A 1.02301e-05
29 *1405:A *989:B 0.000129868
30 *1405:A *1394:A 3.11088e-05
31 *1405:A *1444:A 0.000352875
32 *1405:A *1445:A 0.000150773
33 *1405:A *17:15 9.67754e-05
34 *1405:A *17:23 1.46689e-05
35 *1405:A *18:9 5.80706e-06
36 *1405:A *18:19 0.000120655
37 *6:26 *926:A 3.57366e-05
38 *6:26 *959:A 0.000126639
39 *6:26 *959:B 2.59355e-05
40 *6:26 *960:B 0.000139907
41 *6:26 *1316:B 3.67257e-05
42 *6:26 *15:88 0.000115857
43 *6:26 *93:10 9.60939e-05
44 *6:26 *144:10 1.24368e-05
45 *6:41 *926:B 0.000187026
46 *6:41 *1316:B 1.08359e-05
47 *6:41 *1327:A 5.44167e-05
48 *6:41 *7:67 0
49 *6:41 *144:10 0.000101545
50 *6:41 *144:25 4.66511e-05
51 *6:41 *636:10 0.000125724
52 *6:55 *918:A 1.6815e-05
53 *6:55 *918:B 1.35553e-05
54 *6:55 *919:A 0.000295669
55 *6:55 *1052:A 8.48678e-06
56 *6:55 *1149:A 4.17973e-05
57 *6:55 *14:83 1.30833e-05
58 *6:55 *136:10 6.76159e-05
59 *6:55 *263:8 1.02301e-05
60 *6:55 *267:10 0.000114286
61 *6:55 *522:8 0.000121899
62 *6:101 *885:B 2.00751e-05
63 *6:101 *1216:A 6.97972e-05
64 *6:101 *1371:A 0.000153047
65 *6:101 *1394:A 5.36161e-05
66 *6:101 *16:23 0
67 *6:101 *642:6 7.84309e-05
68 *1161:A *6:41 0
69 *3:70 *6:55 9.78337e-05
70 *4:32 *1249:A 0
71 *5:17 *6:9 1.11993e-05
72 *5:17 *6:86 0
*RES
1 a[3] *6:9 11.375 
2 *6:9 *6:13 14.4821 
3 *6:13 *1338:A 9.3 
4 *6:13 *6:26 33.3036 
5 *6:26 *1316:A 15.6036 
6 *6:26 *6:41 12.875 
7 *6:41 *6:55 28.3571 
8 *6:55 *1249:A 28.675 
9 *6:55 *1272:A 9.3 
10 *6:41 *1294:A 18.7107 
11 *6:9 *6:86 4.98214 
12 *6:86 *1360:A 14.7464 
13 *6:86 *6:101 16.5536 
14 *6:101 *1405:A 32.3357 
15 *6:101 *1383:A 9.72857 
*END

*D_NET *7 0.0246703
*CONN
*P a[4] I
*I *1448:A I *D sky130_fd_sc_hd__nand2_1
*I *1446:A I *D sky130_fd_sc_hd__nand2_1
*I *1442:A I *D sky130_fd_sc_hd__nand2_1
*I *1440:A I *D sky130_fd_sc_hd__nand2_1
*I *1435:A I *D sky130_fd_sc_hd__nand2_1
*I *1427:A I *D sky130_fd_sc_hd__nand2_1
*I *1437:A I *D sky130_fd_sc_hd__nand2_1
*I *1444:A I *D sky130_fd_sc_hd__nand2_1
*CAP
1 a[4] 0.000178196
2 *1448:A 0.000385121
3 *1446:A 0
4 *1442:A 3.12428e-05
5 *1440:A 0.000129501
6 *1435:A 0.000112679
7 *1427:A 0.000193841
8 *1437:A 7.49087e-05
9 *1444:A 0.000553612
10 *7:67 0.00145448
11 *7:50 0.00280391
12 *7:44 0.0029706
13 *7:40 0.00213343
14 *7:23 0.00168445
15 *7:13 0.000676706
16 *7:5 0.000951325
17 *1427:A *1294:B 0.000185408
18 *1427:A *1305:A 9.58083e-05
19 *1435:A *12:51 9.84016e-05
20 *1435:A *12:60 5.54817e-06
21 *1437:A *935:B 1.02504e-05
22 *1437:A *965:A 2.83284e-06
23 *1437:A *1437:B 0
24 *1440:A *877:B 2.51343e-06
25 *1440:A *1349:A 6.66207e-05
26 *1440:A *1441:A 9.94887e-05
27 *1442:A *15:88 1.97695e-05
28 *1444:A *898:A 8.48678e-06
29 *1444:A *898:B 2.50173e-05
30 *1444:A *899:B 6.05161e-06
31 *1444:A *900:B 0.00015078
32 *1444:A *988:A 9.14786e-05
33 *1444:A *989:B 0.000128154
34 *1444:A *996:A 5.53312e-05
35 *1444:A *1416:A 3.06406e-05
36 *1444:A *16:23 0.000117206
37 *1444:A *18:9 0
38 *1444:A *122:12 0
39 *1448:A *851:B 6.99087e-05
40 *1448:A *852:A 0.000153047
41 *1448:A *8:9 1.12484e-05
42 *1448:A *8:109 2.83284e-06
43 *1448:A *9:7 4.88898e-05
44 *1448:A *10:11 6.99087e-05
45 *1448:A *17:82 0.00058636
46 *7:5 *8:7 0.000447072
47 *7:5 *9:7 0.000476603
48 *7:13 *851:B 0.000285761
49 *7:13 *1008:A 0
50 *7:13 *1009:A 0.000127446
51 *7:13 *1011:B 9.56968e-05
52 *7:13 *1015:A 0
53 *7:13 *8:9 0.000319963
54 *7:13 *8:11 0.000237081
55 *7:13 *18:9 0.000297112
56 *7:13 *18:81 1.99271e-05
57 *7:13 *223:10 0
58 *7:13 *227:12 0
59 *7:13 *644:10 0
60 *7:23 *996:A 0
61 *7:23 *1416:A 0.000227729
62 *7:23 *1459:B 0
63 *7:23 *8:40 9.90367e-05
64 *7:23 *18:9 0.000205028
65 *7:23 *644:10 0
66 *7:40 *995:A 0.000349438
67 *7:40 *996:A 7.3237e-05
68 *7:40 *996:B 0.000169383
69 *7:40 *8:40 0.000297862
70 *7:40 *208:14 1.02821e-05
71 *7:44 *884:B 0
72 *7:44 *890:A 8.14342e-05
73 *7:44 *895:A 6.42338e-05
74 *7:44 *976:B 0.000105632
75 *7:44 *1001:B 0.000146398
76 *7:44 *1006:A 5.4043e-05
77 *7:44 *1006:B 0.000124019
78 *7:44 *1441:A 5.31234e-05
79 *7:44 *1443:A 0.000153054
80 *7:44 *9:39 0
81 *7:44 *14:142 0
82 *7:44 *15:88 0
83 *7:44 *98:12 0
84 *7:44 *222:22 0
85 *7:44 *435:12 0
86 *7:44 *652:10 3.92854e-05
87 *7:50 *875:B 1.51225e-05
88 *7:50 *876:A 3.92992e-05
89 *7:50 *877:B 0.000136958
90 *7:50 *878:A 2.96872e-06
91 *7:50 *878:B 9.90431e-05
92 *7:50 *957:A 3.61629e-06
93 *7:50 *959:A 5.52238e-05
94 *7:50 *962:B 2.10515e-05
95 *7:50 *964:B 1.74352e-05
96 *7:50 *966:B 0.000442628
97 *7:50 *1349:A 8.31117e-05
98 *7:50 *1441:A 4.13122e-06
99 *7:50 *97:6 0.000310178
100 *7:50 *153:8 0.000274288
101 *7:50 *174:6 8.07313e-05
102 *7:50 *178:17 0.000172309
103 *7:50 *638:12 8.6229e-06
104 *7:50 *652:10 1.3575e-05
105 *7:67 *933:A 0
106 *7:67 *935:A 0.000405727
107 *7:67 *1065:A 0
108 *7:67 *1070:A 0.000126416
109 *7:67 *1070:B 0.000215383
110 *7:67 *1316:B 7.32122e-05
111 *7:67 *1438:A 9.22103e-06
112 *7:67 *12:51 8.52549e-05
113 *7:67 *152:14 0
114 *7:67 *153:8 9.90431e-05
115 *7:67 *282:12 4.15618e-05
116 *1294:A *1427:A 5.33005e-05
117 *1405:A *1444:A 0.000352875
118 *5:64 *1427:A 0.000304227
119 *5:100 *1427:A 8.7983e-05
120 *6:41 *7:67 0
*RES
1 a[4] *7:5 1.30973 
2 *7:5 *7:13 15.2761 
3 *7:13 *7:23 11.6964 
4 *7:23 *1444:A 31.9429 
5 *7:23 *7:40 15.3214 
6 *7:40 *7:44 27.6964 
7 *7:44 *7:50 26.8036 
8 *7:50 *1437:A 19.3357 
9 *7:50 *7:67 24.8571 
10 *7:67 *1427:A 20.6393 
11 *7:67 *1435:A 16.3536 
12 *7:44 *1440:A 16.55 
13 *7:40 *1442:A 10.0321 
14 *7:13 *1446:A 13.8 
15 *7:5 *1448:A 26.5351 
*END

*D_NET *8 0.0193093
*CONN
*P a[5] I
*I *1466:A I *D sky130_fd_sc_hd__nand2_1
*I *1464:A I *D sky130_fd_sc_hd__nand2_1
*I *1462:A I *D sky130_fd_sc_hd__nand2_1
*I *1457:A I *D sky130_fd_sc_hd__nand2_1
*I *1455:A I *D sky130_fd_sc_hd__nand2_1
*I *1451:A I *D sky130_fd_sc_hd__nand2_1
*I *1453:A I *D sky130_fd_sc_hd__nand2_1
*I *1459:A I *D sky130_fd_sc_hd__nand2_1
*CAP
1 a[5] 0.00027245
2 *1466:A 0.00114681
3 *1464:A 0
4 *1462:A 0
5 *1457:A 1.14668e-05
6 *1455:A 0
7 *1451:A 0.000181955
8 *1453:A 0
9 *1459:A 4.38849e-05
10 *8:109 0.00152233
11 *8:64 0.00088148
12 *8:50 0.00174824
13 *8:40 0.00222556
14 *8:11 0.00144964
15 *8:9 0.000393789
16 *8:7 0.000801369
17 *1451:A *941:A 3.57366e-05
18 *1451:A *1451:B 3.48235e-05
19 *1451:A *1453:B 5.71472e-05
20 *1451:A *1454:A 5.52238e-05
21 *1451:A *11:53 5.33786e-05
22 *1451:A *396:8 9.67416e-05
23 *1457:A *1458:A 1.02132e-05
24 *1459:A *17:15 0.00015234
25 *1459:A *18:9 0.000140368
26 *1459:A *18:19 1.02504e-05
27 *1466:A *853:B 0.000290134
28 *1466:A *1119:A 5.33005e-05
29 *1466:A *1119:B 5.52238e-05
30 *1466:A *1120:B 0.0001399
31 *1466:A *1221:A 4.53378e-05
32 *1466:A *1221:B 0.000183023
33 *1466:A *1226:A 7.30238e-05
34 *1466:A *1449:A 2.79827e-05
35 *1466:A *1464:B 6.10635e-05
36 *1466:A *18:116 9.47975e-05
37 *1466:A *441:10 0.000273821
38 *8:9 *851:B 3.29427e-05
39 *8:9 *16:93 0.00010071
40 *8:9 *17:82 0.000207402
41 *8:11 *17:9 0.000404245
42 *8:11 *17:15 0.000461565
43 *8:11 *17:82 0.000165157
44 *8:11 *18:9 0.000768935
45 *8:40 *832:A 2.57503e-05
46 *8:40 *846:B 3.01508e-05
47 *8:40 *847:A 7.32861e-05
48 *8:40 *991:B 0.000137983
49 *8:40 *992:A 5.71472e-05
50 *8:40 *1458:A 3.08664e-05
51 *8:40 *1459:B 3.69697e-05
52 *8:40 *54:6 7.86048e-05
53 *8:40 *68:6 3.33238e-05
54 *8:40 *122:12 3.69697e-05
55 *8:40 *207:8 4.89952e-05
56 *8:50 *892:A 8.17274e-05
57 *8:50 *892:B 2.77258e-05
58 *8:50 *1456:A 7.55923e-05
59 *8:50 *1458:A 2.59177e-05
60 *8:50 *1468:A 0.000228984
61 *8:50 *1471:A 0.000127081
62 *8:50 *9:67 0.000207766
63 *8:50 *38:6 0.000246003
64 *8:64 *936:B 0.000230482
65 *8:64 *1187:A 8.16036e-05
66 *8:64 *1455:B 7.83462e-05
67 *8:64 *1470:B 0
68 *8:64 *12:66 0.000494916
69 *8:64 *396:8 0.000153054
70 *8:109 *852:A 5.80217e-05
71 *8:109 *853:B 2.14757e-05
72 *8:109 *1449:A 0
73 *8:109 *16:93 0.000401726
74 *8:109 *17:82 0
75 *1448:A *8:9 1.12484e-05
76 *1448:A *8:109 2.83284e-06
77 *7:5 *8:7 0.000447072
78 *7:13 *8:9 0.000319963
79 *7:13 *8:11 0.000237081
80 *7:23 *8:40 9.90367e-05
81 *7:40 *8:40 0.000297862
*RES
1 a[5] *8:7 4.64767 
2 *8:7 *8:9 5.4375 
3 *8:9 *8:11 12.875 
4 *8:11 *1459:A 15.7464 
5 *8:11 *8:40 31.6964 
6 *8:40 *8:50 15.6964 
7 *8:50 *8:64 32.6964 
8 *8:64 *1453:A 9.3 
9 *8:64 *1451:A 22.6393 
10 *8:50 *1455:A 9.3 
11 *8:40 *1457:A 9.72857 
12 *8:9 *1462:A 13.8 
13 *8:7 *8:109 14.4196 
14 *8:109 *1464:A 9.3 
15 *8:109 *1466:A 31.9071 
*END

*D_NET *9 0.0201707
*CONN
*P a[6] I
*I *835:A I *D sky130_fd_sc_hd__nand2_1
*I *840:A I *D sky130_fd_sc_hd__nand2_1
*I *837:A I *D sky130_fd_sc_hd__nand2_1
*I *833:A I *D sky130_fd_sc_hd__nand2_1
*I *1468:A I *D sky130_fd_sc_hd__nand2_1
*I *1470:A I *D sky130_fd_sc_hd__nand2_1
*I *829:A I *D sky130_fd_sc_hd__nand2_1
*I *831:A I *D sky130_fd_sc_hd__nand2_1
*CAP
1 a[6] 0.000281627
2 *835:A 2.06011e-05
3 *840:A 0.000383066
4 *837:A 0.000108299
5 *833:A 4.38317e-05
6 *1468:A 0.000315994
7 *1470:A 0
8 *829:A 0.000193029
9 *831:A 0.000392624
10 *9:102 0.000815469
11 *9:98 0.000702429
12 *9:67 0.000612288
13 *9:52 0.000881379
14 *9:39 0.00159551
15 *9:27 0.00174431
16 *9:7 0.001529
17 *829:A *15:88 1.77503e-05
18 *829:A *221:14 0
19 *831:A *831:B 0.000274288
20 *831:A *14:142 0.000397451
21 *831:A *18:19 3.69047e-06
22 *835:A *1030:A 3.34366e-05
23 *835:A *660:10 5.59013e-05
24 *837:A *837:B 3.90513e-05
25 *837:A *838:A 0.000100823
26 *837:A *1467:A 5.01117e-05
27 *840:A *855:B 0.000142578
28 *840:A *857:A 1.02821e-05
29 *840:A *857:B 6.95326e-05
30 *840:A *1467:A 5.41794e-05
31 *840:A *10:95 0.000353419
32 *840:A *18:116 0
33 *1468:A *1456:A 1.56e-05
34 *1468:A *1469:A 0
35 *1468:A *1471:A 5.02992e-05
36 *1468:A *36:10 3.52408e-05
37 *1468:A *50:10 3.52408e-05
38 *9:7 *10:11 0.000536998
39 *9:7 *15:22 2.33863e-05
40 *9:27 *1014:B 5.71472e-05
41 *9:27 *1021:B 9.46929e-05
42 *9:27 *1025:A 0.000210554
43 *9:27 *10:11 2.07339e-05
44 *9:27 *17:82 1.94945e-05
45 *9:27 *18:81 0.000126954
46 *9:27 *70:10 0.000171685
47 *9:27 *122:12 0.000241294
48 *9:27 *231:10 9.71197e-05
49 *9:27 *232:16 0.000144374
50 *9:27 *238:14 5.33005e-05
51 *9:39 *849:A 2.8266e-06
52 *9:39 *1095:A 8.36642e-05
53 *9:39 *1457:B 5.58875e-06
54 *9:39 *10:30 0
55 *9:39 *14:142 7.10245e-05
56 *9:39 *70:10 6.07232e-05
57 *9:52 *890:A 5.52238e-05
58 *9:52 *10:53 0.00036278
59 *9:52 *14:142 8.51331e-05
60 *9:52 *108:34 9.60939e-05
61 *9:67 *15:88 0
62 *9:67 *221:14 0
63 *9:98 *1465:A 0
64 *9:98 *17:82 0.000870908
65 *9:98 *17:101 0.000195555
66 *9:98 *18:81 9.97744e-05
67 *9:98 *18:116 8.85766e-05
68 *9:98 *232:16 0.000547189
69 *9:98 *660:10 9.91086e-05
70 *9:102 *853:B 0.000163199
71 *9:102 *855:B 9.41642e-05
72 *9:102 *1028:B 1.39726e-05
73 *9:102 *1030:A 9.60939e-05
74 *9:102 *10:86 0.000753423
75 *9:102 *10:95 0.000513158
76 *9:102 *17:101 0.00168849
77 *9:102 *18:116 5.74499e-06
78 *1448:A *9:7 4.88898e-05
79 *7:5 *9:7 0.000476603
80 *7:44 *9:39 0
81 *8:50 *1468:A 0.000228984
82 *8:50 *9:67 0.000207766
*RES
1 a[6] *9:7 5.08007 
2 *9:7 *9:27 27.5982 
3 *9:27 *9:39 27.4643 
4 *9:39 *831:A 16.8357 
5 *9:39 *9:52 12.4286 
6 *9:52 *829:A 16.9607 
7 *9:52 *9:67 10.2679 
8 *9:67 *1470:A 9.3 
9 *9:67 *1468:A 16.0679 
10 *9:27 *833:A 14.3357 
11 *9:7 *9:98 13.9375 
12 *9:98 *9:102 21.4643 
13 *9:102 *837:A 20.55 
14 *9:102 *840:A 26.7107 
15 *9:98 *835:A 14.5321 
*END

*D_NET *10 0.0162446
*CONN
*P a[7] I
*I *855:A I *D sky130_fd_sc_hd__nand2_1
*I *857:A I *D sky130_fd_sc_hd__nand2_1
*I *853:A I *D sky130_fd_sc_hd__nand2_1
*I *846:A I *D sky130_fd_sc_hd__nand2_1
*I *842:A I *D sky130_fd_sc_hd__nand2_1
*I *844:A I *D sky130_fd_sc_hd__nand2_1
*I *848:A I *D sky130_fd_sc_hd__nand2_1
*I *851:A I *D sky130_fd_sc_hd__nand2_1
*CAP
1 a[7] 0.000306538
2 *855:A 1.41579e-05
3 *857:A 0.000184032
4 *853:A 2.22847e-05
5 *846:A 0
6 *842:A 0.000393892
7 *844:A 0
8 *848:A 0
9 *851:A 0
10 *10:95 0.000476696
11 *10:86 0.00105561
12 *10:53 0.00122833
13 *10:45 0.00113864
14 *10:30 0.00132351
15 *10:22 0.00217054
16 *10:11 0.000702946
17 *842:A *956:A 0.000177941
18 *842:A *1470:B 9.01334e-05
19 *842:A *15:102 0.000146523
20 *842:A *50:10 0
21 *842:A *92:14 0.000559981
22 *855:A *857:B 3.57366e-05
23 *857:A *857:B 0.000173049
24 *857:A *1269:B 0
25 *10:11 *851:B 9.23621e-05
26 *10:11 *15:5 0.000503012
27 *10:11 *15:22 7.21996e-05
28 *10:11 *17:82 0.000175103
29 *10:11 *18:81 4.50149e-05
30 *10:22 *1104:A 1.22546e-05
31 *10:22 *1104:B 2.89016e-05
32 *10:22 *1106:A 0.000188586
33 *10:22 *1106:B 2.42778e-05
34 *10:22 *321:8 4.8843e-05
35 *10:30 *849:A 0
36 *10:30 *1017:B 0
37 *10:30 *1023:A 0
38 *10:30 *1025:A 0
39 *10:30 *1103:A 0
40 *10:30 *1111:A 0
41 *10:30 *70:10 0
42 *10:30 *121:14 0.000190917
43 *10:30 *122:12 0
44 *10:30 *212:8 0
45 *10:30 *242:12 0
46 *10:45 *848:B 5.7599e-05
47 *10:45 *993:A 9.92584e-05
48 *10:45 *121:14 5.52238e-05
49 *10:45 *211:12 5.93525e-05
50 *10:53 *846:B 4.94362e-05
51 *10:53 *848:B 0
52 *10:53 *890:A 5.71472e-05
53 *10:53 *993:A 2.8266e-06
54 *10:53 *12:66 1.97695e-05
55 *10:53 *14:142 0.000315294
56 *10:86 *853:B 0.000666073
57 *10:86 *1111:A 0
58 *10:86 *1113:B 0
59 *10:86 *1119:B 2.16719e-05
60 *10:86 *1120:B 0.000128146
61 *10:86 *1220:A 0
62 *10:86 *1221:A 0
63 *10:86 *1226:A 0
64 *10:86 *18:81 0
65 *10:86 *18:116 4.34959e-05
66 *10:86 *72:12 0
67 *10:86 *242:12 0
68 *10:86 *331:10 0
69 *10:86 *337:18 0
70 *10:95 *838:A 2.3541e-05
71 *10:95 *855:B 0.00020759
72 *10:95 *1467:A 2.3541e-05
73 *10:95 *18:116 0.000191817
74 *10:95 *46:12 1.3216e-05
75 *10:95 *60:10 6.87086e-06
76 *840:A *857:A 1.02821e-05
77 *840:A *10:95 0.000353419
78 *1448:A *10:11 6.99087e-05
79 *9:7 *10:11 0.000536998
80 *9:27 *10:11 2.07339e-05
81 *9:39 *10:30 0
82 *9:52 *10:53 0.00036278
83 *9:102 *10:86 0.000753423
84 *9:102 *10:95 0.000513158
*RES
1 a[7] *10:11 12.7484 
2 *10:11 *851:A 9.3 
3 *10:11 *10:22 11.1071 
4 *10:22 *10:30 23.3393 
5 *10:30 *848:A 9.3 
6 *10:30 *10:45 10.6786 
7 *10:45 *10:53 20.75 
8 *10:53 *844:A 9.3 
9 *10:53 *842:A 28.5321 
10 *10:45 *846:A 13.8 
11 *10:22 *10:86 23.2679 
12 *10:86 *853:A 9.72857 
13 *10:86 *10:95 10.3929 
14 *10:95 *857:A 13.05 
15 *10:95 *855:A 9.72857 
*END

*D_NET *11 0.0150285
*CONN
*P b[0] I
*I *826:B I *D sky130_fd_sc_hd__nand2_1
*I *894:B I *D sky130_fd_sc_hd__nand2_1
*I *1249:B I *D sky130_fd_sc_hd__nand2_1
*I *1451:B I *D sky130_fd_sc_hd__nand2_1
*I *842:B I *D sky130_fd_sc_hd__nand2_1
*I *1468:B I *D sky130_fd_sc_hd__nand2_1
*I *1427:B I *D sky130_fd_sc_hd__nand2_1
*I *1072:B I *D sky130_fd_sc_hd__nand2_1
*CAP
1 b[0] 0.000600952
2 *826:B 0.000143036
3 *894:B 0
4 *1249:B 0.000168599
5 *1451:B 3.62408e-05
6 *842:B 0.00027693
7 *1468:B 7.41422e-05
8 *1427:B 7.30015e-05
9 *1072:B 0
10 *11:113 0.000512765
11 *11:59 0.00124572
12 *11:53 0.00166581
13 *11:34 0.00165552
14 *11:28 0.00138268
15 *11:15 0.000648146
16 *11:5 0.00125234
17 *826:B *827:A 3.18676e-05
18 *826:B *1049:A 2.3541e-05
19 *826:B *127:10 4.40835e-05
20 *842:B *843:A 0.000103908
21 *842:B *15:102 5.09216e-05
22 *842:B *91:8 0
23 *842:B *306:12 0.000215049
24 *1249:B *1141:B 0
25 *1249:B *1260:A 4.27438e-05
26 *1249:B *266:14 0.000240743
27 *1249:B *478:14 0
28 *1427:B *15:110 0.000124012
29 *1451:B *143:14 3.92854e-05
30 *1468:B *91:8 0
31 *1468:B *306:12 0.000154762
32 *11:5 *12:7 0.000259227
33 *11:15 *12:24 6.70939e-05
34 *11:28 *1094:B 0.000187856
35 *11:28 *12:24 3.02383e-05
36 *11:28 *266:14 0.000101908
37 *11:34 *1166:A 1.91418e-05
38 *11:34 *14:108 0.000156184
39 *11:53 *922:A 0
40 *11:53 *924:B 0
41 *11:53 *925:A 0.000111492
42 *11:53 *1057:B 0.000144773
43 *11:53 *1058:A 0.000140933
44 *11:53 *1058:B 1.74352e-05
45 *11:53 *1059:B 1.74352e-05
46 *11:53 *1060:B 0
47 *11:53 *1062:B 5.71472e-05
48 *11:53 *1453:B 2.89016e-05
49 *11:53 *15:110 0.000486708
50 *11:53 *142:10 0
51 *11:53 *143:14 7.45165e-05
52 *11:53 *272:10 1.87955e-05
53 *11:53 *286:10 0
54 *11:59 *943:A 0.000351162
55 *11:59 *946:B 2.28499e-05
56 *11:59 *163:10 5.19842e-06
57 *11:113 *938:B 0.000764441
58 *11:113 *1135:B 3.9733e-05
59 *11:113 *1251:A 0.000227579
60 *11:113 *463:10 0.000292696
61 *826:A *826:B 8.13707e-05
62 *826:A *11:113 5.52238e-05
63 *894:A *11:113 5.90443e-06
64 *916:A *11:15 4.65158e-06
65 *938:A *11:113 6.51946e-05
66 *1160:A *11:15 1.13949e-05
67 *1451:A *1451:B 3.48235e-05
68 *1451:A *11:53 5.33786e-05
69 *3:104 *11:113 1.52978e-05
70 *5:100 *11:28 0.000230568
71 *5:106 *11:28 4.04415e-05
*RES
1 b[0] *11:5 1.8236 
2 *11:5 *11:15 10.362 
3 *11:15 *1072:B 9.3 
4 *11:15 *11:28 12.1429 
5 *11:28 *11:34 18.9821 
6 *11:34 *1427:B 15.4429 
7 *11:34 *11:53 24.875 
8 *11:53 *11:59 19.8036 
9 *11:59 *1468:B 15.7464 
10 *11:59 *842:B 19.675 
11 *11:53 *1451:B 14.8357 
12 *11:28 *1249:B 17.925 
13 *11:5 *11:113 20.7939 
14 *11:113 *894:B 9.3 
15 *11:113 *826:B 12.7464 
*END

*D_NET *12 0.0149053
*CONN
*P b[1] I
*I *938:B I *D sky130_fd_sc_hd__nand2_1
*I *1094:B I *D sky130_fd_sc_hd__nand2_1
*I *1453:B I *D sky130_fd_sc_hd__nand2_1
*I *1470:B I *D sky130_fd_sc_hd__nand2_1
*I *844:B I *D sky130_fd_sc_hd__nand2_1
*I *1435:B I *D sky130_fd_sc_hd__nand2_1
*I *1272:B I *D sky130_fd_sc_hd__nand2_1
*I *916:B I *D sky130_fd_sc_hd__nand2_1
*CAP
1 b[1] 0.00045415
2 *938:B 0.000314596
3 *1094:B 8.00817e-05
4 *1453:B 0.000229362
5 *1470:B 0.000147839
6 *844:B 0
7 *1435:B 0
8 *1272:B 7.41666e-05
9 *916:B 3.93899e-05
10 *12:66 0.000971602
11 *12:60 0.0011936
12 *12:51 0.000886044
13 *12:30 0.00143986
14 *12:24 0.00104286
15 *12:22 0.000867629
16 *12:7 0.000703927
17 *938:B *927:A 0
18 *938:B *149:12 3.14003e-05
19 *1453:B *925:A 0
20 *1453:B *139:21 0
21 *1453:B *396:8 0
22 *1470:B *1455:B 0
23 *12:22 *1132:A 5.33005e-05
24 *12:22 *1133:A 0.000127806
25 *12:22 *149:12 2.09722e-05
26 *12:24 *1132:A 9.58632e-05
27 *12:51 *1138:B 5.33005e-05
28 *12:51 *1149:A 0.000114878
29 *12:51 *1434:A 2.9766e-05
30 *12:51 *13:51 0.000175281
31 *12:51 *13:57 0.00132454
32 *12:51 *646:8 0.000191568
33 *12:60 *13:51 2.30648e-05
34 *12:60 *139:21 0
35 *12:60 *396:8 0
36 *12:66 *936:B 0.000232399
37 *842:A *1470:B 9.01334e-05
38 *894:A *938:B 1.31516e-05
39 *916:A *938:B 0.000809108
40 *938:A *938:B 0.000137983
41 *1138:A *12:51 0.000137776
42 *1249:A *1272:B 7.3522e-05
43 *1249:A *12:30 7.9421e-05
44 *1435:A *12:51 9.84016e-05
45 *1435:A *12:60 5.54817e-06
46 *1451:A *1453:B 5.71472e-05
47 *4:32 *1272:B 4.57842e-05
48 *4:32 *12:30 4.60316e-05
49 *4:47 *938:B 2.09826e-05
50 *5:100 *12:30 0.000167455
51 *5:106 *1094:B 0.000141935
52 *5:106 *12:30 0.000123924
53 *7:67 *12:51 8.52549e-05
54 *8:64 *1470:B 0
55 *8:64 *12:66 0.000494916
56 *10:53 *12:66 1.97695e-05
57 *11:5 *12:7 0.000259227
58 *11:15 *12:24 6.70939e-05
59 *11:28 *1094:B 0.000187856
60 *11:28 *12:24 3.02383e-05
61 *11:53 *1453:B 2.89016e-05
62 *11:113 *938:B 0.000764441
*RES
1 b[1] *12:7 5.0174 
2 *12:7 *916:B 14.3804 
3 *12:7 *12:22 7.75893 
4 *12:22 *12:24 4.64286 
5 *12:24 *12:30 13.8571 
6 *12:30 *1272:B 15.7464 
7 *12:30 *12:51 29.8571 
8 *12:51 *1435:B 13.8 
9 *12:51 *12:60 2.55357 
10 *12:60 *12:66 21.4821 
11 *12:66 *844:B 9.3 
12 *12:66 *1470:B 21.0857 
13 *12:60 *1453:B 18.1214 
14 *12:24 *1094:B 12.1036 
15 *12:22 *938:B 30.4071 
*END

*D_NET *13 0.0229144
*CONN
*P b[2] I
*I *846:B I *D sky130_fd_sc_hd__nand2_1
*I *1455:B I *D sky130_fd_sc_hd__nand2_1
*I *1294:B I *D sky130_fd_sc_hd__nand2_1
*I *1160:B I *D sky130_fd_sc_hd__nand2_1
*I *939:B I *D sky130_fd_sc_hd__nand2_1
*I *1116:B I *D sky130_fd_sc_hd__nand2_1
*I *1437:B I *D sky130_fd_sc_hd__nand2_1
*I *829:B I *D sky130_fd_sc_hd__nand2_1
*CAP
1 b[2] 0.00123011
2 *846:B 0.000363806
3 *1455:B 0.000174715
4 *1294:B 0.000142886
5 *1160:B 0.000121303
6 *939:B 0.000642756
7 *1116:B 0.000227732
8 *1437:B 0.00069321
9 *829:B 3.21135e-05
10 *13:70 0.000853205
11 *13:57 0.0013765
12 *13:51 0.00164469
13 *13:30 0.00149822
14 *13:18 0.000928574
15 *13:9 0.00114523
16 *13:5 0.002316
17 *829:B *830:A 1.28448e-05
18 *846:B *847:A 0.000118203
19 *846:B *848:B 0.000125731
20 *846:B *991:B 6.05161e-06
21 *846:B *68:6 1.06439e-05
22 *846:B *121:14 0
23 *939:B *1083:A 0.000126272
24 *939:B *1136:A 0
25 *939:B *1141:A 0
26 *939:B *1145:A 0.000150625
27 *939:B *352:12 0
28 *939:B *356:10 0.000127119
29 *1160:B *1271:A 3.08382e-06
30 *1437:B *935:A 0
31 *1437:B *962:B 1.49698e-05
32 *1437:B *965:A 1.94945e-05
33 *1437:B *965:B 1.74852e-05
34 *1437:B *1183:B 0.000603364
35 *1437:B *1187:A 0
36 *1437:B *16:43 0.000250201
37 *1437:B *91:8 0
38 *1437:B *148:29 0
39 *1437:B *153:8 0.00010096
40 *1437:B *181:14 0.000863727
41 *1455:B *306:12 0.000181388
42 *13:5 *882:A 0.000225298
43 *13:5 *885:A 3.90513e-05
44 *13:5 *889:B 1.19468e-05
45 *13:5 *14:13 0.0001487
46 *13:5 *14:21 0
47 *13:5 *14:58 0
48 *13:5 *103:10 0.000149911
49 *13:5 *121:14 0
50 *13:9 *830:A 0.000128348
51 *13:9 *895:A 0.000192447
52 *13:9 *112:14 3.78363e-05
53 *13:9 *221:14 3.74808e-05
54 *13:9 *222:22 4.4545e-05
55 *13:18 *845:A 2.89684e-05
56 *13:18 *874:A 1.12713e-05
57 *13:18 *874:B 2.38501e-05
58 *13:18 *66:10 7.1629e-06
59 *13:18 *92:14 0.000446597
60 *13:18 *221:14 2.97489e-05
61 *13:30 *870:B 3.59642e-05
62 *13:30 *871:A 9.84673e-05
63 *13:30 *873:A 5.10039e-05
64 *13:30 *873:B 4.63305e-05
65 *13:30 *874:B 0.000184503
66 *13:30 *88:14 1.12713e-05
67 *13:51 *396:8 0
68 *13:57 *1043:A 7.62237e-05
69 *13:57 *1051:B 1.4796e-05
70 *13:57 *1052:A 3.59002e-05
71 *13:57 *1158:B 8.43386e-05
72 *13:57 *1434:A 1.36161e-05
73 *13:57 *258:23 3.24049e-05
74 *13:57 *266:14 0.000143633
75 *13:57 *286:10 0.000269747
76 *13:57 *373:10 0.000266231
77 *13:57 *646:8 0.000630137
78 *916:A *939:B 0
79 *916:A *1160:B 0
80 *1072:A *939:B 1.16107e-05
81 *1116:A *1116:B 0.000414506
82 *1427:A *1294:B 0.000185408
83 *1437:A *1437:B 0
84 *1470:B *1455:B 0
85 *3:15 *1437:B 0
86 *5:17 *13:5 0.000537498
87 *5:26 *13:5 0.000290549
88 *5:49 *13:5 7.26481e-05
89 *5:64 *1294:B 4.04683e-05
90 *8:40 *846:B 3.01508e-05
91 *8:64 *1455:B 7.83462e-05
92 *10:53 *846:B 4.94362e-05
93 *12:51 *13:51 0.000175281
94 *12:51 *13:57 0.00132454
95 *12:60 *13:51 2.30648e-05
*RES
1 b[2] *13:5 30.75 
2 *13:5 *13:9 16.5357 
3 *13:9 *829:B 10.0321 
4 *13:9 *13:18 7.51786 
5 *13:18 *13:30 8.23214 
6 *13:30 *1437:B 37.1036 
7 *13:30 *13:51 12.5179 
8 *13:51 *13:57 29.4643 
9 *13:57 *1116:B 23.8893 
10 *13:57 *13:70 1.35714 
11 *13:70 *939:B 30.2643 
12 *13:70 *1160:B 11.3893 
13 *13:51 *1294:B 16.8 
14 *13:18 *1455:B 22.675 
15 *13:5 *846:B 20.4786 
*END

*D_NET *14 0.025526
*CONN
*P b[3] I
*I *1457:B I *D sky130_fd_sc_hd__nand2_1
*I *848:B I *D sky130_fd_sc_hd__nand2_1
*I *831:B I *D sky130_fd_sc_hd__nand2_1
*I *1382:B I *D sky130_fd_sc_hd__nand2_1
*I *961:B I *D sky130_fd_sc_hd__nand2_1
*I *1138:B I *D sky130_fd_sc_hd__nand2_1
*I *1316:B I *D sky130_fd_sc_hd__nand2_1
*I *1440:B I *D sky130_fd_sc_hd__nand2_1
*CAP
1 b[3] 0.00100944
2 *1457:B 1.92617e-05
3 *848:B 0.000285935
4 *831:B 9.03462e-05
5 *1382:B 0.000237295
6 *961:B 0
7 *1138:B 1.69531e-05
8 *1316:B 0.000366692
9 *1440:B 3.44448e-05
10 *14:142 0.000610444
11 *14:136 0.00270292
12 *14:108 0.000969913
13 *14:83 0.00149213
14 *14:62 0.0019786
15 *14:58 0.00210116
16 *14:21 0.00138436
17 *14:13 0.00357703
18 *848:B *992:A 0.000114121
19 *848:B *993:A 0.000220455
20 *848:B *121:14 0
21 *848:B *122:12 0
22 *848:B *208:10 7.79781e-06
23 *1316:B *926:A 6.11848e-05
24 *1316:B *926:B 0.00022217
25 *1316:B *144:10 9.22103e-06
26 *1316:B *636:10 0.000115474
27 *1382:B *972:A 0.000182162
28 *1382:B *266:14 8.16036e-05
29 *14:21 *1349:A 0
30 *14:58 *850:B 8.07397e-06
31 *14:58 *859:A 5.71472e-05
32 *14:58 *859:B 5.33005e-05
33 *14:58 *864:A 4.21311e-05
34 *14:58 *888:B 2.34548e-05
35 *14:58 *1086:B 0.000122091
36 *14:58 *1090:A 9.02331e-05
37 *14:58 *1090:B 3.92757e-05
38 *14:58 *1091:A 0.000104575
39 *14:58 *1091:B 6.92028e-05
40 *14:58 *16:35 0.000145718
41 *14:58 *17:34 0.000781442
42 *14:58 *83:10 2.80081e-05
43 *14:58 *106:12 0.000200479
44 *14:58 *306:12 5.52238e-05
45 *14:58 *307:14 5.52238e-05
46 *14:62 *932:B 1.39841e-05
47 *14:62 *934:A 3.30352e-05
48 *14:62 *934:B 0.000227526
49 *14:83 *915:B 0.000170893
50 *14:83 *918:A 4.66056e-05
51 *14:83 *983:B 5.52238e-05
52 *14:83 *994:A 7.50601e-05
53 *14:83 *1161:B 1.52978e-05
54 *14:83 *1327:A 2.80789e-05
55 *14:83 *15:110 0.000723484
56 *14:83 *636:10 0.000118
57 *14:108 *908:A 4.46186e-06
58 *14:108 *1163:A 0.00019384
59 *14:108 *1164:B 0.00015134
60 *14:108 *1166:A 6.05161e-06
61 *14:108 *1167:A 0
62 *14:108 *15:110 0.000395322
63 *831:A *831:B 0.000274288
64 *831:A *14:142 0.000397451
65 *846:B *848:B 0.000125731
66 *1138:A *1138:B 5.33005e-05
67 *1316:A *1316:B 6.38844e-06
68 *3:76 *14:108 3.28897e-05
69 *4:17 *14:58 0.000357945
70 *4:17 *14:62 0.00022035
71 *4:17 *14:83 0.000239302
72 *4:32 *14:83 2.14658e-05
73 *4:32 *14:108 0.000205217
74 *4:39 *1382:B 0.000271352
75 *5:17 *14:13 0.000268707
76 *6:26 *1316:B 3.67257e-05
77 *6:41 *1316:B 1.08359e-05
78 *6:55 *14:83 1.30833e-05
79 *7:44 *14:142 0
80 *7:67 *1316:B 7.32122e-05
81 *9:39 *1457:B 5.58875e-06
82 *9:39 *14:142 7.10245e-05
83 *9:52 *14:142 8.51331e-05
84 *10:45 *848:B 5.7599e-05
85 *10:53 *848:B 0
86 *10:53 *14:142 0.000315294
87 *11:34 *14:108 0.000156184
88 *12:51 *1138:B 5.33005e-05
89 *13:5 *14:13 0.0001487
90 *13:5 *14:21 0
91 *13:5 *14:58 0
*RES
1 b[3] *14:13 12.652 
2 *14:13 *14:21 7.55546 
3 *14:21 *1440:B 14.3357 
4 *14:21 *14:58 42.1607 
5 *14:58 *14:62 11.6429 
6 *14:62 *1316:B 26.3 
7 *14:62 *14:83 21.3393 
8 *14:83 *1138:B 14.3357 
9 *14:83 *14:108 31.0893 
10 *14:108 *961:B 9.3 
11 *14:108 *1382:B 24.0857 
12 *14:13 *14:136 10.8573 
13 *14:136 *14:142 11.2411 
14 *14:142 *831:B 11.8893 
15 *14:142 *848:B 25.4071 
16 *14:136 *1457:B 14.0768 
*END

*D_NET *15 0.0252686
*CONN
*P b[4] I
*I *1450:B I *D sky130_fd_sc_hd__nand2_1
*I *983:B I *D sky130_fd_sc_hd__nand2_1
*I *1161:B I *D sky130_fd_sc_hd__nand2_1
*I *1442:B I *D sky130_fd_sc_hd__nand2_1
*I *1338:B I *D sky130_fd_sc_hd__nand2_1
*I *833:B I *D sky130_fd_sc_hd__nand2_1
*I *1459:B I *D sky130_fd_sc_hd__nand2_1
*I *851:B I *D sky130_fd_sc_hd__nand2_1
*CAP
1 b[4] 0.000222712
2 *1450:B 0.000157255
3 *983:B 1.1624e-05
4 *1161:B 0.000186987
5 *1442:B 0
6 *1338:B 0
7 *833:B 0
8 *1459:B 0.000798806
9 *851:B 0.00013708
10 *15:110 0.00127118
11 *15:102 0.00288077
12 *15:88 0.00144539
13 *15:66 0.00156324
14 *15:62 0.00256212
15 *15:47 0.00130291
16 *15:22 0.00165543
17 *15:5 0.00070682
18 *851:B *18:81 2.88717e-05
19 *1450:B *907:B 2.2549e-05
20 *1450:B *910:A 1.37644e-05
21 *1450:B *1053:B 0
22 *1450:B *1461:A 1.3701e-05
23 *1450:B *128:6 5.95076e-05
24 *1459:B *989:A 0.000153601
25 *1459:B *990:B 1.00073e-05
26 *1459:B *996:A 7.2754e-05
27 *1459:B *1008:A 6.92148e-06
28 *1459:B *1015:A 9.25014e-06
29 *1459:B *54:6 5.52302e-05
30 *1459:B *122:12 0
31 *1459:B *212:8 0.000308294
32 *1459:B *223:10 0.000173804
33 *1459:B *644:10 5.35423e-05
34 *15:5 *16:7 0.000400212
35 *15:5 *17:7 9.77021e-06
36 *15:22 *1014:A 0.000128154
37 *15:22 *1015:A 0.000162125
38 *15:22 *18:81 0
39 *15:22 *212:8 0.000201676
40 *15:22 *232:16 3.75173e-05
41 *15:47 *1010:A 0
42 *15:47 *1010:B 2.79509e-06
43 *15:62 *834:A 5.85412e-05
44 *15:62 *1101:A 0.000120718
45 *15:62 *56:10 8.27348e-06
46 *15:62 *222:22 0.000150857
47 *15:62 *308:10 3.34672e-05
48 *15:62 *308:23 1.88048e-05
49 *15:66 *222:22 0.000123903
50 *15:88 *875:A 0.000108511
51 *15:88 *875:B 0.000115709
52 *15:88 *877:B 5.71263e-05
53 *15:88 *878:B 1.90936e-05
54 *15:88 *879:A 7.20326e-05
55 *15:88 *893:A 0.000126439
56 *15:88 *893:B 0.000126439
57 *15:88 *968:A 2.59253e-05
58 *15:88 *1003:A 5.49657e-05
59 *15:88 *1004:A 0.000197385
60 *15:88 *1082:B 0.000182386
61 *15:88 *1085:B 5.83304e-05
62 *15:88 *52:10 3.90086e-05
63 *15:88 *93:10 4.78097e-05
64 *15:88 *93:18 2.06112e-05
65 *15:88 *98:12 5.75896e-05
66 *15:88 *106:12 0
67 *15:88 *111:6 3.69047e-06
68 *15:88 *184:10 6.23427e-05
69 *15:88 *184:22 4.77165e-05
70 *15:88 *187:12 0.000164226
71 *15:88 *191:10 0.000114759
72 *15:88 *221:14 0
73 *15:88 *222:22 0.000413853
74 *15:88 *298:10 9.91086e-05
75 *15:88 *307:14 0
76 *15:88 *652:10 3.88819e-05
77 *15:102 *843:A 0.000132031
78 *15:102 *945:B 0.000102207
79 *15:102 *979:A 0.00014493
80 *15:102 *979:B 2.89114e-05
81 *15:102 *1053:A 0.000276211
82 *15:102 *1053:B 0.00014285
83 *15:102 *1055:B 1.74352e-05
84 *15:102 *1073:A 0.000102197
85 *15:102 *1073:B 0.000102207
86 *15:102 *1168:A 0.000259934
87 *15:102 *1452:A 0.000131727
88 *15:102 *64:10 3.52408e-05
89 *15:102 *92:14 1.98839e-05
90 *15:102 *162:6 0.000188586
91 *15:102 *268:8 1.74352e-05
92 *15:102 *288:12 0.000144773
93 *15:102 *662:6 3.21097e-05
94 *15:110 *908:B 0
95 *15:110 *912:A 1.41029e-05
96 *15:110 *917:A 0.000215784
97 *15:110 *1056:B 4.57352e-05
98 *15:110 *1060:A 6.5185e-05
99 *15:110 *1062:B 0
100 *15:110 *1167:A 0
101 *15:110 *129:23 1.00375e-05
102 *15:110 *132:10 0.000121573
103 *15:110 *272:10 0
104 *15:110 *369:10 0
105 *15:110 *382:12 0
106 *829:A *15:88 1.77503e-05
107 *842:A *15:102 0.000146523
108 *842:B *15:102 5.09216e-05
109 *1161:A *1161:B 0
110 *1161:A *15:110 0
111 *1427:B *15:110 0.000124012
112 *1442:A *15:88 1.97695e-05
113 *1448:A *851:B 6.99087e-05
114 *4:17 *983:B 5.52238e-05
115 *6:26 *15:88 0.000115857
116 *7:13 *851:B 0.000285761
117 *7:23 *1459:B 0
118 *7:44 *15:88 0
119 *8:9 *851:B 3.29427e-05
120 *8:40 *1459:B 3.69697e-05
121 *9:7 *15:22 2.33863e-05
122 *9:67 *15:88 0
123 *10:11 *851:B 9.23621e-05
124 *10:11 *15:5 0.000503012
125 *10:11 *15:22 7.21996e-05
126 *11:53 *15:110 0.000486708
127 *14:83 *983:B 5.52238e-05
128 *14:83 *1161:B 1.52978e-05
129 *14:83 *15:110 0.000723484
130 *14:108 *15:110 0.000395322
*RES
1 b[4] *15:5 1.3818 
2 *15:5 *851:B 21.7368 
3 *15:5 *15:22 8.86389 
4 *15:22 *1459:B 29.675 
5 *15:22 *15:47 12.4643 
6 *15:47 *833:B 9.3 
7 *15:47 *15:62 16.2321 
8 *15:62 *15:66 7.35714 
9 *15:66 *15:88 41.25 
10 *15:88 *1338:B 9.3 
11 *15:66 *1442:B 9.3 
12 *15:62 *15:102 36.6607 
13 *15:102 *15:110 30.1786 
14 *15:110 *1161:B 16.9964 
15 *15:110 *983:B 14.3357 
16 *15:102 *1450:B 12.2107 
*END

*D_NET *16 0.0222126
*CONN
*P b[5] I
*I *835:B I *D sky130_fd_sc_hd__nand2_1
*I *853:B I *D sky130_fd_sc_hd__nand2_1
*I *1462:B I *D sky130_fd_sc_hd__nand2_1
*I *1444:B I *D sky130_fd_sc_hd__nand2_1
*I *1360:B I *D sky130_fd_sc_hd__nand2_1
*I *1005:B I *D sky130_fd_sc_hd__nand2_1
*I *1183:B I *D sky130_fd_sc_hd__nand2_1
*I *828:B I *D sky130_fd_sc_hd__nand2_1
*CAP
1 b[5] 0.000119395
2 *835:B 0.000251906
3 *853:B 0.000542119
4 *1462:B 0
5 *1444:B 0
6 *1360:B 0
7 *1005:B 8.41934e-05
8 *1183:B 0.000304484
9 *828:B 0
10 *16:93 0.00143166
11 *16:84 0.0006706
12 *16:43 0.000963187
13 *16:35 0.00214159
14 *16:23 0.00240016
15 *16:13 0.00198363
16 *16:7 0.00113453
17 *835:B *1028:B 6.47384e-05
18 *835:B *1465:A 2.3541e-05
19 *835:B *17:101 0
20 *835:B *44:12 0.000135611
21 *853:B *1028:B 9.58318e-06
22 *853:B *18:116 0.000806224
23 *853:B *251:8 0.000100969
24 *853:B *660:10 7.56621e-05
25 *1005:B *850:B 2.89114e-05
26 *1005:B *1090:B 2.60251e-05
27 *1005:B *306:12 5.03772e-05
28 *16:7 *17:7 0.000409159
29 *16:13 *17:9 0.000395703
30 *16:13 *17:15 0.00138499
31 *16:13 *17:82 9.14383e-05
32 *16:23 *885:B 0.000196269
33 *16:23 *897:A 2.59355e-05
34 *16:23 *898:A 0.00022887
35 *16:23 *899:B 1.12713e-05
36 *16:23 *1216:A 6.5185e-05
37 *16:23 *1238:A 4.87371e-05
38 *16:23 *18:36 8.10737e-06
39 *16:23 *610:6 1.05554e-05
40 *16:35 *879:A 2.80789e-05
41 *16:35 *885:A 5.65955e-05
42 *16:35 *885:B 0.000120018
43 *16:35 *1082:B 1.95646e-05
44 *16:35 *1084:A 0.000155196
45 *16:35 *1084:B 2.65105e-05
46 *16:35 *1087:B 0.000274288
47 *16:35 *1088:A 2.95641e-05
48 *16:35 *1441:A 0.000156581
49 *16:35 *98:12 7.41389e-06
50 *16:35 *103:10 7.92229e-06
51 *16:35 *183:10 2.84494e-05
52 *16:35 *298:10 2.07491e-05
53 *16:35 *301:14 8.07313e-05
54 *16:35 *652:10 3.33238e-05
55 *16:43 *862:A 8.70594e-05
56 *16:43 *863:A 6.58736e-05
57 *16:43 *1016:A 3.10648e-05
58 *16:43 *306:12 0.000183726
59 *16:43 *391:6 6.10013e-05
60 *16:84 *17:82 6.99087e-05
61 *16:93 *17:82 0.000221547
62 *16:93 *17:101 0
63 *1005:A *1005:B 1.24368e-05
64 *1183:A *1183:B 2.56395e-05
65 *1227:A *16:23 0.000100074
66 *1437:B *1183:B 0.000603364
67 *1437:B *16:43 0.000250201
68 *1444:A *16:23 0.000117206
69 *1466:A *853:B 0.000290134
70 *3:15 *16:43 0
71 *4:9 *16:35 0.000100301
72 *4:82 *1005:B 4.02462e-05
73 *4:82 *16:35 4.75715e-05
74 *5:17 *16:23 0.00022217
75 *5:26 *16:23 0.000495201
76 *5:64 *1183:B 1.84776e-05
77 *6:101 *16:23 0
78 *8:9 *16:93 0.00010071
79 *8:109 *853:B 2.14757e-05
80 *8:109 *16:93 0.000401726
81 *9:102 *853:B 0.000163199
82 *10:86 *853:B 0.000666073
83 *14:58 *16:35 0.000145718
84 *15:5 *16:7 0.000400212
*RES
1 b[5] *16:7 4.50353 
2 *16:7 *16:13 29.5089 
3 *16:13 *16:23 27.7143 
4 *16:23 *16:35 27.875 
5 *16:35 *16:43 19.2679 
6 *16:43 *828:B 13.8 
7 *16:43 *1183:B 22.05 
8 *16:35 *1005:B 15.7821 
9 *16:23 *1360:B 9.3 
10 *16:13 *1444:B 9.3 
11 *16:7 *16:84 0.883929 
12 *16:84 *1462:B 13.8 
13 *16:84 *16:93 15.3036 
14 *16:93 *853:B 40.5321 
15 *16:93 *835:B 18.7643 
*END

*D_NET *17 0.0229167
*CONN
*P b[6] I
*I *855:B I *D sky130_fd_sc_hd__nand2_1
*I *837:B I *D sky130_fd_sc_hd__nand2_1
*I *1464:B I *D sky130_fd_sc_hd__nand2_1
*I *1446:B I *D sky130_fd_sc_hd__nand2_1
*I *1383:B I *D sky130_fd_sc_hd__nand2_1
*I *850:B I *D sky130_fd_sc_hd__nand2_1
*I *1027:B I *D sky130_fd_sc_hd__nand2_1
*I *1205:B I *D sky130_fd_sc_hd__nand2_1
*CAP
1 b[6] 0.000140462
2 *855:B 0.00044397
3 *837:B 5.70564e-05
4 *1464:B 8.81133e-05
5 *1446:B 4.26984e-05
6 *1383:B 0
7 *850:B 0.000325561
8 *1027:B 0.000234454
9 *1205:B 1.82115e-05
10 *17:101 0.00175676
11 *17:82 0.0019084
12 *17:34 0.00170851
13 *17:23 0.0019193
14 *17:15 0.00143497
15 *17:9 0.000825147
16 *17:7 0.000805078
17 *837:B *838:A 7.83587e-05
18 *837:B *18:116 7.8327e-05
19 *850:B *1090:A 8.37335e-05
20 *850:B *306:12 7.48301e-06
21 *855:B *18:129 2.66026e-05
22 *1027:B *1050:B 9.36295e-05
23 *1027:B *307:14 0.000116507
24 *1205:B *884:B 0
25 *1205:B *887:B 1.44193e-05
26 *1464:B *1449:A 2.79827e-05
27 *17:7 *18:5 0.000422693
28 *17:15 *1445:A 5.1601e-05
29 *17:15 *1460:A 0.000129868
30 *17:15 *18:19 5.06044e-05
31 *17:23 *885:B 5.52238e-05
32 *17:23 *887:B 7.02611e-05
33 *17:23 *888:B 5.74499e-06
34 *17:23 *1216:A 0.0001399
35 *17:23 *1371:A 6.44047e-05
36 *17:23 *640:8 1.02936e-05
37 *17:34 *884:B 0.000180959
38 *17:34 *886:A 2.80214e-05
39 *17:34 *887:B 1.21258e-05
40 *17:34 *888:A 2.16315e-05
41 *17:34 *888:B 2.13481e-06
42 *17:34 *1091:B 5.03772e-05
43 *17:34 *106:12 2.54304e-06
44 *17:82 *1449:A 8.00806e-05
45 *17:82 *18:81 6.05161e-06
46 *17:101 *1030:A 1.98839e-05
47 *17:101 *1449:A 4.56437e-05
48 *17:101 *1465:A 2.79092e-05
49 *835:B *17:101 0
50 *837:A *837:B 3.90513e-05
51 *840:A *855:B 0.000142578
52 *1005:B *850:B 2.89114e-05
53 *1027:A *1027:B 9.14222e-05
54 *1405:A *17:15 9.67754e-05
55 *1405:A *17:23 1.46689e-05
56 *1448:A *17:82 0.00058636
57 *1459:A *17:15 0.00015234
58 *1466:A *1464:B 6.10635e-05
59 *4:82 *850:B 9.25014e-06
60 *4:103 *850:B 0.000118903
61 *4:103 *1027:B 0
62 *8:9 *17:82 0.000207402
63 *8:11 *17:9 0.000404245
64 *8:11 *17:15 0.000461565
65 *8:11 *17:82 0.000165157
66 *8:109 *17:82 0
67 *9:27 *17:82 1.94945e-05
68 *9:98 *17:82 0.000870908
69 *9:98 *17:101 0.000195555
70 *9:102 *855:B 9.41642e-05
71 *9:102 *17:101 0.00168849
72 *10:11 *17:82 0.000175103
73 *10:95 *855:B 0.00020759
74 *14:58 *850:B 8.07397e-06
75 *14:58 *17:34 0.000781442
76 *15:5 *17:7 9.77021e-06
77 *16:7 *17:7 0.000409159
78 *16:13 *17:9 0.000395703
79 *16:13 *17:15 0.00138499
80 *16:13 *17:82 9.14383e-05
81 *16:84 *17:82 6.99087e-05
82 *16:93 *17:82 0.000221547
83 *16:93 *17:101 0
*RES
1 b[6] *17:7 4.5756 
2 *17:7 *17:9 5.13393 
3 *17:9 *17:15 26.6429 
4 *17:15 *17:23 22.0179 
5 *17:23 *1205:B 9.72857 
6 *17:23 *17:34 15.75 
7 *17:34 *1027:B 24.8 
8 *17:34 *850:B 23.7643 
9 *17:15 *1383:B 9.3 
10 *17:9 *1446:B 14.3357 
11 *17:7 *17:82 27.7768 
12 *17:82 *1464:B 15.6036 
13 *17:82 *17:101 23.6071 
14 *17:101 *837:B 20.2464 
15 *17:101 *855:B 24.9518 
*END

*D_NET *18 0.0196997
*CONN
*P b[7] I
*I *840:B I *D sky130_fd_sc_hd__nand2_1
*I *857:B I *D sky130_fd_sc_hd__nand2_1
*I *1466:B I *D sky130_fd_sc_hd__nand2_1
*I *1448:B I *D sky130_fd_sc_hd__nand2_1
*I *1405:B I *D sky130_fd_sc_hd__nand2_1
*I *872:B I *D sky130_fd_sc_hd__nand2_1
*I *1050:B I *D sky130_fd_sc_hd__nand2_1
*I *1227:B I *D sky130_fd_sc_hd__nand2_1
*CAP
1 b[7] 0.000326754
2 *840:B 0
3 *857:B 4.75559e-05
4 *1466:B 0
5 *1448:B 0.000205818
6 *1405:B 0
7 *872:B 0.000222838
8 *1050:B 6.93857e-05
9 *1227:B 5.215e-05
10 *18:129 0.000525661
11 *18:116 0.00202339
12 *18:81 0.00248124
13 *18:36 0.00142914
14 *18:19 0.00192064
15 *18:9 0.00099247
16 *18:5 0.00131778
17 *872:B *883:A 9.15842e-06
18 *872:B *1038:A 5.23735e-05
19 *1050:B *307:14 0.000248778
20 *1227:B *896:A 2.53112e-06
21 *1448:B *1117:B 0
22 *18:9 *1416:A 0.000321738
23 *18:19 *904:A 1.448e-05
24 *18:19 *989:B 1.99876e-05
25 *18:19 *1460:A 0.000210544
26 *18:19 *40:6 4.34013e-05
27 *18:19 *121:14 0.000295515
28 *18:19 *122:12 0.000156388
29 *18:36 *969:A 0.000367104
30 *18:36 *976:A 3.11088e-05
31 *18:36 *999:A 2.84109e-05
32 *18:36 *999:B 7.32756e-05
33 *18:36 *1001:B 0.000227971
34 *18:36 *1003:A 4.34677e-05
35 *18:36 *1238:A 5.50052e-05
36 *18:36 *184:22 6.92966e-06
37 *18:81 *1011:B 9.34004e-05
38 *18:81 *1013:B 0.000175519
39 *18:81 *1104:A 0.000116944
40 *18:81 *1111:A 0.000117144
41 *18:81 *1113:B 1.63058e-05
42 *18:81 *1121:A 3.87848e-05
43 *18:81 *72:12 0.000125731
44 *18:81 *227:12 4.10253e-05
45 *18:81 *231:10 3.17163e-05
46 *18:81 *232:16 0.000614475
47 *18:81 *318:10 2.39876e-05
48 *18:116 *836:A 9.25014e-06
49 *18:116 *838:A 2.28428e-05
50 *18:116 *1026:A 2.39779e-05
51 *18:116 *1028:B 1.24368e-05
52 *18:116 *1117:B 5.26277e-05
53 *18:116 *1121:A 1.99099e-05
54 *18:116 *1221:B 0
55 *18:116 *251:8 2.18733e-05
56 *18:116 *337:18 0
57 *18:116 *441:10 4.55821e-05
58 *18:116 *660:10 7.17932e-05
59 *18:129 *1269:A 0
60 *18:129 *1269:B 0
61 *18:129 *440:10 0
62 *831:A *18:19 3.69047e-06
63 *837:B *18:116 7.8327e-05
64 *840:A *857:B 6.95326e-05
65 *840:A *18:116 0
66 *851:B *18:81 2.88717e-05
67 *853:B *18:116 0.000806224
68 *855:A *857:B 3.57366e-05
69 *855:B *18:129 2.66026e-05
70 *857:A *857:B 0.000173049
71 *1027:A *872:B 1.00887e-05
72 *1027:B *1050:B 9.36295e-05
73 *1227:A *18:36 0.000123924
74 *1405:A *18:9 5.80706e-06
75 *1405:A *18:19 0.000120655
76 *1444:A *18:9 0
77 *1459:A *18:9 0.000140368
78 *1459:A *18:19 1.02504e-05
79 *1466:A *18:116 9.47975e-05
80 *7:13 *18:9 0.000297112
81 *7:13 *18:81 1.99271e-05
82 *7:23 *18:9 0.000205028
83 *8:11 *18:9 0.000768935
84 *9:27 *18:81 0.000126954
85 *9:98 *18:81 9.97744e-05
86 *9:98 *18:116 8.85766e-05
87 *9:102 *18:116 5.74499e-06
88 *10:11 *18:81 4.50149e-05
89 *10:86 *18:81 0
90 *10:86 *18:116 4.34959e-05
91 *10:95 *18:116 0.000191817
92 *15:22 *18:81 0
93 *16:23 *18:36 8.10737e-06
94 *17:7 *18:5 0.000422693
95 *17:15 *18:19 5.06044e-05
96 *17:82 *18:81 6.05161e-06
*RES
1 b[7] *18:5 1.30973 
2 *18:5 *18:9 14.9189 
3 *18:9 *18:19 24.6429 
4 *18:19 *1227:B 14.5321 
5 *18:19 *18:36 23.25 
6 *18:36 *1050:B 21.4607 
7 *18:36 *872:B 21.5143 
8 *18:9 *1405:B 13.8 
9 *18:5 *18:81 29.6828 
10 *18:81 *1448:B 16.9429 
11 *18:81 *18:116 41.4643 
12 *18:116 *1466:B 9.3 
13 *18:116 *18:129 16.5 
14 *18:129 *857:B 11.5143 
15 *18:129 *840:B 9.3 
*END

*D_NET *19 0.00594391
*CONN
*P p[0] O
*I *1279:B I *D sky130_fd_sc_hd__and2_1
*I *1399:B I *D sky130_fd_sc_hd__and2_1
*I *1323:B I *D sky130_fd_sc_hd__and2_1
*I *1364:B I *D sky130_fd_sc_hd__and2_1
*I *827:Y O *D sky130_fd_sc_hd__inv_1
*CAP
1 p[0] 0.000283983
2 *1279:B 2.77489e-05
3 *1399:B 2.888e-05
4 *1323:B 0.000128446
5 *1364:B 0
6 *827:Y 0.000115795
7 *19:38 0.000272282
8 *19:32 0.000662445
9 *19:20 0.00144875
10 *19:10 0.00133105
11 p[0] p[1] 0.000208394
12 *1279:B *1279:A 5.52238e-05
13 *1323:B *1323:A 0
14 *1323:B *1412:B 0
15 *1399:B *1330:B 0
16 *1399:B *1399:A 5.7661e-06
17 *19:10 *827:A 5.83233e-05
18 *19:10 *1248:A 3.88323e-05
19 *19:20 p[2] 0
20 *19:20 p[3] 2.11419e-05
21 *19:20 p[8] 4.53834e-05
22 *19:20 *1248:A 2.28541e-05
23 *19:20 *1248:B 0
24 *19:20 *1279:A 0.000104236
25 *19:20 *26:8 6.56976e-05
26 *19:20 *26:12 0.000751827
27 *19:20 *462:10 0
28 *19:20 *494:23 0
29 *19:20 *495:10 7.50601e-05
30 *19:32 p[5] 4.07164e-05
31 *19:32 *1330:B 2.89016e-05
32 *19:32 *1336:B 0
33 *19:32 *494:23 0
34 *19:32 *495:10 4.09488e-06
35 *19:32 *502:17 0
36 *19:38 *1323:A 0
37 *19:38 *1330:B 2.89114e-05
38 *19:38 *495:10 0
39 *19:38 *542:10 8.9163e-05
*RES
1 *827:Y *19:10 16.2286 
2 *19:10 p[0] 4.585 
3 *19:10 *19:20 23.0446 
4 *19:20 *19:32 13.6429 
5 *19:32 *19:38 7.58929 
6 *19:38 *1364:B 13.8 
7 *19:38 *1323:B 16.05 
8 *19:32 *1399:B 9.94286 
9 *19:20 *1279:B 14.3357 
*END

*D_NET *20 0.00284955
*CONN
*P p[10] O
*I *1429:X O *D sky130_fd_sc_hd__xor2_1
*CAP
1 p[10] 0.00124413
2 *1429:X 0.00124413
3 p[10] p[7] 0
4 p[10] *1296:A 1.99099e-05
5 p[10] *1369:B1 0.000114829
6 p[10] *1398:B 0
7 p[10] *1404:B1 0
8 p[10] *1429:B 4.1331e-06
9 p[10] *501:14 6.16864e-05
10 p[10] *507:10 0
11 p[10] *508:10 0
12 p[10] *508:32 0
13 p[10] *515:29 0
14 p[10] *548:10 0.000160732
15 p[10] *562:8 0
*RES
1 *1429:X p[10] 38.5321 
*END

*D_NET *21 0.00186078
*CONN
*P p[11] O
*I *1430:X O *D sky130_fd_sc_hd__xor2_1
*CAP
1 p[11] 0.000548313
2 *1430:X 0.000548313
3 p[11] p[13] 0.000678095
4 p[11] p[9] 0
5 p[11] *1430:B 5.71472e-05
6 p[11] *1432:B 2.89114e-05
*RES
1 *1430:X p[11] 29.3536 
*END

*D_NET *22 0.00309594
*CONN
*P p[12] O
*I *1431:X O *D sky130_fd_sc_hd__xor2_1
*CAP
1 p[12] 0.00109458
2 *1431:X 0.00109458
3 p[12] p[13] 0.000700737
4 p[12] p[14] 0
5 p[12] *1355:A2 0
6 p[12] *1363:B 0.000148911
7 p[12] *1431:B 5.71472e-05
8 p[12] *1432:A 0
9 p[12] *1433:B 0
10 p[12] *520:10 0
11 p[12] *527:23 0
*RES
1 *1431:X p[12] 39.0679 
*END

*D_NET *23 0.00248039
*CONN
*P p[13] O
*I *1432:X O *D sky130_fd_sc_hd__xor2_1
*CAP
1 p[13] 0.000469906
2 *1432:X 0.000469906
3 p[13] *1430:A 0.00014183
4 p[13] *1430:B 1.24368e-05
5 p[13] *1432:B 7.48301e-06
6 p[11] p[13] 0.000678095
7 p[12] p[13] 0.000700737
*RES
1 *1432:X p[13] 31.1929 
*END

*D_NET *24 0.00188594
*CONN
*P p[14] O
*I *1433:X O *D sky130_fd_sc_hd__xor2_1
*CAP
1 p[14] 0.000914399
2 *1433:X 0.000914399
3 p[14] *1361:B 0
4 p[14] *1363:A 5.71472e-05
5 p[14] *1432:A 0
6 p[12] p[14] 0
*RES
1 *1433:X p[14] 30.8714 
*END

*D_NET *25 0.00201853
*CONN
*P p[15] O
*I *1418:X O *D sky130_fd_sc_hd__a21o_1
*CAP
1 p[15] 0.000866151
2 *1418:X 0.000866151
3 p[15] p[7] 0
4 p[15] p[9] 0
5 p[15] *1384:B1 0.00010096
6 p[15] *1398:A 5.75896e-05
7 p[15] *1425:A 5.26184e-05
8 p[15] *561:18 7.50601e-05
*RES
1 *1418:X p[15] 31.2821 
*END

*D_NET *26 0.00431466
*CONN
*P p[1] O
*I *1279:A I *D sky130_fd_sc_hd__and2_1
*I *1282:B I *D sky130_fd_sc_hd__and2_1
*I *1248:X O *D sky130_fd_sc_hd__xor2_1
*CAP
1 p[1] 0.000316418
2 *1279:A 0.000155833
3 *1282:B 3.72704e-05
4 *1248:X 3.85477e-05
5 *26:12 0.00068368
6 *26:8 0.000845542
7 *1279:A p[6] 0.000139913
8 *1279:A *494:23 0
9 *26:8 *462:10 0
10 *26:12 p[3] 2.26973e-05
11 *26:12 *1282:A 6.8646e-06
12 *26:12 *1324:B 9.34004e-05
13 *26:12 *462:10 3.35542e-05
14 *26:12 *462:23 0.000131247
15 *26:12 *462:32 0.000320642
16 *26:12 *466:10 0.000153047
17 *26:12 *466:23 0.000150625
18 p[0] p[1] 0.000208394
19 *1279:B *1279:A 5.52238e-05
20 *19:20 *1279:A 0.000104236
21 *19:20 *26:8 6.56976e-05
22 *19:20 *26:12 0.000751827
*RES
1 *1248:X *26:8 14.6839 
2 *26:8 *26:12 18.4196 
3 *26:12 *1282:B 14.3357 
4 *26:12 *1279:A 17.7107 
5 *26:8 p[1] 4.65707 
*END

*D_NET *27 0.000929587
*CONN
*P p[2] O
*I *1420:X O *D sky130_fd_sc_hd__xor2_1
*CAP
1 p[2] 0.000464794
2 *1420:X 0.000464794
3 p[2] p[4] 0
4 p[2] p[6] 0
5 *19:20 p[2] 0
*RES
1 *1420:X p[2] 22.1752 
*END

*D_NET *28 0.00102258
*CONN
*P p[3] O
*I *1421:X O *D sky130_fd_sc_hd__xor2_1
*CAP
1 p[3] 0.000269362
2 *1421:X 0.000269362
3 p[3] p[4] 2.33863e-05
4 p[3] p[8] 0.000416627
5 *19:20 p[3] 2.11419e-05
6 *26:12 p[3] 2.26973e-05
*RES
1 *1421:X p[3] 18.7339 
*END

*D_NET *29 0.00147868
*CONN
*P p[4] O
*I *1422:X O *D sky130_fd_sc_hd__xor2_1
*CAP
1 p[4] 0.00050287
2 *1422:X 0.00050287
3 p[4] p[8] 0.000404022
4 p[4] *466:33 0
5 p[4] *494:23 4.5534e-05
6 p[2] p[4] 0
7 p[3] p[4] 2.33863e-05
*RES
1 *1422:X p[4] 19.4698 
*END

*D_NET *30 0.00217042
*CONN
*P p[5] O
*I *1423:X O *D sky130_fd_sc_hd__xor2_1
*CAP
1 p[5] 0.000943682
2 *1423:X 0.000943682
3 p[5] p[6] 0
4 p[5] *494:23 5.41494e-05
5 p[5] *494:36 7.45454e-05
6 p[5] *495:10 0.000113647
7 *19:32 p[5] 4.07164e-05
*RES
1 *1423:X p[5] 26.5004 
*END

*D_NET *31 0.00332649
*CONN
*P p[6] O
*I *1424:X O *D sky130_fd_sc_hd__xor2_1
*CAP
1 p[6] 0.00106845
2 *1424:X 0.00106845
3 p[6] *1366:B1 4.88637e-05
4 p[6] *1367:A 0.000256992
5 p[6] *1415:A 0.000150195
6 p[6] *492:6 7.77751e-05
7 p[6] *492:17 4.51526e-05
8 p[6] *495:10 4.53834e-05
9 p[6] *546:18 0.000242604
10 p[6] *546:38 0.00012747
11 p[6] *579:6 5.52302e-05
12 p[2] p[6] 0
13 p[5] p[6] 0
14 *1279:A p[6] 0.000139913
*RES
1 *1424:X p[6] 32.8384 
*END

*D_NET *32 0.00178605
*CONN
*P p[7] O
*I *1425:X O *D sky130_fd_sc_hd__xor2_1
*CAP
1 p[7] 0.000767829
2 *1425:X 0.000767829
3 p[7] *1425:A 0
4 p[7] *1425:B 5.03772e-05
5 p[7] *1430:B 9.90367e-05
6 p[7] *609:12 0.000100979
7 p[10] p[7] 0
8 p[15] p[7] 0
*RES
1 *1425:X p[7] 29.7643 
*END

*D_NET *33 0.00468821
*CONN
*P p[8] O
*I *1426:X O *D sky130_fd_sc_hd__xor2_1
*CAP
1 p[8] 0.00144256
2 *1426:X 0.00144256
3 p[8] *1299:B 0.000186662
4 p[8] *1331:B 0.000318101
5 p[8] *1339:A2 3.6392e-05
6 p[8] *1422:A 9.92409e-05
7 p[8] *1426:B 1.33343e-05
8 p[8] *473:55 0.000261858
9 p[8] *504:12 2.14658e-05
10 p[3] p[8] 0.000416627
11 p[4] p[8] 0.000404022
12 *19:20 p[8] 4.53834e-05
*RES
1 *1426:X p[8] 40.3933 
*END

*D_NET *34 0.00198823
*CONN
*P p[9] O
*I *1428:X O *D sky130_fd_sc_hd__xor2_1
*CAP
1 p[9] 0.00090349
2 *1428:X 0.00090349
3 p[9] *1398:A 0
4 p[9] *1432:B 5.72433e-05
5 p[9] *575:12 0.00012401
6 p[11] p[9] 0
7 p[15] p[9] 0
*RES
1 *1428:X p[9] 31.2821 
*END

*D_NET *35 0.000240099
*CONN
*I *1456:A I *D sky130_fd_sc_hd__inv_1
*I *1455:Y O *D sky130_fd_sc_hd__nand2_1
*CAP
1 *1456:A 7.44531e-05
2 *1455:Y 7.44531e-05
3 *1468:A *1456:A 1.56e-05
4 *8:50 *1456:A 7.55923e-05
*RES
1 *1455:Y *1456:A 20.2563 
*END

*D_NET *36 0.000889484
*CONN
*I *948:A I *D sky130_fd_sc_hd__nand2_1
*I *947:A I *D sky130_fd_sc_hd__nand2_1
*I *1456:Y O *D sky130_fd_sc_hd__inv_1
*CAP
1 *948:A 3.73276e-05
2 *947:A 5.3472e-05
3 *1456:Y 0.000108503
4 *36:10 0.000199303
5 *947:A *947:B 5.7661e-06
6 *947:A *951:A 0.000178593
7 *947:A *164:14 0.000197092
8 *947:A *167:10 1.74352e-05
9 *948:A *947:B 4.1331e-06
10 *948:A *50:10 1.69115e-05
11 *948:A *306:12 0
12 *36:10 *50:10 3.5707e-05
13 *1468:A *36:10 3.52408e-05
*RES
1 *1456:Y *36:10 15.4696 
2 *36:10 *947:A 16.3 
3 *36:10 *948:A 14.5321 
*END

*D_NET *37 0.000203423
*CONN
*I *1458:A I *D sky130_fd_sc_hd__inv_1
*I *1457:Y O *D sky130_fd_sc_hd__nand2_1
*CAP
1 *1458:A 6.82131e-05
2 *1457:Y 6.82131e-05
3 *1457:A *1458:A 1.02132e-05
4 *8:40 *1458:A 3.08664e-05
5 *8:50 *1458:A 2.59177e-05
*RES
1 *1457:Y *1458:A 20.2563 
*END

*D_NET *38 0.00112468
*CONN
*I *892:A I *D sky130_fd_sc_hd__nand2_1
*I *890:B I *D sky130_fd_sc_hd__nand2_1
*I *1458:Y O *D sky130_fd_sc_hd__inv_1
*CAP
1 *892:A 5.46957e-05
2 *890:B 6.3107e-05
3 *1458:Y 8.05061e-05
4 *38:6 0.000198309
5 *890:B *890:A 0.000144038
6 *890:B *108:34 9.91086e-05
7 *890:B *222:22 2.39779e-05
8 *892:A *892:B 4.21248e-05
9 *892:A *893:A 8.25843e-06
10 *38:6 *893:A 2.51343e-06
11 *38:6 *1443:A 6.63345e-05
12 *38:6 *654:8 1.39726e-05
13 *8:50 *892:A 8.17274e-05
14 *8:50 *38:6 0.000246003
*RES
1 *1458:Y *38:6 11.6839 
2 *38:6 *890:B 20.2464 
3 *38:6 *892:A 10.675 
*END

*D_NET *39 0.000622144
*CONN
*I *1460:A I *D sky130_fd_sc_hd__inv_1
*I *1459:Y O *D sky130_fd_sc_hd__nand2_1
*CAP
1 *1460:A 0.000132575
2 *1459:Y 0.000132575
3 *1460:A *989:B 1.65822e-05
4 *17:15 *1460:A 0.000129868
5 *18:19 *1460:A 0.000210544
*RES
1 *1459:Y *1460:A 31.167 
*END

*D_NET *40 0.000541495
*CONN
*I *987:A I *D sky130_fd_sc_hd__nand2_1
*I *988:A I *D sky130_fd_sc_hd__nand2_1
*I *1460:Y O *D sky130_fd_sc_hd__inv_1
*CAP
1 *987:A 0
2 *988:A 9.10199e-05
3 *1460:Y 1.79483e-05
4 *40:6 0.000108968
5 *988:A *987:B 2.49484e-05
6 *988:A *996:A 2.41865e-05
7 *988:A *203:21 9.91086e-05
8 *40:6 *989:B 4.04353e-05
9 *1444:A *988:A 9.14786e-05
10 *18:19 *40:6 4.34013e-05
*RES
1 *1460:Y *40:6 10.0411 
2 *40:6 *988:A 20.55 
3 *40:6 *987:A 9.3 
*END

*D_NET *41 0.000225873
*CONN
*I *1463:A I *D sky130_fd_sc_hd__inv_1
*I *1462:Y O *D sky130_fd_sc_hd__nand2_1
*CAP
1 *1463:A 0.000112937
2 *1462:Y 0.000112937
3 *1463:A *1014:B 0
*RES
1 *1462:Y *1463:A 20.2563 
*END

*D_NET *42 0.000509469
*CONN
*I *1013:A I *D sky130_fd_sc_hd__nand2_1
*I *1011:B I *D sky130_fd_sc_hd__nand2_1
*I *1463:Y O *D sky130_fd_sc_hd__inv_1
*CAP
1 *1013:A 3.21518e-05
2 *1011:B 9.62988e-05
3 *1463:Y 2.50684e-05
4 *42:6 0.000153519
5 *1011:B *228:8 1.33343e-05
6 *7:13 *1011:B 9.56968e-05
7 *18:81 *1011:B 9.34004e-05
*RES
1 *1463:Y *42:6 9.63036 
2 *42:6 *1011:B 21.0857 
3 *42:6 *1013:A 9.83571 
*END

*D_NET *43 0.00031776
*CONN
*I *1465:A I *D sky130_fd_sc_hd__inv_1
*I *1464:Y O *D sky130_fd_sc_hd__nand2_1
*CAP
1 *1465:A 0.000102314
2 *1464:Y 0.000102314
3 *1465:A *1028:B 2.3541e-05
4 *1465:A *1030:A 9.69119e-06
5 *1465:A *44:12 2.84494e-05
6 *835:B *1465:A 2.3541e-05
7 *9:98 *1465:A 0
8 *17:101 *1465:A 2.79092e-05
*RES
1 *1464:Y *1465:A 29.783 
*END

*D_NET *44 0.00192601
*CONN
*I *1029:A I *D sky130_fd_sc_hd__nand2_1
*I *1026:B I *D sky130_fd_sc_hd__nand2_1
*I *1465:Y O *D sky130_fd_sc_hd__inv_1
*CAP
1 *1029:A 0.000236039
2 *1026:B 0
3 *1465:Y 0.000189592
4 *44:12 0.000425631
5 *1029:A *1026:A 3.22765e-05
6 *1029:A *1029:B 0.000104932
7 *1029:A *1034:B 0.000290448
8 *1029:A *243:28 0.000398815
9 *44:12 *1028:B 8.00806e-05
10 *44:12 *1030:A 0
11 *44:12 *1033:B 4.1331e-06
12 *835:B *44:12 0.000135611
13 *1465:A *44:12 2.84494e-05
*RES
1 *1465:Y *44:12 22.3089 
2 *44:12 *1026:B 9.3 
3 *44:12 *1029:A 16.4786 
*END

*D_NET *45 0.000354664
*CONN
*I *1467:A I *D sky130_fd_sc_hd__inv_1
*I *1466:Y O *D sky130_fd_sc_hd__nand2_1
*CAP
1 *1467:A 0.000106551
2 *1466:Y 0.000106551
3 *1467:A *838:A 1.37292e-05
4 *837:A *1467:A 5.01117e-05
5 *840:A *1467:A 5.41794e-05
6 *10:95 *1467:A 2.3541e-05
*RES
1 *1466:Y *1467:A 29.783 
*END

*D_NET *46 0.000580098
*CONN
*I *1122:A I *D sky130_fd_sc_hd__nand2_1
*I *1123:A I *D sky130_fd_sc_hd__nand2_1
*I *1467:Y O *D sky130_fd_sc_hd__inv_1
*CAP
1 *1122:A 0
2 *1123:A 0.000118294
3 *1467:Y 0.000115575
4 *46:12 0.000233869
5 *1123:A *338:10 3.4911e-05
6 *46:12 *60:10 6.42338e-05
7 *10:95 *46:12 1.3216e-05
*RES
1 *1467:Y *46:12 20.2732 
2 *46:12 *1123:A 11.5143 
3 *46:12 *1122:A 9.3 
*END

*D_NET *47 0.000452086
*CONN
*I *1469:A I *D sky130_fd_sc_hd__inv_1
*I *1468:Y O *D sky130_fd_sc_hd__nand2_1
*CAP
1 *1469:A 0.000226043
2 *1468:Y 0.000226043
3 *1468:A *1469:A 0
*RES
1 *1468:Y *1469:A 22.3098 
*END

*D_NET *48 0.000921791
*CONN
*I *940:A I *D sky130_fd_sc_hd__nand2_1
*I *936:B I *D sky130_fd_sc_hd__nand2_1
*I *1469:Y O *D sky130_fd_sc_hd__inv_1
*CAP
1 *940:A 0
2 *936:B 0.00013133
3 *1469:Y 5.07528e-05
4 *48:6 0.000182083
5 *936:B *936:A 0
6 *936:B *91:8 9.47456e-05
7 *936:B *154:8 0
8 *8:64 *936:B 0.000230482
9 *12:66 *936:B 0.000232399
*RES
1 *1469:Y *48:6 10.0411 
2 *48:6 *936:B 22.7286 
3 *48:6 *940:A 9.3 
*END

*D_NET *49 0.000262674
*CONN
*I *1471:A I *D sky130_fd_sc_hd__inv_1
*I *1470:Y O *D sky130_fd_sc_hd__nand2_1
*CAP
1 *1471:A 4.26468e-05
2 *1470:Y 4.26468e-05
3 *1468:A *1471:A 5.02992e-05
4 *8:50 *1471:A 0.000127081
*RES
1 *1470:Y *1471:A 20.2563 
*END

*D_NET *50 0.00142
*CONN
*I *947:B I *D sky130_fd_sc_hd__nand2_1
*I *949:A I *D sky130_fd_sc_hd__nand2_1
*I *1471:Y O *D sky130_fd_sc_hd__inv_1
*CAP
1 *947:B 0.000337918
2 *949:A 0
3 *1471:Y 0.000141389
4 *50:10 0.000479307
5 *947:B *951:A 1.21289e-05
6 *947:B *951:B 0.000186669
7 *947:B *956:A 1.91512e-05
8 *947:B *167:10 0.00014285
9 *947:B *306:12 0
10 *50:10 *956:A 2.8266e-06
11 *842:A *50:10 0
12 *947:A *947:B 5.7661e-06
13 *948:A *947:B 4.1331e-06
14 *948:A *50:10 1.69115e-05
15 *1468:A *50:10 3.52408e-05
16 *36:10 *50:10 3.5707e-05
*RES
1 *1471:Y *50:10 16.0768 
2 *50:10 *949:A 13.8 
3 *50:10 *947:B 19.0857 
*END

*D_NET *51 0.000342617
*CONN
*I *830:A I *D sky130_fd_sc_hd__inv_1
*I *829:Y O *D sky130_fd_sc_hd__nand2_1
*CAP
1 *830:A 4.26072e-05
2 *829:Y 4.26072e-05
3 *830:A *221:14 0.000116209
4 *829:B *830:A 1.28448e-05
5 *13:9 *830:A 0.000128348
*RES
1 *829:Y *830:A 20.6223 
*END

*D_NET *52 0.000956092
*CONN
*I *967:A I *D sky130_fd_sc_hd__nand2_1
*I *968:A I *D sky130_fd_sc_hd__nand2_1
*I *830:Y O *D sky130_fd_sc_hd__inv_1
*CAP
1 *967:A 0
2 *968:A 0.000203594
3 *830:Y 0.000126507
4 *52:10 0.000330102
5 *968:A *184:10 0.000144132
6 *968:A *184:22 1.00887e-05
7 *52:10 *221:14 7.67334e-05
8 *15:88 *968:A 2.59253e-05
9 *15:88 *52:10 3.90086e-05
*RES
1 *830:Y *52:10 16.1839 
2 *52:10 *968:A 17.1929 
3 *52:10 *967:A 13.8 
*END

*D_NET *53 0.000420384
*CONN
*I *832:A I *D sky130_fd_sc_hd__inv_1
*I *831:Y O *D sky130_fd_sc_hd__nand2_1
*CAP
1 *832:A 6.52838e-05
2 *831:Y 6.52838e-05
3 *832:A *121:14 0.000125724
4 *832:A *122:12 6.65398e-05
5 *832:A *207:8 7.1802e-05
6 *8:40 *832:A 2.57503e-05
*RES
1 *831:Y *832:A 29.9348 
*END

*D_NET *54 0.00126897
*CONN
*I *987:B I *D sky130_fd_sc_hd__nand2_1
*I *989:A I *D sky130_fd_sc_hd__nand2_1
*I *832:Y O *D sky130_fd_sc_hd__inv_1
*CAP
1 *987:B 0.000144121
2 *989:A 7.12892e-05
3 *832:Y 5.33593e-05
4 *54:6 0.00026877
5 *987:B *996:A 7.83587e-05
6 *987:B *122:12 0
7 *987:B *203:21 0.000100831
8 *989:A *988:B 5.7661e-06
9 *989:A *990:A 5.33005e-05
10 *989:A *990:B 2.50239e-05
11 *54:6 *990:A 0.000130419
12 *54:6 *207:8 2.53449e-05
13 *988:A *987:B 2.49484e-05
14 *1459:B *989:A 0.000153601
15 *1459:B *54:6 5.52302e-05
16 *8:40 *54:6 7.86048e-05
*RES
1 *832:Y *54:6 11.2732 
2 *54:6 *989:A 11.3893 
3 *54:6 *987:B 21.1571 
*END

*D_NET *55 0.000208809
*CONN
*I *834:A I *D sky130_fd_sc_hd__inv_1
*I *833:Y O *D sky130_fd_sc_hd__nand2_1
*CAP
1 *834:A 7.51339e-05
2 *833:Y 7.51339e-05
3 *15:62 *834:A 5.85412e-05
*RES
1 *833:Y *834:A 20.2563 
*END

*D_NET *56 0.000768883
*CONN
*I *1017:A I *D sky130_fd_sc_hd__nand2_1
*I *1018:A I *D sky130_fd_sc_hd__nand2_1
*I *834:Y O *D sky130_fd_sc_hd__inv_1
*CAP
1 *1017:A 0
2 *1018:A 0.000191714
3 *834:Y 0.000188591
4 *56:10 0.000380305
5 *56:10 *1101:A 0
6 *15:62 *56:10 8.27348e-06
*RES
1 *834:Y *56:10 16.4875 
2 *56:10 *1018:A 15.5679 
3 *56:10 *1017:A 13.8 
*END

*D_NET *57 0.000553312
*CONN
*I *836:A I *D sky130_fd_sc_hd__inv_1
*I *835:Y O *D sky130_fd_sc_hd__nand2_1
*CAP
1 *836:A 0.000161387
2 *835:Y 0.000161387
3 *836:A *1026:A 7.6644e-05
4 *836:A *1028:B 9.80173e-05
5 *836:A *1030:A 1.40849e-05
6 *836:A *1031:B 4.46186e-06
7 *836:A *1034:B 2.80789e-05
8 *836:A *251:8 0
9 *836:A *337:18 0
10 *18:116 *836:A 9.25014e-06
*RES
1 *835:Y *836:A 30.4705 
*END

*D_NET *58 0.0006726
*CONN
*I *1031:B I *D sky130_fd_sc_hd__nand2_1
*I *1033:A I *D sky130_fd_sc_hd__nand2_1
*I *836:Y O *D sky130_fd_sc_hd__inv_1
*CAP
1 *1031:B 0.000140055
2 *1033:A 1.67089e-05
3 *836:Y 7.19892e-06
4 *58:6 0.000163963
5 *1031:B *1030:A 0.000213154
6 *1031:B *337:18 0
7 *1033:A *1026:A 2.89114e-05
8 *1033:A *1034:B 5.33005e-05
9 *58:6 *1026:A 1.15238e-05
10 *58:6 *1034:B 3.33238e-05
11 *836:A *1031:B 4.46186e-06
*RES
1 *836:Y *58:6 9.63036 
2 *58:6 *1033:A 9.83571 
3 *58:6 *1031:B 21.1571 
*END

*D_NET *59 0.00040393
*CONN
*I *838:A I *D sky130_fd_sc_hd__inv_1
*I *837:Y O *D sky130_fd_sc_hd__nand2_1
*CAP
1 *838:A 7.92916e-05
2 *837:Y 7.92916e-05
3 *838:A *60:10 6.05161e-06
4 *837:A *838:A 0.000100823
5 *837:B *838:A 7.83587e-05
6 *1467:A *838:A 1.37292e-05
7 *10:95 *838:A 2.3541e-05
8 *18:116 *838:A 2.28428e-05
*RES
1 *837:Y *838:A 29.783 
*END

*D_NET *60 0.000777347
*CONN
*I *1122:B I *D sky130_fd_sc_hd__nand2_1
*I *1124:A I *D sky130_fd_sc_hd__nand2_1
*I *838:Y O *D sky130_fd_sc_hd__inv_1
*CAP
1 *1122:B 0
2 *1124:A 0.000202582
3 *838:Y 0.000110253
4 *60:10 0.000312835
5 *1124:A *1125:A 5.52302e-05
6 *1124:A *1125:B 1.92905e-05
7 *838:A *60:10 6.05161e-06
8 *10:95 *60:10 6.87086e-06
9 *46:12 *60:10 6.42338e-05
*RES
1 *838:Y *60:10 15.7732 
2 *60:10 *1124:A 16.5143 
3 *60:10 *1122:B 13.8 
*END

*D_NET *61 0.000249324
*CONN
*I *841:A I *D sky130_fd_sc_hd__inv_1
*I *840:Y O *D sky130_fd_sc_hd__nand2_1
*CAP
1 *841:A 7.89173e-05
2 *840:Y 7.89173e-05
3 *841:A *856:A 4.57445e-05
4 *841:A *858:A 4.57445e-05
*RES
1 *840:Y *841:A 29.5241 
*END

*D_NET *62 0.00074964
*CONN
*I *1239:A I *D sky130_fd_sc_hd__nand2_1
*I *1237:A I *D sky130_fd_sc_hd__nand2_1
*I *841:Y O *D sky130_fd_sc_hd__inv_1
*CAP
1 *1239:A 5.24305e-05
2 *1237:A 0
3 *841:Y 0.000120402
4 *62:12 0.000172832
5 *1239:A *1240:B 1.97695e-05
6 *1239:A *1241:A 7.90925e-05
7 *1239:A *1241:B 0.000151535
8 *62:12 *1246:A 5.7616e-05
9 *62:12 *76:10 4.33438e-05
10 *62:12 *78:10 5.26184e-05
*RES
1 *841:Y *62:12 20.5768 
2 *62:12 *1237:A 9.3 
3 *62:12 *1239:A 11.5143 
*END

*D_NET *63 0.000334854
*CONN
*I *843:A I *D sky130_fd_sc_hd__inv_1
*I *842:Y O *D sky130_fd_sc_hd__nand2_1
*CAP
1 *843:A 4.94575e-05
2 *842:Y 4.94575e-05
3 *842:B *843:A 0.000103908
4 *15:102 *843:A 0.000132031
*RES
1 *842:Y *843:A 20.6223 
*END

*D_NET *64 0.000607131
*CONN
*I *952:B I *D sky130_fd_sc_hd__nand2_1
*I *954:A I *D sky130_fd_sc_hd__nand2_1
*I *843:Y O *D sky130_fd_sc_hd__inv_1
*CAP
1 *952:B 0.000130994
2 *954:A 0
3 *843:Y 0.000128161
4 *64:10 0.000259156
5 *952:B *953:A 4.1331e-06
6 *952:B *956:A 0
7 *952:B *306:12 0
8 *952:B *307:14 0
9 *64:10 *953:A 1.59782e-05
10 *64:10 *956:A 0
11 *64:10 *167:10 3.34672e-05
12 *15:102 *64:10 3.52408e-05
*RES
1 *843:Y *64:10 16.0768 
2 *64:10 *954:A 13.8 
3 *64:10 *952:B 15.7107 
*END

*D_NET *65 0.000509265
*CONN
*I *845:A I *D sky130_fd_sc_hd__inv_1
*I *844:Y O *D sky130_fd_sc_hd__nand2_1
*CAP
1 *845:A 0.000144036
2 *844:Y 0.000144036
3 *845:A *92:14 0.000180731
4 *845:A *307:14 1.14933e-05
5 *13:18 *845:A 2.89684e-05
*RES
1 *844:Y *845:A 30.6491 
*END

*D_NET *66 0.0018353
*CONN
*I *967:B I *D sky130_fd_sc_hd__nand2_1
*I *969:A I *D sky130_fd_sc_hd__nand2_1
*I *845:Y O *D sky130_fd_sc_hd__inv_1
*CAP
1 *967:B 7.6487e-05
2 *969:A 0.000245908
3 *845:Y 9.56512e-05
4 *66:10 0.000418046
5 *969:A *970:A 0.000101967
6 *969:A *970:B 0.000118996
7 *969:A *184:22 1.00599e-05
8 *969:A *307:14 0.000169095
9 *66:10 *307:14 0.000124749
10 *5:49 *967:B 0.000100074
11 *13:18 *66:10 7.1629e-06
12 *18:36 *969:A 0.000367104
*RES
1 *845:Y *66:10 15.7732 
2 *66:10 *969:A 21.5143 
3 *66:10 *967:B 15.5679 
*END

*D_NET *67 0.000281613
*CONN
*I *847:A I *D sky130_fd_sc_hd__inv_1
*I *846:Y O *D sky130_fd_sc_hd__nand2_1
*CAP
1 *847:A 4.50618e-05
2 *846:Y 4.50618e-05
3 *847:A *207:8 0
4 *846:B *847:A 0.000118203
5 *8:40 *847:A 7.32861e-05
*RES
1 *846:Y *847:A 20.2563 
*END

*D_NET *68 0.000822515
*CONN
*I *993:A I *D sky130_fd_sc_hd__nand2_1
*I *991:B I *D sky130_fd_sc_hd__nand2_1
*I *847:Y O *D sky130_fd_sc_hd__inv_1
*CAP
1 *993:A 8.34558e-05
2 *991:B 6.4227e-05
3 *847:Y 8.30287e-06
4 *68:6 0.000155986
5 *846:B *991:B 6.05161e-06
6 *846:B *68:6 1.06439e-05
7 *848:B *993:A 0.000220455
8 *8:40 *991:B 0.000137983
9 *8:40 *68:6 3.33238e-05
10 *10:45 *993:A 9.92584e-05
11 *10:53 *993:A 2.8266e-06
*RES
1 *847:Y *68:6 9.63036 
2 *68:6 *991:B 10.6571 
3 *68:6 *993:A 21.1571 
*END

*D_NET *69 0.000317893
*CONN
*I *849:A I *D sky130_fd_sc_hd__inv_1
*I *848:Y O *D sky130_fd_sc_hd__nand2_1
*CAP
1 *849:A 0.000149181
2 *848:Y 0.000149181
3 *849:A *70:10 1.67055e-05
4 *9:39 *849:A 2.8266e-06
5 *10:30 *849:A 0
*RES
1 *848:Y *849:A 30.2384 
*END

*D_NET *70 0.00175268
*CONN
*I *1017:B I *D sky130_fd_sc_hd__nand2_1
*I *1019:A I *D sky130_fd_sc_hd__nand2_1
*I *849:Y O *D sky130_fd_sc_hd__inv_1
*CAP
1 *1017:B 0.000306496
2 *1019:A 0
3 *849:Y 0.000255985
4 *70:10 0.00056248
5 *1017:B *1020:A 4.44296e-05
6 *1017:B *1020:B 0.000190285
7 *1017:B *1025:A 5.58941e-05
8 *1017:B *233:8 2.08792e-05
9 *1017:B *236:10 5.68722e-05
10 *70:10 *1025:A 1.02504e-05
11 *849:A *70:10 1.67055e-05
12 *9:27 *70:10 0.000171685
13 *9:39 *70:10 6.07232e-05
14 *10:30 *1017:B 0
15 *10:30 *70:10 0
*RES
1 *849:Y *70:10 18.9161 
2 *70:10 *1019:A 13.8 
3 *70:10 *1017:B 19.3357 
*END

*D_NET *71 0.000483231
*CONN
*I *852:A I *D sky130_fd_sc_hd__inv_1
*I *851:Y O *D sky130_fd_sc_hd__nand2_1
*CAP
1 *852:A 0.000136081
2 *851:Y 0.000136081
3 *1448:A *852:A 0.000153047
4 *8:109 *852:A 5.80217e-05
*RES
1 *851:Y *852:A 30.6491 
*END

*D_NET *72 0.000614968
*CONN
*I *1113:A I *D sky130_fd_sc_hd__nand2_1
*I *1112:A I *D sky130_fd_sc_hd__nand2_1
*I *852:Y O *D sky130_fd_sc_hd__inv_1
*CAP
1 *1113:A 1.55603e-05
2 *1112:A 0
3 *852:Y 0.000190384
4 *72:12 0.000205945
5 *1113:A *1115:B 5.52302e-05
6 *1113:A *328:22 1.92905e-05
7 *72:12 *1113:B 2.8266e-06
8 *10:86 *72:12 0
9 *18:81 *72:12 0.000125731
*RES
1 *852:Y *72:12 21.0946 
2 *72:12 *1112:A 9.3 
3 *72:12 *1113:A 9.83571 
*END

*D_NET *73 0.000245546
*CONN
*I *854:A I *D sky130_fd_sc_hd__inv_1
*I *853:Y O *D sky130_fd_sc_hd__nand2_1
*CAP
1 *854:A 0.000122773
2 *853:Y 0.000122773
*RES
1 *853:Y *854:A 29.4795 
*END

*D_NET *74 0.000750592
*CONN
*I *1129:A I *D sky130_fd_sc_hd__nand2_1
*I *1126:B I *D sky130_fd_sc_hd__nand2_1
*I *854:Y O *D sky130_fd_sc_hd__inv_1
*CAP
1 *1129:A 0.000100464
2 *1126:B 0
3 *854:Y 0.000151693
4 *74:12 0.000252158
5 *1129:A *1128:A 4.40003e-05
6 *1129:A *1128:B 1.02132e-05
7 *1129:A *1129:B 3.67531e-05
8 *1129:A *1130:B 5.68722e-05
9 *1129:A *342:8 2.90431e-05
10 *74:12 *341:10 6.93944e-05
*RES
1 *854:Y *74:12 20.5768 
2 *74:12 *1126:B 9.3 
3 *74:12 *1129:A 11.925 
*END

*D_NET *75 0.000244591
*CONN
*I *856:A I *D sky130_fd_sc_hd__inv_1
*I *855:Y O *D sky130_fd_sc_hd__nand2_1
*CAP
1 *856:A 9.94234e-05
2 *855:Y 9.94234e-05
3 *841:A *856:A 4.57445e-05
*RES
1 *855:Y *856:A 29.5241 
*END

*D_NET *76 0.00085404
*CONN
*I *1237:B I *D sky130_fd_sc_hd__nand2_1
*I *1240:A I *D sky130_fd_sc_hd__nand2_1
*I *856:Y O *D sky130_fd_sc_hd__inv_1
*CAP
1 *1237:B 2.14173e-05
2 *1240:A 8.68894e-05
3 *856:Y 0.000100619
4 *76:10 0.000208925
5 *1237:B *1246:A 5.59013e-05
6 *1237:B *452:14 1.59782e-05
7 *1240:A *1240:B 4.21248e-05
8 *1240:A *1241:A 9.90367e-05
9 *1240:A *1241:B 7.49387e-06
10 *1240:A *452:14 0.000140933
11 *1240:A *485:22 1.24368e-05
12 *76:10 *1246:A 9.25014e-06
13 *76:10 *452:14 9.69119e-06
14 *62:12 *76:10 4.33438e-05
*RES
1 *856:Y *76:10 15.4696 
2 *76:10 *1240:A 16.55 
3 *76:10 *1237:B 14.5321 
*END

*D_NET *77 0.000244591
*CONN
*I *858:A I *D sky130_fd_sc_hd__inv_1
*I *857:Y O *D sky130_fd_sc_hd__nand2_1
*CAP
1 *858:A 9.94234e-05
2 *857:Y 9.94234e-05
3 *841:A *858:A 4.57445e-05
*RES
1 *857:Y *858:A 29.5241 
*END

*D_NET *78 0.00186745
*CONN
*I *1278:A I *D sky130_fd_sc_hd__xor2_1
*I *1277:A I *D sky130_fd_sc_hd__and2_1
*I *858:Y O *D sky130_fd_sc_hd__inv_1
*CAP
1 *1278:A 0.000154693
2 *1277:A 0
3 *858:Y 0.000455458
4 *78:10 0.000610151
5 *1278:A *1278:B 0.000106299
6 *1278:A *1321:A2 0
7 *1278:A *461:10 5.80706e-06
8 *78:10 *1246:A 0
9 *78:10 *1314:A2 0
10 *78:10 *1318:A1 0
11 *78:10 *1318:B1 0
12 *78:10 *455:16 0.000315165
13 *78:10 *460:12 0
14 *78:10 *461:10 0.000167256
15 *78:10 *483:10 0
16 *62:12 *78:10 5.26184e-05
*RES
1 *858:Y *78:10 23.0589 
2 *78:10 *1277:A 13.8 
3 *78:10 *1278:A 17.1929 
*END

*D_NET *79 0.00110107
*CONN
*I *862:B I *D sky130_fd_sc_hd__nand2_1
*I *860:B I *D sky130_fd_sc_hd__nand2_1
*I *864:A I *D sky130_fd_sc_hd__inv_1
*I *859:Y O *D sky130_fd_sc_hd__nand2_1
*CAP
1 *862:B 1.69531e-05
2 *860:B 0
3 *864:A 8.15918e-05
4 *859:Y 0.000241335
5 *79:28 0.000176696
6 *862:B *862:A 5.33005e-05
7 *862:B *863:A 5.33005e-05
8 *864:A *859:A 7.43578e-06
9 *864:A *1087:B 0
10 *79:28 *859:A 1.31516e-05
11 *79:28 *859:B 0.00012401
12 *79:28 *237:10 5.80706e-06
13 *3:15 *79:28 0.000146474
14 *4:17 *79:28 0.000138881
15 *14:58 *864:A 4.21311e-05
*RES
1 *859:Y *864:A 20.1491 
2 *859:Y *79:28 21.6036 
3 *79:28 *860:B 9.3 
4 *79:28 *862:B 9.83571 
*END

*D_NET *80 0.000648281
*CONN
*I *863:A I *D sky130_fd_sc_hd__nand2_1
*I *860:Y O *D sky130_fd_sc_hd__nand2_1
*CAP
1 *863:A 0.000190771
2 *860:Y 0.000190771
3 *863:A *862:A 6.71755e-05
4 *863:A *863:B 6.65302e-05
5 *863:A *391:6 6.05161e-06
6 *862:B *863:A 5.33005e-05
7 *3:15 *863:A 7.80714e-06
8 *16:43 *863:A 6.58736e-05
*RES
1 *860:Y *863:A 31.725 
*END

*D_NET *81 0.0002748
*CONN
*I *863:B I *D sky130_fd_sc_hd__nand2_1
*I *862:Y O *D sky130_fd_sc_hd__nand2_1
*CAP
1 *863:B 6.49553e-05
2 *862:Y 6.49553e-05
3 *863:B *306:12 0
4 *863:A *863:B 6.65302e-05
5 *3:15 *863:B 7.83587e-05
*RES
1 *862:Y *863:B 29.2429 
*END

*D_NET *82 0.000950018
*CONN
*I *1064:A I *D sky130_fd_sc_hd__nand2_1
*I *1063:A I *D sky130_fd_sc_hd__nand2_1
*I *863:Y O *D sky130_fd_sc_hd__nand2_1
*CAP
1 *1064:A 3.8797e-05
2 *1063:A 1.63023e-05
3 *863:Y 0.000215351
4 *82:6 0.000270451
5 *1064:A *839:A 6.87574e-05
6 *1064:A *1064:B 0.00012073
7 *82:6 *839:A 9.16074e-05
8 *828:A *82:6 5.33005e-05
9 *3:51 *82:6 7.47221e-05
*RES
1 *863:Y *82:6 13.5321 
2 *82:6 *1063:A 9.72857 
3 *82:6 *1064:A 11.0857 
*END

*D_NET *83 0.00106244
*CONN
*I *957:A I *D sky130_fd_sc_hd__nand2_1
*I *958:A I *D sky130_fd_sc_hd__nand2_1
*I *864:Y O *D sky130_fd_sc_hd__inv_1
*CAP
1 *957:A 0.000236114
2 *958:A 3.63139e-05
3 *864:Y 0.000108567
4 *83:10 0.000380995
5 *957:A *957:B 5.42333e-06
6 *957:A *960:A 5.33005e-05
7 *957:A *966:A 3.76337e-05
8 *957:A *966:B 1.97756e-05
9 *957:A *174:6 1.74352e-05
10 *958:A *960:B 1.02504e-05
11 *3:15 *958:A 0
12 *4:9 *958:A 5.58941e-05
13 *4:9 *83:10 6.91157e-05
14 *7:50 *957:A 3.61629e-06
15 *14:58 *83:10 2.80081e-05
*RES
1 *864:Y *83:10 15.5768 
2 *83:10 *958:A 14.5321 
3 *83:10 *957:A 17.1214 
*END

*D_NET *84 0.00127195
*CONN
*I *874:A I *D sky130_fd_sc_hd__nand2_1
*I *866:B I *D sky130_fd_sc_hd__nand2_1
*I *867:B I *D sky130_fd_sc_hd__nand2_1
*I *865:Y O *D sky130_fd_sc_hd__nand2_1
*CAP
1 *874:A 0.000167557
2 *866:B 0
3 *867:B 6.28641e-05
4 *865:Y 0.000135249
5 *84:12 6.28641e-05
6 *84:10 0.000302806
7 *867:B *866:A 3.50746e-05
8 *867:B *868:B 4.84073e-05
9 *867:B *259:6 0.000139331
10 *874:A *874:B 1.32293e-05
11 *874:A *92:14 3.11088e-05
12 *874:A *306:12 3.98645e-05
13 *84:10 *865:A 4.58402e-05
14 *84:10 *865:B 4.93118e-06
15 *84:10 *867:A 0.000145662
16 *84:10 *306:12 1.42331e-05
17 *872:A *84:10 1.16543e-05
18 *13:18 *874:A 1.12713e-05
*RES
1 *865:Y *84:10 16.2821 
2 *84:10 *84:12 4.5 
3 *84:12 *867:B 11.5143 
4 *84:12 *866:B 9.3 
5 *84:10 *874:A 17.2464 
*END

*D_NET *85 0.000369112
*CONN
*I *868:A I *D sky130_fd_sc_hd__nand2_1
*I *866:Y O *D sky130_fd_sc_hd__nand2_1
*CAP
1 *868:A 0.000126467
2 *866:Y 0.000126467
3 *868:A *868:B 7.37327e-05
4 *868:A *870:A 1.32693e-05
5 *868:A *87:8 2.65975e-05
6 *5:49 *868:A 2.57826e-06
*RES
1 *866:Y *868:A 20.6893 
*END

*D_NET *86 0.000448445
*CONN
*I *868:B I *D sky130_fd_sc_hd__nand2_1
*I *867:Y O *D sky130_fd_sc_hd__nand2_1
*CAP
1 *868:B 0.00012301
2 *867:Y 0.00012301
3 *868:B *866:A 6.21609e-05
4 *868:B *259:6 9.86486e-06
5 *867:B *868:B 4.84073e-05
6 *868:A *868:B 7.37327e-05
7 *5:49 *868:B 8.25843e-06
*RES
1 *867:Y *868:B 21.2071 
*END

*D_NET *87 0.000956892
*CONN
*I *870:A I *D sky130_fd_sc_hd__nand2_1
*I *869:A I *D sky130_fd_sc_hd__nand2_1
*I *868:Y O *D sky130_fd_sc_hd__nand2_1
*CAP
1 *870:A 0.000283665
2 *869:A 0
3 *868:Y 5.69268e-05
4 *87:8 0.000340592
5 *870:A *1194:A 5.10307e-05
6 *870:A *566:6 7.6739e-05
7 *868:A *870:A 1.32693e-05
8 *868:A *87:8 2.65975e-05
9 *5:49 *870:A 2.92625e-05
10 *5:49 *87:8 7.88091e-05
*RES
1 *868:Y *87:8 11.0857 
2 *87:8 *869:A 9.3 
3 *87:8 *870:A 23.3893 
*END

*D_NET *88 0.00164071
*CONN
*I *870:B I *D sky130_fd_sc_hd__nand2_1
*I *871:B I *D sky130_fd_sc_hd__nand2_1
*I *874:B I *D sky130_fd_sc_hd__nand2_1
*I *869:Y O *D sky130_fd_sc_hd__nand2_1
*CAP
1 *870:B 0.000269794
2 *871:B 0
3 *874:B 8.47865e-05
4 *869:Y 5.69817e-05
5 *88:14 0.000188432
6 *88:10 0.000430422
7 *870:B *873:A 0.000109549
8 *870:B *873:B 0.000139344
9 *88:10 *871:A 3.75868e-05
10 *88:14 *873:B 5.49995e-05
11 *874:A *874:B 1.32293e-05
12 *13:18 *874:B 2.38501e-05
13 *13:30 *870:B 3.59642e-05
14 *13:30 *874:B 0.000184503
15 *13:30 *88:14 1.12713e-05
*RES
1 *869:Y *88:10 19.3357 
2 *88:10 *88:14 1.67857 
3 *88:14 *874:B 11.4786 
4 *88:14 *871:B 9.3 
5 *88:10 *870:B 13.4429 
*END

*D_NET *89 0.000246794
*CONN
*I *873:A I *D sky130_fd_sc_hd__nand2_1
*I *870:Y O *D sky130_fd_sc_hd__nand2_1
*CAP
1 *873:A 3.3754e-05
2 *870:Y 3.3754e-05
3 *873:A *873:B 1.87331e-05
4 *870:B *873:A 0.000109549
5 *13:30 *873:A 5.10039e-05
*RES
1 *870:Y *873:A 19.975 
*END

*D_NET *90 0.000464953
*CONN
*I *873:B I *D sky130_fd_sc_hd__nand2_1
*I *871:Y O *D sky130_fd_sc_hd__nand2_1
*CAP
1 *873:B 5.35394e-05
2 *871:Y 5.35394e-05
3 *873:B *871:A 9.84673e-05
4 *870:B *873:B 0.000139344
5 *873:A *873:B 1.87331e-05
6 *13:30 *873:B 4.63305e-05
7 *88:14 *873:B 5.49995e-05
*RES
1 *871:Y *873:B 20.7964 
*END

*D_NET *91 0.00183634
*CONN
*I *1075:A I *D sky130_fd_sc_hd__nand2_1
*I *1073:B I *D sky130_fd_sc_hd__nand2_1
*I *873:Y O *D sky130_fd_sc_hd__nand2_1
*CAP
1 *1075:A 0.000185201
2 *1073:B 7.68742e-05
3 *873:Y 0.000544563
4 *91:8 0.000806638
5 *1075:A *1074:A 0
6 *1075:A *1081:B 4.1331e-06
7 *1075:A *288:12 0
8 *1075:A *297:10 2.19778e-05
9 *1075:A *306:12 0
10 *91:8 *946:A 0
11 *91:8 *154:17 0
12 *91:8 *163:10 0
13 *91:8 *306:12 0
14 *842:B *91:8 0
15 *936:B *91:8 9.47456e-05
16 *1437:B *91:8 0
17 *1468:B *91:8 0
18 *15:102 *1073:B 0.000102207
*RES
1 *873:Y *91:8 23.3357 
2 *91:8 *1073:B 15.5679 
3 *91:8 *1075:A 17.3179 
*END

*D_NET *92 0.00311337
*CONN
*I *979:A I *D sky130_fd_sc_hd__nand2_1
*I *977:B I *D sky130_fd_sc_hd__nand2_1
*I *874:Y O *D sky130_fd_sc_hd__nand2_1
*CAP
1 *979:A 8.7681e-05
2 *977:B 0
3 *874:Y 0.000394529
4 *92:14 0.00048221
5 *979:A *977:A 1.45771e-05
6 *92:14 *307:14 0.000751144
7 *842:A *92:14 0.000559981
8 *845:A *92:14 0.000180731
9 *874:A *92:14 3.11088e-05
10 *13:18 *92:14 0.000446597
11 *15:102 *979:A 0.00014493
12 *15:102 *92:14 1.98839e-05
*RES
1 *874:Y *92:14 32.6036 
2 *92:14 *977:B 9.3 
3 *92:14 *979:A 11.5455 
*END

*D_NET *93 0.00192175
*CONN
*I *879:A I *D sky130_fd_sc_hd__inv_1
*I *876:B I *D sky130_fd_sc_hd__nand2_1
*I *877:B I *D sky130_fd_sc_hd__nand2_1
*I *875:Y O *D sky130_fd_sc_hd__nand2_1
*CAP
1 *879:A 0.000130307
2 *876:B 0
3 *877:B 0.000113751
4 *875:Y 0.00018147
5 *93:18 0.000189099
6 *93:10 0.000387125
7 *877:B *875:B 5.46696e-05
8 *877:B *876:A 2.79421e-05
9 *877:B *652:10 1.39112e-05
10 *879:A *878:B 2.36268e-05
11 *879:A *106:12 2.8266e-06
12 *879:A *298:10 3.69047e-06
13 *93:10 *875:A 6.35819e-05
14 *93:10 *878:B 3.52401e-05
15 *93:18 *875:A 5.96243e-05
16 *93:18 *878:B 0.00016171
17 *93:18 *652:10 1.19468e-05
18 *1440:A *877:B 2.51343e-06
19 *6:26 *93:10 9.60939e-05
20 *7:50 *877:B 0.000136958
21 *15:88 *877:B 5.71263e-05
22 *15:88 *879:A 7.20326e-05
23 *15:88 *93:10 4.78097e-05
24 *15:88 *93:18 2.06112e-05
25 *16:35 *879:A 2.80789e-05
*RES
1 *875:Y *93:10 16.8446 
2 *93:10 *93:18 7.35999 
3 *93:18 *877:B 16.6214 
4 *93:18 *876:B 13.8 
5 *93:10 *879:A 16.1795 
*END

*D_NET *94 0.000348941
*CONN
*I *878:A I *D sky130_fd_sc_hd__nand2_1
*I *876:Y O *D sky130_fd_sc_hd__nand2_1
*CAP
1 *878:A 0.000153482
2 *876:Y 0.000153482
3 *878:A *876:A 6.47652e-06
4 *878:A *878:B 1.32527e-05
5 *878:A *97:6 1.92789e-05
6 *7:50 *878:A 2.96872e-06
*RES
1 *876:Y *878:A 20.6893 
*END

*D_NET *95 0.00044396
*CONN
*I *827:A I *D sky130_fd_sc_hd__inv_1
*I *826:Y O *D sky130_fd_sc_hd__nand2_1
*CAP
1 *827:A 0.000133184
2 *826:Y 0.000133184
3 *827:A *1248:A 5.80706e-06
4 *827:A *127:10 8.15939e-05
5 *826:B *827:A 3.18676e-05
6 *19:10 *827:A 5.83233e-05
*RES
1 *826:Y *827:A 30.3634 
*END

*D_NET *96 0.00120816
*CONN
*I *878:B I *D sky130_fd_sc_hd__nand2_1
*I *877:Y O *D sky130_fd_sc_hd__nand2_1
*CAP
1 *878:B 0.000360183
2 *877:Y 0.000360183
3 *878:B *876:A 6.01232e-05
4 *878:B *97:6 5.52238e-05
5 *878:B *652:10 2.04825e-05
6 *878:A *878:B 1.32527e-05
7 *879:A *878:B 2.36268e-05
8 *7:50 *878:B 9.90431e-05
9 *15:88 *878:B 1.90936e-05
10 *93:10 *878:B 3.52401e-05
11 *93:18 *878:B 0.00016171
*RES
1 *877:Y *878:B 38.7648 
*END

*D_NET *97 0.00161531
*CONN
*I *957:B I *D sky130_fd_sc_hd__nand2_1
*I *959:A I *D sky130_fd_sc_hd__nand2_1
*I *878:Y O *D sky130_fd_sc_hd__nand2_1
*CAP
1 *957:B 4.26389e-05
2 *959:A 0.000271163
3 *878:Y 0.000207868
4 *97:6 0.00052167
5 *957:B *966:A 0
6 *959:A *959:B 0
7 *959:A *966:A 0
8 *959:A *966:B 0
9 *878:A *97:6 1.92789e-05
10 *878:B *97:6 5.52238e-05
11 *957:A *957:B 5.42333e-06
12 *6:26 *959:A 0.000126639
13 *7:50 *959:A 5.52238e-05
14 *7:50 *97:6 0.000310178
*RES
1 *878:Y *97:6 15.175 
2 *97:6 *959:A 23.6929 
3 *97:6 *957:B 10.3089 
*END

*D_NET *98 0.000700371
*CONN
*I *971:B I *D sky130_fd_sc_hd__nand2_1
*I *974:A I *D sky130_fd_sc_hd__nand2_1
*I *879:Y O *D sky130_fd_sc_hd__inv_1
*CAP
1 *971:B 0
2 *974:A 2.76557e-05
3 *879:Y 0.000237567
4 *98:12 0.000265223
5 *974:A *975:B 2.89016e-05
6 *98:12 *1085:B 2.58997e-05
7 *98:12 *298:10 5.01213e-05
8 *7:44 *98:12 0
9 *15:88 *98:12 5.75896e-05
10 *16:35 *98:12 7.41389e-06
*RES
1 *879:Y *98:12 22.7018 
2 *98:12 *974:A 9.83571 
3 *98:12 *971:B 9.3 
*END

*D_NET *99 0.000882485
*CONN
*I *882:B I *D sky130_fd_sc_hd__nand2_1
*I *881:B I *D sky130_fd_sc_hd__nand2_1
*I *889:A I *D sky130_fd_sc_hd__nand2_1
*I *880:Y O *D sky130_fd_sc_hd__nand2_1
*CAP
1 *882:B 0.000147797
2 *881:B 9.97706e-06
3 *889:A 0
4 *880:Y 0.000265691
5 *99:8 0.000127871
6 *881:B *880:A 5.65955e-05
7 *881:B *884:A 2.23592e-05
8 *882:B *882:A 0.000109489
9 *882:B *884:B 5.62136e-05
10 *99:8 *880:A 7.40543e-05
11 *99:8 *884:A 1.24368e-05
*RES
1 *880:Y *99:8 11.4964 
2 *99:8 *889:A 9.3 
3 *99:8 *881:B 9.83571 
4 *880:Y *882:B 30.6179 
*END

*D_NET *100 0.000462119
*CONN
*I *884:A I *D sky130_fd_sc_hd__nand2_1
*I *881:Y O *D sky130_fd_sc_hd__nand2_1
*CAP
1 *884:A 0.0001538
2 *881:Y 0.0001538
3 *884:A *880:A 1.34548e-05
4 *884:A *884:B 4.42631e-05
5 *884:A *888:B 1.00332e-05
6 *884:A *889:B 5.19711e-05
7 *884:A *103:10 0
8 *881:B *884:A 2.23592e-05
9 *99:8 *884:A 1.24368e-05
*RES
1 *881:Y *884:A 30.1893 
*END

*D_NET *101 0.00146373
*CONN
*I *884:B I *D sky130_fd_sc_hd__nand2_1
*I *882:Y O *D sky130_fd_sc_hd__nand2_1
*CAP
1 *884:B 0.000469687
2 *882:Y 0.000469687
3 *884:B *882:A 0
4 *884:B *886:A 3.5021e-05
5 *884:B *888:A 6.05345e-05
6 *884:B *435:12 0.000147363
7 *882:B *884:B 5.62136e-05
8 *884:A *884:B 4.42631e-05
9 *1205:B *884:B 0
10 *7:44 *884:B 0
11 *17:34 *884:B 0.000180959
*RES
1 *882:Y *884:B 35.7429 
*END

*D_NET *102 0.00114711
*CONN
*I *885:A I *D sky130_fd_sc_hd__nand2_1
*I *886:A I *D sky130_fd_sc_hd__nand2_1
*I *884:Y O *D sky130_fd_sc_hd__nand2_1
*CAP
1 *885:A 0.000313409
2 *886:A 4.06997e-05
3 *884:Y 0
4 *102:4 0.000354109
5 *885:A *888:B 2.30913e-05
6 *885:A *889:B 2.873e-05
7 *885:A *103:10 8.14945e-05
8 *886:A *887:B 2.45779e-05
9 *886:A *888:A 0.000122312
10 *884:B *886:A 3.5021e-05
11 *13:5 *885:A 3.90513e-05
12 *16:35 *885:A 5.65955e-05
13 *17:34 *886:A 2.80214e-05
*RES
1 *884:Y *102:4 9.3 
2 *102:4 *886:A 11.0991 
3 *102:4 *885:A 23.4071 
*END

*D_NET *103 0.00152316
*CONN
*I *889:B I *D sky130_fd_sc_hd__nand2_1
*I *886:B I *D sky130_fd_sc_hd__nand2_1
*I *887:B I *D sky130_fd_sc_hd__nand2_1
*I *885:Y O *D sky130_fd_sc_hd__nand2_1
*CAP
1 *889:B 0.000221088
2 *886:B 0
3 *887:B 8.79874e-05
4 *885:Y 0.000155004
5 *103:12 8.79874e-05
6 *103:10 0.000376091
7 *887:B *888:B 9.0145e-05
8 *887:B *640:8 1.97695e-05
9 *889:B *882:A 2.8266e-06
10 *103:10 *885:B 2.89016e-05
11 *103:10 *888:B 0
12 *884:A *889:B 5.19711e-05
13 *884:A *103:10 0
14 *885:A *889:B 2.873e-05
15 *885:A *103:10 8.14945e-05
16 *886:A *887:B 2.45779e-05
17 *1205:B *887:B 1.44193e-05
18 *13:5 *889:B 1.19468e-05
19 *13:5 *103:10 0.000149911
20 *16:35 *103:10 7.92229e-06
21 *17:23 *887:B 7.02611e-05
22 *17:34 *887:B 1.21258e-05
*RES
1 *885:Y *103:10 16.6929 
2 *103:10 *103:12 4.5 
3 *103:12 *887:B 11.925 
4 *103:12 *886:B 9.3 
5 *103:10 *889:B 17.5321 
*END

*D_NET *104 0.000680231
*CONN
*I *888:A I *D sky130_fd_sc_hd__nand2_1
*I *886:Y O *D sky130_fd_sc_hd__nand2_1
*CAP
1 *888:A 0.000121069
2 *886:Y 0.000121069
3 *888:A *888:B 0.000202749
4 *888:A *106:12 3.08664e-05
5 *884:B *888:A 6.05345e-05
6 *886:A *888:A 0.000122312
7 *17:34 *888:A 2.16315e-05
*RES
1 *886:Y *888:A 22.5821 
*END

*D_NET *105 0.00124882
*CONN
*I *888:B I *D sky130_fd_sc_hd__nand2_1
*I *887:Y O *D sky130_fd_sc_hd__nand2_1
*CAP
1 *888:B 0.000443887
2 *887:Y 0.000443887
3 *888:B *885:B 3.69047e-06
4 *884:A *888:B 1.00332e-05
5 *885:A *888:B 2.30913e-05
6 *887:B *888:B 9.0145e-05
7 *888:A *888:B 0.000202749
8 *14:58 *888:B 2.34548e-05
9 *17:23 *888:B 5.74499e-06
10 *17:34 *888:B 2.13481e-06
11 *103:10 *888:B 0
*RES
1 *887:Y *888:B 33.2786 
*END

*D_NET *106 0.00223683
*CONN
*I *1082:A I *D sky130_fd_sc_hd__nand2_1
*I *1084:A I *D sky130_fd_sc_hd__nand2_1
*I *888:Y O *D sky130_fd_sc_hd__nand2_1
*CAP
1 *1082:A 0
2 *1084:A 4.38444e-05
3 *888:Y 0.000701253
4 *106:12 0.000745098
5 *1084:A *1082:B 7.24887e-05
6 *1084:A *1084:B 2.32013e-05
7 *106:12 *1082:B 0.00012401
8 *106:12 *1091:A 0.000135028
9 *106:12 *301:14 0
10 *879:A *106:12 2.8266e-06
11 *888:A *106:12 3.08664e-05
12 *14:58 *106:12 0.000200479
13 *15:88 *106:12 0
14 *16:35 *1084:A 0.000155196
15 *17:34 *106:12 2.54304e-06
*RES
1 *888:Y *106:12 27.7643 
2 *106:12 *1084:A 11.5143 
3 *106:12 *1082:A 9.3 
*END

*D_NET *107 0.00177113
*CONN
*I *999:A I *D sky130_fd_sc_hd__nand2_1
*I *997:B I *D sky130_fd_sc_hd__nand2_1
*I *889:Y O *D sky130_fd_sc_hd__nand2_1
*CAP
1 *999:A 2.5581e-05
2 *997:B 0.000225842
3 *889:Y 0.000421617
4 *107:12 0.00067304
5 *997:B *997:A 2.90487e-05
6 *997:B *1000:A 5.46383e-06
7 *997:B *1000:B 0.000114384
8 *107:12 *880:A 9.56151e-05
9 *107:12 *999:B 2.38651e-06
10 *107:12 *435:12 7.58841e-05
11 *5:49 *997:B 7.38537e-05
12 *18:36 *999:A 2.84109e-05
*RES
1 *889:Y *107:12 20.5857 
2 *107:12 *997:B 18.8 
3 *107:12 *999:A 14.3357 
*END

*D_NET *108 0.00156855
*CONN
*I *892:B I *D sky130_fd_sc_hd__nand2_1
*I *891:B I *D sky130_fd_sc_hd__nand2_1
*I *895:A I *D sky130_fd_sc_hd__inv_1
*I *890:Y O *D sky130_fd_sc_hd__nand2_1
*CAP
1 *892:B 7.93807e-05
2 *891:B 0
3 *895:A 0.000144058
4 *890:Y 0.000275985
5 *108:34 0.000211308
6 *892:B *893:A 2.89016e-05
7 *892:B *893:B 2.89114e-05
8 *892:B *654:8 1.97695e-05
9 *895:A *1006:A 3.10608e-05
10 *895:A *222:22 9.09968e-05
11 *108:34 *890:A 1.31516e-05
12 *108:34 *222:22 0.000123295
13 *890:B *108:34 9.91086e-05
14 *892:A *892:B 4.21248e-05
15 *7:44 *895:A 6.42338e-05
16 *8:50 *892:B 2.77258e-05
17 *9:52 *108:34 9.60939e-05
18 *13:9 *895:A 0.000192447
*RES
1 *890:Y *895:A 31.7205 
2 *890:Y *108:34 20.8893 
3 *108:34 *891:B 9.3 
4 *108:34 *892:B 11.5143 
*END

*D_NET *109 0.00059184
*CONN
*I *893:A I *D sky130_fd_sc_hd__nand2_1
*I *891:Y O *D sky130_fd_sc_hd__nand2_1
*CAP
1 *893:A 0.000130975
2 *891:Y 0.000130975
3 *893:A *893:B 1.31516e-05
4 *893:A *222:22 0.000150625
5 *892:A *893:A 8.25843e-06
6 *892:B *893:A 2.89016e-05
7 *15:88 *893:A 0.000126439
8 *38:6 *893:A 2.51343e-06
*RES
1 *891:Y *893:A 30.4929 
*END

*D_NET *110 0.000415839
*CONN
*I *893:B I *D sky130_fd_sc_hd__nand2_1
*I *892:Y O *D sky130_fd_sc_hd__nand2_1
*CAP
1 *893:B 0.000123669
2 *892:Y 0.000123669
3 *893:B *221:14 0
4 *892:B *893:B 2.89114e-05
5 *893:A *893:B 1.31516e-05
6 *15:88 *893:B 0.000126439
*RES
1 *892:Y *893:B 30.0821 
*END

*D_NET *111 0.00121275
*CONN
*I *977:A I *D sky130_fd_sc_hd__nand2_1
*I *978:A I *D sky130_fd_sc_hd__nand2_1
*I *893:Y O *D sky130_fd_sc_hd__nand2_1
*CAP
1 *977:A 0.000278937
2 *978:A 9.34984e-05
3 *893:Y 0.000124079
4 *111:6 0.000496515
5 *977:A *221:14 0.000128154
6 *977:A *307:14 6.74911e-05
7 *978:A *194:18 5.80706e-06
8 *978:A *221:14 0
9 *978:A *222:22 0
10 *979:A *977:A 1.45771e-05
11 *15:88 *111:6 3.69047e-06
*RES
1 *893:Y *111:6 10.6571 
2 *111:6 *978:A 19.9429 
3 *111:6 *977:A 22.6839 
*END

*D_NET *112 0.00112535
*CONN
*I *997:A I *D sky130_fd_sc_hd__nand2_1
*I *998:A I *D sky130_fd_sc_hd__nand2_1
*I *895:Y O *D sky130_fd_sc_hd__inv_1
*CAP
1 *997:A 6.63015e-05
2 *998:A 0
3 *895:Y 0.00030218
4 *112:14 0.000368481
5 *997:A *1000:A 4.36339e-05
6 *997:A *1000:B 5.49489e-05
7 *997:A *213:8 0.000200499
8 *997:A *217:6 9.77264e-06
9 *112:14 *999:B 3.4846e-06
10 *112:14 *1000:B 9.15842e-06
11 *997:B *997:A 2.90487e-05
12 *13:9 *112:14 3.78363e-05
*RES
1 *895:Y *112:14 22.0411 
2 *112:14 *998:A 9.3 
3 *112:14 *997:A 11.925 
*END

*D_NET *113 0.00168082
*CONN
*I *904:A I *D sky130_fd_sc_hd__nand2_1
*I *898:B I *D sky130_fd_sc_hd__nand2_1
*I *897:B I *D sky130_fd_sc_hd__nand2_1
*I *896:Y O *D sky130_fd_sc_hd__nand2_1
*CAP
1 *904:A 0.000174616
2 *898:B 0.000140081
3 *897:B 3.03947e-05
4 *896:Y 6.4904e-05
5 *113:10 0.000238328
6 *113:8 0.000307372
7 *898:B *898:A 3.29376e-05
8 *898:B *899:A 5.49995e-05
9 *898:B *899:B 0.00010696
10 *898:B *117:10 9.84673e-05
11 *904:A *903:B 3.70794e-05
12 *904:A *117:10 0.000121431
13 *904:A *118:10 1.00887e-05
14 *113:8 *896:A 0.000124012
15 *113:8 *898:A 9.96487e-05
16 *1444:A *898:B 2.50173e-05
17 *18:19 *904:A 1.448e-05
*RES
1 *896:Y *113:8 15.8982 
2 *113:8 *113:10 0.946429 
3 *113:10 *897:B 14.3804 
4 *113:10 *898:B 17.3982 
5 *113:8 *904:A 17.3982 
*END

*D_NET *114 0.000225817
*CONN
*I *899:A I *D sky130_fd_sc_hd__nand2_1
*I *897:Y O *D sky130_fd_sc_hd__nand2_1
*CAP
1 *899:A 3.86153e-05
2 *897:Y 3.86153e-05
3 *899:A *898:A 5.23735e-05
4 *899:A *899:B 1.87331e-05
5 *899:A *117:10 2.24804e-05
6 *898:B *899:A 5.49995e-05
*RES
1 *897:Y *899:A 19.975 
*END

*D_NET *115 0.00024124
*CONN
*I *899:B I *D sky130_fd_sc_hd__nand2_1
*I *898:Y O *D sky130_fd_sc_hd__nand2_1
*CAP
1 *899:B 2.84427e-05
2 *898:Y 2.84427e-05
3 *899:B *898:A 4.13389e-05
4 *898:B *899:B 0.00010696
5 *899:A *899:B 1.87331e-05
6 *1444:A *899:B 6.05161e-06
7 *16:23 *899:B 1.12713e-05
*RES
1 *898:Y *899:B 19.975 
*END

*D_NET *116 0.000350478
*CONN
*I *1049:A I *D sky130_fd_sc_hd__inv_1
*I *938:Y O *D sky130_fd_sc_hd__nand2_1
*CAP
1 *1049:A 8.79747e-05
2 *938:Y 8.79747e-05
3 *1049:A *464:14 0.000127446
4 *826:A *1049:A 2.3541e-05
5 *826:B *1049:A 2.3541e-05
*RES
1 *938:Y *1049:A 29.4795 
*END

*D_NET *117 0.000969359
*CONN
*I *900:A I *D sky130_fd_sc_hd__nand2_1
*I *901:A I *D sky130_fd_sc_hd__nand2_1
*I *899:Y O *D sky130_fd_sc_hd__nand2_1
*CAP
1 *900:A 9.36929e-05
2 *901:A 0
3 *899:Y 0.000193272
4 *117:10 0.000286965
5 *900:A *118:10 0.000127939
6 *900:A *122:12 1.50223e-05
7 *117:10 *118:10 1.00887e-05
8 *898:B *117:10 9.84673e-05
9 *899:A *117:10 2.24804e-05
10 *904:A *117:10 0.000121431
*RES
1 *899:Y *117:10 17.1036 
2 *117:10 *901:A 13.8 
3 *117:10 *900:A 16.05 
*END

*D_NET *118 0.000662634
*CONN
*I *904:B I *D sky130_fd_sc_hd__nand2_1
*I *901:B I *D sky130_fd_sc_hd__nand2_1
*I *902:B I *D sky130_fd_sc_hd__nand2_1
*I *900:Y O *D sky130_fd_sc_hd__nand2_1
*CAP
1 *904:B 0
2 *901:B 0
3 *902:B 2.05331e-05
4 *900:Y 4.99338e-05
5 *118:16 9.90692e-05
6 *118:10 0.00012847
7 *902:B *903:B 2.38501e-05
8 *118:10 *122:12 3.9733e-05
9 *118:16 *903:B 0.000152929
10 *900:A *118:10 0.000127939
11 *904:A *118:10 1.00887e-05
12 *117:10 *118:10 1.00887e-05
*RES
1 *900:Y *118:10 19.9429 
2 *118:10 *118:16 2.21429 
3 *118:16 *902:B 9.83571 
4 *118:16 *901:B 9.3 
5 *118:10 *904:B 9.3 
*END

*D_NET *119 0.000765609
*CONN
*I *903:A I *D sky130_fd_sc_hd__nand2_1
*I *901:Y O *D sky130_fd_sc_hd__nand2_1
*CAP
1 *903:A 0.000259967
2 *901:Y 0.000259967
3 *903:A *903:B 0.000245675
*RES
1 *901:Y *903:A 22.8857 
*END

*D_NET *120 0.000749768
*CONN
*I *903:B I *D sky130_fd_sc_hd__nand2_1
*I *902:Y O *D sky130_fd_sc_hd__nand2_1
*CAP
1 *903:B 0.000145117
2 *902:Y 0.000145117
3 *902:B *903:B 2.38501e-05
4 *903:A *903:B 0.000245675
5 *904:A *903:B 3.70794e-05
6 *118:16 *903:B 0.000152929
*RES
1 *902:Y *903:B 22.9929 
*END

*D_NET *121 0.00362243
*CONN
*I *1093:A I *D sky130_fd_sc_hd__nand2_1
*I *1092:A I *D sky130_fd_sc_hd__nand2_1
*I *903:Y O *D sky130_fd_sc_hd__nand2_1
*CAP
1 *1093:A 0.000168461
2 *1092:A 0
3 *903:Y 0.000983483
4 *121:14 0.00115194
5 *1093:A *1095:A 7.2373e-05
6 *1093:A *308:10 6.5527e-05
7 *1093:A *308:23 2.51992e-05
8 *121:14 *992:A 0
9 *121:14 *122:12 0.000163483
10 *121:14 *208:10 0
11 *121:14 *211:12 0.000313198
12 *121:14 *308:10 1.13883e-05
13 *832:A *121:14 0.000125724
14 *846:B *121:14 0
15 *848:B *121:14 0
16 *10:30 *121:14 0.000190917
17 *10:45 *121:14 5.52238e-05
18 *13:5 *121:14 0
19 *18:19 *121:14 0.000295515
*RES
1 *903:Y *121:14 38.5321 
2 *121:14 *1092:A 9.3 
3 *121:14 *1093:A 21.6929 
*END

*D_NET *122 0.00391971
*CONN
*I *1021:B I *D sky130_fd_sc_hd__nand2_1
*I *1023:A I *D sky130_fd_sc_hd__nand2_1
*I *904:Y O *D sky130_fd_sc_hd__nand2_1
*CAP
1 *1021:B 8.62432e-05
2 *1023:A 0.000121371
3 *904:Y 0.001042
4 *122:12 0.00124962
5 *1023:A *1025:A 0.000114623
6 *122:12 *212:8 0.000491735
7 *832:A *122:12 6.65398e-05
8 *848:B *122:12 0
9 *900:A *122:12 1.50223e-05
10 *987:B *122:12 0
11 *1444:A *122:12 0
12 *1459:B *122:12 0
13 *8:40 *122:12 3.69697e-05
14 *9:27 *1021:B 9.46929e-05
15 *9:27 *122:12 0.000241294
16 *10:30 *1023:A 0
17 *10:30 *122:12 0
18 *18:19 *122:12 0.000156388
19 *118:10 *122:12 3.9733e-05
20 *121:14 *122:12 0.000163483
*RES
1 *904:Y *122:12 43.6036 
2 *122:12 *1023:A 21.1571 
3 *122:12 *1021:B 11.0679 
*END

*D_NET *123 0.00254446
*CONN
*I *907:B I *D sky130_fd_sc_hd__nand2_1
*I *910:A I *D sky130_fd_sc_hd__inv_1
*I *908:B I *D sky130_fd_sc_hd__nand2_1
*I *906:Y O *D sky130_fd_sc_hd__nand2_1
*CAP
1 *907:B 0.000241504
2 *910:A 1.3357e-05
3 *908:B 0.000248782
4 *906:Y 0.000291565
5 *123:23 0.000254861
6 *123:10 0.000540347
7 *907:B *907:A 0.0002046
8 *907:B *1053:B 0
9 *907:B *1055:B 0
10 *907:B *1461:A 7.53671e-05
11 *907:B *347:8 0.000269422
12 *908:B *382:12 0.000173804
13 *123:10 *382:12 0.000148911
14 *1382:A *907:B 0
15 *1450:B *907:B 2.2549e-05
16 *1450:B *910:A 1.37644e-05
17 *3:91 *907:B 4.56213e-05
18 *15:110 *908:B 0
*RES
1 *906:Y *123:10 17.925 
2 *123:10 *908:B 18.2286 
3 *123:10 *123:23 4.5 
4 *123:23 *910:A 9.58125 
5 *123:23 *907:B 15.2107 
*END

*D_NET *124 0.000386781
*CONN
*I *909:A I *D sky130_fd_sc_hd__nand2_1
*I *907:Y O *D sky130_fd_sc_hd__nand2_1
*CAP
1 *909:A 0.000102416
2 *907:Y 0.000102416
3 *909:A *909:B 0
4 *909:A *126:12 2.89016e-05
5 *909:A *381:8 0.000153047
*RES
1 *907:Y *909:A 30.0821 
*END

*D_NET *125 0.000802463
*CONN
*I *909:B I *D sky130_fd_sc_hd__nand2_1
*I *908:Y O *D sky130_fd_sc_hd__nand2_1
*CAP
1 *909:B 0.000228149
2 *908:Y 0.000228149
3 *909:B *906:B 0.000267807
4 *909:B *908:A 7.83587e-05
5 *909:B *381:8 0
6 *909:A *909:B 0
*RES
1 *908:Y *909:B 32.5107 
*END

*D_NET *126 0.000647269
*CONN
*I *1150:A I *D sky130_fd_sc_hd__nand2_1
*I *1147:B I *D sky130_fd_sc_hd__nand2_1
*I *909:Y O *D sky130_fd_sc_hd__nand2_1
*CAP
1 *1150:A 0.000101108
2 *1147:B 0
3 *909:Y 0.000111866
4 *126:12 0.000212974
5 *1150:A *1151:B 9.7049e-06
6 *1150:A *363:8 5.45614e-05
7 *126:12 *381:8 0.000128154
8 *126:12 *382:12 0
9 *909:A *126:12 2.89016e-05
*RES
1 *909:Y *126:12 20.4786 
2 *126:12 *1147:B 9.3 
3 *126:12 *1150:A 11.5143 
*END

*D_NET *127 0.000916405
*CONN
*I *1248:A I *D sky130_fd_sc_hd__xor2_1
*I *1247:A I *D sky130_fd_sc_hd__and2_1
*I *1049:Y O *D sky130_fd_sc_hd__inv_1
*CAP
1 *1248:A 0.00013574
2 *1247:A 0
3 *1049:Y 0.000106552
4 *127:10 0.000242292
5 *1248:A *1247:B 4.80729e-05
6 *1248:A *1248:B 0.000126439
7 *127:10 *1247:B 1.02504e-05
8 *127:10 *464:14 5.38886e-05
9 *826:B *127:10 4.40835e-05
10 *827:A *1248:A 5.80706e-06
11 *827:A *127:10 8.15939e-05
12 *19:10 *1248:A 3.88323e-05
13 *19:20 *1248:A 2.28541e-05
*RES
1 *1049:Y *127:10 16.4875 
2 *127:10 *1247:A 13.8 
3 *127:10 *1248:A 16.9964 
*END

*D_NET *128 0.000490535
*CONN
*I *1053:B I *D sky130_fd_sc_hd__nand2_1
*I *1055:A I *D sky130_fd_sc_hd__nand2_1
*I *910:Y O *D sky130_fd_sc_hd__inv_1
*CAP
1 *1053:B 5.10065e-05
2 *1055:A 0
3 *910:Y 5.04514e-05
4 *128:6 0.000101458
5 *1053:B *1053:A 1.97695e-05
6 *1053:B *1055:B 4.80569e-05
7 *1053:B *1056:B 1.74352e-05
8 *907:B *1053:B 0
9 *1450:B *1053:B 0
10 *1450:B *128:6 5.95076e-05
11 *15:102 *1053:B 0.00014285
*RES
1 *910:Y *128:6 10.4518 
2 *128:6 *1055:A 9.3 
3 *128:6 *1053:B 11.5143 
*END

*D_NET *129 0.00157273
*CONN
*I *912:B I *D sky130_fd_sc_hd__nand2_1
*I *913:B I *D sky130_fd_sc_hd__nand2_1
*I *920:A I *D sky130_fd_sc_hd__nand2_1
*I *911:Y O *D sky130_fd_sc_hd__nand2_1
*CAP
1 *912:B 0
2 *913:B 9.41987e-05
3 *920:A 0.000100361
4 *911:Y 0.000195947
5 *129:23 0.00014366
6 *129:6 0.00034577
7 *913:B *912:A 1.04232e-05
8 *913:B *914:A 9.7049e-06
9 *913:B *914:B 9.60939e-05
10 *920:A *133:8 4.81734e-05
11 *920:A *137:6 6.05161e-06
12 *920:A *215:6 6.17358e-05
13 *129:6 *911:A 3.30352e-05
14 *129:6 *133:8 0.000175892
15 *129:23 *911:B 0.000128146
16 *129:23 *912:A 0.000103253
17 *129:23 *369:10 1.02504e-05
18 *15:110 *129:23 1.00375e-05
*RES
1 *911:Y *129:6 11.8893 
2 *129:6 *920:A 11.1036 
3 *129:6 *129:23 10.6429 
4 *129:23 *913:B 11.5143 
5 *129:23 *912:B 9.3 
*END

*D_NET *130 0.000263184
*CONN
*I *914:A I *D sky130_fd_sc_hd__nand2_1
*I *912:Y O *D sky130_fd_sc_hd__nand2_1
*CAP
1 *914:A 2.88935e-05
2 *912:Y 2.88935e-05
3 *914:A *912:A 6.29133e-05
4 *914:A *914:B 0.000118806
5 *914:A *132:10 1.39726e-05
6 *913:B *914:A 9.7049e-06
*RES
1 *912:Y *914:A 19.975 
*END

*D_NET *131 0.000746424
*CONN
*I *914:B I *D sky130_fd_sc_hd__nand2_1
*I *913:Y O *D sky130_fd_sc_hd__nand2_1
*CAP
1 *914:B 0.000131561
2 *913:Y 0.000131561
3 *914:B *369:10 0.000268403
4 *913:B *914:B 9.60939e-05
5 *914:A *914:B 0.000118806
*RES
1 *913:Y *914:B 22.3321 
*END

*D_NET *132 0.0010965
*CONN
*I *917:A I *D sky130_fd_sc_hd__nand2_1
*I *915:A I *D sky130_fd_sc_hd__nand2_1
*I *914:Y O *D sky130_fd_sc_hd__nand2_1
*CAP
1 *917:A 8.53582e-05
2 *915:A 1.69531e-05
3 *914:Y 9.3206e-05
4 *132:10 0.000195517
5 *915:A *911:A 5.33005e-05
6 *915:A *133:8 5.33005e-05
7 *917:A *912:A 2.31791e-05
8 *917:A *133:14 9.19134e-05
9 *132:10 *912:A 0.000132446
10 *914:A *132:10 1.39726e-05
11 *15:110 *917:A 0.000215784
12 *15:110 *132:10 0.000121573
*RES
1 *914:Y *132:10 15.9786 
2 *132:10 *915:A 14.3357 
3 *132:10 *917:A 16.6571 
*END

*D_NET *133 0.00127079
*CONN
*I *920:B I *D sky130_fd_sc_hd__nand2_1
*I *917:B I *D sky130_fd_sc_hd__nand2_1
*I *918:B I *D sky130_fd_sc_hd__nand2_1
*I *915:Y O *D sky130_fd_sc_hd__nand2_1
*CAP
1 *920:B 0
2 *917:B 0
3 *918:B 7.26755e-05
4 *915:Y 7.63855e-05
5 *133:14 0.000184851
6 *133:8 0.000188561
7 *918:B *919:A 4.84073e-05
8 *918:B *919:B 1.19813e-05
9 *133:8 *911:A 3.37161e-05
10 *133:8 *215:6 2.89016e-05
11 *133:14 *911:B 5.41794e-05
12 *133:14 *912:A 3.34295e-05
13 *915:A *133:8 5.33005e-05
14 *917:A *133:14 9.19134e-05
15 *920:A *133:8 4.81734e-05
16 *1161:A *133:14 8.51826e-05
17 *3:70 *918:B 6.96806e-05
18 *6:55 *918:B 1.35553e-05
19 *129:6 *133:8 0.000175892
*RES
1 *915:Y *133:8 11.4964 
2 *133:8 *133:14 11.8571 
3 *133:14 *918:B 11.5143 
4 *133:14 *917:B 9.3 
5 *133:8 *920:B 9.3 
*END

*D_NET *134 0.000655341
*CONN
*I *919:A I *D sky130_fd_sc_hd__nand2_1
*I *917:Y O *D sky130_fd_sc_hd__nand2_1
*CAP
1 *919:A 0.00011357
2 *917:Y 0.00011357
3 *919:A *919:B 5.38798e-05
4 *919:A *136:10 1.32293e-05
5 *919:A *522:8 1.12713e-05
6 *918:B *919:A 4.84073e-05
7 *3:70 *919:A 5.74499e-06
8 *6:55 *919:A 0.000295669
*RES
1 *917:Y *919:A 22.0286 
*END

*D_NET *135 0.000234732
*CONN
*I *919:B I *D sky130_fd_sc_hd__nand2_1
*I *918:Y O *D sky130_fd_sc_hd__nand2_1
*CAP
1 *919:B 4.69909e-05
2 *918:Y 4.69909e-05
3 *919:B *522:8 5.50052e-05
4 *918:B *919:B 1.19813e-05
5 *919:A *919:B 5.38798e-05
6 *3:70 *919:B 1.98839e-05
*RES
1 *918:Y *919:B 19.975 
*END

*D_NET *136 0.00129349
*CONN
*I *1159:A I *D sky130_fd_sc_hd__nand2_1
*I *1157:B I *D sky130_fd_sc_hd__nand2_1
*I *919:Y O *D sky130_fd_sc_hd__nand2_1
*CAP
1 *1159:A 0.00015519
2 *1157:B 0
3 *919:Y 0.000226401
4 *136:10 0.000381591
5 *1159:A *1158:A 5.4346e-05
6 *1159:A *267:10 4.6025e-06
7 *136:10 *1149:A 1.14548e-05
8 *136:10 *267:10 5.78686e-05
9 *919:A *136:10 1.32293e-05
10 *3:70 *136:10 0.000110275
11 *3:76 *1159:A 0.000204181
12 *3:76 *136:10 6.73707e-06
13 *6:55 *136:10 6.76159e-05
*RES
1 *919:Y *136:10 17.6214 
2 *136:10 *1157:B 13.8 
3 *136:10 *1159:A 17.3179 
*END

*D_NET *137 0.00301653
*CONN
*I *1065:A I *D sky130_fd_sc_hd__nand2_1
*I *1063:B I *D sky130_fd_sc_hd__nand2_1
*I *920:Y O *D sky130_fd_sc_hd__nand2_1
*CAP
1 *1065:A 0.000219538
2 *1063:B 0.000204154
3 *920:Y 0.000503792
4 *137:6 0.000927483
5 *1063:B *839:A 0.000225616
6 *1063:B *152:14 1.88048e-05
7 *1065:A *1065:B 2.69483e-05
8 *1065:A *1066:B 0.00032895
9 *1065:A *1070:B 5.4031e-05
10 *1065:A *152:14 2.26424e-05
11 *1065:A *282:12 6.87672e-05
12 *137:6 *839:A 0.000368012
13 *137:6 *215:6 4.17413e-05
14 *920:A *137:6 6.05161e-06
15 *7:67 *1065:A 0
*RES
1 *920:Y *137:6 16.4071 
2 *137:6 *1063:B 21.2107 
3 *137:6 *1065:A 23.8893 
*END

*D_NET *138 0.000249063
*CONN
*I *1271:A I *D sky130_fd_sc_hd__inv_1
*I *1160:Y O *D sky130_fd_sc_hd__nand2_1
*CAP
1 *1271:A 0.000108107
2 *1160:Y 0.000108107
3 *916:A *1271:A 2.9766e-05
4 *1160:B *1271:A 3.08382e-06
*RES
1 *1160:Y *1271:A 20.667 
*END

*D_NET *139 0.00157291
*CONN
*I *925:A I *D sky130_fd_sc_hd__inv_1
*I *922:B I *D sky130_fd_sc_hd__nand2_1
*I *923:B I *D sky130_fd_sc_hd__nand2_1
*I *921:Y O *D sky130_fd_sc_hd__nand2_1
*CAP
1 *925:A 0.000165625
2 *922:B 0
3 *923:B 2.19423e-05
4 *921:Y 0.000133054
5 *139:21 0.000274973
6 *139:10 0.000264345
7 *923:B *924:B 3.69047e-06
8 *923:B *648:8 5.49995e-05
9 *925:A *286:10 0.000177941
10 *139:10 *921:B 2.24804e-05
11 *139:10 *922:A 7.25873e-06
12 *139:10 *924:B 3.01245e-06
13 *139:10 *286:10 5.36422e-05
14 *139:10 *648:8 5.33005e-05
15 *139:21 *286:10 0.00022515
16 *1453:B *925:A 0
17 *1453:B *139:21 0
18 *11:53 *925:A 0.000111492
19 *12:60 *139:21 0
*RES
1 *921:Y *139:10 15.8893 
2 *139:10 *923:B 14.3357 
3 *139:10 *139:21 2.85714 
4 *139:21 *922:B 13.8 
5 *139:21 *925:A 17.9741 
*END

*D_NET *140 0.000299134
*CONN
*I *924:A I *D sky130_fd_sc_hd__nand2_1
*I *922:Y O *D sky130_fd_sc_hd__nand2_1
*CAP
1 *924:A 0.000149567
2 *922:Y 0.000149567
*RES
1 *922:Y *924:A 20.7964 
*END

*D_NET *141 0.000607629
*CONN
*I *924:B I *D sky130_fd_sc_hd__nand2_1
*I *923:Y O *D sky130_fd_sc_hd__nand2_1
*CAP
1 *924:B 0.000211904
2 *923:Y 0.000211904
3 *924:B *921:B 1.58163e-05
4 *924:B *922:A 0.000155556
5 *924:B *1060:B 0
6 *924:B *648:8 5.74499e-06
7 *923:B *924:B 3.69047e-06
8 *11:53 *924:B 0
9 *139:10 *924:B 3.01245e-06
*RES
1 *923:Y *924:B 30.9036 
*END

*D_NET *142 0.00055841
*CONN
*I *1057:B I *D sky130_fd_sc_hd__nand2_1
*I *1059:A I *D sky130_fd_sc_hd__nand2_1
*I *924:Y O *D sky130_fd_sc_hd__nand2_1
*CAP
1 *1057:B 5.21878e-05
2 *1059:A 0
3 *924:Y 7.4053e-05
4 *142:10 0.000126241
5 *1057:B *1058:A 1.97695e-05
6 *1057:B *1059:B 4.80569e-05
7 *1057:B *1060:B 1.74352e-05
8 *142:10 *1060:B 2.79092e-05
9 *142:10 *272:10 0
10 *142:10 *286:10 4.79842e-05
11 *11:53 *1057:B 0.000144773
12 *11:53 *142:10 0
*RES
1 *924:Y *142:10 19.9429 
2 *142:10 *1059:A 9.3 
3 *142:10 *1057:B 11.5143 
*END

*D_NET *143 0.00109203
*CONN
*I *944:A I *D sky130_fd_sc_hd__nand2_1
*I *942:B I *D sky130_fd_sc_hd__nand2_1
*I *925:Y O *D sky130_fd_sc_hd__inv_1
*CAP
1 *944:A 1.24159e-05
2 *942:B 8.73612e-05
3 *925:Y 0.00028612
4 *143:14 0.000385897
5 *942:B *943:B 5.17614e-05
6 *942:B *944:B 1.04232e-05
7 *942:B *946:B 3.99614e-06
8 *942:B *158:15 3.18676e-05
9 *944:A *943:B 0
10 *944:A *944:B 5.7661e-06
11 *143:14 *943:A 1.39726e-05
12 *143:14 *943:B 8.86512e-05
13 *143:14 *286:10 0
14 *143:14 *396:8 0
15 *1451:B *143:14 3.92854e-05
16 *11:53 *143:14 7.45165e-05
*RES
1 *925:Y *143:14 23.0589 
2 *143:14 *942:B 11.0857 
3 *143:14 *944:A 9.72857 
*END

*D_NET *144 0.00189397
*CONN
*I *928:B I *D sky130_fd_sc_hd__nand2_1
*I *929:B I *D sky130_fd_sc_hd__nand2_1
*I *935:A I *D sky130_fd_sc_hd__nand2_1
*I *926:Y O *D sky130_fd_sc_hd__nand2_1
*CAP
1 *928:B 2.52056e-05
2 *929:B 0
3 *935:A 0.00024842
4 *926:Y 8.45301e-05
5 *144:25 4.85947e-05
6 *144:10 0.000356339
7 *928:B *930:A 5.52302e-05
8 *935:A *930:A 0.000263524
9 *935:A *932:A 2.65105e-05
10 *935:A *1438:A 4.14094e-05
11 *935:A *147:6 3.39935e-05
12 *935:A *650:6 4.40835e-05
13 *144:10 *926:A 1.33343e-05
14 *144:10 *1327:A 5.10822e-05
15 *144:25 *1327:A 2.61337e-05
16 *1316:B *144:10 9.22103e-06
17 *1437:B *935:A 0
18 *6:26 *144:10 1.24368e-05
19 *6:41 *144:10 0.000101545
20 *6:41 *144:25 4.66511e-05
21 *7:67 *935:A 0.000405727
*RES
1 *926:Y *144:10 15.675 
2 *144:10 *935:A 20.8179 
3 *144:10 *144:25 5.23214 
4 *144:25 *929:B 9.3 
5 *144:25 *928:B 9.83571 
*END

*D_NET *145 0.000727387
*CONN
*I *930:A I *D sky130_fd_sc_hd__nand2_1
*I *928:Y O *D sky130_fd_sc_hd__nand2_1
*CAP
1 *930:A 0.000163256
2 *928:Y 0.000163256
3 *930:A *930:B 7.44354e-05
4 *930:A *931:A 3.99614e-06
5 *930:A *147:6 3.69047e-06
6 *928:B *930:A 5.52302e-05
7 *935:A *930:A 0.000263524
*RES
1 *928:Y *930:A 22.4393 
*END

*D_NET *146 0.000290164
*CONN
*I *930:B I *D sky130_fd_sc_hd__nand2_1
*I *929:Y O *D sky130_fd_sc_hd__nand2_1
*CAP
1 *930:B 0.000107864
2 *929:Y 0.000107864
3 *930:B *931:A 0
4 *930:A *930:B 7.44354e-05
*RES
1 *929:Y *930:B 20.3857 
*END

*D_NET *147 0.000850464
*CONN
*I *931:A I *D sky130_fd_sc_hd__nand2_1
*I *932:A I *D sky130_fd_sc_hd__nand2_1
*I *930:Y O *D sky130_fd_sc_hd__nand2_1
*CAP
1 *931:A 3.71676e-05
2 *932:A 0.00017494
3 *930:Y 0.000100864
4 *147:6 0.000312972
5 *932:A *933:A 0.000127428
6 *932:A *148:29 0
7 *932:A *650:6 2.89016e-05
8 *930:A *931:A 3.99614e-06
9 *930:A *147:6 3.69047e-06
10 *930:B *931:A 0
11 *935:A *932:A 2.65105e-05
12 *935:A *147:6 3.39935e-05
*RES
1 *930:Y *147:6 10.6571 
2 *147:6 *932:A 21.3 
3 *147:6 *931:A 10.0321 
*END

*D_NET *148 0.00140212
*CONN
*I *932:B I *D sky130_fd_sc_hd__nand2_1
*I *933:B I *D sky130_fd_sc_hd__nand2_1
*I *935:B I *D sky130_fd_sc_hd__nand2_1
*I *931:Y O *D sky130_fd_sc_hd__nand2_1
*CAP
1 *932:B 5.42334e-05
2 *933:B 0
3 *935:B 2.21507e-05
4 *931:Y 0.000355246
5 *148:29 0.000185206
6 *148:14 0.00050837
7 *932:B *934:A 0
8 *932:B *934:B 6.02956e-05
9 *935:B *1438:A 1.51018e-05
10 *935:B *153:8 9.02916e-06
11 *148:14 *933:A 2.06178e-05
12 *148:29 *933:A 5.80706e-06
13 *148:29 *181:14 0
14 *932:A *148:29 0
15 *1437:A *935:B 1.02504e-05
16 *1437:B *148:29 0
17 *4:17 *932:B 0.00014183
18 *14:62 *932:B 1.39841e-05
*RES
1 *931:Y *148:14 21.4483 
2 *148:14 *935:B 14.2286 
3 *148:14 *148:29 6.59821 
4 *148:29 *933:B 9.3 
5 *148:29 *932:B 11.5143 
*END

*D_NET *149 0.00122396
*CONN
*I *1133:A I *D sky130_fd_sc_hd__nand2_1
*I *1132:A I *D sky130_fd_sc_hd__nand2_1
*I *1271:Y O *D sky130_fd_sc_hd__inv_1
*CAP
1 *1133:A 9.18521e-05
2 *1132:A 8.35478e-05
3 *1271:Y 8.57287e-05
4 *149:12 0.000261129
5 *1132:A *1132:B 7.13236e-05
6 *1132:A *348:24 1.21258e-05
7 *1133:A *1132:B 9.84729e-05
8 *1133:A *303:10 0.000137945
9 *916:A *149:12 5.24922e-05
10 *938:B *149:12 3.14003e-05
11 *12:22 *1132:A 5.33005e-05
12 *12:22 *1133:A 0.000127806
13 *12:22 *149:12 2.09722e-05
14 *12:24 *1132:A 9.58632e-05
*RES
1 *1271:Y *149:12 19.9696 
2 *149:12 *1132:A 11.3893 
3 *149:12 *1133:A 12.2107 
*END

*D_NET *150 0.000399105
*CONN
*I *934:A I *D sky130_fd_sc_hd__nand2_1
*I *932:Y O *D sky130_fd_sc_hd__nand2_1
*CAP
1 *934:A 6.29374e-05
2 *932:Y 6.29374e-05
3 *934:A *934:B 5.45515e-05
4 *932:B *934:A 0
5 *4:17 *934:A 0.000185643
6 *14:62 *934:A 3.30352e-05
*RES
1 *932:Y *934:A 20.7964 
*END

*D_NET *151 0.000487444
*CONN
*I *934:B I *D sky130_fd_sc_hd__nand2_1
*I *933:Y O *D sky130_fd_sc_hd__nand2_1
*CAP
1 *934:B 6.64709e-05
2 *933:Y 6.64709e-05
3 *932:B *934:B 6.02956e-05
4 *934:A *934:B 5.45515e-05
5 *4:17 *934:B 1.21289e-05
6 *14:62 *934:B 0.000227526
*RES
1 *933:Y *934:B 21.2071 
*END

*D_NET *152 0.00194117
*CONN
*I *1069:A I *D sky130_fd_sc_hd__nand2_1
*I *1067:B I *D sky130_fd_sc_hd__nand2_1
*I *934:Y O *D sky130_fd_sc_hd__nand2_1
*CAP
1 *1069:A 0
2 *1067:B 0.000112405
3 *934:Y 0.000452
4 *152:14 0.000564405
5 *1067:B *1067:A 5.33005e-05
6 *1067:B *1068:B 1.02301e-05
7 *1067:B *1070:A 1.4796e-05
8 *1067:B *1070:B 0.000178503
9 *1067:B *283:6 5.75774e-05
10 *1067:B *283:10 2.53477e-05
11 *152:14 *1066:B 0.000216211
12 *152:14 *1070:B 1.98839e-05
13 *152:14 *181:14 0
14 *152:14 *283:10 5.33005e-05
15 *1063:B *152:14 1.88048e-05
16 *1065:A *152:14 2.26424e-05
17 *3:70 *1067:B 4.37451e-05
18 *3:70 *152:14 0
19 *4:17 *152:14 9.80173e-05
20 *7:67 *152:14 0
*RES
1 *934:Y *152:14 26.5857 
2 *152:14 *1067:B 12.7464 
3 *152:14 *1069:A 9.3 
*END

*D_NET *153 0.00143101
*CONN
*I *964:A I *D sky130_fd_sc_hd__nand2_1
*I *962:B I *D sky130_fd_sc_hd__nand2_1
*I *935:Y O *D sky130_fd_sc_hd__nand2_1
*CAP
1 *964:A 0
2 *962:B 0.000252028
3 *935:Y 9.48899e-05
4 *153:8 0.000346917
5 *962:B *960:A 0
6 *962:B *962:A 5.7661e-06
7 *962:B *963:A 3.93247e-05
8 *962:B *964:B 3.18676e-05
9 *962:B *965:A 6.27272e-06
10 *962:B *965:B 7.43578e-06
11 *962:B *178:17 2.07491e-05
12 *153:8 *965:B 3.87013e-05
13 *153:8 *1438:A 4.58707e-05
14 *153:8 *178:17 2.1842e-05
15 *935:B *153:8 9.02916e-06
16 *1437:B *962:B 1.49698e-05
17 *1437:B *153:8 0.00010096
18 *3:15 *962:B 0
19 *7:50 *962:B 2.10515e-05
20 *7:50 *153:8 0.000274288
21 *7:67 *153:8 9.90431e-05
*RES
1 *935:Y *153:8 13.4429 
2 *153:8 *962:B 22.7286 
3 *153:8 *964:A 9.3 
*END

*D_NET *154 0.0010811
*CONN
*I *946:A I *D sky130_fd_sc_hd__nand2_1
*I *940:B I *D sky130_fd_sc_hd__nand2_1
*I *937:B I *D sky130_fd_sc_hd__nand2_1
*I *936:Y O *D sky130_fd_sc_hd__nand2_1
*CAP
1 *946:A 9.01066e-05
2 *940:B 0.000174957
3 *937:B 0
4 *936:Y 7.88619e-05
5 *154:17 0.000327599
6 *154:8 0.000141398
7 *940:B *941:B 8.08015e-06
8 *940:B *1454:A 0.000103835
9 *946:A *942:A 2.00751e-05
10 *946:A *157:10 3.2534e-05
11 *154:8 *936:A 0.000100823
12 *154:8 *1187:A 0
13 *154:17 *1187:A 0
14 *154:17 *157:10 2.8266e-06
15 *936:B *154:8 0
16 *91:8 *946:A 0
17 *91:8 *154:17 0
*RES
1 *936:Y *154:8 15.4429 
2 *154:8 *937:B 13.8 
3 *154:8 *154:17 1.03571 
4 *154:17 *940:B 16.6036 
5 *154:17 *946:A 15.7464 
*END

*D_NET *155 0.000418013
*CONN
*I *941:A I *D sky130_fd_sc_hd__nand2_1
*I *937:Y O *D sky130_fd_sc_hd__nand2_1
*CAP
1 *941:A 6.92344e-05
2 *937:Y 6.92344e-05
3 *941:A *937:A 2.89114e-05
4 *941:A *941:B 2.32013e-05
5 *941:A *1454:A 0.000185643
6 *941:A *664:6 6.05161e-06
7 *1451:A *941:A 3.57366e-05
*RES
1 *937:Y *941:A 20.7964 
*END

*D_NET *156 0.000818244
*CONN
*I *941:B I *D sky130_fd_sc_hd__nand2_1
*I *940:Y O *D sky130_fd_sc_hd__nand2_1
*CAP
1 *941:B 0.000283667
2 *940:Y 0.000283667
3 *941:B *937:A 7.85301e-05
4 *941:B *1454:A 2.3104e-05
5 *941:B *664:6 0.000117994
6 *940:B *941:B 8.08015e-06
7 *941:A *941:B 2.32013e-05
*RES
1 *940:Y *941:B 22.7429 
*END

*D_NET *157 0.00166291
*CONN
*I *942:A I *D sky130_fd_sc_hd__nand2_1
*I *943:A I *D sky130_fd_sc_hd__nand2_1
*I *941:Y O *D sky130_fd_sc_hd__nand2_1
*CAP
1 *942:A 3.0752e-05
2 *943:A 0.00018298
3 *941:Y 9.54578e-05
4 *157:10 0.00030919
5 *942:A *1187:A 5.59013e-05
6 *943:A *943:B 0.000273818
7 *943:A *946:B 5.33005e-05
8 *943:A *158:15 8.66063e-05
9 *157:10 *1187:A 9.91086e-05
10 *157:10 *1454:A 5.52238e-05
11 *946:A *942:A 2.00751e-05
12 *946:A *157:10 3.2534e-05
13 *11:59 *943:A 0.000351162
14 *143:14 *943:A 1.39726e-05
15 *154:17 *157:10 2.8266e-06
*RES
1 *941:Y *157:10 15.675 
2 *157:10 *943:A 19.175 
3 *157:10 *942:A 14.5321 
*END

*D_NET *158 0.000983111
*CONN
*I *943:B I *D sky130_fd_sc_hd__nand2_1
*I *944:B I *D sky130_fd_sc_hd__nand2_1
*I *946:B I *D sky130_fd_sc_hd__nand2_1
*I *942:Y O *D sky130_fd_sc_hd__nand2_1
*CAP
1 *943:B 7.31113e-05
2 *944:B 1.00162e-05
3 *946:B 6.61232e-05
4 *942:Y 0
5 *158:15 0.000108259
6 *158:4 9.12545e-05
7 *946:B *163:10 5.30637e-06
8 *942:B *943:B 5.17614e-05
9 *942:B *944:B 1.04232e-05
10 *942:B *946:B 3.99614e-06
11 *942:B *158:15 3.18676e-05
12 *943:A *943:B 0.000273818
13 *943:A *946:B 5.33005e-05
14 *943:A *158:15 8.66063e-05
15 *944:A *943:B 0
16 *944:A *944:B 5.7661e-06
17 *11:59 *946:B 2.28499e-05
18 *143:14 *943:B 8.86512e-05
*RES
1 *942:Y *158:4 9.3 
2 *158:4 *946:B 10.675 
3 *158:4 *158:15 0.946429 
4 *158:15 *944:B 9.72857 
5 *158:15 *943:B 12.3179 
*END

*D_NET *159 0.000232296
*CONN
*I *945:A I *D sky130_fd_sc_hd__nand2_1
*I *943:Y O *D sky130_fd_sc_hd__nand2_1
*CAP
1 *945:A 0.000116148
2 *943:Y 0.000116148
3 *945:A *945:B 0
4 *945:A *1452:A 0
5 *945:A *286:10 0
*RES
1 *943:Y *945:A 29.2429 
*END

*D_NET *160 0.000533889
*CONN
*I *1439:A I *D sky130_fd_sc_hd__inv_1
*I *1382:Y O *D sky130_fd_sc_hd__nand2_1
*CAP
1 *1439:A 0.000154064
2 *1382:Y 0.000154064
3 *1382:A *1439:A 5.7661e-06
4 *3:91 *1439:A 1.55885e-05
5 *3:104 *1439:A 0.000204406
*RES
1 *1382:Y *1439:A 21.8991 
*END

*D_NET *161 0.000589619
*CONN
*I *945:B I *D sky130_fd_sc_hd__nand2_1
*I *944:Y O *D sky130_fd_sc_hd__nand2_1
*CAP
1 *945:B 0.000101403
2 *944:Y 0.000101403
3 *945:B *1452:A 0.000154737
4 *945:B *396:8 0.000129868
5 *945:A *945:B 0
6 *15:102 *945:B 0.000102207
*RES
1 *944:Y *945:B 31.0107 
*END

*D_NET *162 0.00181484
*CONN
*I *1168:A I *D sky130_fd_sc_hd__nand2_1
*I *1169:A I *D sky130_fd_sc_hd__nand2_1
*I *945:Y O *D sky130_fd_sc_hd__nand2_1
*CAP
1 *1168:A 0.000256379
2 *1169:A 0.000169249
3 *945:Y 0.000116769
4 *162:6 0.000542397
5 *1168:A *277:10 7.83366e-05
6 *1168:A *286:10 5.35423e-05
7 *1169:A *286:10 5.16489e-05
8 *1169:A *383:14 9.80029e-05
9 *1169:A *396:8 0
10 *15:102 *1168:A 0.000259934
11 *15:102 *162:6 0.000188586
*RES
1 *945:Y *162:6 11.0679 
2 *162:6 *1169:A 22.3714 
3 *162:6 *1168:A 22.8357 
*END

*D_NET *163 0.000963708
*CONN
*I *1074:A I *D sky130_fd_sc_hd__nand2_1
*I *1073:A I *D sky130_fd_sc_hd__nand2_1
*I *946:Y O *D sky130_fd_sc_hd__nand2_1
*CAP
1 *1074:A 9.28703e-05
2 *1073:A 7.68951e-05
3 *946:Y 0.00012365
4 *163:10 0.000293415
5 *1074:A *1187:A 0.000120655
6 *1074:A *288:12 7.83366e-05
7 *163:10 *1187:A 6.5185e-05
8 *946:B *163:10 5.30637e-06
9 *1075:A *1074:A 0
10 *11:59 *163:10 5.19842e-06
11 *15:102 *1073:A 0.000102197
12 *91:8 *163:10 0
*RES
1 *946:Y *163:10 15.9786 
2 *163:10 *1073:A 15.5679 
3 *163:10 *1074:A 16.6571 
*END

*D_NET *164 0.0017503
*CONN
*I *948:B I *D sky130_fd_sc_hd__nand2_1
*I *949:B I *D sky130_fd_sc_hd__nand2_1
*I *956:A I *D sky130_fd_sc_hd__nand2_1
*I *947:Y O *D sky130_fd_sc_hd__nand2_1
*CAP
1 *948:B 9.41847e-06
2 *949:B 0
3 *956:A 0.000241653
4 *947:Y 0.000246958
5 *164:18 0.000323072
6 *164:14 0.000337795
7 *948:B *951:A 0
8 *948:B *951:B 3.99614e-06
9 *956:A *307:14 8.45034e-05
10 *164:14 *951:A 2.87485e-05
11 *164:14 *951:B 1.21289e-05
12 *164:14 *167:10 1.32552e-05
13 *164:18 *951:B 5.17614e-05
14 *842:A *956:A 0.000177941
15 *947:A *164:14 0.000197092
16 *947:B *956:A 1.91512e-05
17 *952:B *956:A 0
18 *50:10 *956:A 2.8266e-06
19 *64:10 *956:A 0
*RES
1 *947:Y *164:14 13.7107 
2 *164:14 *164:18 1.78571 
3 *164:18 *956:A 23.8179 
4 *164:18 *949:B 9.3 
5 *164:14 *948:B 9.72857 
*END

*D_NET *165 0.000413448
*CONN
*I *951:A I *D sky130_fd_sc_hd__nand2_1
*I *948:Y O *D sky130_fd_sc_hd__nand2_1
*CAP
1 *951:A 5.22915e-05
2 *948:Y 5.22915e-05
3 *951:A *951:B 5.75275e-05
4 *951:A *167:10 3.18676e-05
5 *947:A *951:A 0.000178593
6 *947:B *951:A 1.21289e-05
7 *948:B *951:A 0
8 *164:14 *951:A 2.87485e-05
*RES
1 *948:Y *951:A 20.7964 
*END

*D_NET *166 0.000469684
*CONN
*I *951:B I *D sky130_fd_sc_hd__nand2_1
*I *949:Y O *D sky130_fd_sc_hd__nand2_1
*CAP
1 *951:B 7.88009e-05
2 *949:Y 7.88009e-05
3 *947:B *951:B 0.000186669
4 *948:B *951:B 3.99614e-06
5 *951:A *951:B 5.75275e-05
6 *164:14 *951:B 1.21289e-05
7 *164:18 *951:B 5.17614e-05
*RES
1 *949:Y *951:B 21.2071 
*END

*D_NET *167 0.00178627
*CONN
*I *953:A I *D sky130_fd_sc_hd__nand2_1
*I *952:A I *D sky130_fd_sc_hd__nand2_1
*I *951:Y O *D sky130_fd_sc_hd__nand2_1
*CAP
1 *953:A 2.2654e-05
2 *952:A 0.000199769
3 *951:Y 0.000192134
4 *167:10 0.000414557
5 *952:A *953:B 8.46829e-05
6 *952:A *954:B 4.13886e-06
7 *952:A *955:A 5.52238e-05
8 *952:A *955:B 1.21289e-05
9 *952:A *956:B 2.78584e-05
10 *952:A *168:6 0.000144773
11 *953:A *306:12 5.59013e-05
12 *167:10 *306:12 0.000313465
13 *947:A *167:10 1.74352e-05
14 *947:B *167:10 0.00014285
15 *951:A *167:10 3.18676e-05
16 *952:B *953:A 4.1331e-06
17 *64:10 *953:A 1.59782e-05
18 *64:10 *167:10 3.34672e-05
19 *164:14 *167:10 1.32552e-05
*RES
1 *951:Y *167:10 19.2286 
2 *167:10 *952:A 17.9429 
3 *167:10 *953:A 14.5321 
*END

*D_NET *168 0.000653105
*CONN
*I *956:B I *D sky130_fd_sc_hd__nand2_1
*I *953:B I *D sky130_fd_sc_hd__nand2_1
*I *954:B I *D sky130_fd_sc_hd__nand2_1
*I *952:Y O *D sky130_fd_sc_hd__nand2_1
*CAP
1 *956:B 7.12819e-05
2 *953:B 3.28107e-05
3 *954:B 2.93238e-05
4 *952:Y 0.000102911
5 *168:6 9.37639e-05
6 *953:B *955:A 0
7 *953:B *955:B 4.83217e-05
8 *954:B *955:B 1.32387e-05
9 *956:B *980:A 0
10 *952:A *953:B 8.46829e-05
11 *952:A *954:B 4.13886e-06
12 *952:A *956:B 2.78584e-05
13 *952:A *168:6 0.000144773
*RES
1 *952:Y *168:6 10.6571 
2 *168:6 *954:B 10.3893 
3 *168:6 *953:B 10.675 
4 *952:Y *956:B 19.975 
*END

*D_NET *169 0.000335387
*CONN
*I *955:A I *D sky130_fd_sc_hd__nand2_1
*I *953:Y O *D sky130_fd_sc_hd__nand2_1
*CAP
1 *955:A 0.000108155
2 *953:Y 0.000108155
3 *955:A *955:B 5.45515e-05
4 *955:A *1075:B 3.99614e-06
5 *955:A *172:12 5.30637e-06
6 *952:A *955:A 5.52238e-05
7 *953:B *955:A 0
*RES
1 *953:Y *955:A 20.7964 
*END

*D_NET *170 0.0004037
*CONN
*I *955:B I *D sky130_fd_sc_hd__nand2_1
*I *954:Y O *D sky130_fd_sc_hd__nand2_1
*CAP
1 *955:B 0.00013773
2 *954:Y 0.00013773
3 *955:B *1075:B 0
4 *952:A *955:B 1.21289e-05
5 *953:B *955:B 4.83217e-05
6 *954:B *955:B 1.32387e-05
7 *955:A *955:B 5.45515e-05
*RES
1 *954:Y *955:B 21.2071 
*END

*D_NET *171 0.0010909
*CONN
*I *1036:A I *D sky130_fd_sc_hd__nand2_1
*I *1037:A I *D sky130_fd_sc_hd__nand2_1
*I *1439:Y O *D sky130_fd_sc_hd__inv_1
*CAP
1 *1036:A 1.1624e-05
2 *1037:A 0
3 *1439:Y 0.000332715
4 *171:14 0.000344339
5 *1036:A *1040:A 5.52238e-05
6 *1036:A *253:8 5.52238e-05
7 *171:14 *325:12 0.000101545
8 *171:14 *361:12 2.39876e-05
9 *171:14 *362:12 0
10 *3:104 *171:14 0.000166243
*RES
1 *1439:Y *171:14 23.5768 
2 *171:14 *1037:A 9.3 
3 *171:14 *1036:A 9.83571 
*END

*D_NET *172 0.00148927
*CONN
*I *1079:A I *D sky130_fd_sc_hd__nand2_1
*I *1077:B I *D sky130_fd_sc_hd__nand2_1
*I *955:Y O *D sky130_fd_sc_hd__nand2_1
*CAP
1 *1079:A 0
2 *1077:B 0.000230773
3 *955:Y 0.00029119
4 *172:12 0.000521964
5 *1077:B *1078:A 5.52238e-05
6 *1077:B *1080:A 1.74352e-05
7 *1077:B *1080:B 1.15172e-05
8 *1077:B *293:8 6.82839e-05
9 *1077:B *293:10 5.52302e-05
10 *172:12 *1075:B 0.000144773
11 *172:12 *1081:B 6.42338e-05
12 *172:12 *288:21 1.33343e-05
13 *172:12 *297:10 1.00073e-05
14 *955:A *172:12 5.30637e-06
*RES
1 *955:Y *172:12 22.5321 
2 *172:12 *1077:B 13.5679 
3 *172:12 *1079:A 9.3 
*END

*D_NET *173 0.000537598
*CONN
*I *981:B I *D sky130_fd_sc_hd__nand2_1
*I *984:A I *D sky130_fd_sc_hd__nand2_1
*I *956:Y O *D sky130_fd_sc_hd__nand2_1
*CAP
1 *981:B 9.713e-05
2 *984:A 0
3 *956:Y 4.73954e-05
4 *173:10 0.000144525
5 *981:B *984:B 5.7661e-06
6 *981:B *198:6 4.87953e-05
7 *173:10 *981:A 0.000127446
8 *173:10 *307:14 6.65398e-05
*RES
1 *956:Y *173:10 19.9429 
2 *173:10 *984:A 9.3 
3 *173:10 *981:B 11.5143 
*END

*D_NET *174 0.00104024
*CONN
*I *966:A I *D sky130_fd_sc_hd__nand2_1
*I *958:B I *D sky130_fd_sc_hd__nand2_1
*I *959:B I *D sky130_fd_sc_hd__nand2_1
*I *957:Y O *D sky130_fd_sc_hd__nand2_1
*CAP
1 *966:A 2.20238e-05
2 *958:B 2.4922e-05
3 *959:B 0.000140391
4 *957:Y 3.08752e-05
5 *174:12 0.000254598
6 *174:6 0.000142185
7 *966:A *966:B 3.57366e-05
8 *957:A *966:A 3.76337e-05
9 *957:A *174:6 1.74352e-05
10 *957:B *966:A 0
11 *959:A *959:B 0
12 *959:A *966:A 0
13 *4:9 *958:B 4.70981e-05
14 *4:9 *959:B 0.000180678
15 *6:26 *959:B 2.59355e-05
16 *7:50 *174:6 8.07313e-05
*RES
1 *957:Y *174:6 10.6571 
2 *174:6 *174:12 5.72321 
3 *174:12 *959:B 16.7375 
4 *174:12 *958:B 14.3804 
5 *174:6 *966:A 10.2643 
*END

*D_NET *175 0.000343299
*CONN
*I *960:A I *D sky130_fd_sc_hd__nand2_1
*I *958:Y O *D sky130_fd_sc_hd__nand2_1
*CAP
1 *960:A 0.000105289
2 *958:Y 0.000105289
3 *960:A *962:A 3.99614e-06
4 *960:A *966:B 4.35567e-05
5 *960:A *177:6 3.18676e-05
6 *957:A *960:A 5.33005e-05
7 *962:B *960:A 0
*RES
1 *958:Y *960:A 20.7964 
*END

*D_NET *176 0.000619879
*CONN
*I *960:B I *D sky130_fd_sc_hd__nand2_1
*I *959:Y O *D sky130_fd_sc_hd__nand2_1
*CAP
1 *960:B 0.000200234
2 *959:Y 0.000200234
3 *958:A *960:B 1.02504e-05
4 *3:15 *960:B 0
5 *4:9 *960:B 6.9253e-05
6 *6:26 *960:B 0.000139907
*RES
1 *959:Y *960:B 30.9036 
*END

*D_NET *177 0.000653336
*CONN
*I *963:A I *D sky130_fd_sc_hd__nand2_1
*I *962:A I *D sky130_fd_sc_hd__nand2_1
*I *960:Y O *D sky130_fd_sc_hd__nand2_1
*CAP
1 *963:A 4.69317e-05
2 *962:A 1.4261e-05
3 *960:Y 4.93954e-05
4 *177:6 0.000110588
5 *963:A *966:B 4.38128e-05
6 *963:A *178:17 0.000118806
7 *177:6 *966:B 0.000188586
8 *960:A *962:A 3.99614e-06
9 *960:A *177:6 3.18676e-05
10 *962:B *962:A 5.7661e-06
11 *962:B *963:A 3.93247e-05
*RES
1 *960:Y *177:6 11.0679 
2 *177:6 *962:A 9.72857 
3 *177:6 *963:A 11.0857 
*END

*D_NET *178 0.0015365
*CONN
*I *964:B I *D sky130_fd_sc_hd__nand2_1
*I *963:B I *D sky130_fd_sc_hd__nand2_1
*I *966:B I *D sky130_fd_sc_hd__nand2_1
*I *962:Y O *D sky130_fd_sc_hd__nand2_1
*CAP
1 *964:B 8.75102e-06
2 *963:B 0
3 *966:B 0.000125378
4 *962:Y 0
5 *178:17 6.43204e-05
6 *178:4 0.000180948
7 *957:A *966:B 1.97756e-05
8 *959:A *966:B 0
9 *960:A *966:B 4.35567e-05
10 *962:B *964:B 3.18676e-05
11 *962:B *178:17 2.07491e-05
12 *963:A *966:B 4.38128e-05
13 *963:A *178:17 0.000118806
14 *966:A *966:B 3.57366e-05
15 *7:50 *964:B 1.74352e-05
16 *7:50 *966:B 0.000442628
17 *7:50 *178:17 0.000172309
18 *153:8 *178:17 2.1842e-05
19 *177:6 *966:B 0.000188586
*RES
1 *962:Y *178:4 9.3 
2 *178:4 *966:B 14.2643 
3 *178:4 *178:17 2.5 
4 *178:17 *963:B 9.3 
5 *178:17 *964:B 9.83571 
*END

*D_NET *179 0.000763833
*CONN
*I *965:A I *D sky130_fd_sc_hd__nand2_1
*I *963:Y O *D sky130_fd_sc_hd__nand2_1
*CAP
1 *965:A 0.000357125
2 *963:Y 0.000357125
3 *962:B *965:A 6.27272e-06
4 *1437:A *965:A 2.83284e-06
5 *1437:B *965:A 1.94945e-05
6 *3:15 *965:A 2.09826e-05
*RES
1 *963:Y *965:A 35.525 
*END

*D_NET *180 0.000287576
*CONN
*I *965:B I *D sky130_fd_sc_hd__nand2_1
*I *964:Y O *D sky130_fd_sc_hd__nand2_1
*CAP
1 *965:B 0.000111977
2 *964:Y 0.000111977
3 *962:B *965:B 7.43578e-06
4 *1437:B *965:B 1.74852e-05
5 *153:8 *965:B 3.87013e-05
*RES
1 *964:Y *965:B 20.8143 
*END

*D_NET *181 0.00295008
*CONN
*I *1178:A I *D sky130_fd_sc_hd__nand2_1
*I *1179:A I *D sky130_fd_sc_hd__nand2_1
*I *965:Y O *D sky130_fd_sc_hd__nand2_1
*CAP
1 *1178:A 0
2 *1179:A 0.000154552
3 *965:Y 0.000616678
4 *181:14 0.000771231
5 *1179:A *1065:B 5.54817e-06
6 *1179:A *1179:B 0.000117206
7 *1179:A *1180:A 4.04224e-05
8 *1179:A *1181:A 4.13389e-05
9 *1179:A *1181:B 8.48678e-06
10 *1179:A *287:8 5.54817e-06
11 *1179:A *393:8 9.96487e-05
12 *1179:A *393:23 3.14003e-05
13 *181:14 *933:A 0
14 *1437:B *181:14 0.000863727
15 *3:51 *181:14 5.41794e-05
16 *3:70 *181:14 0.000140115
17 *148:29 *181:14 0
18 *152:14 *181:14 0
*RES
1 *965:Y *181:14 32.7821 
2 *181:14 *1179:A 22.2286 
3 *181:14 *1178:A 9.3 
*END

*D_NET *182 0.000265185
*CONN
*I *1461:A I *D sky130_fd_sc_hd__inv_1
*I *1450:Y O *D sky130_fd_sc_hd__nand2_1
*CAP
1 *1461:A 5.65822e-05
2 *1450:Y 5.65822e-05
3 *907:B *1461:A 7.53671e-05
4 *1450:B *1461:A 1.3701e-05
5 *3:91 *1461:A 6.2953e-05
*RES
1 *1450:Y *1461:A 20.2563 
*END

*D_NET *183 0.000897451
*CONN
*I *1089:A I *D sky130_fd_sc_hd__nand2_1
*I *1087:B I *D sky130_fd_sc_hd__nand2_1
*I *966:Y O *D sky130_fd_sc_hd__nand2_1
*CAP
1 *1089:A 0
2 *1087:B 8.82951e-05
3 *966:Y 0.000124831
4 *183:10 0.000213126
5 *1087:B *1088:A 4.80569e-05
6 *1087:B *1089:B 5.71472e-05
7 *1087:B *302:10 3.35602e-05
8 *864:A *1087:B 0
9 *4:9 *183:10 2.96981e-05
10 *16:35 *1087:B 0.000274288
11 *16:35 *183:10 2.84494e-05
*RES
1 *966:Y *183:10 20.2464 
2 *183:10 *1087:B 12.7464 
3 *183:10 *1089:A 9.3 
*END

*D_NET *184 0.00119195
*CONN
*I *968:B I *D sky130_fd_sc_hd__nand2_1
*I *969:B I *D sky130_fd_sc_hd__nand2_1
*I *976:A I *D sky130_fd_sc_hd__nand2_1
*I *967:Y O *D sky130_fd_sc_hd__nand2_1
*CAP
1 *968:B 0
2 *969:B 0
3 *976:A 1.79714e-05
4 *967:Y 0.000160518
5 *184:22 0.000200105
6 *184:10 0.000342651
7 *184:22 *970:B 5.33005e-05
8 *184:22 *187:12 9.15842e-06
9 *968:A *184:10 0.000144132
10 *968:A *184:22 1.00887e-05
11 *969:A *184:22 1.00599e-05
12 *5:49 *184:10 9.58689e-05
13 *15:88 *184:10 6.23427e-05
14 *15:88 *184:22 4.77165e-05
15 *18:36 *976:A 3.11088e-05
16 *18:36 *184:22 6.92966e-06
*RES
1 *967:Y *184:10 16.6929 
2 *184:10 *184:22 7.57143 
3 *184:22 *976:A 9.83571 
4 *184:22 *969:B 9.3 
5 *184:10 *968:B 13.8 
*END

*D_NET *185 0.000234417
*CONN
*I *970:A I *D sky130_fd_sc_hd__nand2_1
*I *968:Y O *D sky130_fd_sc_hd__nand2_1
*CAP
1 *970:A 3.60132e-05
2 *968:Y 3.60132e-05
3 *970:A *970:B 6.04228e-05
4 *969:A *970:A 0.000101967
*RES
1 *968:Y *970:A 19.975 
*END

*D_NET *186 0.00060848
*CONN
*I *970:B I *D sky130_fd_sc_hd__nand2_1
*I *969:Y O *D sky130_fd_sc_hd__nand2_1
*CAP
1 *970:B 0.00011691
2 *969:Y 0.00011691
3 *970:B *187:12 0.000141941
4 *969:A *970:B 0.000118996
5 *970:A *970:B 6.04228e-05
6 *184:22 *970:B 5.33005e-05
*RES
1 *969:Y *970:B 22.0286 
*END

*D_NET *187 0.00127062
*CONN
*I *973:A I *D sky130_fd_sc_hd__nand2_1
*I *971:A I *D sky130_fd_sc_hd__nand2_1
*I *970:Y O *D sky130_fd_sc_hd__nand2_1
*CAP
1 *973:A 0
2 *971:A 8.54554e-05
3 *970:Y 0.000315738
4 *187:12 0.000401193
5 *971:A *973:B 4.50908e-05
6 *971:A *974:B 0
7 *971:A *975:A 4.22908e-05
8 *971:A *975:B 1.02936e-05
9 *971:A *191:10 5.52302e-05
10 *187:12 *307:14 0
11 *970:B *187:12 0.000141941
12 *15:88 *187:12 0.000164226
13 *184:22 *187:12 9.15842e-06
*RES
1 *970:Y *187:12 24.0321 
2 *187:12 *971:A 11.5143 
3 *187:12 *973:A 9.3 
*END

*D_NET *188 0.00121325
*CONN
*I *976:B I *D sky130_fd_sc_hd__nand2_1
*I *974:B I *D sky130_fd_sc_hd__nand2_1
*I *973:B I *D sky130_fd_sc_hd__nand2_1
*I *971:Y O *D sky130_fd_sc_hd__nand2_1
*CAP
1 *976:B 0.0001833
2 *974:B 0.000125074
3 *973:B 3.36723e-05
4 *971:Y 9.6132e-05
5 *188:20 0.000370834
6 *973:B *975:A 9.7049e-06
7 *973:B *975:B 9.90367e-05
8 *974:B *975:B 5.71472e-05
9 *188:20 *975:B 8.76257e-05
10 *971:A *973:B 4.50908e-05
11 *971:A *974:B 0
12 *7:44 *976:B 0.000105632
*RES
1 *971:Y *973:B 19.975 
2 *971:Y *188:20 10.2464 
3 *188:20 *974:B 11.2821 
4 *188:20 *976:B 22.3714 
*END

*D_NET *189 0.00024135
*CONN
*I *975:A I *D sky130_fd_sc_hd__nand2_1
*I *973:Y O *D sky130_fd_sc_hd__nand2_1
*CAP
1 *975:A 2.70662e-05
2 *973:Y 2.70662e-05
3 *975:A *975:B 0.000117787
4 *975:A *191:10 1.74352e-05
5 *971:A *975:A 4.22908e-05
6 *973:B *975:A 9.7049e-06
*RES
1 *973:Y *975:A 19.975 
*END

*D_NET *190 0.000859156
*CONN
*I *975:B I *D sky130_fd_sc_hd__nand2_1
*I *974:Y O *D sky130_fd_sc_hd__nand2_1
*CAP
1 *975:B 0.000229182
2 *974:Y 0.000229182
3 *971:A *975:B 1.02936e-05
4 *973:B *975:B 9.90367e-05
5 *974:A *975:B 2.89016e-05
6 *974:B *975:B 5.71472e-05
7 *975:A *975:B 0.000117787
8 *188:20 *975:B 8.76257e-05
*RES
1 *974:Y *975:B 23.5643 
*END

*D_NET *191 0.00125233
*CONN
*I *1085:A I *D sky130_fd_sc_hd__nand2_1
*I *1082:B I *D sky130_fd_sc_hd__nand2_1
*I *975:Y O *D sky130_fd_sc_hd__nand2_1
*CAP
1 *1085:A 0
2 *1082:B 0.000134648
3 *975:Y 0.000144476
4 *191:10 0.000279123
5 *1082:B *1084:B 6.68521e-05
6 *1082:B *1086:A 0
7 *1082:B *298:10 4.13595e-05
8 *191:10 *1086:A 0
9 *191:10 *307:14 0
10 *971:A *191:10 5.52302e-05
11 *975:A *191:10 1.74352e-05
12 *1084:A *1082:B 7.24887e-05
13 *15:88 *1082:B 0.000182386
14 *15:88 *191:10 0.000114759
15 *16:35 *1082:B 1.95646e-05
16 *106:12 *1082:B 0.00012401
*RES
1 *975:Y *191:10 16.3893 
2 *191:10 *1082:B 18.1393 
3 *191:10 *1085:A 13.8 
*END

*D_NET *192 0.00125888
*CONN
*I *1003:A I *D sky130_fd_sc_hd__nand2_1
*I *1001:B I *D sky130_fd_sc_hd__nand2_1
*I *976:Y O *D sky130_fd_sc_hd__nand2_1
*CAP
1 *1003:A 0.000132411
2 *1001:B 0.00021911
3 *976:Y 0
4 *192:4 0.000351522
5 *1001:B *999:B 4.00665e-05
6 *1001:B *1006:A 1.00332e-05
7 *1003:A *1004:A 3.29297e-05
8 *7:44 *1001:B 0.000146398
9 *15:88 *1003:A 5.49657e-05
10 *18:36 *1001:B 0.000227971
11 *18:36 *1003:A 4.34677e-05
*RES
1 *976:Y *192:4 9.3 
2 *192:4 *1001:B 22.425 
3 *192:4 *1003:A 20.7821 
*END

*D_NET *193 0.000849679
*CONN
*I *906:A I *D sky130_fd_sc_hd__nand2_1
*I *907:A I *D sky130_fd_sc_hd__nand2_1
*I *1461:Y O *D sky130_fd_sc_hd__inv_1
*CAP
1 *906:A 0.000114686
2 *907:A 4.78167e-05
3 *1461:Y 0.000162503
4 *906:A *906:B 7.8327e-05
5 *906:A *382:12 5.48488e-05
6 *907:B *907:A 0.0002046
7 *3:91 *906:A 7.86048e-05
8 *3:91 *907:A 0.000108293
*RES
1 *1461:Y *907:A 20.5732 
2 *1461:Y *906:A 30.2875 
*END

*D_NET *194 0.00141254
*CONN
*I *986:A I *D sky130_fd_sc_hd__nand2_1
*I *979:B I *D sky130_fd_sc_hd__nand2_1
*I *978:B I *D sky130_fd_sc_hd__nand2_1
*I *977:Y O *D sky130_fd_sc_hd__nand2_1
*CAP
1 *986:A 0.000118254
2 *979:B 2.51172e-05
3 *978:B 0
4 *977:Y 0.000211017
5 *194:18 9.70425e-05
6 *194:14 0.000401196
7 *986:A *980:A 4.80729e-05
8 *986:A *980:B 4.25619e-05
9 *986:A *1099:A 5.80706e-06
10 *986:A *221:14 6.39262e-05
11 *986:A *222:22 0
12 *986:A *311:10 0
13 *194:14 *980:A 9.31209e-05
14 *194:14 *197:6 9.99644e-06
15 *194:14 *221:14 3.92757e-05
16 *194:14 *307:14 7.83587e-05
17 *194:18 *980:A 8.00806e-05
18 *194:18 *980:B 3.92757e-05
19 *194:18 *221:14 2.47186e-05
20 *194:18 *222:22 0
21 *978:A *194:18 5.80706e-06
22 *15:102 *979:B 2.89114e-05
*RES
1 *977:Y *194:14 26.0143 
2 *194:14 *194:18 6.44643 
3 *194:18 *978:B 9.3 
4 *194:18 *979:B 9.83571 
5 *194:14 *986:A 16.9607 
*END

*D_NET *195 0.000653142
*CONN
*I *980:A I *D sky130_fd_sc_hd__nand2_1
*I *978:Y O *D sky130_fd_sc_hd__nand2_1
*CAP
1 *980:A 0.000201478
2 *978:Y 0.000201478
3 *980:A *197:6 2.89114e-05
4 *980:A *222:22 0
5 *956:B *980:A 0
6 *986:A *980:A 4.80729e-05
7 *194:14 *980:A 9.31209e-05
8 *194:18 *980:A 8.00806e-05
*RES
1 *978:Y *980:A 31.85 
*END

*D_NET *196 0.000349366
*CONN
*I *980:B I *D sky130_fd_sc_hd__nand2_1
*I *979:Y O *D sky130_fd_sc_hd__nand2_1
*CAP
1 *980:B 5.88087e-05
2 *979:Y 5.88087e-05
3 *980:B *221:14 0.000149911
4 *986:A *980:B 4.25619e-05
5 *194:18 *980:B 3.92757e-05
*RES
1 *979:Y *980:B 29.5464 
*END

*D_NET *197 0.00110069
*CONN
*I *981:A I *D sky130_fd_sc_hd__nand2_1
*I *982:A I *D sky130_fd_sc_hd__nand2_1
*I *980:Y O *D sky130_fd_sc_hd__nand2_1
*CAP
1 *981:A 0.000214024
2 *982:A 5.75647e-05
3 *980:Y 8.95831e-05
4 *197:6 0.000361172
5 *981:A *307:14 7.80714e-06
6 *982:A *221:14 5.35516e-05
7 *982:A *307:14 0.000150632
8 *980:A *197:6 2.89114e-05
9 *173:10 *981:A 0.000127446
10 *194:14 *197:6 9.99644e-06
*RES
1 *980:Y *197:6 10.6571 
2 *197:6 *982:A 20.2464 
3 *197:6 *981:A 22.0143 
*END

*D_NET *198 0.000654049
*CONN
*I *984:B I *D sky130_fd_sc_hd__nand2_1
*I *982:B I *D sky130_fd_sc_hd__nand2_1
*I *986:B I *D sky130_fd_sc_hd__nand2_1
*I *981:Y O *D sky130_fd_sc_hd__nand2_1
*CAP
1 *984:B 9.15136e-06
2 *982:B 0
3 *986:B 6.0656e-05
4 *981:Y 0.000114777
5 *198:10 0.000175815
6 *198:6 0.000239088
7 *198:10 *202:8 0
8 *981:B *984:B 5.7661e-06
9 *981:B *198:6 4.87953e-05
*RES
1 *981:Y *198:6 11.0679 
2 *198:6 *198:10 1.78571 
3 *198:10 *986:B 10.2464 
4 *198:10 *982:B 9.3 
5 *198:6 *984:B 9.72857 
*END

*D_NET *199 0.000732822
*CONN
*I *985:A I *D sky130_fd_sc_hd__nand2_1
*I *982:Y O *D sky130_fd_sc_hd__nand2_1
*CAP
1 *985:A 0.000245592
2 *982:Y 0.000245592
3 *985:A *985:B 9.90431e-05
4 *985:A *201:12 5.30637e-06
5 *985:A *221:14 6.97972e-05
6 *985:A *307:14 6.74911e-05
*RES
1 *982:Y *985:A 32.6714 
*END

*D_NET *200 0.000493324
*CONN
*I *985:B I *D sky130_fd_sc_hd__nand2_1
*I *984:Y O *D sky130_fd_sc_hd__nand2_1
*CAP
1 *985:B 0.000120971
2 *984:Y 0.000120971
3 *985:B *307:14 0.00015234
4 *985:A *985:B 9.90431e-05
*RES
1 *984:Y *985:B 30.4929 
*END

*D_NET *201 0.00164342
*CONN
*I *1189:A I *D sky130_fd_sc_hd__nand2_1
*I *1188:A I *D sky130_fd_sc_hd__nand2_1
*I *985:Y O *D sky130_fd_sc_hd__nand2_1
*CAP
1 *1189:A 0.000192345
2 *1188:A 0
3 *985:Y 0.000361842
4 *201:12 0.000554186
5 *1189:A *1189:B 7.45235e-05
6 *1189:A *1190:B 5.52238e-05
7 *1189:A *1191:B 0.000230482
8 *1189:A *403:6 4.13595e-05
9 *1189:A *403:8 0
10 *201:12 *306:12 0.000128154
11 *985:A *201:12 5.30637e-06
*RES
1 *985:Y *201:12 23.3536 
2 *201:12 *1188:A 9.3 
3 *201:12 *1189:A 13.9786 
*END

*D_NET *202 0.000798749
*CONN
*I *1097:B I *D sky130_fd_sc_hd__nand2_1
*I *1099:A I *D sky130_fd_sc_hd__nand2_1
*I *986:Y O *D sky130_fd_sc_hd__nand2_1
*CAP
1 *1097:B 0
2 *1099:A 0.000187885
3 *986:Y 0.000110074
4 *202:8 0.000297959
5 *1099:A *1098:A 9.24299e-05
6 *1099:A *1098:B 5.52238e-05
7 *1099:A *1100:B 2.89016e-05
8 *1099:A *221:14 0
9 *1099:A *311:10 5.80706e-06
10 *1099:A *312:12 1.46624e-05
11 *986:A *1099:A 5.80706e-06
12 *198:10 *202:8 0
*RES
1 *986:Y *202:8 11.0857 
2 *202:8 *1099:A 21.6929 
3 *202:8 *1097:B 9.3 
*END

*D_NET *203 0.00185438
*CONN
*I *996:A I *D sky130_fd_sc_hd__nand2_1
*I *988:B I *D sky130_fd_sc_hd__nand2_1
*I *989:B I *D sky130_fd_sc_hd__nand2_1
*I *987:Y O *D sky130_fd_sc_hd__nand2_1
*CAP
1 *996:A 0.000199843
2 *988:B 3.1388e-05
3 *989:B 0.000175299
4 *987:Y 0
5 *203:21 0.000274876
6 *203:4 0.000218943
7 *988:B *990:A 5.33005e-05
8 *988:B *990:B 5.61281e-05
9 *987:B *996:A 7.83587e-05
10 *987:B *203:21 0.000100831
11 *988:A *996:A 2.41865e-05
12 *988:A *203:21 9.91086e-05
13 *989:A *988:B 5.7661e-06
14 *1405:A *989:B 0.000129868
15 *1444:A *989:B 0.000128154
16 *1444:A *996:A 5.53312e-05
17 *1459:B *996:A 7.2754e-05
18 *1460:A *989:B 1.65822e-05
19 *7:23 *996:A 0
20 *7:40 *996:A 7.3237e-05
21 *18:19 *989:B 1.99876e-05
22 *40:6 *989:B 4.04353e-05
*RES
1 *987:Y *203:4 9.3 
2 *203:4 *989:B 21.7107 
3 *203:4 *203:21 5.83929 
4 *203:21 *988:B 14.7643 
5 *203:21 *996:A 18.3179 
*END

*D_NET *204 0.00184352
*CONN
*I *839:A I *D sky130_fd_sc_hd__inv_1
*I *828:Y O *D sky130_fd_sc_hd__nand2_1
*CAP
1 *839:A 0.000413227
2 *828:Y 0.000413227
3 *839:A *1064:B 3.14078e-05
4 *839:A *1066:A 6.96784e-05
5 *839:A *282:12 1.45274e-05
6 *828:A *839:A 5.33005e-05
7 *1063:B *839:A 0.000225616
8 *1064:A *839:A 6.87574e-05
9 *3:51 *839:A 9.41642e-05
10 *82:6 *839:A 9.16074e-05
11 *137:6 *839:A 0.000368012
*RES
1 *828:Y *839:A 29.7027 
*END

*D_NET *205 0.000420159
*CONN
*I *990:A I *D sky130_fd_sc_hd__nand2_1
*I *988:Y O *D sky130_fd_sc_hd__nand2_1
*CAP
1 *990:A 6.49525e-05
2 *988:Y 6.49525e-05
3 *990:A *990:B 2.13661e-05
4 *990:A *207:8 3.18676e-05
5 *988:B *990:A 5.33005e-05
6 *989:A *990:A 5.33005e-05
7 *54:6 *990:A 0.000130419
*RES
1 *988:Y *990:A 20.7964 
*END

*D_NET *206 0.0005261
*CONN
*I *990:B I *D sky130_fd_sc_hd__nand2_1
*I *989:Y O *D sky130_fd_sc_hd__nand2_1
*CAP
1 *990:B 0.000206787
2 *989:Y 0.000206787
3 *988:B *990:B 5.61281e-05
4 *989:A *990:B 2.50239e-05
5 *990:A *990:B 2.13661e-05
6 *1459:B *990:B 1.00073e-05
*RES
1 *989:Y *990:B 22.0643 
*END

*D_NET *207 0.0012568
*CONN
*I *992:A I *D sky130_fd_sc_hd__nand2_1
*I *991:A I *D sky130_fd_sc_hd__nand2_1
*I *990:Y O *D sky130_fd_sc_hd__nand2_1
*CAP
1 *992:A 0.00014385
2 *991:A 0
3 *990:Y 0.000234953
4 *207:8 0.000378803
5 *992:A *208:10 0.000149911
6 *832:A *207:8 7.1802e-05
7 *847:A *207:8 0
8 *848:B *992:A 0.000114121
9 *990:A *207:8 3.18676e-05
10 *8:40 *992:A 5.71472e-05
11 *8:40 *207:8 4.89952e-05
12 *54:6 *207:8 2.53449e-05
13 *121:14 *992:A 0
*RES
1 *990:Y *207:8 13.55 
2 *207:8 *991:A 9.3 
3 *207:8 *992:A 22.2286 
*END

*D_NET *208 0.00111977
*CONN
*I *993:B I *D sky130_fd_sc_hd__nand2_1
*I *992:B I *D sky130_fd_sc_hd__nand2_1
*I *996:B I *D sky130_fd_sc_hd__nand2_1
*I *991:Y O *D sky130_fd_sc_hd__nand2_1
*CAP
1 *993:B 6.41791e-05
2 *992:B 0
3 *996:B 0.000135798
4 *991:Y 0.00011982
5 *208:14 0.0001828
6 *208:10 0.000231001
7 *993:B *995:A 4.27437e-05
8 *993:B *995:B 0
9 *208:14 *995:A 6.05161e-06
10 *848:B *208:10 7.79781e-06
11 *992:A *208:10 0.000149911
12 *7:40 *996:B 0.000169383
13 *7:40 *208:14 1.02821e-05
14 *121:14 *208:10 0
*RES
1 *991:Y *208:10 20.55 
2 *208:10 *208:14 0.964286 
3 *208:14 *996:B 12.3 
4 *208:14 *992:B 9.3 
5 *208:10 *993:B 10.675 
*END

*D_NET *209 0.000746454
*CONN
*I *995:A I *D sky130_fd_sc_hd__nand2_1
*I *992:Y O *D sky130_fd_sc_hd__nand2_1
*CAP
1 *995:A 0.000136288
2 *992:Y 0.000136288
3 *995:A *995:B 7.56455e-05
4 *993:B *995:A 4.27437e-05
5 *7:40 *995:A 0.000349438
6 *208:14 *995:A 6.05161e-06
*RES
1 *992:Y *995:A 22.4393 
*END

*D_NET *210 0.000278497
*CONN
*I *995:B I *D sky130_fd_sc_hd__nand2_1
*I *993:Y O *D sky130_fd_sc_hd__nand2_1
*CAP
1 *995:B 0.000101426
2 *993:Y 0.000101426
3 *993:B *995:B 0
4 *995:A *995:B 7.56455e-05
*RES
1 *993:Y *995:B 20.3857 
*END

*D_NET *211 0.00112602
*CONN
*I *1092:B I *D sky130_fd_sc_hd__nand2_1
*I *1095:A I *D sky130_fd_sc_hd__nand2_1
*I *995:Y O *D sky130_fd_sc_hd__nand2_1
*CAP
1 *1092:B 0
2 *1095:A 9.26457e-05
3 *995:Y 0.000206071
4 *211:12 0.000298716
5 *1093:A *1095:A 7.2373e-05
6 *9:39 *1095:A 8.36642e-05
7 *10:45 *211:12 5.93525e-05
8 *121:14 *211:12 0.000313198
*RES
1 *995:Y *211:12 22.9429 
2 *211:12 *1095:A 21.1571 
3 *211:12 *1092:B 9.3 
*END

*D_NET *212 0.002254
*CONN
*I *1103:A I *D sky130_fd_sc_hd__nand2_1
*I *1102:A I *D sky130_fd_sc_hd__nand2_1
*I *996:Y O *D sky130_fd_sc_hd__nand2_1
*CAP
1 *1103:A 0.000110846
2 *1102:A 0
3 *996:Y 0.000429425
4 *212:8 0.000540271
5 *1103:A *1104:A 1.79746e-05
6 *1103:A *1111:A 4.46186e-06
7 *1103:A *318:10 6.19181e-05
8 *212:8 *1104:A 5.80706e-06
9 *212:8 *231:10 8.15939e-05
10 *212:8 *232:16 0
11 *1459:B *212:8 0.000308294
12 *10:30 *1103:A 0
13 *10:30 *212:8 0
14 *15:22 *212:8 0.000201676
15 *122:12 *212:8 0.000491735
*RES
1 *996:Y *212:8 27.8893 
2 *212:8 *1102:A 13.8 
3 *212:8 *1103:A 16.05 
*END

*D_NET *213 0.00189394
*CONN
*I *998:B I *D sky130_fd_sc_hd__nand2_1
*I *1006:A I *D sky130_fd_sc_hd__nand2_1
*I *999:B I *D sky130_fd_sc_hd__nand2_1
*I *997:Y O *D sky130_fd_sc_hd__nand2_1
*CAP
1 *998:B 0
2 *1006:A 0.000256238
3 *999:B 0.000241524
4 *997:Y 0.000224464
5 *213:10 0.000497762
6 *213:8 0.000224464
7 *213:8 *1000:A 1.59373e-05
8 *213:8 *1001:A 9.35228e-06
9 *213:8 *217:6 9.35114e-06
10 *213:8 *218:21 0
11 *895:A *1006:A 3.10608e-05
12 *997:A *213:8 0.000200499
13 *1001:B *999:B 4.00665e-05
14 *1001:B *1006:A 1.00332e-05
15 *7:44 *1006:A 5.4043e-05
16 *18:36 *999:B 7.32756e-05
17 *107:12 *999:B 2.38651e-06
18 *112:14 *999:B 3.4846e-06
*RES
1 *997:Y *213:8 12.6214 
2 *213:8 *213:10 4.5 
3 *213:10 *999:B 18.0143 
4 *213:10 *1006:A 17.6571 
5 *213:8 *998:B 9.3 
*END

*D_NET *214 0.000235124
*CONN
*I *1000:A I *D sky130_fd_sc_hd__nand2_1
*I *998:Y O *D sky130_fd_sc_hd__nand2_1
*CAP
1 *1000:A 3.50518e-05
2 *998:Y 3.50518e-05
3 *1000:A *1001:A 0
4 *1000:A *217:6 9.99853e-05
5 *997:A *1000:A 4.36339e-05
6 *997:B *1000:A 5.46383e-06
7 *213:8 *1000:A 1.59373e-05
*RES
1 *998:Y *1000:A 19.975 
*END

*D_NET *215 0.00155797
*CONN
*I *911:A I *D sky130_fd_sc_hd__nand2_1
*I *912:A I *D sky130_fd_sc_hd__nand2_1
*I *839:Y O *D sky130_fd_sc_hd__inv_1
*CAP
1 *911:A 8.19279e-05
2 *912:A 0.000101872
3 *839:Y 0.000102546
4 *215:6 0.000286346
5 *911:A *911:B 0.000238454
6 *912:A *911:B 2.04866e-05
7 *215:6 *911:B 9.41642e-05
8 *913:B *912:A 1.04232e-05
9 *914:A *912:A 6.29133e-05
10 *915:A *911:A 5.33005e-05
11 *917:A *912:A 2.31791e-05
12 *920:A *215:6 6.17358e-05
13 *15:110 *912:A 1.41029e-05
14 *129:6 *911:A 3.30352e-05
15 *129:23 *912:A 0.000103253
16 *132:10 *912:A 0.000132446
17 *133:8 *911:A 3.37161e-05
18 *133:8 *215:6 2.89016e-05
19 *133:14 *912:A 3.34295e-05
20 *137:6 *215:6 4.17413e-05
*RES
1 *839:Y *215:6 11.6839 
2 *215:6 *912:A 21.5143 
3 *215:6 *911:A 11.9071 
*END

*D_NET *216 0.000445304
*CONN
*I *1000:B I *D sky130_fd_sc_hd__nand2_1
*I *999:Y O *D sky130_fd_sc_hd__nand2_1
*CAP
1 *1000:B 0.000126163
2 *999:Y 0.000126163
3 *1000:B *217:6 6.05161e-06
4 *997:A *1000:B 5.49489e-05
5 *997:B *1000:B 0.000114384
6 *5:49 *1000:B 8.43535e-06
7 *112:14 *1000:B 9.15842e-06
*RES
1 *999:Y *1000:B 30.0821 
*END

*D_NET *217 0.000820487
*CONN
*I *1002:A I *D sky130_fd_sc_hd__nand2_1
*I *1001:A I *D sky130_fd_sc_hd__nand2_1
*I *1000:Y O *D sky130_fd_sc_hd__nand2_1
*CAP
1 *1002:A 7.13454e-05
2 *1001:A 2.42342e-05
3 *1000:Y 5.81417e-05
4 *217:6 0.000153721
5 *1002:A *218:6 2.10756e-05
6 *1002:A *218:21 5.46383e-06
7 *997:A *217:6 9.77264e-06
8 *1000:A *1001:A 0
9 *1000:A *217:6 9.99853e-05
10 *1000:B *217:6 6.05161e-06
11 *5:49 *1002:A 0.000125997
12 *5:49 *217:6 0.000225995
13 *213:8 *1001:A 9.35228e-06
14 *213:8 *217:6 9.35114e-06
*RES
1 *1000:Y *217:6 11.4786 
2 *217:6 *1001:A 10.0321 
3 *217:6 *1002:A 11.3893 
*END

*D_NET *218 0.000799671
*CONN
*I *1003:B I *D sky130_fd_sc_hd__nand2_1
*I *1002:B I *D sky130_fd_sc_hd__nand2_1
*I *1006:B I *D sky130_fd_sc_hd__nand2_1
*I *1001:Y O *D sky130_fd_sc_hd__nand2_1
*CAP
1 *1003:B 1.64901e-05
2 *1002:B 0
3 *1006:B 5.85915e-05
4 *1001:Y 0.000118729
5 *218:21 9.05299e-05
6 *218:6 0.000251361
7 *1003:B *1004:A 5.66971e-05
8 *1006:B *1004:B 3.79336e-05
9 *218:6 *1004:A 4.93118e-06
10 *218:21 *1004:A 1.12713e-05
11 *1002:A *218:6 2.10756e-05
12 *1002:A *218:21 5.46383e-06
13 *5:49 *218:6 2.57826e-06
14 *7:44 *1006:B 0.000124019
15 *213:8 *218:21 0
*RES
1 *1001:Y *218:6 10.6571 
2 *218:6 *1006:B 19.9429 
3 *218:6 *218:21 1.26786 
4 *218:21 *1002:B 9.3 
5 *218:21 *1003:B 9.83571 
*END

*D_NET *219 0.000814438
*CONN
*I *1004:A I *D sky130_fd_sc_hd__nand2_1
*I *1002:Y O *D sky130_fd_sc_hd__nand2_1
*CAP
1 *1004:A 0.000160301
2 *1002:Y 0.000160301
3 *1004:A *1004:B 5.79792e-05
4 *1004:A *222:22 1.00887e-05
5 *1003:A *1004:A 3.29297e-05
6 *1003:B *1004:A 5.66971e-05
7 *5:49 *1004:A 0.000122554
8 *15:88 *1004:A 0.000197385
9 *218:6 *1004:A 4.93118e-06
10 *218:21 *1004:A 1.12713e-05
*RES
1 *1002:Y *1004:A 32.3321 
*END

*D_NET *220 0.000228543
*CONN
*I *1004:B I *D sky130_fd_sc_hd__nand2_1
*I *1003:Y O *D sky130_fd_sc_hd__nand2_1
*CAP
1 *1004:B 6.12708e-05
2 *1003:Y 6.12708e-05
3 *1004:B *222:22 1.00887e-05
4 *1004:A *1004:B 5.79792e-05
5 *1006:B *1004:B 3.79336e-05
*RES
1 *1003:Y *1004:B 29.2429 
*END

*D_NET *221 0.00397304
*CONN
*I *1198:A I *D sky130_fd_sc_hd__nand2_1
*I *1199:A I *D sky130_fd_sc_hd__nand2_1
*I *1004:Y O *D sky130_fd_sc_hd__nand2_1
*CAP
1 *1198:A 2.58317e-05
2 *1199:A 0.000176148
3 *1004:Y 0.00109333
4 *221:14 0.00129531
5 *1198:A *412:10 2.28598e-05
6 *1199:A *1199:B 2.82057e-05
7 *1199:A *1200:A 0
8 *1199:A *316:10 4.59075e-05
9 *1199:A *317:12 0
10 *1199:A *412:10 7.98646e-05
11 *221:14 *1100:A 0.000128154
12 *221:14 *222:22 1.02301e-05
13 *221:14 *307:14 0.000277687
14 *829:A *221:14 0
15 *830:A *221:14 0.000116209
16 *893:B *221:14 0
17 *977:A *221:14 0.000128154
18 *978:A *221:14 0
19 *980:B *221:14 0.000149911
20 *982:A *221:14 5.35516e-05
21 *985:A *221:14 6.97972e-05
22 *986:A *221:14 6.39262e-05
23 *1099:A *221:14 0
24 *9:67 *221:14 0
25 *13:9 *221:14 3.74808e-05
26 *13:18 *221:14 2.97489e-05
27 *15:88 *221:14 0
28 *52:10 *221:14 7.67334e-05
29 *194:14 *221:14 3.92757e-05
30 *194:18 *221:14 2.47186e-05
*RES
1 *1004:Y *221:14 41.9964 
2 *221:14 *1199:A 22.2286 
3 *221:14 *1198:A 9.83571 
*END

*D_NET *222 0.00480849
*CONN
*I *1209:A I *D sky130_fd_sc_hd__nand2_1
*I *1208:A I *D sky130_fd_sc_hd__nand2_1
*I *1006:Y O *D sky130_fd_sc_hd__nand2_1
*CAP
1 *1209:A 0
2 *1208:A 6.83142e-05
3 *1006:Y 0.00128094
4 *222:22 0.00134925
5 *1208:A *1208:B 5.7661e-06
6 *1208:A *1210:A 4.22908e-05
7 *1208:A *1210:B 3.93247e-05
8 *1208:A *422:8 0.000206432
9 *222:22 *1098:A 2.59795e-05
10 *222:22 *1101:A 0.000100913
11 *222:22 *1443:A 3.98018e-05
12 *222:22 *311:10 4.57445e-05
13 *222:22 *312:12 8.39e-05
14 *222:22 *317:12 0.000367377
15 *890:B *222:22 2.39779e-05
16 *893:A *222:22 0.000150625
17 *895:A *222:22 9.09968e-05
18 *978:A *222:22 0
19 *980:A *222:22 0
20 *986:A *222:22 0
21 *1004:A *222:22 1.00887e-05
22 *1004:B *222:22 1.00887e-05
23 *7:44 *222:22 0
24 *13:9 *222:22 4.4545e-05
25 *15:62 *222:22 0.000150857
26 *15:66 *222:22 0.000123903
27 *15:88 *222:22 0.000413853
28 *108:34 *222:22 0.000123295
29 *194:18 *222:22 0
30 *221:14 *222:22 1.02301e-05
*RES
1 *1006:Y *222:22 49.7821 
2 *222:22 *1208:A 11.925 
3 *222:22 *1209:A 9.3 
*END

*D_NET *223 0.0017201
*CONN
*I *1015:A I *D sky130_fd_sc_hd__nand2_1
*I *1008:B I *D sky130_fd_sc_hd__nand2_1
*I *1009:B I *D sky130_fd_sc_hd__nand2_1
*I *1007:Y O *D sky130_fd_sc_hd__nand2_1
*CAP
1 *1015:A 8.75949e-05
2 *1008:B 5.1096e-06
3 *1009:B 9.55862e-05
4 *1007:Y 0.000142913
5 *223:16 0.000207378
6 *223:10 0.00033719
7 *1008:B *1010:A 1.3701e-05
8 *1009:B *1010:B 4.87953e-05
9 *1015:A *1014:A 2.59355e-05
10 *1015:A *1015:B 5.33005e-05
11 *1015:A *227:12 4.75812e-05
12 *1015:A *232:16 5.41794e-05
13 *223:10 *1007:A 7.43578e-06
14 *223:10 *1008:A 4.25809e-05
15 *223:16 *1010:A 0.000104956
16 *223:16 *1010:B 4.35367e-05
17 *223:16 *227:12 5.71472e-05
18 *1459:B *1015:A 9.25014e-06
19 *1459:B *223:10 0.000173804
20 *7:13 *1015:A 0
21 *7:13 *223:10 0
22 *15:22 *1015:A 0.000162125
*RES
1 *1007:Y *223:10 16.5857 
2 *223:10 *223:16 7.10714 
3 *223:16 *1009:B 11.0857 
4 *223:16 *1008:B 9.72857 
5 *223:10 *1015:A 16.5857 
*END

*D_NET *224 0.000246178
*CONN
*I *1010:A I *D sky130_fd_sc_hd__nand2_1
*I *1008:Y O *D sky130_fd_sc_hd__nand2_1
*CAP
1 *1010:A 3.49969e-05
2 *1008:Y 3.49969e-05
3 *1010:A *1010:B 5.75275e-05
4 *1008:B *1010:A 1.3701e-05
5 *15:47 *1010:A 0
6 *223:16 *1010:A 0.000104956
*RES
1 *1008:Y *1010:A 19.975 
*END

*D_NET *225 0.000536026
*CONN
*I *1010:B I *D sky130_fd_sc_hd__nand2_1
*I *1009:Y O *D sky130_fd_sc_hd__nand2_1
*CAP
1 *1010:B 0.000191686
2 *1009:Y 0.000191686
3 *1009:B *1010:B 4.87953e-05
4 *1010:A *1010:B 5.75275e-05
5 *15:47 *1010:B 2.79509e-06
6 *223:16 *1010:B 4.35367e-05
*RES
1 *1009:Y *1010:B 22.0286 
*END

*D_NET *226 0.000314489
*CONN
*I *861:A I *D sky130_fd_sc_hd__inv_1
*I *850:Y O *D sky130_fd_sc_hd__nand2_1
*CAP
1 *861:A 0.000104659
2 *850:Y 0.000104659
3 *3:23 *861:A 0.000105171
*RES
1 *850:Y *861:A 20.667 
*END

*D_NET *227 0.000775284
*CONN
*I *1011:A I *D sky130_fd_sc_hd__nand2_1
*I *1012:A I *D sky130_fd_sc_hd__nand2_1
*I *1010:Y O *D sky130_fd_sc_hd__nand2_1
*CAP
1 *1011:A 0.00010208
2 *1012:A 0
3 *1010:Y 0.000113684
4 *227:12 0.000215764
5 *1011:A *1013:B 5.33005e-05
6 *1011:A *1014:A 1.33343e-05
7 *1011:A *1015:B 2.54619e-05
8 *1011:A *228:8 2.28499e-05
9 *1011:A *228:10 1.61893e-05
10 *227:12 *1013:B 9.25014e-06
11 *227:12 *232:16 5.7616e-05
12 *1015:A *227:12 4.75812e-05
13 *7:13 *227:12 0
14 *18:81 *227:12 4.10253e-05
15 *223:16 *227:12 5.71472e-05
*RES
1 *1010:Y *227:12 20.7821 
2 *227:12 *1012:A 9.3 
3 *227:12 *1011:A 11.5143 
*END

*D_NET *228 0.00105644
*CONN
*I *1015:B I *D sky130_fd_sc_hd__nand2_1
*I *1013:B I *D sky130_fd_sc_hd__nand2_1
*I *1012:B I *D sky130_fd_sc_hd__nand2_1
*I *1011:Y O *D sky130_fd_sc_hd__nand2_1
*CAP
1 *1015:B 0.000119494
2 *1013:B 6.92394e-05
3 *1012:B 0
4 *1011:Y 6.53466e-05
5 *228:10 8.39193e-05
6 *228:8 0.00019952
7 *1013:B *232:16 8.79776e-05
8 *1015:B *1014:A 8.43535e-06
9 *1015:B *232:16 5.33005e-05
10 *1011:A *1013:B 5.33005e-05
11 *1011:A *1015:B 2.54619e-05
12 *1011:A *228:8 2.28499e-05
13 *1011:A *228:10 1.61893e-05
14 *1011:B *228:8 1.33343e-05
15 *1015:A *1015:B 5.33005e-05
16 *18:81 *1013:B 0.000175519
17 *227:12 *1013:B 9.25014e-06
*RES
1 *1011:Y *228:8 10.675 
2 *228:8 *228:10 0.428571 
3 *228:10 *1012:B 9.3 
4 *228:10 *1013:B 21.0857 
5 *228:8 *1015:B 11.9071 
*END

*D_NET *229 0.000537657
*CONN
*I *1014:A I *D sky130_fd_sc_hd__nand2_1
*I *1012:Y O *D sky130_fd_sc_hd__nand2_1
*CAP
1 *1014:A 0.000116822
2 *1012:Y 0.000116822
3 *1014:A *232:16 0.000128154
4 *1011:A *1014:A 1.33343e-05
5 *1015:A *1014:A 2.59355e-05
6 *1015:B *1014:A 8.43535e-06
7 *15:22 *1014:A 0.000128154
*RES
1 *1012:Y *1014:A 30.1893 
*END

*D_NET *230 0.000208108
*CONN
*I *1014:B I *D sky130_fd_sc_hd__nand2_1
*I *1013:Y O *D sky130_fd_sc_hd__nand2_1
*CAP
1 *1014:B 7.54806e-05
2 *1013:Y 7.54806e-05
3 *1463:A *1014:B 0
4 *9:27 *1014:B 5.71472e-05
*RES
1 *1013:Y *1014:B 19.975 
*END

*D_NET *231 0.00116177
*CONN
*I *1104:A I *D sky130_fd_sc_hd__nand2_1
*I *1102:B I *D sky130_fd_sc_hd__nand2_1
*I *1014:Y O *D sky130_fd_sc_hd__nand2_1
*CAP
1 *1104:A 0.000183265
2 *1102:B 0
3 *1014:Y 0.000128973
4 *231:10 0.000312238
5 *1104:A *1106:B 5.33005e-05
6 *1104:A *318:10 7.83587e-05
7 *231:10 *232:16 4.22239e-05
8 *1103:A *1104:A 1.79746e-05
9 *9:27 *231:10 9.71197e-05
10 *10:22 *1104:A 1.22546e-05
11 *18:81 *1104:A 0.000116944
12 *18:81 *231:10 3.17163e-05
13 *212:8 *1104:A 5.80706e-06
14 *212:8 *231:10 8.15939e-05
*RES
1 *1014:Y *231:10 16.6929 
2 *231:10 *1102:B 13.8 
3 *231:10 *1104:A 17.7821 
*END

*D_NET *232 0.00278151
*CONN
*I *1112:B I *D sky130_fd_sc_hd__nand2_1
*I *1114:A I *D sky130_fd_sc_hd__nand2_1
*I *1015:Y O *D sky130_fd_sc_hd__nand2_1
*CAP
1 *1112:B 0
2 *1114:A 1.69531e-05
3 *1015:Y 0.000436998
4 *232:16 0.000453951
5 *1114:A *1114:B 5.33005e-05
6 *1114:A *1115:B 5.33005e-05
7 *1013:B *232:16 8.79776e-05
8 *1014:A *232:16 0.000128154
9 *1015:A *232:16 5.41794e-05
10 *1015:B *232:16 5.33005e-05
11 *9:27 *232:16 0.000144374
12 *9:98 *232:16 0.000547189
13 *15:22 *232:16 3.75173e-05
14 *18:81 *232:16 0.000614475
15 *212:8 *232:16 0
16 *227:12 *232:16 5.7616e-05
17 *231:10 *232:16 4.22239e-05
*RES
1 *1015:Y *232:16 32.0679 
2 *232:16 *1114:A 9.83571 
3 *232:16 *1112:B 9.3 
*END

*D_NET *233 0.00195228
*CONN
*I *1018:B I *D sky130_fd_sc_hd__nand2_1
*I *1025:A I *D sky130_fd_sc_hd__nand2_1
*I *1019:B I *D sky130_fd_sc_hd__nand2_1
*I *1017:Y O *D sky130_fd_sc_hd__nand2_1
*CAP
1 *1018:B 0
2 *1025:A 0.000259714
3 *1019:B 8.73328e-05
4 *1017:Y 0.000280799
5 *233:19 0.000269388
6 *233:8 0.000377805
7 *1019:B *1020:B 5.12608e-05
8 *1025:A *1022:A 0
9 *1025:A *238:14 0.000104974
10 *233:8 *1020:A 9.8545e-05
11 *233:8 *1020:B 6.8445e-06
12 *233:19 *1020:B 3.41517e-06
13 *1017:B *1025:A 5.58941e-05
14 *1017:B *233:8 2.08792e-05
15 *1023:A *1025:A 0.000114623
16 *9:27 *1025:A 0.000210554
17 *10:30 *1025:A 0
18 *70:10 *1025:A 1.02504e-05
*RES
1 *1017:Y *233:8 13.0321 
2 *233:8 *1019:B 11.0857 
3 *233:8 *233:19 0.428571 
4 *233:19 *1025:A 24.4786 
5 *233:19 *1018:B 9.3 
*END

*D_NET *234 0.00033665
*CONN
*I *1020:A I *D sky130_fd_sc_hd__nand2_1
*I *1018:Y O *D sky130_fd_sc_hd__nand2_1
*CAP
1 *1020:A 6.87056e-05
2 *1018:Y 6.87056e-05
3 *1020:A *1020:B 5.62647e-05
4 *1017:B *1020:A 4.44296e-05
5 *233:8 *1020:A 9.8545e-05
*RES
1 *1018:Y *1020:A 20.7964 
*END

*D_NET *235 0.00049096
*CONN
*I *1020:B I *D sky130_fd_sc_hd__nand2_1
*I *1019:Y O *D sky130_fd_sc_hd__nand2_1
*CAP
1 *1020:B 9.14452e-05
2 *1019:Y 9.14452e-05
3 *1017:B *1020:B 0.000190285
4 *1019:B *1020:B 5.12608e-05
5 *1020:A *1020:B 5.62647e-05
6 *233:8 *1020:B 6.8445e-06
7 *233:19 *1020:B 3.41517e-06
*RES
1 *1019:Y *1020:B 21.2071 
*END

*D_NET *236 0.000955942
*CONN
*I *1022:A I *D sky130_fd_sc_hd__nand2_1
*I *1021:A I *D sky130_fd_sc_hd__nand2_1
*I *1020:Y O *D sky130_fd_sc_hd__nand2_1
*CAP
1 *1022:A 0.000192011
2 *1021:A 8.63338e-05
3 *1020:Y 0.000143716
4 *236:10 0.00042206
5 *1022:A *1024:B 5.49489e-05
6 *1017:B *236:10 5.68722e-05
7 *1025:A *1022:A 0
*RES
1 *1020:Y *236:10 15.9786 
2 *236:10 *1021:A 15.1571 
3 *236:10 *1022:A 17.1929 
*END

*D_NET *237 0.00105376
*CONN
*I *860:A I *D sky130_fd_sc_hd__nand2_1
*I *859:A I *D sky130_fd_sc_hd__nand2_1
*I *861:Y O *D sky130_fd_sc_hd__inv_1
*CAP
1 *860:A 0
2 *859:A 0.000200316
3 *861:Y 0.000129723
4 *237:10 0.00033004
5 *859:A *859:B 0.000191403
6 *237:10 *306:12 0
7 *864:A *859:A 7.43578e-06
8 *3:15 *237:10 4.16021e-05
9 *3:23 *237:10 7.71303e-05
10 *4:9 *859:A 0
11 *4:82 *859:A 0
12 *14:58 *859:A 5.71472e-05
13 *79:28 *859:A 1.31516e-05
14 *79:28 *237:10 5.80706e-06
*RES
1 *861:Y *237:10 16.1839 
2 *237:10 *859:A 17.7286 
3 *237:10 *860:A 13.8 
*END

*D_NET *238 0.00085173
*CONN
*I *1022:B I *D sky130_fd_sc_hd__nand2_1
*I *1025:B I *D sky130_fd_sc_hd__nand2_1
*I *1023:B I *D sky130_fd_sc_hd__nand2_1
*I *1021:Y O *D sky130_fd_sc_hd__nand2_1
*CAP
1 *1022:B 2.00552e-05
2 *1025:B 0
3 *1023:B 4.88091e-05
4 *1021:Y 0.000155028
5 *238:27 7.67229e-05
6 *238:14 0.000260505
7 *1022:B *1024:B 5.65955e-05
8 *1023:B *1024:B 2.84109e-05
9 *238:27 *1024:B 4.73286e-05
10 *1025:A *238:14 0.000104974
11 *9:27 *238:14 5.33005e-05
*RES
1 *1021:Y *238:14 21.0143 
2 *238:14 *1023:B 10.2643 
3 *238:14 *238:27 1.375 
4 *238:27 *1025:B 9.3 
5 *238:27 *1022:B 9.83571 
*END

*D_NET *239 0.00068096
*CONN
*I *1024:A I *D sky130_fd_sc_hd__nand2_1
*I *1022:Y O *D sky130_fd_sc_hd__nand2_1
*CAP
1 *1024:A 0.000213842
2 *1022:Y 0.000213842
3 *1024:A *1024:B 0.000100685
4 *1024:A *1108:A 3.8624e-05
5 *1024:A *1109:A 0
6 *1024:A *1110:A 1.59373e-05
7 *1024:A *241:8 9.80289e-05
8 *1024:A *242:12 0
*RES
1 *1022:Y *1024:A 31.2607 
*END

*D_NET *240 0.00155163
*CONN
*I *1024:B I *D sky130_fd_sc_hd__nand2_1
*I *1023:Y O *D sky130_fd_sc_hd__nand2_1
*CAP
1 *1024:B 0.000544363
2 *1023:Y 0.000544363
3 *1024:B *1110:A 3.08664e-05
4 *1024:B *1111:B 0
5 *1024:B *242:12 0.000144074
6 *1022:A *1024:B 5.49489e-05
7 *1022:B *1024:B 5.65955e-05
8 *1023:B *1024:B 2.84109e-05
9 *1024:A *1024:B 0.000100685
10 *238:27 *1024:B 4.73286e-05
*RES
1 *1023:Y *1024:B 37.6179 
*END

*D_NET *241 0.00072684
*CONN
*I *1109:A I *D sky130_fd_sc_hd__nand2_1
*I *1107:B I *D sky130_fd_sc_hd__nand2_1
*I *1024:Y O *D sky130_fd_sc_hd__nand2_1
*CAP
1 *1109:A 1.48594e-05
2 *1107:B 7.05772e-05
3 *1024:Y 0.000147829
4 *241:8 0.000233265
5 *1107:B *1108:A 2.13218e-05
6 *1107:B *321:8 1.8461e-05
7 *1107:B *322:8 3.38774e-05
8 *1107:B *322:19 5.65955e-05
9 *1109:A *1108:A 2.47631e-06
10 *1109:A *322:8 5.38444e-06
11 *241:8 *1108:A 2.41642e-05
12 *1024:A *1109:A 0
13 *1024:A *241:8 9.80289e-05
*RES
1 *1024:Y *241:8 11.4964 
2 *241:8 *1107:B 11.0857 
3 *241:8 *1109:A 9.72857 
*END

*D_NET *242 0.00190271
*CONN
*I *1218:A I *D sky130_fd_sc_hd__nand2_1
*I *1219:A I *D sky130_fd_sc_hd__nand2_1
*I *1025:Y O *D sky130_fd_sc_hd__nand2_1
*CAP
1 *1218:A 0
2 *1219:A 9.81193e-05
3 *1025:Y 0.00056633
4 *242:12 0.00066445
5 *1219:A *1120:A 0
6 *1219:A *1221:A 2.07878e-05
7 *1219:A *335:8 5.7661e-06
8 *1219:A *432:10 4.21248e-05
9 *1219:A *437:20 3.50166e-05
10 *242:12 *1111:B 0
11 *242:12 *1220:A 0.000123912
12 *242:12 *1220:B 0.000202128
13 *242:12 *1222:A 0
14 *242:12 *327:10 0
15 *1024:A *242:12 0
16 *1024:B *242:12 0.000144074
17 *10:30 *242:12 0
18 *10:86 *242:12 0
*RES
1 *1025:Y *242:12 28.8893 
2 *242:12 *1219:A 11.5143 
3 *242:12 *1218:A 9.3 
*END

*D_NET *243 0.00305299
*CONN
*I *1029:B I *D sky130_fd_sc_hd__nand2_1
*I *1035:A I *D sky130_fd_sc_hd__nand2_1
*I *1028:B I *D sky130_fd_sc_hd__nand2_1
*I *1026:Y O *D sky130_fd_sc_hd__nand2_1
*CAP
1 *1029:B 0.000227538
2 *1035:A 0.000161676
3 *1028:B 0.00025538
4 *1026:Y 0.000525872
5 *243:28 0.000659706
6 *1028:B *1030:A 6.86792e-05
7 *1035:A *1030:B 0.000181796
8 *1035:A *1034:A 3.69697e-05
9 *1035:A *1035:B 5.71472e-05
10 *1035:A *246:8 0
11 *1035:A *247:26 2.54718e-05
12 *1035:A *337:18 4.66368e-05
13 *835:B *1028:B 6.47384e-05
14 *836:A *1028:B 9.80173e-05
15 *853:B *1028:B 9.58318e-06
16 *1029:A *1029:B 0.000104932
17 *1029:A *243:28 0.000398815
18 *1465:A *1028:B 2.3541e-05
19 *9:102 *1028:B 1.39726e-05
20 *18:116 *1028:B 1.24368e-05
21 *44:12 *1028:B 8.00806e-05
*RES
1 *1026:Y *1028:B 32.9036 
2 *1026:Y *243:28 13.1214 
3 *243:28 *1035:A 22.1393 
4 *243:28 *1029:B 12.5143 
*END

*D_NET *244 0.00112352
*CONN
*I *1030:A I *D sky130_fd_sc_hd__nand2_1
*I *1028:Y O *D sky130_fd_sc_hd__nand2_1
*CAP
1 *1030:A 0.000267513
2 *1028:Y 0.000267513
3 *1030:A *1026:A 5.84171e-05
4 *1030:A *1033:B 7.50505e-05
5 *835:A *1030:A 3.34366e-05
6 *836:A *1030:A 1.40849e-05
7 *1028:B *1030:A 6.86792e-05
8 *1031:B *1030:A 0.000213154
9 *1465:A *1030:A 9.69119e-06
10 *9:102 *1030:A 9.60939e-05
11 *17:101 *1030:A 1.98839e-05
12 *44:12 *1030:A 0
*RES
1 *1028:Y *1030:A 34.2429 
*END

*D_NET *245 0.00136944
*CONN
*I *1030:B I *D sky130_fd_sc_hd__nand2_1
*I *1029:Y O *D sky130_fd_sc_hd__nand2_1
*CAP
1 *1030:B 0.000283306
2 *1029:Y 0.000283306
3 *1030:B *1032:A 2.44318e-05
4 *1030:B *1033:B 0.000180777
5 *1030:B *1034:A 9.71197e-05
6 *1030:B *246:8 0.000182694
7 *1030:B *247:26 1.02821e-05
8 *1030:B *337:18 0.000125724
9 *1035:A *1030:B 0.000181796
*RES
1 *1029:Y *1030:B 34.6179 
*END

*D_NET *246 0.000479297
*CONN
*I *1032:A I *D sky130_fd_sc_hd__nand2_1
*I *1031:A I *D sky130_fd_sc_hd__nand2_1
*I *1030:Y O *D sky130_fd_sc_hd__nand2_1
*CAP
1 *1032:A 6.61554e-06
2 *1031:A 0
3 *1030:Y 8.66824e-05
4 *246:8 9.32979e-05
5 *1032:A *247:26 5.71472e-05
6 *246:8 *247:26 2.8428e-05
7 *1030:B *1032:A 2.44318e-05
8 *1030:B *246:8 0.000182694
9 *1035:A *246:8 0
*RES
1 *1030:Y *246:8 11.4964 
2 *246:8 *1031:A 9.3 
3 *246:8 *1032:A 9.83571 
*END

*D_NET *247 0.00114045
*CONN
*I *1035:B I *D sky130_fd_sc_hd__nand2_1
*I *1032:B I *D sky130_fd_sc_hd__nand2_1
*I *1033:B I *D sky130_fd_sc_hd__nand2_1
*I *1031:Y O *D sky130_fd_sc_hd__nand2_1
*CAP
1 *1035:B 1.68269e-05
2 *1032:B 0
3 *1033:B 0.000228832
4 *1031:Y 0.000334182
5 *247:26 0.000122177
6 *247:26 *337:18 0
7 *1030:A *1033:B 7.50505e-05
8 *1030:B *1033:B 0.000180777
9 *1030:B *247:26 1.02821e-05
10 *1032:A *247:26 5.71472e-05
11 *1035:A *1035:B 5.71472e-05
12 *1035:A *247:26 2.54718e-05
13 *44:12 *1033:B 4.1331e-06
14 *246:8 *247:26 2.8428e-05
*RES
1 *1031:Y *1033:B 31.3143 
2 *1031:Y *247:26 11.4964 
3 *247:26 *1032:B 9.3 
4 *247:26 *1035:B 9.83571 
*END

*D_NET *248 0.000307491
*CONN
*I *883:A I *D sky130_fd_sc_hd__inv_1
*I *872:Y O *D sky130_fd_sc_hd__nand2_1
*CAP
1 *883:A 0.000145674
2 *872:Y 0.000145674
3 *872:B *883:A 9.15842e-06
4 *5:49 *883:A 6.98553e-06
*RES
1 *872:Y *883:A 29.783 
*END

*D_NET *249 0.000594384
*CONN
*I *1034:A I *D sky130_fd_sc_hd__nand2_1
*I *1032:Y O *D sky130_fd_sc_hd__nand2_1
*CAP
1 *1034:A 0.000156053
2 *1032:Y 0.000156053
3 *1034:A *337:18 0.000148189
4 *1030:B *1034:A 9.71197e-05
5 *1035:A *1034:A 3.69697e-05
*RES
1 *1032:Y *1034:A 30.4929 
*END

*D_NET *250 0.00062251
*CONN
*I *1034:B I *D sky130_fd_sc_hd__nand2_1
*I *1033:Y O *D sky130_fd_sc_hd__nand2_1
*CAP
1 *1034:B 9.78537e-05
2 *1033:Y 9.78537e-05
3 *1034:B *1026:A 2.16514e-05
4 *836:A *1034:B 2.80789e-05
5 *1029:A *1034:B 0.000290448
6 *1033:A *1034:B 5.33005e-05
7 *58:6 *1034:B 3.33238e-05
*RES
1 *1033:Y *1034:B 21.6179 
*END

*D_NET *251 0.00156652
*CONN
*I *1119:A I *D sky130_fd_sc_hd__nand2_1
*I *1117:B I *D sky130_fd_sc_hd__nand2_1
*I *1034:Y O *D sky130_fd_sc_hd__nand2_1
*CAP
1 *1119:A 2.9238e-05
2 *1117:B 0.00017146
3 *1034:Y 0.00014784
4 *251:8 0.000348538
5 *1117:B *1117:A 5.75275e-05
6 *1117:B *1121:B 0
7 *1117:B *332:8 9.90367e-05
8 *1117:B *337:18 0.000146474
9 *251:8 *337:18 0.000337637
10 *836:A *251:8 0
11 *853:B *251:8 0.000100969
12 *1448:B *1117:B 0
13 *1466:A *1119:A 5.33005e-05
14 *18:116 *1117:B 5.26277e-05
15 *18:116 *251:8 2.18733e-05
*RES
1 *1034:Y *251:8 18.175 
2 *251:8 *1117:B 17.9429 
3 *251:8 *1119:A 14.3357 
*END

*D_NET *252 0.00155914
*CONN
*I *1228:A I *D sky130_fd_sc_hd__nand2_1
*I *1229:A I *D sky130_fd_sc_hd__nand2_1
*I *1035:Y O *D sky130_fd_sc_hd__nand2_1
*CAP
1 *1228:A 0.000326697
2 *1229:A 0
3 *1035:Y 0.000168286
4 *252:10 0.000494983
5 *1228:A *1229:B 1.74352e-05
6 *1228:A *1233:A 8.07879e-05
7 *1228:A *1234:A 0
8 *1228:A *1235:A 5.58941e-05
9 *1228:A *1236:B 1.41029e-05
10 *1228:A *442:10 0.000177815
11 *252:10 *1231:A 7.83659e-05
12 *252:10 *1234:A 0
13 *252:10 *337:18 0.000144773
*RES
1 *1035:Y *252:10 16.8 
2 *252:10 *1229:A 13.8 
3 *252:10 *1228:A 27.8714 
*END

*D_NET *253 0.000789982
*CONN
*I *1039:B I *D sky130_fd_sc_hd__nand2_1
*I *1041:A I *D sky130_fd_sc_hd__inv_1
*I *1037:B I *D sky130_fd_sc_hd__nand2_1
*I *1036:Y O *D sky130_fd_sc_hd__nand2_1
*CAP
1 *1039:B 0
2 *1041:A 3.79709e-05
3 *1037:B 0
4 *1036:Y 6.34665e-05
5 *253:19 0.000122471
6 *253:8 0.000147966
7 *253:8 *1036:B 9.60939e-05
8 *253:8 *1039:A 0.000131824
9 *253:8 *1040:A 4.43355e-05
10 *253:8 *1040:B 1.02821e-05
11 *253:19 *1036:B 0
12 *253:19 *1039:A 2.32013e-05
13 *253:19 *1040:B 5.71472e-05
14 *1036:A *253:8 5.52238e-05
*RES
1 *1036:Y *253:8 11.4964 
2 *253:8 *1037:B 9.3 
3 *253:8 *253:19 2.21429 
4 *253:19 *1041:A 9.99196 
5 *253:19 *1039:B 9.3 
*END

*D_NET *254 0.000579541
*CONN
*I *1040:A I *D sky130_fd_sc_hd__nand2_1
*I *1037:Y O *D sky130_fd_sc_hd__nand2_1
*CAP
1 *1040:A 0.00013489
2 *1037:Y 0.00013489
3 *1040:A *1040:B 5.71472e-05
4 *1040:A *361:12 0.000153054
5 *1040:A *463:10 0
6 *1036:A *1040:A 5.52238e-05
7 *253:8 *1040:A 4.43355e-05
*RES
1 *1037:Y *1040:A 30.9036 
*END

*D_NET *255 0.000573955
*CONN
*I *1040:B I *D sky130_fd_sc_hd__nand2_1
*I *1039:Y O *D sky130_fd_sc_hd__nand2_1
*CAP
1 *1040:B 0.000160612
2 *1039:Y 0.000160612
3 *1040:B *361:12 0.000128154
4 *1040:B *362:12 0
5 *1040:A *1040:B 5.71472e-05
6 *253:8 *1040:B 1.02821e-05
7 *253:19 *1040:B 5.71472e-05
*RES
1 *1039:Y *1040:B 30.6 
*END

*D_NET *256 0.00104873
*CONN
*I *1253:A I *D sky130_fd_sc_hd__xor2_1
*I *1252:A I *D sky130_fd_sc_hd__and2_1
*I *1040:Y O *D sky130_fd_sc_hd__nand2_1
*CAP
1 *1253:A 8.03618e-05
2 *1252:A 0
3 *1040:Y 0.000211348
4 *256:12 0.00029171
5 *1253:A *1253:B 0.000142856
6 *256:12 *361:12 0.000322453
7 *256:12 *463:10 0
*RES
1 *1040:Y *256:12 22.9071 
2 *256:12 *1252:A 9.3 
3 *256:12 *1253:A 11.0679 
*END

*D_NET *257 0.00108454
*CONN
*I *1148:A I *D sky130_fd_sc_hd__nand2_1
*I *1147:A I *D sky130_fd_sc_hd__nand2_1
*I *1041:Y O *D sky130_fd_sc_hd__inv_1
*CAP
1 *1148:A 2.23854e-05
2 *1147:A 0.000229648
3 *1041:Y 0.000159298
4 *257:6 0.000411332
5 *1147:A *1148:B 0.000103725
6 *1147:A *1156:A 5.80706e-06
7 *1147:A *381:8 0.00015234
*RES
1 *1041:Y *257:6 11.6839 
2 *257:6 *1147:A 22.8357 
3 *257:6 *1148:A 9.72857 
*END

*D_NET *258 0.00165961
*CONN
*I *1043:B I *D sky130_fd_sc_hd__nand2_1
*I *1052:A I *D sky130_fd_sc_hd__nand2_1
*I *1044:B I *D sky130_fd_sc_hd__nand2_1
*I *1042:Y O *D sky130_fd_sc_hd__nand2_1
*CAP
1 *1043:B 1.76104e-05
2 *1052:A 0.000250437
3 *1044:B 2.37527e-05
4 *1042:Y 7.78824e-05
5 *258:23 0.000396549
6 *258:6 0.000230136
7 *1043:B *1051:B 7.48927e-06
8 *1044:B *1042:B 6.36198e-05
9 *1052:A *1045:A 3.44035e-05
10 *1052:A *1046:A 1.19813e-05
11 *1052:A *1046:B 0.000125542
12 *1052:A *1051:A 3.75868e-05
13 *1052:A *1051:B 1.74852e-05
14 *1052:A *263:8 5.78374e-05
15 *258:6 *1042:B 4.29633e-05
16 *258:23 *1043:A 0.000115924
17 *258:23 *1045:A 7.16185e-05
18 *258:23 *1051:A 0
19 *6:55 *1052:A 8.48678e-06
20 *13:57 *1052:A 3.59002e-05
21 *13:57 *258:23 3.24049e-05
*RES
1 *1042:Y *258:6 10.6571 
2 *258:6 *1044:B 10.233 
3 *258:6 *258:23 12 
4 *258:23 *1052:A 23.5321 
5 *258:23 *1043:B 9.72857 
*END

*D_NET *259 0.00112591
*CONN
*I *865:A I *D sky130_fd_sc_hd__nand2_1
*I *866:A I *D sky130_fd_sc_hd__nand2_1
*I *883:Y O *D sky130_fd_sc_hd__inv_1
*CAP
1 *865:A 7.81862e-05
2 *866:A 3.50702e-05
3 *883:Y 6.03557e-05
4 *259:6 0.000173612
5 *865:A *867:A 2.47837e-05
6 *865:A *306:12 0.000173152
7 *867:B *866:A 3.50746e-05
8 *867:B *259:6 0.000139331
9 *868:B *866:A 6.21609e-05
10 *868:B *259:6 9.86486e-06
11 *5:49 *865:A 4.17702e-05
12 *5:49 *259:6 0.000246711
13 *84:10 *865:A 4.58402e-05
*RES
1 *883:Y *259:6 11.6839 
2 *259:6 *866:A 10.5679 
3 *259:6 *865:A 21.0857 
*END

*D_NET *260 0.000982408
*CONN
*I *1045:A I *D sky130_fd_sc_hd__nand2_1
*I *1043:Y O *D sky130_fd_sc_hd__nand2_1
*CAP
1 *1045:A 0.000231834
2 *1043:Y 0.000231834
3 *1045:A *1045:B 0.000147178
4 *1045:A *1051:A 7.58841e-05
5 *1045:A *1283:A 0
6 *1045:A *262:16 0.000100248
7 *1045:A *632:12 8.94087e-05
8 *1052:A *1045:A 3.44035e-05
9 *258:23 *1045:A 7.16185e-05
*RES
1 *1043:Y *1045:A 33.0464 
*END

*D_NET *261 0.000587398
*CONN
*I *1045:B I *D sky130_fd_sc_hd__nand2_1
*I *1044:Y O *D sky130_fd_sc_hd__nand2_1
*CAP
1 *1045:B 0.00013694
2 *1044:Y 0.00013694
3 *1045:B *1042:B 2.85321e-05
4 *1045:B *262:16 1.24368e-05
5 *1045:B *632:12 0.000125371
6 *1045:A *1045:B 0.000147178
7 *1116:A *1045:B 0
*RES
1 *1044:Y *1045:B 30.4929 
*END

*D_NET *262 0.000712415
*CONN
*I *1047:A I *D sky130_fd_sc_hd__nand2_1
*I *1046:A I *D sky130_fd_sc_hd__nand2_1
*I *1045:Y O *D sky130_fd_sc_hd__nand2_1
*CAP
1 *1047:A 5.55679e-06
2 *1046:A 5.48457e-05
3 *1045:Y 0.000166194
4 *262:16 0.000226597
5 *1046:A *1047:B 4.13389e-05
6 *1046:A *1051:A 1.35465e-05
7 *1047:A *1042:B 3.50746e-05
8 *1047:A *1047:B 5.46383e-06
9 *262:16 *1042:B 1.02301e-05
10 *262:16 *632:12 2.89016e-05
11 *1045:A *262:16 0.000100248
12 *1045:B *262:16 1.24368e-05
13 *1052:A *1046:A 1.19813e-05
*RES
1 *1045:Y *262:16 21.55 
2 *262:16 *1046:A 11.0857 
3 *262:16 *1047:A 9.72857 
*END

*D_NET *263 0.00102624
*CONN
*I *1047:B I *D sky130_fd_sc_hd__nand2_1
*I *1052:B I *D sky130_fd_sc_hd__nand2_1
*I *1048:B I *D sky130_fd_sc_hd__nand2_1
*I *1046:Y O *D sky130_fd_sc_hd__nand2_1
*CAP
1 *1047:B 5.9776e-05
2 *1052:B 0
3 *1048:B 0.00011829
4 *1046:Y 0
5 *263:8 0.00022313
6 *263:4 0.000164616
7 *1047:B *1051:A 1.32293e-05
8 *1048:B *1046:B 4.98711e-05
9 *1048:B *646:8 5.50052e-05
10 *263:8 *267:10 5.50052e-05
11 *1046:A *1047:B 4.13389e-05
12 *1047:A *1047:B 5.46383e-06
13 *1052:A *263:8 5.78374e-05
14 *1249:A *1048:B 0.000172443
15 *6:55 *263:8 1.02301e-05
*RES
1 *1046:Y *263:4 9.3 
2 *263:4 *263:8 2.19643 
3 *263:8 *1048:B 21.0857 
4 *263:8 *1052:B 9.3 
5 *263:4 *1047:B 10.675 
*END

*D_NET *264 0.000438463
*CONN
*I *1051:A I *D sky130_fd_sc_hd__nand2_1
*I *1047:Y O *D sky130_fd_sc_hd__nand2_1
*CAP
1 *1051:A 0.000143072
2 *1047:Y 0.000143072
3 *1051:A *1046:B 1.20718e-05
4 *1045:A *1051:A 7.58841e-05
5 *1046:A *1051:A 1.35465e-05
6 *1047:B *1051:A 1.32293e-05
7 *1052:A *1051:A 3.75868e-05
8 *258:23 *1051:A 0
*RES
1 *1047:Y *1051:A 29.7786 
*END

*D_NET *265 0.000217217
*CONN
*I *1051:B I *D sky130_fd_sc_hd__nand2_1
*I *1048:Y O *D sky130_fd_sc_hd__nand2_1
*CAP
1 *1051:B 6.94249e-05
2 *1048:Y 6.94249e-05
3 *1051:B *646:8 3.85967e-05
4 *1043:B *1051:B 7.48927e-06
5 *1052:A *1051:B 1.74852e-05
6 *13:57 *1051:B 1.4796e-05
*RES
1 *1048:Y *1051:B 19.975 
*END

*D_NET *266 0.00450744
*CONN
*I *1254:A I *D sky130_fd_sc_hd__and2_1
*I *1255:A I *D sky130_fd_sc_hd__xor2_1
*I *1051:Y O *D sky130_fd_sc_hd__nand2_1
*CAP
1 *1254:A 0
2 *1255:A 0.00012385
3 *1051:Y 0.00146186
4 *266:14 0.00158571
5 *1255:A *1254:B 4.56068e-05
6 *1255:A *1255:B 5.33005e-05
7 *266:14 *1140:B 0
8 *266:14 *1146:A 0
9 *266:14 *1148:B 8.91822e-05
10 *266:14 *1151:A 0.000129868
11 *266:14 *1153:A 7.60306e-05
12 *266:14 *1154:A 0
13 *266:14 *1156:A 7.7674e-05
14 *266:14 *1254:B 0.00010096
15 *266:14 *1257:A 0
16 *266:14 *1257:B 0
17 *266:14 *362:12 0
18 *266:14 *371:10 0
19 *266:14 *381:8 0
20 *266:14 *468:12 1.39841e-05
21 *266:14 *470:10 0
22 *266:14 *478:14 0
23 *1249:A *266:14 0.000181523
24 *1249:B *266:14 0.000240743
25 *1382:B *266:14 8.16036e-05
26 *4:32 *266:14 0
27 *11:28 *266:14 0.000101908
28 *13:57 *266:14 0.000143633
*RES
1 *1051:Y *266:14 46.9429 
2 *266:14 *1255:A 11.8179 
3 *266:14 *1254:A 9.3 
*END

*D_NET *267 0.00173158
*CONN
*I *1158:A I *D sky130_fd_sc_hd__nand2_1
*I *1157:A I *D sky130_fd_sc_hd__nand2_1
*I *1052:Y O *D sky130_fd_sc_hd__nand2_1
*CAP
1 *1158:A 0.000172311
2 *1157:A 0
3 *1052:Y 0.000360617
4 *267:10 0.000532928
5 *1158:A *1158:B 9.96553e-05
6 *1158:A *1162:A 5.19019e-05
7 *1159:A *1158:A 5.4346e-05
8 *1159:A *267:10 4.6025e-06
9 *4:32 *1158:A 3.17355e-05
10 *4:32 *267:10 5.78686e-05
11 *5:100 *1158:A 0.000138449
12 *6:55 *267:10 0.000114286
13 *136:10 *267:10 5.78686e-05
14 *263:8 *267:10 5.50052e-05
*RES
1 *1052:Y *267:10 19.2643 
2 *267:10 *1157:A 13.8 
3 *267:10 *1158:A 18.2643 
*END

*D_NET *268 0.000599249
*CONN
*I *1055:B I *D sky130_fd_sc_hd__nand2_1
*I *1062:A I *D sky130_fd_sc_hd__nand2_1
*I *1054:B I *D sky130_fd_sc_hd__nand2_1
*I *1053:Y O *D sky130_fd_sc_hd__nand2_1
*CAP
1 *1055:B 3.66746e-05
2 *1062:A 0
3 *1054:B 1.60925e-05
4 *1053:Y 0
5 *268:8 0.000126923
6 *268:4 0.000147505
7 *1054:B *1053:A 5.71472e-05
8 *1055:B *1056:B 5.52302e-05
9 *268:8 *1053:A 7.67497e-05
10 *907:B *1055:B 0
11 *1053:B *1055:B 4.80569e-05
12 *15:102 *1055:B 1.74352e-05
13 *15:102 *268:8 1.74352e-05
*RES
1 *1053:Y *268:4 9.3 
2 *268:4 *268:8 2.19643 
3 *268:8 *1054:B 9.83571 
4 *268:8 *1062:A 9.3 
5 *268:4 *1055:B 10.675 
*END

*D_NET *269 0.000491673
*CONN
*I *1056:A I *D sky130_fd_sc_hd__nand2_1
*I *1054:Y O *D sky130_fd_sc_hd__nand2_1
*CAP
1 *1056:A 0.000210938
2 *1054:Y 0.000210938
3 *1056:A *1062:B 0
4 *1056:A *286:10 6.97972e-05
*RES
1 *1054:Y *1056:A 31.4214 
*END

*D_NET *270 0.00035624
*CONN
*I *905:A I *D sky130_fd_sc_hd__inv_1
*I *894:Y O *D sky130_fd_sc_hd__nand2_1
*CAP
1 *905:A 0.000101596
2 *894:Y 0.000101596
3 *905:A *361:12 0
4 *905:A *463:10 0.000153047
*RES
1 *894:Y *905:A 29.783 
*END

*D_NET *271 0.000413269
*CONN
*I *1056:B I *D sky130_fd_sc_hd__nand2_1
*I *1055:Y O *D sky130_fd_sc_hd__nand2_1
*CAP
1 *1056:B 0.000124557
2 *1055:Y 0.000124557
3 *1056:B *1062:B 4.57538e-05
4 *1053:B *1056:B 1.74352e-05
5 *1055:B *1056:B 5.52302e-05
6 *15:110 *1056:B 4.57352e-05
*RES
1 *1055:Y *1056:B 30.1893 
*END

*D_NET *272 0.0006248
*CONN
*I *1058:A I *D sky130_fd_sc_hd__nand2_1
*I *1057:A I *D sky130_fd_sc_hd__nand2_1
*I *1056:Y O *D sky130_fd_sc_hd__nand2_1
*CAP
1 *1058:A 6.32143e-05
2 *1057:A 0
3 *1056:Y 0.000113921
4 *272:10 0.000177135
5 *1058:A *1058:B 4.80569e-05
6 *1058:A *1060:A 3.69047e-06
7 *272:10 *1062:B 3.92854e-05
8 *272:10 *286:10 0
9 *1057:B *1058:A 1.97695e-05
10 *11:53 *1058:A 0.000140933
11 *11:53 *272:10 1.87955e-05
12 *15:110 *272:10 0
13 *142:10 *272:10 0
*RES
1 *1056:Y *272:10 20.2464 
2 *272:10 *1057:A 9.3 
3 *272:10 *1058:A 11.5143 
*END

*D_NET *273 0.00102983
*CONN
*I *1062:B I *D sky130_fd_sc_hd__nand2_1
*I *1058:B I *D sky130_fd_sc_hd__nand2_1
*I *1059:B I *D sky130_fd_sc_hd__nand2_1
*I *1057:Y O *D sky130_fd_sc_hd__nand2_1
*CAP
1 *1062:B 0.000251202
2 *1058:B 5.01353e-05
3 *1059:B 4.93776e-05
4 *1057:Y 0.000251202
5 *273:4 9.95129e-05
6 *1059:B *1060:B 5.52238e-05
7 *1062:B *286:10 0
8 *1056:A *1062:B 0
9 *1056:B *1062:B 4.57538e-05
10 *1057:B *1059:B 4.80569e-05
11 *1058:A *1058:B 4.80569e-05
12 *11:53 *1058:B 1.74352e-05
13 *11:53 *1059:B 1.74352e-05
14 *11:53 *1062:B 5.71472e-05
15 *15:110 *1062:B 0
16 *272:10 *1062:B 3.92854e-05
*RES
1 *1057:Y *273:4 9.3 
2 *273:4 *1059:B 10.675 
3 *273:4 *1058:B 10.675 
4 *1057:Y *1062:B 32.2071 
*END

*D_NET *274 0.000493749
*CONN
*I *1060:A I *D sky130_fd_sc_hd__nand2_1
*I *1058:Y O *D sky130_fd_sc_hd__nand2_1
*CAP
1 *1060:A 0.00019754
2 *1058:Y 0.00019754
3 *1060:A *1167:A 4.1331e-06
4 *1060:A *382:12 2.56601e-05
5 *1058:A *1060:A 3.69047e-06
6 *3:76 *1060:A 0
7 *15:110 *1060:A 6.5185e-05
*RES
1 *1058:Y *1060:A 30.6 
*END

*D_NET *275 0.000753601
*CONN
*I *1060:B I *D sky130_fd_sc_hd__nand2_1
*I *1059:Y O *D sky130_fd_sc_hd__nand2_1
*CAP
1 *1060:B 0.000326516
2 *1059:Y 0.000326516
3 *1060:B *286:10 0
4 *924:B *1060:B 0
5 *1057:B *1060:B 1.74352e-05
6 *1059:B *1060:B 5.52238e-05
7 *11:53 *1060:B 0
8 *142:10 *1060:B 2.79092e-05
*RES
1 *1059:Y *1060:B 32.7786 
*END

*D_NET *276 0.000710777
*CONN
*I *1163:B I *D sky130_fd_sc_hd__nand2_1
*I *1165:A I *D sky130_fd_sc_hd__nand2_1
*I *1060:Y O *D sky130_fd_sc_hd__nand2_1
*CAP
1 *1163:B 2.20175e-05
2 *1165:A 0
3 *1060:Y 0.000257902
4 *276:8 0.000279919
5 *1163:B *1166:B 5.52238e-05
6 *276:8 *1166:B 2.44318e-05
7 *276:8 *1167:B 5.52238e-05
8 *276:8 *377:10 1.60597e-05
*RES
1 *1060:Y *276:8 13.55 
2 *276:8 *1165:A 9.3 
3 *276:8 *1163:B 9.83571 
*END

*D_NET *277 0.000536381
*CONN
*I *1168:B I *D sky130_fd_sc_hd__nand2_1
*I *1170:A I *D sky130_fd_sc_hd__nand2_1
*I *1062:Y O *D sky130_fd_sc_hd__nand2_1
*CAP
1 *1168:B 0
2 *1170:A 0.000102684
3 *1062:Y 9.7575e-05
4 *277:10 0.000200259
5 *1170:A *383:8 5.75275e-05
6 *1168:A *277:10 7.83366e-05
*RES
1 *1062:Y *277:10 20.2464 
2 *277:10 *1170:A 11.5143 
3 *277:10 *1168:B 9.3 
*END

*D_NET *278 0.00140037
*CONN
*I *1065:B I *D sky130_fd_sc_hd__nand2_1
*I *1071:A I *D sky130_fd_sc_hd__nand2_1
*I *1064:B I *D sky130_fd_sc_hd__nand2_1
*I *1063:Y O *D sky130_fd_sc_hd__nand2_1
*CAP
1 *1065:B 0.000226481
2 *1071:A 0
3 *1064:B 0.000108427
4 *1063:Y 0
5 *278:21 0.000350014
6 *278:4 0.000231959
7 *1064:B *1066:A 0.000100665
8 *1065:B *1066:B 7.74135e-05
9 *1065:B *1071:B 2.38501e-05
10 *1065:B *283:10 7.54302e-05
11 *839:A *1064:B 3.14078e-05
12 *1064:A *1064:B 0.00012073
13 *1065:A *1065:B 2.69483e-05
14 *1179:A *1065:B 5.54817e-06
15 *3:70 *1065:B 2.1499e-05
*RES
1 *1063:Y *278:4 9.3 
2 *278:4 *1064:B 12.2286 
3 *278:4 *278:21 10.9464 
4 *278:21 *1071:A 9.3 
5 *278:21 *1065:B 22.5679 
*END

*D_NET *279 0.000495577
*CONN
*I *1066:A I *D sky130_fd_sc_hd__nand2_1
*I *1064:Y O *D sky130_fd_sc_hd__nand2_1
*CAP
1 *1066:A 0.000148161
2 *1064:Y 0.000148161
3 *1066:A *282:12 2.89114e-05
4 *839:A *1066:A 6.96784e-05
5 *1064:B *1066:A 0.000100665
*RES
1 *1064:Y *1066:A 21.6536 
*END

*D_NET *280 0.000944705
*CONN
*I *1066:B I *D sky130_fd_sc_hd__nand2_1
*I *1065:Y O *D sky130_fd_sc_hd__nand2_1
*CAP
1 *1066:B 0.000161066
2 *1065:Y 0.000161066
3 *1065:A *1066:B 0.00032895
4 *1065:B *1066:B 7.74135e-05
5 *152:14 *1066:B 0.000216211
*RES
1 *1065:Y *1066:B 31.975 
*END

*D_NET *281 0.000847266
*CONN
*I *1248:B I *D sky130_fd_sc_hd__xor2_1
*I *1247:B I *D sky130_fd_sc_hd__and2_1
*I *905:Y O *D sky130_fd_sc_hd__inv_1
*CAP
1 *1248:B 4.96754e-05
2 *1247:B 1.71453e-05
3 *905:Y 0.000144665
4 *281:8 0.000211486
5 *1247:B *462:10 3.17148e-05
6 *1247:B *464:14 1.3142e-05
7 *1248:B *462:10 0.000141375
8 *281:8 *462:10 5.33005e-05
9 *1248:A *1247:B 4.80729e-05
10 *1248:A *1248:B 0.000126439
11 *19:20 *1248:B 0
12 *127:10 *1247:B 1.02504e-05
*RES
1 *905:Y *281:8 15.3625 
2 *281:8 *1247:B 14.5321 
3 *281:8 *1248:B 15.7464 
*END

*D_NET *282 0.000651283
*CONN
*I *1067:A I *D sky130_fd_sc_hd__nand2_1
*I *1068:A I *D sky130_fd_sc_hd__nand2_1
*I *1066:Y O *D sky130_fd_sc_hd__nand2_1
*CAP
1 *1067:A 1.69531e-05
2 *1068:A 0
3 *1066:Y 0.000151683
4 *282:12 0.000168636
5 *1067:A *283:6 5.33005e-05
6 *282:12 *1070:B 5.36422e-05
7 *839:A *282:12 1.45274e-05
8 *1065:A *282:12 6.87672e-05
9 *1066:A *282:12 2.89114e-05
10 *1067:B *1067:A 5.33005e-05
11 *7:67 *282:12 4.15618e-05
*RES
1 *1066:Y *282:12 21.1929 
2 *282:12 *1068:A 9.3 
3 *282:12 *1067:A 9.83571 
*END

*D_NET *283 0.000761046
*CONN
*I *1068:B I *D sky130_fd_sc_hd__nand2_1
*I *1069:B I *D sky130_fd_sc_hd__nand2_1
*I *1071:B I *D sky130_fd_sc_hd__nand2_1
*I *1067:Y O *D sky130_fd_sc_hd__nand2_1
*CAP
1 *1068:B 1.3525e-05
2 *1069:B 0
3 *1071:B 9.96625e-06
4 *1067:Y 7.35229e-05
5 *283:10 8.19936e-05
6 *283:6 0.000159075
7 *283:6 *1070:A 9.58632e-05
8 *1065:B *1071:B 2.38501e-05
9 *1065:B *283:10 7.54302e-05
10 *1067:A *283:6 5.33005e-05
11 *1067:B *1068:B 1.02301e-05
12 *1067:B *283:6 5.75774e-05
13 *1067:B *283:10 2.53477e-05
14 *3:70 *1071:B 2.11336e-05
15 *3:70 *283:10 6.92966e-06
16 *152:14 *283:10 5.33005e-05
*RES
1 *1067:Y *283:6 11.0679 
2 *283:6 *283:10 1.78571 
3 *283:10 *1071:B 9.83571 
4 *283:10 *1069:B 9.3 
5 *283:6 *1068:B 9.72857 
*END

*D_NET *284 0.000583265
*CONN
*I *1070:A I *D sky130_fd_sc_hd__nand2_1
*I *1068:Y O *D sky130_fd_sc_hd__nand2_1
*CAP
1 *1070:A 0.000173095
2 *1068:Y 0.000173095
3 *1067:B *1070:A 1.4796e-05
4 *7:67 *1070:A 0.000126416
5 *283:6 *1070:A 9.58632e-05
*RES
1 *1068:Y *1070:A 30.6 
*END

*D_NET *285 0.00103983
*CONN
*I *1070:B I *D sky130_fd_sc_hd__nand2_1
*I *1069:Y O *D sky130_fd_sc_hd__nand2_1
*CAP
1 *1070:B 0.000148656
2 *1069:Y 0.000148656
3 *1065:A *1070:B 5.4031e-05
4 *1067:B *1070:B 0.000178503
5 *3:70 *1070:B 0.000221071
6 *7:67 *1070:B 0.000215383
7 *152:14 *1070:B 1.98839e-05
8 *282:12 *1070:B 5.36422e-05
*RES
1 *1069:Y *1070:B 32.6357 
*END

*D_NET *286 0.004338
*CONN
*I *1175:A I *D sky130_fd_sc_hd__nand2_1
*I *1173:B I *D sky130_fd_sc_hd__nand2_1
*I *1070:Y O *D sky130_fd_sc_hd__nand2_1
*CAP
1 *1175:A 0.000175891
2 *1173:B 0
3 *1070:Y 0.00100776
4 *286:10 0.00118365
5 *1175:A *1171:B 4.1331e-06
6 *1175:A *1176:B 0
7 *1175:A *1177:A 0.000219193
8 *1175:A *387:10 0.000154762
9 *1175:A *387:16 4.51007e-05
10 *286:10 *922:A 0.000222728
11 *286:10 *1171:B 4.48206e-05
12 *286:10 *1177:A 1.02504e-05
13 *286:10 *383:14 0.000175526
14 *925:A *286:10 0.000177941
15 *945:A *286:10 0
16 *1056:A *286:10 6.97972e-05
17 *1060:B *286:10 0
18 *1062:B *286:10 0
19 *1168:A *286:10 5.35423e-05
20 *1169:A *286:10 5.16489e-05
21 *1294:A *286:10 0.000144732
22 *11:53 *286:10 0
23 *13:57 *286:10 0.000269747
24 *139:10 *286:10 5.36422e-05
25 *139:21 *286:10 0.00022515
26 *142:10 *286:10 4.79842e-05
27 *143:14 *286:10 0
28 *272:10 *286:10 0
*RES
1 *1070:Y *286:10 35.0321 
2 *286:10 *1173:B 13.8 
3 *286:10 *1175:A 18.3357 
*END

*D_NET *287 0.000611479
*CONN
*I *1180:A I *D sky130_fd_sc_hd__nand2_1
*I *1178:B I *D sky130_fd_sc_hd__nand2_1
*I *1071:Y O *D sky130_fd_sc_hd__nand2_1
*CAP
1 *1180:A 0.000109424
2 *1178:B 0
3 *1071:Y 9.94386e-05
4 *287:8 0.000208862
5 *1180:A *393:8 0.000101178
6 *1180:A *393:23 4.66056e-05
7 *1179:A *1180:A 4.04224e-05
8 *1179:A *287:8 5.54817e-06
*RES
1 *1071:Y *287:8 15.4429 
2 *287:8 *1178:B 13.8 
3 *287:8 *1180:A 16.6571 
*END

*D_NET *288 0.00150368
*CONN
*I *1081:A I *D sky130_fd_sc_hd__nand2_1
*I *1075:B I *D sky130_fd_sc_hd__nand2_1
*I *1074:B I *D sky130_fd_sc_hd__nand2_1
*I *1073:Y O *D sky130_fd_sc_hd__nand2_1
*CAP
1 *1081:A 1.11927e-05
2 *1075:B 4.04142e-05
3 *1074:B 0
4 *1073:Y 0.000198554
5 *288:21 0.000245338
6 *288:12 0.000392285
7 *1075:B *1076:B 5.17614e-05
8 *1075:B *297:10 1.74352e-05
9 *1081:A *1076:B 0
10 *288:12 *1081:B 0
11 *288:21 *1076:A 3.93247e-05
12 *288:21 *1076:B 0.000122159
13 *955:A *1075:B 3.99614e-06
14 *955:B *1075:B 0
15 *1074:A *288:12 7.83366e-05
16 *1075:A *288:12 0
17 *15:102 *288:12 0.000144773
18 *172:12 *1075:B 0.000144773
19 *172:12 *288:21 1.33343e-05
*RES
1 *1073:Y *288:12 21.6036 
2 *288:12 *1074:B 9.3 
3 *288:12 *288:21 3.83929 
4 *288:21 *1075:B 11.0857 
5 *288:21 *1081:A 9.72857 
*END

*D_NET *289 0.000194994
*CONN
*I *1076:A I *D sky130_fd_sc_hd__nand2_1
*I *1074:Y O *D sky130_fd_sc_hd__nand2_1
*CAP
1 *1076:A 6.79499e-05
2 *1074:Y 6.79499e-05
3 *1076:A *1076:B 1.97695e-05
4 *288:21 *1076:A 3.93247e-05
*RES
1 *1074:Y *1076:A 19.975 
*END

*D_NET *290 0.000556005
*CONN
*I *1076:B I *D sky130_fd_sc_hd__nand2_1
*I *1075:Y O *D sky130_fd_sc_hd__nand2_1
*CAP
1 *1076:B 0.000110243
2 *1075:Y 0.000110243
3 *1076:B *297:10 0.00014183
4 *1075:B *1076:B 5.17614e-05
5 *1076:A *1076:B 1.97695e-05
6 *1081:A *1076:B 0
7 *288:21 *1076:B 0.000122159
*RES
1 *1075:Y *1076:B 22.0286 
*END

*D_NET *291 0.000360847
*CONN
*I *1077:A I *D sky130_fd_sc_hd__nand2_1
*I *1078:A I *D sky130_fd_sc_hd__nand2_1
*I *1076:Y O *D sky130_fd_sc_hd__nand2_1
*CAP
1 *1077:A 0
2 *1078:A 1.1624e-05
3 *1076:Y 0.000113576
4 *291:10 0.0001252
5 *1078:A *293:8 5.52238e-05
6 *291:10 *1081:B 0
7 *291:10 *1187:A 0
8 *1077:B *1078:A 5.52238e-05
*RES
1 *1076:Y *291:10 19.9429 
2 *291:10 *1078:A 9.83571 
3 *291:10 *1077:A 9.3 
*END

*D_NET *292 0.000758181
*CONN
*I *927:A I *D sky130_fd_sc_hd__inv_1
*I *916:Y O *D sky130_fd_sc_hd__nand2_1
*CAP
1 *927:A 0.000379091
2 *916:Y 0.000379091
3 *938:B *927:A 0
*RES
1 *916:Y *927:A 32.417 
*END

*D_NET *293 0.000796177
*CONN
*I *1078:B I *D sky130_fd_sc_hd__nand2_1
*I *1079:B I *D sky130_fd_sc_hd__nand2_1
*I *1081:B I *D sky130_fd_sc_hd__nand2_1
*I *1077:Y O *D sky130_fd_sc_hd__nand2_1
*CAP
1 *1078:B 0
2 *1079:B 0
3 *1081:B 0.000118748
4 *1077:Y 4.91858e-05
5 *293:10 0.000133756
6 *293:8 6.41939e-05
7 *1081:B *1187:A 0
8 *1081:B *297:10 0
9 *293:8 *1080:A 0.000144773
10 *293:8 *1080:B 2.44318e-05
11 *293:10 *1080:B 1.39841e-05
12 *1075:A *1081:B 4.1331e-06
13 *1077:B *293:8 6.82839e-05
14 *1077:B *293:10 5.52302e-05
15 *1078:A *293:8 5.52238e-05
16 *172:12 *1081:B 6.42338e-05
17 *288:12 *1081:B 0
18 *291:10 *1081:B 0
*RES
1 *1077:Y *293:8 11.4964 
2 *293:8 *293:10 0.535714 
3 *293:10 *1081:B 20.55 
4 *293:10 *1079:B 9.3 
5 *293:8 *1078:B 9.3 
*END

*D_NET *294 0.000648309
*CONN
*I *1080:A I *D sky130_fd_sc_hd__nand2_1
*I *1078:Y O *D sky130_fd_sc_hd__nand2_1
*CAP
1 *1080:A 0.000151773
2 *1078:Y 0.000151773
3 *1080:A *1080:B 0.000182554
4 *1080:A *1187:A 0
5 *1077:B *1080:A 1.74352e-05
6 *293:8 *1080:A 0.000144773
*RES
1 *1078:Y *1080:A 31.6179 
*END

*D_NET *295 0.000705483
*CONN
*I *1080:B I *D sky130_fd_sc_hd__nand2_1
*I *1079:Y O *D sky130_fd_sc_hd__nand2_1
*CAP
1 *1080:B 0.000236498
2 *1079:Y 0.000236498
3 *1080:B *297:10 0
4 *1077:B *1080:B 1.15172e-05
5 *1080:A *1080:B 0.000182554
6 *293:8 *1080:B 2.44318e-05
7 *293:10 *1080:B 1.39841e-05
*RES
1 *1079:Y *1080:B 31.725 
*END

*D_NET *296 0.000585183
*CONN
*I *1185:A I *D sky130_fd_sc_hd__nand2_1
*I *1182:B I *D sky130_fd_sc_hd__nand2_1
*I *1080:Y O *D sky130_fd_sc_hd__nand2_1
*CAP
1 *1185:A 9.86807e-05
2 *1182:B 0.000193911
3 *1080:Y 0
4 *296:4 0.000292591
5 *1185:A *1187:A 0
*RES
1 *1080:Y *296:4 9.3 
2 *296:4 *1182:B 12.3357 
3 *296:4 *1185:A 19.9429 
*END

*D_NET *297 0.00168389
*CONN
*I *1190:A I *D sky130_fd_sc_hd__nand2_1
*I *1188:B I *D sky130_fd_sc_hd__nand2_1
*I *1081:Y O *D sky130_fd_sc_hd__nand2_1
*CAP
1 *1190:A 4.5828e-05
2 *1188:B 0.000162346
3 *1081:Y 0.000495834
4 *297:10 0.000704008
5 *1188:B *1197:A 5.80706e-06
6 *1188:B *306:12 6.95699e-05
7 *1190:A *1197:A 9.25014e-06
8 *297:10 *306:12 0
9 *1075:A *297:10 2.19778e-05
10 *1075:B *297:10 1.74352e-05
11 *1076:B *297:10 0.00014183
12 *1080:B *297:10 0
13 *1081:B *297:10 0
14 *172:12 *297:10 1.00073e-05
*RES
1 *1081:Y *297:10 22.9339 
2 *297:10 *1188:B 16.0411 
3 *297:10 *1190:A 14.6839 
*END

*D_NET *298 0.00201987
*CONN
*I *1084:B I *D sky130_fd_sc_hd__nand2_1
*I *1085:B I *D sky130_fd_sc_hd__nand2_1
*I *1091:A I *D sky130_fd_sc_hd__nand2_1
*I *1082:Y O *D sky130_fd_sc_hd__nand2_1
*CAP
1 *1084:B 0.000114283
2 *1085:B 1.6614e-05
3 *1091:A 0.000162048
4 *1082:Y 0
5 *298:10 0.000370707
6 *298:4 0.000306328
7 *1084:B *1086:A 5.71472e-05
8 *1084:B *1088:A 0
9 *1084:B *302:10 0
10 *1091:A *1086:B 0.000241234
11 *1091:A *301:14 9.60875e-05
12 *879:A *298:10 3.69047e-06
13 *1082:B *1084:B 6.68521e-05
14 *1082:B *298:10 4.13595e-05
15 *1084:A *1084:B 2.32013e-05
16 *14:58 *1091:A 0.000104575
17 *15:88 *1085:B 5.83304e-05
18 *15:88 *298:10 9.91086e-05
19 *16:35 *1084:B 2.65105e-05
20 *16:35 *298:10 2.07491e-05
21 *98:12 *1085:B 2.58997e-05
22 *98:12 *298:10 5.01213e-05
23 *106:12 *1091:A 0.000135028
*RES
1 *1082:Y *298:4 9.3 
2 *298:4 *298:10 7.60714 
3 *298:10 *1091:A 18.3536 
4 *298:10 *1085:B 14.5321 
5 *298:4 *1084:B 12.2286 
*END

*D_NET *299 0.000488911
*CONN
*I *1086:A I *D sky130_fd_sc_hd__nand2_1
*I *1084:Y O *D sky130_fd_sc_hd__nand2_1
*CAP
1 *1086:A 0.000166571
2 *1084:Y 0.000166571
3 *1086:A *301:14 7.6644e-05
4 *1086:A *307:14 2.19778e-05
5 *1082:B *1086:A 0
6 *1084:B *1086:A 5.71472e-05
7 *191:10 *1086:A 0
*RES
1 *1084:Y *1086:A 30.0821 
*END

*D_NET *300 0.000490632
*CONN
*I *1086:B I *D sky130_fd_sc_hd__nand2_1
*I *1085:Y O *D sky130_fd_sc_hd__nand2_1
*CAP
1 *1086:B 6.36539e-05
2 *1085:Y 6.36539e-05
3 *1091:A *1086:B 0.000241234
4 *14:58 *1086:B 0.000122091
*RES
1 *1085:Y *1086:B 21.2071 
*END

*D_NET *301 0.00104461
*CONN
*I *1088:A I *D sky130_fd_sc_hd__nand2_1
*I *1087:A I *D sky130_fd_sc_hd__nand2_1
*I *1086:Y O *D sky130_fd_sc_hd__nand2_1
*CAP
1 *1088:A 5.12912e-05
2 *1087:A 0
3 *1086:Y 0.000245106
4 *301:14 0.000296397
5 *1088:A *302:10 0.00012073
6 *301:14 *1091:B 0
7 *1084:B *1088:A 0
8 *1086:A *301:14 7.6644e-05
9 *1087:B *1088:A 4.80569e-05
10 *1091:A *301:14 9.60875e-05
11 *16:35 *1088:A 2.95641e-05
12 *16:35 *301:14 8.07313e-05
13 *106:12 *301:14 0
*RES
1 *1086:Y *301:14 22.55 
2 *301:14 *1087:A 9.3 
3 *301:14 *1088:A 11.5143 
*END

*D_NET *302 0.000988918
*CONN
*I *1091:B I *D sky130_fd_sc_hd__nand2_1
*I *1089:B I *D sky130_fd_sc_hd__nand2_1
*I *1088:B I *D sky130_fd_sc_hd__nand2_1
*I *1087:Y O *D sky130_fd_sc_hd__nand2_1
*CAP
1 *1091:B 0.000148952
2 *1089:B 1.5698e-05
3 *1088:B 0
4 *1087:Y 0
5 *302:10 0.000144526
6 *302:4 0.00027778
7 *1091:B *1090:A 4.48113e-05
8 *1091:B *1090:B 0
9 *1091:B *307:14 2.61337e-05
10 *1084:B *302:10 0
11 *1087:B *1089:B 5.71472e-05
12 *1087:B *302:10 3.35602e-05
13 *1088:A *302:10 0.00012073
14 *14:58 *1091:B 6.92028e-05
15 *17:34 *1091:B 5.03772e-05
16 *301:14 *1091:B 0
*RES
1 *1087:Y *302:4 9.3 
2 *302:4 *302:10 2.92857 
3 *302:10 *1088:B 9.3 
4 *302:10 *1089:B 9.83571 
5 *302:4 *1091:B 21.1929 
*END

*D_NET *303 0.000771183
*CONN
*I *1134:A I *D sky130_fd_sc_hd__nand2_1
*I *1132:B I *D sky130_fd_sc_hd__nand2_1
*I *927:Y O *D sky130_fd_sc_hd__inv_1
*CAP
1 *1134:A 6.79119e-06
2 *1132:B 4.10826e-05
3 *927:Y 0.00010031
4 *303:10 0.000148184
5 *1132:B *1133:B 4.77002e-05
6 *1132:B *1134:B 1.00733e-05
7 *1132:B *348:24 2.85321e-05
8 *1134:A *1133:B 1.00733e-05
9 *1134:A *1134:B 5.04841e-06
10 *303:10 *1133:B 6.56459e-05
11 *1132:A *1132:B 7.13236e-05
12 *1133:A *1132:B 9.84729e-05
13 *1133:A *303:10 0.000137945
*RES
1 *927:Y *303:10 12.1304 
2 *303:10 *1132:B 11.0857 
3 *303:10 *1134:A 9.72857 
*END

*D_NET *304 0.000607677
*CONN
*I *1090:A I *D sky130_fd_sc_hd__nand2_1
*I *1088:Y O *D sky130_fd_sc_hd__nand2_1
*CAP
1 *1090:A 0.00014459
2 *1088:Y 0.00014459
3 *1090:A *1016:A 0
4 *1090:A *1090:B 4.25716e-05
5 *1090:A *306:12 5.71472e-05
6 *850:B *1090:A 8.37335e-05
7 *1005:A *1090:A 0
8 *1091:B *1090:A 4.48113e-05
9 *14:58 *1090:A 9.02331e-05
*RES
1 *1088:Y *1090:A 31.85 
*END

*D_NET *305 0.000261601
*CONN
*I *1090:B I *D sky130_fd_sc_hd__nand2_1
*I *1089:Y O *D sky130_fd_sc_hd__nand2_1
*CAP
1 *1090:B 7.68641e-05
2 *1089:Y 7.68641e-05
3 *1005:B *1090:B 2.60251e-05
4 *1090:A *1090:B 4.25716e-05
5 *1091:B *1090:B 0
6 *14:58 *1090:B 3.92757e-05
*RES
1 *1089:Y *1090:B 29.5464 
*END

*D_NET *306 0.00606137
*CONN
*I *1195:A I *D sky130_fd_sc_hd__nand2_1
*I *1192:B I *D sky130_fd_sc_hd__nand2_1
*I *1090:Y O *D sky130_fd_sc_hd__nand2_1
*CAP
1 *1195:A 9.03713e-05
2 *1192:B 0
3 *1090:Y 0.00167803
4 *306:14 0.000223189
5 *306:12 0.00181085
6 *1195:A *1197:A 2.21972e-05
7 *306:12 *1016:A 5.52238e-05
8 *306:12 *1197:A 1.18927e-05
9 *306:14 *1197:A 0
10 *306:14 *1200:A 0
11 *842:B *306:12 0.000215049
12 *850:B *306:12 7.48301e-06
13 *863:B *306:12 0
14 *865:A *306:12 0.000173152
15 *872:A *306:12 0.000342433
16 *874:A *306:12 3.98645e-05
17 *947:B *306:12 0
18 *948:A *306:12 0
19 *952:B *306:12 0
20 *953:A *306:12 5.59013e-05
21 *1005:A *306:12 1.02936e-05
22 *1005:B *306:12 5.03772e-05
23 *1075:A *306:12 0
24 *1090:A *306:12 5.71472e-05
25 *1188:B *306:12 6.95699e-05
26 *1455:B *306:12 0.000181388
27 *1468:B *306:12 0.000154762
28 *4:82 *306:12 5.33978e-05
29 *4:103 *306:12 6.39901e-05
30 *14:58 *306:12 5.52238e-05
31 *16:43 *306:12 0.000183726
32 *84:10 *306:12 1.42331e-05
33 *91:8 *306:12 0
34 *167:10 *306:12 0.000313465
35 *201:12 *306:12 0.000128154
36 *237:10 *306:12 0
37 *297:10 *306:12 0
*RES
1 *1090:Y *306:12 49.3804 
2 *306:12 *306:14 2.40179 
3 *306:14 *1192:B 13.8 
4 *306:14 *1195:A 15.7107 
*END

*D_NET *307 0.00566149
*CONN
*I *1200:A I *D sky130_fd_sc_hd__nand2_1
*I *1198:B I *D sky130_fd_sc_hd__nand2_1
*I *1091:Y O *D sky130_fd_sc_hd__nand2_1
*CAP
1 *1200:A 0.000253172
2 *1198:B 2.91823e-05
3 *1091:Y 0.00127114
4 *307:16 0.000282354
5 *307:14 0.00127114
6 *1198:B *316:10 1.92789e-05
7 *1200:A *1204:A 4.1331e-06
8 *1200:A *316:10 5.31359e-05
9 *845:A *307:14 1.14933e-05
10 *952:B *307:14 0
11 *956:A *307:14 8.45034e-05
12 *969:A *307:14 0.000169095
13 *977:A *307:14 6.74911e-05
14 *981:A *307:14 7.80714e-06
15 *982:A *307:14 0.000150632
16 *985:A *307:14 6.74911e-05
17 *985:B *307:14 0.00015234
18 *1027:B *307:14 0.000116507
19 *1050:B *307:14 0.000248778
20 *1086:A *307:14 2.19778e-05
21 *1091:B *307:14 2.61337e-05
22 *1199:A *1200:A 0
23 *14:58 *307:14 5.52238e-05
24 *15:88 *307:14 0
25 *66:10 *307:14 0.000124749
26 *92:14 *307:14 0.000751144
27 *173:10 *307:14 6.65398e-05
28 *187:12 *307:14 0
29 *191:10 *307:14 0
30 *194:14 *307:14 7.83587e-05
31 *221:14 *307:14 0.000277687
32 *306:14 *1200:A 0
*RES
1 *1091:Y *307:14 46.9964 
2 *307:14 *307:16 4.5 
3 *307:16 *1198:B 9.83571 
4 *307:16 *1200:A 22.5143 
*END

*D_NET *308 0.00185019
*CONN
*I *1101:A I *D sky130_fd_sc_hd__nand2_1
*I *1093:B I *D sky130_fd_sc_hd__nand2_1
*I *1095:B I *D sky130_fd_sc_hd__nand2_1
*I *1092:Y O *D sky130_fd_sc_hd__nand2_1
*CAP
1 *1101:A 0.000349465
2 *1093:B 0
3 *1095:B 0.000117788
4 *1092:Y 0.000205125
5 *308:23 0.00037266
6 *308:10 0.000346109
7 *1095:B *1096:A 5.49489e-05
8 *1095:B *1096:B 2.8078e-05
9 *1093:A *308:10 6.5527e-05
10 *1093:A *308:23 2.51992e-05
11 *15:62 *1101:A 0.000120718
12 *15:62 *308:10 3.34672e-05
13 *15:62 *308:23 1.88048e-05
14 *56:10 *1101:A 0
15 *121:14 *308:10 1.13883e-05
16 *222:22 *1101:A 0.000100913
*RES
1 *1092:Y *308:10 16.9071 
2 *308:10 *1095:B 15.8893 
3 *308:10 *308:23 0.732143 
4 *308:23 *1093:B 13.8 
5 *308:23 *1101:A 20.8 
*END

*D_NET *309 0.000332268
*CONN
*I *1096:A I *D sky130_fd_sc_hd__nand2_1
*I *1093:Y O *D sky130_fd_sc_hd__nand2_1
*CAP
1 *1096:A 0.000108863
2 *1093:Y 0.000108863
3 *1096:A *1096:B 5.59025e-05
4 *1096:A *311:10 3.69047e-06
5 *1095:B *1096:A 5.49489e-05
*RES
1 *1093:Y *1096:A 20.7964 
*END

*D_NET *310 0.000384457
*CONN
*I *1096:B I *D sky130_fd_sc_hd__nand2_1
*I *1095:Y O *D sky130_fd_sc_hd__nand2_1
*CAP
1 *1096:B 0.000150238
2 *1095:Y 0.000150238
3 *1095:B *1096:B 2.8078e-05
4 *1096:A *1096:B 5.59025e-05
*RES
1 *1095:Y *1096:B 21.2071 
*END

*D_NET *311 0.00142921
*CONN
*I *1098:A I *D sky130_fd_sc_hd__nand2_1
*I *1097:A I *D sky130_fd_sc_hd__nand2_1
*I *1096:Y O *D sky130_fd_sc_hd__nand2_1
*CAP
1 *1098:A 0.000202547
2 *1097:A 0
3 *1096:Y 0.00027373
4 *311:10 0.000476277
5 *1098:A *1098:B 0.00017565
6 *1098:A *1100:A 7.43578e-06
7 *1098:A *1100:B 1.66568e-05
8 *1098:A *312:12 0.00010326
9 *986:A *311:10 0
10 *1096:A *311:10 3.69047e-06
11 *1099:A *1098:A 9.24299e-05
12 *1099:A *311:10 5.80706e-06
13 *222:22 *1098:A 2.59795e-05
14 *222:22 *311:10 4.57445e-05
*RES
1 *1096:Y *311:10 17.6214 
2 *311:10 *1097:A 13.8 
3 *311:10 *1098:A 19.0857 
*END

*D_NET *312 0.0010319
*CONN
*I *1099:B I *D sky130_fd_sc_hd__nand2_1
*I *1098:B I *D sky130_fd_sc_hd__nand2_1
*I *1101:B I *D sky130_fd_sc_hd__nand2_1
*I *1097:Y O *D sky130_fd_sc_hd__nand2_1
*CAP
1 *1099:B 0
2 *1098:B 8.464e-05
3 *1101:B 2.22669e-05
4 *1097:Y 0.000162646
5 *312:12 0.000269552
6 *1098:B *1100:B 1.56e-05
7 *1098:B *317:12 1.56e-05
8 *1101:B *317:12 2.89016e-05
9 *1098:A *1098:B 0.00017565
10 *1098:A *312:12 0.00010326
11 *1099:A *1098:B 5.52238e-05
12 *1099:A *312:12 1.46624e-05
13 *222:22 *312:12 8.39e-05
*RES
1 *1097:Y *312:12 21.1929 
2 *312:12 *1101:B 9.83571 
3 *312:12 *1098:B 11.925 
4 *312:12 *1099:B 9.3 
*END

*D_NET *313 0.000383129
*CONN
*I *1100:A I *D sky130_fd_sc_hd__nand2_1
*I *1098:Y O *D sky130_fd_sc_hd__nand2_1
*CAP
1 *1100:A 9.00246e-05
2 *1098:Y 9.00246e-05
3 *1100:A *1100:B 6.74911e-05
4 *1098:A *1100:A 7.43578e-06
5 *221:14 *1100:A 0.000128154
*RES
1 *1098:Y *1100:A 29.7786 
*END

*D_NET *314 0.000312646
*CONN
*I *950:A I *D sky130_fd_sc_hd__inv_1
*I *939:Y O *D sky130_fd_sc_hd__nand2_1
*CAP
1 *950:A 8.04759e-05
2 *939:Y 8.04759e-05
3 *950:A *361:12 0.000128154
4 *950:A *362:12 0
5 *3:104 *950:A 2.3541e-05
*RES
1 *939:Y *950:A 29.4795 
*END

*D_NET *315 0.000477855
*CONN
*I *1100:B I *D sky130_fd_sc_hd__nand2_1
*I *1099:Y O *D sky130_fd_sc_hd__nand2_1
*CAP
1 *1100:B 0.000174603
2 *1099:Y 0.000174603
3 *1100:B *317:12 0
4 *1098:A *1100:B 1.66568e-05
5 *1098:B *1100:B 1.56e-05
6 *1099:A *1100:B 2.89016e-05
7 *1100:A *1100:B 6.74911e-05
*RES
1 *1099:Y *1100:B 30.6 
*END

*D_NET *316 0.00173887
*CONN
*I *1204:A I *D sky130_fd_sc_hd__nand2_1
*I *1202:B I *D sky130_fd_sc_hd__nand2_1
*I *1100:Y O *D sky130_fd_sc_hd__nand2_1
*CAP
1 *1204:A 0.00029739
2 *1202:B 0
3 *1100:Y 0.000313774
4 *316:10 0.000611163
5 *1204:A *1203:A 0.000148196
6 *1204:A *1206:B 0.00014285
7 *1204:A *417:14 3.99614e-06
8 *316:10 *1199:B 0
9 *316:10 *412:10 9.90431e-05
10 *1198:B *316:10 1.92789e-05
11 *1199:A *316:10 4.59075e-05
12 *1200:A *1204:A 4.1331e-06
13 *1200:A *316:10 5.31359e-05
*RES
1 *1100:Y *316:10 18.3357 
2 *316:10 *1202:B 13.8 
3 *316:10 *1204:A 19.1571 
*END

*D_NET *317 0.00213134
*CONN
*I *1212:B I *D sky130_fd_sc_hd__nand2_1
*I *1214:A I *D sky130_fd_sc_hd__nand2_1
*I *1101:Y O *D sky130_fd_sc_hd__nand2_1
*CAP
1 *1212:B 0
2 *1214:A 7.25394e-05
3 *1101:Y 0.00063233
4 *317:12 0.000704869
5 *1214:A *1212:A 1.61893e-05
6 *1214:A *1213:A 1.74352e-05
7 *1214:A *426:6 5.33433e-05
8 *1214:A *427:6 5.71472e-05
9 *1214:A *427:10 3.57366e-05
10 *317:12 *1211:A 0.000129868
11 *317:12 *1217:B 0
12 *1098:B *317:12 1.56e-05
13 *1100:B *317:12 0
14 *1101:B *317:12 2.89016e-05
15 *1199:A *317:12 0
16 *222:22 *317:12 0.000367377
*RES
1 *1101:Y *317:12 31.0143 
2 *317:12 *1214:A 11.5143 
3 *317:12 *1212:B 9.3 
*END

*D_NET *318 0.0018479
*CONN
*I *1111:A I *D sky130_fd_sc_hd__nand2_1
*I *1103:B I *D sky130_fd_sc_hd__nand2_1
*I *1104:B I *D sky130_fd_sc_hd__nand2_1
*I *1102:Y O *D sky130_fd_sc_hd__nand2_1
*CAP
1 *1111:A 0.000618213
2 *1103:B 0
3 *1104:B 1.40568e-05
4 *1102:Y 0.000106682
5 *318:12 1.40568e-05
6 *318:10 0.000724895
7 *1104:B *1106:B 5.52238e-05
8 *1103:A *1111:A 4.46186e-06
9 *1103:A *318:10 6.19181e-05
10 *1104:A *318:10 7.83587e-05
11 *10:22 *1104:B 2.89016e-05
12 *10:30 *1111:A 0
13 *10:86 *1111:A 0
14 *18:81 *1111:A 0.000117144
15 *18:81 *318:10 2.39876e-05
*RES
1 *1102:Y *318:10 15.9786 
2 *318:10 *318:12 4.5 
3 *318:12 *1104:B 9.83571 
4 *318:12 *1103:B 9.3 
5 *318:10 *1111:A 24.5857 
*END

*D_NET *319 0.000391853
*CONN
*I *1106:A I *D sky130_fd_sc_hd__nand2_1
*I *1103:Y O *D sky130_fd_sc_hd__nand2_1
*CAP
1 *1106:A 5.6936e-05
2 *1103:Y 5.6936e-05
3 *1106:A *1106:B 5.75275e-05
4 *1106:A *321:8 3.18676e-05
5 *10:22 *1106:A 0.000188586
*RES
1 *1103:Y *1106:A 20.7964 
*END

*D_NET *320 0.000455858
*CONN
*I *1106:B I *D sky130_fd_sc_hd__nand2_1
*I *1104:Y O *D sky130_fd_sc_hd__nand2_1
*CAP
1 *1106:B 0.000132764
2 *1104:Y 0.000132764
3 *1104:A *1106:B 5.33005e-05
4 *1104:B *1106:B 5.52238e-05
5 *1106:A *1106:B 5.75275e-05
6 *10:22 *1106:B 2.42778e-05
*RES
1 *1104:Y *1106:B 21.2071 
*END

*D_NET *321 0.00157445
*CONN
*I *1108:A I *D sky130_fd_sc_hd__nand2_1
*I *1107:A I *D sky130_fd_sc_hd__nand2_1
*I *1106:Y O *D sky130_fd_sc_hd__nand2_1
*CAP
1 *1108:A 0.000185966
2 *1107:A 0
3 *1106:Y 0.000355384
4 *321:8 0.00054135
5 *1108:A *1110:A 5.68713e-05
6 *1108:A *1110:B 0.000113763
7 *1108:A *322:8 0.000111694
8 *1108:A *322:19 2.36643e-05
9 *1024:A *1108:A 3.8624e-05
10 *1106:A *321:8 3.18676e-05
11 *1107:B *1108:A 2.13218e-05
12 *1107:B *321:8 1.8461e-05
13 *1109:A *1108:A 2.47631e-06
14 *10:22 *321:8 4.8843e-05
15 *241:8 *1108:A 2.41642e-05
*RES
1 *1106:Y *321:8 15.1929 
2 *321:8 *1107:A 9.3 
3 *321:8 *1108:A 14.425 
*END

*D_NET *322 0.00104246
*CONN
*I *1111:B I *D sky130_fd_sc_hd__nand2_1
*I *1108:B I *D sky130_fd_sc_hd__nand2_1
*I *1109:B I *D sky130_fd_sc_hd__nand2_1
*I *1107:Y O *D sky130_fd_sc_hd__nand2_1
*CAP
1 *1111:B 0.000206221
2 *1108:B 0
3 *1109:B 0
4 *1107:Y 3.57775e-05
5 *322:19 0.000304169
6 *322:8 0.000133726
7 *1111:B *1110:B 7.92879e-05
8 *1111:B *327:10 5.20669e-05
9 *1024:B *1111:B 0
10 *1107:B *322:8 3.38774e-05
11 *1107:B *322:19 5.65955e-05
12 *1108:A *322:8 0.000111694
13 *1108:A *322:19 2.36643e-05
14 *1109:A *322:8 5.38444e-06
15 *242:12 *1111:B 0
*RES
1 *1107:Y *322:8 10.675 
2 *322:8 *1109:B 9.3 
3 *322:8 *322:19 5.98214 
4 *322:19 *1108:B 13.8 
5 *322:19 *1111:B 17.6036 
*END

*D_NET *323 0.00064188
*CONN
*I *1110:A I *D sky130_fd_sc_hd__nand2_1
*I *1108:Y O *D sky130_fd_sc_hd__nand2_1
*CAP
1 *1110:A 0.000240667
2 *1108:Y 0.000240667
3 *1110:A *1110:B 5.68713e-05
4 *1024:A *1110:A 1.59373e-05
5 *1024:B *1110:A 3.08664e-05
6 *1108:A *1110:A 5.68713e-05
*RES
1 *1108:Y *1110:A 32.0286 
*END

*D_NET *324 0.000805917
*CONN
*I *1110:B I *D sky130_fd_sc_hd__nand2_1
*I *1109:Y O *D sky130_fd_sc_hd__nand2_1
*CAP
1 *1110:B 0.000277997
2 *1109:Y 0.000277997
3 *1108:A *1110:B 0.000113763
4 *1110:A *1110:B 5.68713e-05
5 *1111:B *1110:B 7.92879e-05
*RES
1 *1109:Y *1110:B 32.2607 
*END

*D_NET *325 0.0010187
*CONN
*I *1036:B I *D sky130_fd_sc_hd__nand2_1
*I *1039:A I *D sky130_fd_sc_hd__nand2_1
*I *950:Y O *D sky130_fd_sc_hd__inv_1
*CAP
1 *1036:B 0.000108477
2 *1039:A 0.000102006
3 *950:Y 6.22792e-05
4 *325:12 0.000272763
5 *325:12 *361:12 0.000101545
6 *3:104 *325:12 1.89596e-05
7 *171:14 *325:12 0.000101545
8 *253:8 *1036:B 9.60939e-05
9 *253:8 *1039:A 0.000131824
10 *253:19 *1036:B 0
11 *253:19 *1039:A 2.32013e-05
*RES
1 *950:Y *325:12 19.9696 
2 *325:12 *1039:A 11.3893 
3 *325:12 *1036:B 11.3893 
*END

*D_NET *326 0.000503359
*CONN
*I *1210:A I *D sky130_fd_sc_hd__nand2_1
*I *1208:B I *D sky130_fd_sc_hd__nand2_1
*I *1110:Y O *D sky130_fd_sc_hd__nand2_1
*CAP
1 *1210:A 7.32367e-05
2 *1208:B 1.60352e-05
3 *1110:Y 0.000119777
4 *326:6 0.000209049
5 *1210:A *1210:B 1.97695e-05
6 *1210:A *422:8 1.74352e-05
7 *1208:A *1208:B 5.7661e-06
8 *1208:A *1210:A 4.22908e-05
*RES
1 *1110:Y *326:6 11.0679 
2 *326:6 *1208:B 9.72857 
3 *326:6 *1210:A 11.0857 
*END

*D_NET *327 0.00126494
*CONN
*I *1224:A I *D sky130_fd_sc_hd__nand2_1
*I *1222:B I *D sky130_fd_sc_hd__nand2_1
*I *1111:Y O *D sky130_fd_sc_hd__nand2_1
*CAP
1 *1224:A 0.000156823
2 *1222:B 0
3 *1111:Y 0.000240815
4 *327:10 0.000397638
5 *1224:A *1221:B 0.000146474
6 *1224:A *1222:A 3.13225e-05
7 *1224:A *1225:A 5.33005e-05
8 *1224:A *1225:B 5.33005e-05
9 *1224:A *437:16 0.000123946
10 *327:10 *1222:A 9.25014e-06
11 *1111:B *327:10 5.20669e-05
12 *242:12 *327:10 0
*RES
1 *1111:Y *327:10 17.2107 
2 *327:10 *1222:B 13.8 
3 *327:10 *1224:A 17.7286 
*END

*D_NET *328 0.00111944
*CONN
*I *1121:A I *D sky130_fd_sc_hd__nand2_1
*I *1113:B I *D sky130_fd_sc_hd__nand2_1
*I *1114:B I *D sky130_fd_sc_hd__nand2_1
*I *1112:Y O *D sky130_fd_sc_hd__nand2_1
*CAP
1 *1121:A 7.47482e-05
2 *1113:B 0.000108631
3 *1114:B 0.000129915
4 *1112:Y 0.00023747
5 *328:22 0.000290934
6 *1113:B *331:10 2.8266e-06
7 *1114:B *1115:B 3.97677e-05
8 *1121:A *331:10 3.15739e-05
9 *1121:A *337:18 3.07555e-05
10 *328:22 *1115:A 7.43578e-06
11 *328:22 *1115:B 1.4966e-05
12 *1113:A *328:22 1.92905e-05
13 *1114:A *1114:B 5.33005e-05
14 *10:86 *1113:B 0
15 *18:81 *1113:B 1.63058e-05
16 *18:81 *1121:A 3.87848e-05
17 *18:116 *1121:A 1.99099e-05
18 *72:12 *1113:B 2.8266e-06
*RES
1 *1112:Y *1114:B 20.7964 
2 *1112:Y *328:22 15.1571 
3 *328:22 *1113:B 15.4964 
4 *328:22 *1121:A 15.7464 
*END

*D_NET *329 0.000187794
*CONN
*I *1115:A I *D sky130_fd_sc_hd__nand2_1
*I *1113:Y O *D sky130_fd_sc_hd__nand2_1
*CAP
1 *1115:A 5.91462e-05
2 *1113:Y 5.91462e-05
3 *1115:A *1115:B 6.20656e-05
4 *328:22 *1115:A 7.43578e-06
*RES
1 *1113:Y *1115:A 19.975 
*END

*D_NET *330 0.000769282
*CONN
*I *1115:B I *D sky130_fd_sc_hd__nand2_1
*I *1114:Y O *D sky130_fd_sc_hd__nand2_1
*CAP
1 *1115:B 0.000271976
2 *1114:Y 0.000271976
3 *1113:A *1115:B 5.52302e-05
4 *1114:A *1115:B 5.33005e-05
5 *1114:B *1115:B 3.97677e-05
6 *1115:A *1115:B 6.20656e-05
7 *328:22 *1115:B 1.4966e-05
*RES
1 *1114:Y *1115:B 23.2607 
*END

*D_NET *331 0.000689024
*CONN
*I *1118:A I *D sky130_fd_sc_hd__nand2_1
*I *1117:A I *D sky130_fd_sc_hd__nand2_1
*I *1115:Y O *D sky130_fd_sc_hd__nand2_1
*CAP
1 *1118:A 0
2 *1117:A 0.000110487
3 *1115:Y 0.000101394
4 *331:10 0.000211881
5 *1117:A *1120:A 0
6 *1117:A *1121:B 1.44193e-05
7 *1117:A *332:8 1.02821e-05
8 *1117:A *332:19 3.17016e-05
9 *1117:A *337:18 5.52238e-05
10 *331:10 *1119:B 5.80706e-06
11 *331:10 *337:18 5.59013e-05
12 *1113:B *331:10 2.8266e-06
13 *1117:B *1117:A 5.75275e-05
14 *1121:A *331:10 3.15739e-05
15 *10:86 *331:10 0
*RES
1 *1115:Y *331:10 20.2464 
2 *331:10 *1117:A 11.925 
3 *331:10 *1118:A 9.3 
*END

*D_NET *332 0.0011182
*CONN
*I *1118:B I *D sky130_fd_sc_hd__nand2_1
*I *1119:B I *D sky130_fd_sc_hd__nand2_1
*I *1121:B I *D sky130_fd_sc_hd__nand2_1
*I *1117:Y O *D sky130_fd_sc_hd__nand2_1
*CAP
1 *1118:B 0
2 *1119:B 0.000114962
3 *1121:B 1.39026e-05
4 *1117:Y 0.000116446
5 *332:19 0.000202801
6 *332:8 0.000218188
7 *1119:B *1120:B 0.000125724
8 *1119:B *337:18 5.21676e-05
9 *332:19 *1120:A 3.58638e-05
10 *332:19 *335:8 0
11 *1117:A *1121:B 1.44193e-05
12 *1117:A *332:8 1.02821e-05
13 *1117:A *332:19 3.17016e-05
14 *1117:B *1121:B 0
15 *1117:B *332:8 9.90367e-05
16 *1466:A *1119:B 5.52238e-05
17 *10:86 *1119:B 2.16719e-05
18 *331:10 *1119:B 5.80706e-06
*RES
1 *1117:Y *332:8 11.0857 
2 *332:8 *1121:B 9.72857 
3 *332:8 *332:19 1.78571 
4 *332:19 *1119:B 21.0857 
5 *332:19 *1118:B 9.3 
*END

*D_NET *333 0.000292739
*CONN
*I *1120:A I *D sky130_fd_sc_hd__nand2_1
*I *1118:Y O *D sky130_fd_sc_hd__nand2_1
*CAP
1 *1120:A 0.000113982
2 *1118:Y 0.000113982
3 *1120:A *335:8 2.89114e-05
4 *1117:A *1120:A 0
5 *1219:A *1120:A 0
6 *332:19 *1120:A 3.58638e-05
*RES
1 *1118:Y *1120:A 20.7964 
*END

*D_NET *334 0.000671277
*CONN
*I *1120:B I *D sky130_fd_sc_hd__nand2_1
*I *1119:Y O *D sky130_fd_sc_hd__nand2_1
*CAP
1 *1120:B 0.000138753
2 *1119:Y 0.000138753
3 *1119:B *1120:B 0.000125724
4 *1466:A *1120:B 0.0001399
5 *10:86 *1120:B 0.000128146
*RES
1 *1119:Y *1120:B 30.6 
*END

*D_NET *335 0.000982466
*CONN
*I *1218:B I *D sky130_fd_sc_hd__nand2_1
*I *1220:A I *D sky130_fd_sc_hd__nand2_1
*I *1120:Y O *D sky130_fd_sc_hd__nand2_1
*CAP
1 *1218:B 0
2 *1220:A 0.000221534
3 *1120:Y 0.000156231
4 *335:8 0.000377765
5 *1220:A *1220:B 5.68713e-05
6 *335:8 *432:10 1.14749e-05
7 *1120:A *335:8 2.89114e-05
8 *1219:A *335:8 5.7661e-06
9 *10:86 *1220:A 0
10 *242:12 *1220:A 0.000123912
11 *332:19 *335:8 0
*RES
1 *1120:Y *335:8 11.9071 
2 *335:8 *1220:A 22.925 
3 *335:8 *1218:B 9.3 
*END

*D_NET *336 0.000723122
*CONN
*I *972:A I *D sky130_fd_sc_hd__inv_1
*I *961:Y O *D sky130_fd_sc_hd__nand2_1
*CAP
1 *972:A 0.000182709
2 *961:Y 0.000182709
3 *972:A *347:8 1.66955e-05
4 *972:A *381:8 0.000123295
5 *1382:B *972:A 0.000182162
6 *3:91 *972:A 3.55505e-05
*RES
1 *961:Y *972:A 31.2473 
*END

*D_NET *337 0.00341517
*CONN
*I *1234:A I *D sky130_fd_sc_hd__nand2_1
*I *1232:B I *D sky130_fd_sc_hd__nand2_1
*I *1121:Y O *D sky130_fd_sc_hd__nand2_1
*CAP
1 *1234:A 0.000221035
2 *1232:B 0
3 *1121:Y 0.000635437
4 *337:18 0.000856472
5 *1234:A *1231:A 9.09401e-05
6 *1234:A *1232:A 2.26424e-05
7 *1234:A *447:12 0.000344203
8 *337:18 *1231:A 0.00010096
9 *836:A *337:18 0
10 *1030:B *337:18 0.000125724
11 *1031:B *337:18 0
12 *1034:A *337:18 0.000148189
13 *1035:A *337:18 4.66368e-05
14 *1117:A *337:18 5.52238e-05
15 *1117:B *337:18 0.000146474
16 *1119:B *337:18 5.21676e-05
17 *1121:A *337:18 3.07555e-05
18 *1228:A *1234:A 0
19 *10:86 *337:18 0
20 *18:116 *337:18 0
21 *247:26 *337:18 0
22 *251:8 *337:18 0.000337637
23 *252:10 *1234:A 0
24 *252:10 *337:18 0.000144773
25 *331:10 *337:18 5.59013e-05
*RES
1 *1121:Y *337:18 33.1393 
2 *337:18 *1232:B 9.3 
3 *337:18 *1234:A 23.8179 
*END

*D_NET *338 0.000761135
*CONN
*I *1131:A I *D sky130_fd_sc_hd__nand2_1
*I *1123:B I *D sky130_fd_sc_hd__nand2_1
*I *1124:B I *D sky130_fd_sc_hd__nand2_1
*I *1122:Y O *D sky130_fd_sc_hd__nand2_1
*CAP
1 *1131:A 0.000117145
2 *1123:B 0
3 *1124:B 1.8141e-05
4 *1122:Y 0
5 *338:10 0.000195487
6 *338:4 0.000294491
7 *1124:B *1125:A 5.71472e-05
8 *1131:A *1273:B 0
9 *338:10 *1125:A 4.38128e-05
10 *1123:A *338:10 3.4911e-05
*RES
1 *1122:Y *338:4 9.3 
2 *338:4 *338:10 2.92857 
3 *338:10 *1124:B 9.83571 
4 *338:10 *1123:B 9.3 
5 *338:4 *1131:A 20.2464 
*END

*D_NET *339 0.000564181
*CONN
*I *1125:A I *D sky130_fd_sc_hd__nand2_1
*I *1123:Y O *D sky130_fd_sc_hd__nand2_1
*CAP
1 *1125:A 0.000196151
2 *1123:Y 0.000196151
3 *1125:A *1125:B 1.56881e-05
4 *1124:A *1125:A 5.52302e-05
5 *1124:B *1125:A 5.71472e-05
6 *338:10 *1125:A 4.38128e-05
*RES
1 *1123:Y *1125:A 22.0286 
*END

*D_NET *340 0.000291956
*CONN
*I *1125:B I *D sky130_fd_sc_hd__nand2_1
*I *1124:Y O *D sky130_fd_sc_hd__nand2_1
*CAP
1 *1125:B 0.000128489
2 *1124:Y 0.000128489
3 *1124:A *1125:B 1.92905e-05
4 *1125:A *1125:B 1.56881e-05
*RES
1 *1124:Y *1125:B 20.5821 
*END

*D_NET *341 0.000658301
*CONN
*I *1126:A I *D sky130_fd_sc_hd__nand2_1
*I *1128:A I *D sky130_fd_sc_hd__nand2_1
*I *1125:Y O *D sky130_fd_sc_hd__nand2_1
*CAP
1 *1126:A 0
2 *1128:A 7.58437e-05
3 *1125:Y 8.36476e-05
4 *341:10 0.000159491
5 *1128:A *1128:B 1.97695e-05
6 *1128:A *1131:B 2.84026e-05
7 *1128:A *342:8 0.000103233
8 *341:10 *441:10 7.45188e-05
9 *1129:A *1128:A 4.40003e-05
10 *74:12 *341:10 6.93944e-05
*RES
1 *1125:Y *341:10 20.2464 
2 *341:10 *1128:A 11.5143 
3 *341:10 *1126:A 9.3 
*END

*D_NET *342 0.00113606
*CONN
*I *1131:B I *D sky130_fd_sc_hd__nand2_1
*I *1128:B I *D sky130_fd_sc_hd__nand2_1
*I *1129:B I *D sky130_fd_sc_hd__nand2_1
*I *1126:Y O *D sky130_fd_sc_hd__nand2_1
*CAP
1 *1131:B 0.000236083
2 *1128:B 6.4774e-06
3 *1129:B 8.40217e-05
4 *1126:Y 0.000343738
5 *342:8 0.000198153
6 *1131:B *485:22 4.01768e-05
7 *1128:A *1128:B 1.97695e-05
8 *1128:A *1131:B 2.84026e-05
9 *1128:A *342:8 0.000103233
10 *1129:A *1128:B 1.02132e-05
11 *1129:A *1129:B 3.67531e-05
12 *1129:A *342:8 2.90431e-05
*RES
1 *1126:Y *342:8 11.4964 
2 *342:8 *1129:B 11.0857 
3 *342:8 *1128:B 9.72857 
4 *1126:Y *1131:B 22.4393 
*END

*D_NET *343 0.000228105
*CONN
*I *1130:A I *D sky130_fd_sc_hd__nand2_1
*I *1128:Y O *D sky130_fd_sc_hd__nand2_1
*CAP
1 *1130:A 8.35738e-05
2 *1128:Y 8.35738e-05
3 *1130:A *1130:B 6.09572e-05
*RES
1 *1128:Y *1130:A 29.2429 
*END

*D_NET *344 0.000365729
*CONN
*I *1130:B I *D sky130_fd_sc_hd__nand2_1
*I *1129:Y O *D sky130_fd_sc_hd__nand2_1
*CAP
1 *1130:B 0.000109971
2 *1129:Y 0.000109971
3 *1130:B *1231:B 0
4 *1130:B *1236:A 1.00332e-05
5 *1130:B *1236:B 1.79236e-05
6 *1129:A *1130:B 5.68722e-05
7 *1130:A *1130:B 6.09572e-05
*RES
1 *1129:Y *1130:B 29.7786 
*END

*D_NET *345 0.00107262
*CONN
*I *1228:B I *D sky130_fd_sc_hd__nand2_1
*I *1230:A I *D sky130_fd_sc_hd__nand2_1
*I *1130:Y O *D sky130_fd_sc_hd__nand2_1
*CAP
1 *1228:B 9.41847e-06
2 *1230:A 9.57873e-05
3 *1130:Y 0.00023778
4 *345:12 0.000342986
5 *1228:B *1235:A 3.99614e-06
6 *1230:A *1231:B 9.41642e-05
7 *1230:A *1235:A 2.89016e-05
8 *1230:A *442:10 4.93113e-05
9 *345:12 *1235:A 4.64978e-05
10 *345:12 *450:8 6.60383e-05
11 *345:12 *451:10 9.77423e-05
*RES
1 *1130:Y *345:12 13.6929 
2 *345:12 *1230:A 11.4964 
3 *345:12 *1228:B 9.72857 
*END

*D_NET *346 0.0013367
*CONN
*I *1242:B I *D sky130_fd_sc_hd__nand2_1
*I *1244:A I *D sky130_fd_sc_hd__nand2_1
*I *1131:Y O *D sky130_fd_sc_hd__nand2_1
*CAP
1 *1242:B 0
2 *1244:A 0.000185881
3 *1131:Y 0.000354772
4 *346:12 0.000540653
5 *1244:A *1242:A 0
6 *1244:A *1245:B 0
7 *1244:A *451:10 7.77652e-05
8 *1244:A *456:26 6.17122e-05
9 *1244:A *486:16 0
10 *346:12 *1245:B 2.8266e-06
11 *346:12 *451:10 0
12 *346:12 *485:22 0.000113087
*RES
1 *1131:Y *346:12 23.3536 
2 *346:12 *1244:A 22.5143 
3 *346:12 *1242:B 9.3 
*END

*D_NET *347 0.00170237
*CONN
*I *906:B I *D sky130_fd_sc_hd__nand2_1
*I *908:A I *D sky130_fd_sc_hd__nand2_1
*I *972:Y O *D sky130_fd_sc_hd__inv_1
*CAP
1 *906:B 0.000103215
2 *908:A 9.65245e-05
3 *972:Y 0.000238639
4 *347:8 0.000438379
5 *906:B *382:12 0
6 *908:A *381:8 0
7 *906:A *906:B 7.8327e-05
8 *907:B *347:8 0.000269422
9 *909:B *906:B 0.000267807
10 *909:B *908:A 7.83587e-05
11 *972:A *347:8 1.66955e-05
12 *3:76 *906:B 2.26327e-05
13 *3:76 *908:A 6.75007e-05
14 *3:91 *906:B 1.46624e-05
15 *3:91 *347:8 5.74499e-06
16 *14:108 *908:A 4.46186e-06
*RES
1 *972:Y *347:8 17.0054 
2 *347:8 *908:A 15.9786 
3 *347:8 *906:B 17.2643 
*END

*D_NET *348 0.00119439
*CONN
*I *1133:B I *D sky130_fd_sc_hd__nand2_1
*I *1134:B I *D sky130_fd_sc_hd__nand2_1
*I *1136:A I *D sky130_fd_sc_hd__inv_1
*I *1132:Y O *D sky130_fd_sc_hd__nand2_1
*CAP
1 *1133:B 7.36817e-05
2 *1134:B 1.38986e-05
3 *1136:A 0.000185363
4 *1132:Y 0.000248524
5 *348:24 0.000150742
6 *916:A *1136:A 0.000342978
7 *939:B *1136:A 0
8 *1132:A *348:24 1.21258e-05
9 *1132:B *1133:B 4.77002e-05
10 *1132:B *1134:B 1.00733e-05
11 *1132:B *348:24 2.85321e-05
12 *1134:A *1133:B 1.00733e-05
13 *1134:A *1134:B 5.04841e-06
14 *303:10 *1133:B 6.56459e-05
*RES
1 *1132:Y *1136:A 32.2116 
2 *1132:Y *348:24 10.2464 
3 *348:24 *1134:B 9.72857 
4 *348:24 *1133:B 11.0857 
*END

*D_NET *349 0.000236427
*CONN
*I *1135:A I *D sky130_fd_sc_hd__nand2_1
*I *1133:Y O *D sky130_fd_sc_hd__nand2_1
*CAP
1 *1135:A 0.000104623
2 *1133:Y 0.000104623
3 *1135:A *1135:B 2.29031e-05
4 *1135:A *1251:B 4.27842e-06
*RES
1 *1133:Y *1135:A 29.2429 
*END

*D_NET *350 0.000599789
*CONN
*I *1135:B I *D sky130_fd_sc_hd__nand2_1
*I *1134:Y O *D sky130_fd_sc_hd__nand2_1
*CAP
1 *1135:B 0.000217527
2 *1134:Y 0.000217527
3 *1135:B *1250:B 3.45026e-05
4 *1135:B *351:8 6.75952e-05
5 *1135:A *1135:B 2.29031e-05
6 *11:113 *1135:B 3.9733e-05
*RES
1 *1134:Y *1135:B 31.7964 
*END

*D_NET *351 0.00074826
*CONN
*I *1251:B I *D sky130_fd_sc_hd__xor2_1
*I *1250:B I *D sky130_fd_sc_hd__and2_1
*I *1135:Y O *D sky130_fd_sc_hd__nand2_1
*CAP
1 *1251:B 0.000120899
2 *1250:B 1.57021e-05
3 *1135:Y 7.34398e-05
4 *351:8 0.000210041
5 *1250:B *463:10 1.47872e-05
6 *1251:B *1251:A 3.9699e-05
7 *1251:B *463:10 0.000128154
8 *1251:B *464:14 1.02504e-05
9 *351:8 *463:10 2.89114e-05
10 *1135:A *1251:B 4.27842e-06
11 *1135:B *1250:B 3.45026e-05
12 *1135:B *351:8 6.75952e-05
*RES
1 *1135:Y *351:8 11.0857 
2 *351:8 *1250:B 9.83571 
3 *351:8 *1251:B 20.8536 
*END

*D_NET *352 0.000815831
*CONN
*I *1142:B I *D sky130_fd_sc_hd__nand2_1
*I *1144:A I *D sky130_fd_sc_hd__nand2_1
*I *1136:Y O *D sky130_fd_sc_hd__inv_1
*CAP
1 *1142:B 0.000157777
2 *1144:A 0
3 *1136:Y 0.000146622
4 *352:12 0.000304399
5 *1142:B *1144:B 5.71472e-05
6 *1142:B *1145:A 2.89114e-05
7 *1142:B *1146:B 0
8 *1142:B *357:17 7.52299e-05
9 *916:A *352:12 4.57445e-05
10 *939:B *352:12 0
*RES
1 *1136:Y *352:12 20.6839 
2 *352:12 *1144:A 9.3 
3 *352:12 *1142:B 12.7464 
*END

*D_NET *353 0.00107086
*CONN
*I *1139:B I *D sky130_fd_sc_hd__nand2_1
*I *1146:A I *D sky130_fd_sc_hd__nand2_1
*I *1140:B I *D sky130_fd_sc_hd__nand2_1
*I *1137:Y O *D sky130_fd_sc_hd__nand2_1
*CAP
1 *1139:B 0.000136162
2 *1146:A 9.79306e-05
3 *1140:B 4.68077e-05
4 *1137:Y 0
5 *353:8 0.000273654
6 *353:4 0.000265078
7 *1139:B *1139:A 5.52238e-05
8 *1139:B *1141:A 1.15281e-05
9 *1139:B *478:14 5.52302e-05
10 *1139:B *630:8 5.7661e-06
11 *1140:B *356:10 0
12 *1140:B *478:14 0
13 *1146:A *356:10 0
14 *353:8 *1137:B 2.44318e-05
15 *353:8 *630:8 9.90431e-05
16 *266:14 *1140:B 0
17 *266:14 *1146:A 0
*RES
1 *1137:Y *353:4 9.3 
2 *353:4 *353:8 6.26786 
3 *353:8 *1140:B 14.5321 
4 *353:8 *1146:A 15.4429 
5 *353:4 *1139:B 11.925 
*END

*D_NET *354 0.000540754
*CONN
*I *1141:A I *D sky130_fd_sc_hd__nand2_1
*I *1139:Y O *D sky130_fd_sc_hd__nand2_1
*CAP
1 *1141:A 0.000132013
2 *1139:Y 0.000132013
3 *1141:A *1083:A 3.67279e-06
4 *1141:A *1139:A 1.21258e-05
5 *1141:A *1141:B 4.09058e-05
6 *1141:A *356:10 0.000126439
7 *1141:A *478:14 8.20563e-05
8 *939:B *1141:A 0
9 *1139:B *1141:A 1.15281e-05
*RES
1 *1139:Y *1141:A 30.4929 
*END

*D_NET *355 0.000457691
*CONN
*I *1141:B I *D sky130_fd_sc_hd__nand2_1
*I *1140:Y O *D sky130_fd_sc_hd__nand2_1
*CAP
1 *1141:B 0.000151664
2 *1140:Y 0.000151664
3 *1141:B *1105:A 4.27842e-06
4 *1141:B *1137:B 1.92789e-05
5 *1141:B *478:14 7.6644e-05
6 *1141:B *630:8 1.32552e-05
7 *1141:A *1141:B 4.09058e-05
8 *1249:B *1141:B 0
*RES
1 *1140:Y *1141:B 30.4929 
*END

*D_NET *356 0.000971479
*CONN
*I *1143:A I *D sky130_fd_sc_hd__nand2_1
*I *1142:A I *D sky130_fd_sc_hd__nand2_1
*I *1141:Y O *D sky130_fd_sc_hd__nand2_1
*CAP
1 *1143:A 5.97367e-05
2 *1142:A 3.13107e-05
3 *1141:Y 0.000244194
4 *356:10 0.000335241
5 *356:10 *478:14 4.74383e-05
6 *939:B *356:10 0.000127119
7 *1140:B *356:10 0
8 *1141:A *356:10 0.000126439
9 *1146:A *356:10 0
*RES
1 *1141:Y *356:10 19.425 
2 *356:10 *1142:A 14.3357 
3 *356:10 *1143:A 14.7464 
*END

*D_NET *357 0.000687372
*CONN
*I *1144:B I *D sky130_fd_sc_hd__nand2_1
*I *1143:B I *D sky130_fd_sc_hd__nand2_1
*I *1146:B I *D sky130_fd_sc_hd__nand2_1
*I *1142:Y O *D sky130_fd_sc_hd__nand2_1
*CAP
1 *1144:B 1.60925e-05
2 *1143:B 0
3 *1146:B 0.000142265
4 *1142:Y 0
5 *357:17 0.000135233
6 *357:4 0.000261405
7 *1142:B *1144:B 5.71472e-05
8 *1142:B *1146:B 0
9 *1142:B *357:17 7.52299e-05
*RES
1 *1142:Y *357:4 9.3 
2 *357:4 *1146:B 11.4964 
3 *357:4 *357:17 2.19643 
4 *357:17 *1143:B 9.3 
5 *357:17 *1144:B 9.83571 
*END

*D_NET *358 0.000719289
*CONN
*I *994:A I *D sky130_fd_sc_hd__inv_1
*I *983:Y O *D sky130_fd_sc_hd__nand2_1
*CAP
1 *994:A 0.000265318
2 *983:Y 0.000265318
3 *994:A *369:10 8.48822e-06
4 *4:17 *994:A 2.89114e-05
5 *4:32 *994:A 7.61932e-05
6 *14:83 *994:A 7.50601e-05
*RES
1 *983:Y *994:A 31.5955 
*END

*D_NET *359 0.000452637
*CONN
*I *1145:A I *D sky130_fd_sc_hd__nand2_1
*I *1143:Y O *D sky130_fd_sc_hd__nand2_1
*CAP
1 *1145:A 9.73816e-05
2 *1143:Y 9.73816e-05
3 *1145:A *1145:B 7.83366e-05
4 *939:B *1145:A 0.000150625
5 *1142:B *1145:A 2.89114e-05
*RES
1 *1143:Y *1145:A 30.0821 
*END

*D_NET *360 0.000256521
*CONN
*I *1145:B I *D sky130_fd_sc_hd__nand2_1
*I *1144:Y O *D sky130_fd_sc_hd__nand2_1
*CAP
1 *1145:B 8.10792e-05
2 *1144:Y 8.10792e-05
3 *894:A *1145:B 1.60258e-05
4 *916:A *1145:B 0
5 *1145:A *1145:B 7.83366e-05
*RES
1 *1144:Y *1145:B 29.5464 
*END

*D_NET *361 0.00226759
*CONN
*I *1253:B I *D sky130_fd_sc_hd__xor2_1
*I *1252:B I *D sky130_fd_sc_hd__and2_1
*I *1145:Y O *D sky130_fd_sc_hd__nand2_1
*CAP
1 *1253:B 9.22904e-05
2 *1252:B 0
3 *1145:Y 0.000517563
4 *361:12 0.000609854
5 *1253:B *465:10 3.18676e-05
6 *361:12 *1154:A 0
7 *894:A *361:12 0
8 *905:A *361:12 0
9 *950:A *361:12 0.000128154
10 *1040:A *361:12 0.000153054
11 *1040:B *361:12 0.000128154
12 *1253:A *1253:B 0.000142856
13 *3:104 *361:12 0
14 *4:47 *361:12 1.58163e-05
15 *171:14 *361:12 2.39876e-05
16 *256:12 *361:12 0.000322453
17 *325:12 *361:12 0.000101545
*RES
1 *1145:Y *361:12 30.1929 
2 *361:12 *1252:B 9.3 
3 *361:12 *1253:B 11.4964 
*END

*D_NET *362 0.00187635
*CONN
*I *1154:A I *D sky130_fd_sc_hd__nand2_1
*I *1152:B I *D sky130_fd_sc_hd__nand2_1
*I *1146:Y O *D sky130_fd_sc_hd__nand2_1
*CAP
1 *1154:A 0.000284253
2 *1152:B 0
3 *1146:Y 0.000629928
4 *362:12 0.00091418
5 *1154:A *1153:A 0
6 *1154:A *367:10 0
7 *362:12 *1151:A 4.79842e-05
8 *950:A *362:12 0
9 *1040:B *362:12 0
10 *171:14 *362:12 0
11 *266:14 *1154:A 0
12 *266:14 *362:12 0
13 *361:12 *1154:A 0
*RES
1 *1146:Y *362:12 28.5857 
2 *362:12 *1152:B 9.3 
3 *362:12 *1154:A 22.925 
*END

*D_NET *363 0.00120815
*CONN
*I *1150:B I *D sky130_fd_sc_hd__nand2_1
*I *1148:B I *D sky130_fd_sc_hd__nand2_1
*I *1156:A I *D sky130_fd_sc_hd__nand2_1
*I *1147:Y O *D sky130_fd_sc_hd__nand2_1
*CAP
1 *1150:B 0
2 *1148:B 0.000109656
3 *1156:A 0.000138377
4 *1147:Y 0.000130183
5 *363:10 0.000248033
6 *363:8 0.000130183
7 *1148:B *381:8 0
8 *1156:A *1257:A 5.80706e-06
9 *1156:A *381:8 7.67045e-05
10 *363:8 *1151:B 3.82538e-05
11 *1147:A *1148:B 0.000103725
12 *1147:A *1156:A 5.80706e-06
13 *1150:A *363:8 5.45614e-05
14 *266:14 *1148:B 8.91822e-05
15 *266:14 *1156:A 7.7674e-05
*RES
1 *1147:Y *363:8 11.4964 
2 *363:8 *363:10 4.5 
3 *363:10 *1156:A 17.1929 
4 *363:10 *1148:B 16.5857 
5 *363:8 *1150:B 9.3 
*END

*D_NET *364 0.000264678
*CONN
*I *1151:A I *D sky130_fd_sc_hd__nand2_1
*I *1148:Y O *D sky130_fd_sc_hd__nand2_1
*CAP
1 *1151:A 4.34129e-05
2 *1148:Y 4.34129e-05
3 *266:14 *1151:A 0.000129868
4 *362:12 *1151:A 4.79842e-05
*RES
1 *1148:Y *1151:A 29.2429 
*END

*D_NET *365 0.000190988
*CONN
*I *1151:B I *D sky130_fd_sc_hd__nand2_1
*I *1150:Y O *D sky130_fd_sc_hd__nand2_1
*CAP
1 *1151:B 6.46639e-05
2 *1150:Y 6.46639e-05
3 *1151:B *1152:A 1.3701e-05
4 *1150:A *1151:B 9.7049e-06
5 *363:8 *1151:B 3.82538e-05
*RES
1 *1150:Y *1151:B 19.975 
*END

*D_NET *366 0.000636004
*CONN
*I *1153:A I *D sky130_fd_sc_hd__nand2_1
*I *1152:A I *D sky130_fd_sc_hd__nand2_1
*I *1151:Y O *D sky130_fd_sc_hd__nand2_1
*CAP
1 *1153:A 8.21422e-05
2 *1152:A 4.8015e-05
3 *1151:Y 9.22066e-05
4 *366:6 0.000222364
5 *1153:A *367:10 0.000101545
6 *1151:B *1152:A 1.3701e-05
7 *1154:A *1153:A 0
8 *266:14 *1153:A 7.60306e-05
*RES
1 *1151:Y *366:6 10.2464 
2 *366:6 *1152:A 10.3357 
3 *366:6 *1153:A 20.2464 
*END

*D_NET *367 0.000882908
*CONN
*I *1154:B I *D sky130_fd_sc_hd__nand2_1
*I *1153:B I *D sky130_fd_sc_hd__nand2_1
*I *1156:B I *D sky130_fd_sc_hd__nand2_1
*I *1152:Y O *D sky130_fd_sc_hd__nand2_1
*CAP
1 *1154:B 9.95054e-05
2 *1153:B 0
3 *1156:B 3.38401e-05
4 *1152:Y 5.99539e-05
5 *367:14 0.000148674
6 *367:10 0.000274294
7 *1154:B *1155:A 2.21417e-05
8 *1154:B *1155:B 3.31648e-05
9 *367:14 *1155:A 0.000109789
10 *1153:A *367:10 0.000101545
11 *1154:A *367:10 0
*RES
1 *1152:Y *367:10 19.6393 
2 *367:10 *367:14 2.08929 
3 *367:14 *1156:B 9.83571 
4 *367:14 *1153:B 9.3 
5 *367:10 *1154:B 11.3893 
*END

*D_NET *368 0.00024798
*CONN
*I *1155:A I *D sky130_fd_sc_hd__nand2_1
*I *1153:Y O *D sky130_fd_sc_hd__nand2_1
*CAP
1 *1155:A 5.51417e-05
2 *1153:Y 5.51417e-05
3 *1155:A *1155:B 5.7661e-06
4 *1154:B *1155:A 2.21417e-05
5 *367:14 *1155:A 0.000109789
*RES
1 *1153:Y *1155:A 19.975 
*END

*D_NET *369 0.00246409
*CONN
*I *911:B I *D sky130_fd_sc_hd__nand2_1
*I *913:A I *D sky130_fd_sc_hd__nand2_1
*I *994:Y O *D sky130_fd_sc_hd__inv_1
*CAP
1 *911:B 0.000349051
2 *913:A 0
3 *994:Y 0.00032571
4 *369:10 0.000674761
5 *911:A *911:B 0.000238454
6 *912:A *911:B 2.04866e-05
7 *914:B *369:10 0.000268403
8 *994:A *369:10 8.48822e-06
9 *1161:A *911:B 0.000211913
10 *1161:A *369:10 8.00806e-05
11 *15:110 *369:10 0
12 *129:23 *911:B 0.000128146
13 *129:23 *369:10 1.02504e-05
14 *133:14 *911:B 5.41794e-05
15 *215:6 *911:B 9.41642e-05
*RES
1 *994:Y *369:10 18.4518 
2 *369:10 *913:A 13.8 
3 *369:10 *911:B 21.2107 
*END

*D_NET *370 0.000179985
*CONN
*I *1155:B I *D sky130_fd_sc_hd__nand2_1
*I *1154:Y O *D sky130_fd_sc_hd__nand2_1
*CAP
1 *1155:B 7.05272e-05
2 *1154:Y 7.05272e-05
3 *1154:B *1155:B 3.31648e-05
4 *1155:A *1155:B 5.7661e-06
*RES
1 *1154:Y *1155:B 19.975 
*END

*D_NET *371 0.00095203
*CONN
*I *1255:B I *D sky130_fd_sc_hd__xor2_1
*I *1254:B I *D sky130_fd_sc_hd__and2_1
*I *1155:Y O *D sky130_fd_sc_hd__nand2_1
*CAP
1 *1255:B 2.53826e-05
2 *1254:B 5.43471e-05
3 *1155:Y 0.000218413
4 *371:10 0.000298143
5 *1254:B *468:12 3.18676e-05
6 *371:10 *471:12 0.00012401
7 *1255:A *1254:B 4.56068e-05
8 *1255:A *1255:B 5.33005e-05
9 *266:14 *1254:B 0.00010096
10 *266:14 *371:10 0
*RES
1 *1155:Y *371:10 22.3714 
2 *371:10 *1254:B 11.0857 
3 *371:10 *1255:B 9.83571 
*END

*D_NET *372 0.000484567
*CONN
*I *1257:A I *D sky130_fd_sc_hd__xor2_1
*I *1256:A I *D sky130_fd_sc_hd__and2_1
*I *1156:Y O *D sky130_fd_sc_hd__nand2_1
*CAP
1 *1257:A 7.9831e-05
2 *1256:A 0.000144427
3 *1156:Y 6.45958e-05
4 *1257:A *1257:B 0.000179656
5 *1257:A *381:8 1.02504e-05
6 *1156:A *1257:A 5.80706e-06
7 *266:14 *1257:A 0
*RES
1 *1156:Y *1256:A 19.5464 
2 *1256:A *1257:A 29.85 
*END

*D_NET *373 0.00229803
*CONN
*I *1158:B I *D sky130_fd_sc_hd__nand2_1
*I *1167:A I *D sky130_fd_sc_hd__nand2_1
*I *1159:B I *D sky130_fd_sc_hd__nand2_1
*I *1157:Y O *D sky130_fd_sc_hd__nand2_1
*CAP
1 *1158:B 0.000150978
2 *1167:A 0.000224764
3 *1159:B 2.69529e-05
4 *1157:Y 0
5 *373:10 0.000536022
6 *373:4 0.000435284
7 *1159:B *1434:A 3.2033e-05
8 *373:10 *1434:A 3.54498e-05
9 *1060:A *1167:A 4.1331e-06
10 *1158:A *1158:B 9.96553e-05
11 *3:76 *1167:A 0.000133512
12 *3:76 *373:10 2.3942e-05
13 *4:32 *1158:B 0.000146261
14 *5:100 *1159:B 9.84729e-05
15 *13:57 *1158:B 8.43386e-05
16 *13:57 *373:10 0.000266231
17 *14:108 *1167:A 0
18 *15:110 *1167:A 0
*RES
1 *1157:Y *373:4 9.3 
2 *373:4 *373:10 9.03571 
3 *373:10 *1159:B 14.7464 
4 *373:10 *1167:A 18.7821 
5 *373:4 *1158:B 21.1929 
*END

*D_NET *374 0.000223007
*CONN
*I *1162:A I *D sky130_fd_sc_hd__nand2_1
*I *1158:Y O *D sky130_fd_sc_hd__nand2_1
*CAP
1 *1162:A 6.80154e-05
2 *1158:Y 6.80154e-05
3 *1158:A *1162:A 5.19019e-05
4 *5:100 *1162:A 3.50746e-05
*RES
1 *1158:Y *1162:A 19.975 
*END

*D_NET *375 0.000218092
*CONN
*I *1162:B I *D sky130_fd_sc_hd__nand2_1
*I *1159:Y O *D sky130_fd_sc_hd__nand2_1
*CAP
1 *1162:B 6.7301e-05
2 *1159:Y 6.7301e-05
3 *5:100 *1162:B 8.34905e-05
*RES
1 *1159:Y *1162:B 19.975 
*END

*D_NET *376 0.000806711
*CONN
*I *1163:A I *D sky130_fd_sc_hd__nand2_1
*I *1164:A I *D sky130_fd_sc_hd__nand2_1
*I *1162:Y O *D sky130_fd_sc_hd__nand2_1
*CAP
1 *1163:A 0.000109729
2 *1164:A 0
3 *1162:Y 7.41123e-05
4 *376:8 0.000183842
5 *1163:A *1164:B 7.15187e-06
6 *1163:A *1166:B 5.52302e-05
7 *376:8 *1164:B 5.54817e-06
8 *4:32 *1163:A 0.00011366
9 *4:32 *376:8 6.35976e-05
10 *14:108 *1163:A 0.00019384
*RES
1 *1162:Y *376:8 15.4429 
2 *376:8 *1164:A 13.8 
3 *376:8 *1163:A 17.1929 
*END

*D_NET *377 0.000921523
*CONN
*I *1164:B I *D sky130_fd_sc_hd__nand2_1
*I *1165:B I *D sky130_fd_sc_hd__nand2_1
*I *1167:B I *D sky130_fd_sc_hd__nand2_1
*I *1163:Y O *D sky130_fd_sc_hd__nand2_1
*CAP
1 *1164:B 5.9743e-05
2 *1165:B 0
3 *1167:B 2.02412e-05
4 *1163:Y 5.3207e-05
5 *377:10 0.000109457
6 *377:6 0.000202166
7 *377:6 *1166:B 9.41642e-05
8 *377:10 *1166:B 5.52238e-05
9 *1163:A *1164:B 7.15187e-06
10 *3:76 *1164:B 9.19975e-05
11 *14:108 *1164:B 0.00015134
12 *276:8 *1167:B 5.52238e-05
13 *276:8 *377:10 1.60597e-05
14 *376:8 *1164:B 5.54817e-06
*RES
1 *1163:Y *377:6 10.2464 
2 *377:6 *377:10 1.67857 
3 *377:10 *1167:B 9.83571 
4 *377:10 *1165:B 9.3 
5 *377:6 *1164:B 20.55 
*END

*D_NET *378 0.000670917
*CONN
*I *1166:A I *D sky130_fd_sc_hd__nand2_1
*I *1164:Y O *D sky130_fd_sc_hd__nand2_1
*CAP
1 *1166:A 0.000255802
2 *1164:Y 0.000255802
3 *1249:A *1166:A 5.5782e-05
4 *4:32 *1166:A 7.83366e-05
5 *11:34 *1166:A 1.91418e-05
6 *14:108 *1166:A 6.05161e-06
*RES
1 *1164:Y *1166:A 31.725 
*END

*D_NET *379 0.000511199
*CONN
*I *1166:B I *D sky130_fd_sc_hd__nand2_1
*I *1165:Y O *D sky130_fd_sc_hd__nand2_1
*CAP
1 *1166:B 0.000113463
2 *1165:Y 0.000113463
3 *1163:A *1166:B 5.52302e-05
4 *1163:B *1166:B 5.52238e-05
5 *276:8 *1166:B 2.44318e-05
6 *377:6 *1166:B 9.41642e-05
7 *377:10 *1166:B 5.52238e-05
*RES
1 *1165:Y *1166:B 21.2071 
*END

*D_NET *380 0.000259615
*CONN
*I *1016:A I *D sky130_fd_sc_hd__inv_1
*I *1005:Y O *D sky130_fd_sc_hd__nand2_1
*CAP
1 *1016:A 5.61684e-05
2 *1005:Y 5.61684e-05
3 *1005:A *1016:A 6.09899e-05
4 *1090:A *1016:A 0
5 *16:43 *1016:A 3.10648e-05
6 *306:12 *1016:A 5.52238e-05
*RES
1 *1005:Y *1016:A 20.2563 
*END

*D_NET *381 0.00250273
*CONN
*I *1257:B I *D sky130_fd_sc_hd__xor2_1
*I *1256:B I *D sky130_fd_sc_hd__and2_1
*I *1166:Y O *D sky130_fd_sc_hd__nand2_1
*CAP
1 *1257:B 6.18752e-05
2 *1256:B 0
3 *1166:Y 0.000607298
4 *381:8 0.000669173
5 *1257:B *470:10 0.000153047
6 *908:A *381:8 0
7 *909:A *381:8 0.000153047
8 *909:B *381:8 0
9 *972:A *381:8 0.000123295
10 *1147:A *381:8 0.00015234
11 *1148:B *381:8 0
12 *1156:A *381:8 7.67045e-05
13 *1257:A *1257:B 0.000179656
14 *1257:A *381:8 1.02504e-05
15 *4:32 *381:8 0.000187893
16 *126:12 *381:8 0.000128154
17 *266:14 *1257:B 0
18 *266:14 *381:8 0
*RES
1 *1166:Y *381:8 27.8893 
2 *381:8 *1256:B 13.8 
3 *381:8 *1257:B 16.3536 
*END

*D_NET *382 0.00243688
*CONN
*I *1259:A I *D sky130_fd_sc_hd__xor2_1
*I *1258:A I *D sky130_fd_sc_hd__and2_1
*I *1167:Y O *D sky130_fd_sc_hd__nand2_1
*CAP
1 *1259:A 0
2 *1258:A 5.98304e-05
3 *1167:Y 0.000797936
4 *382:12 0.000857767
5 *1258:A *1259:B 0.00010096
6 *382:12 *1174:A 0
7 *382:12 *390:10 0
8 *382:12 *470:10 0
9 *906:A *382:12 5.48488e-05
10 *906:B *382:12 0
11 *908:B *382:12 0.000173804
12 *1060:A *382:12 2.56601e-05
13 *3:76 *382:12 0.000185451
14 *3:91 *382:12 3.17067e-05
15 *15:110 *382:12 0
16 *123:10 *382:12 0.000148911
17 *126:12 *382:12 0
*RES
1 *1167:Y *382:12 35.4607 
2 *382:12 *1258:A 10.6571 
3 *382:12 *1259:A 9.3 
*END

*D_NET *383 0.00120025
*CONN
*I *1170:B I *D sky130_fd_sc_hd__nand2_1
*I *1177:A I *D sky130_fd_sc_hd__nand2_1
*I *1169:B I *D sky130_fd_sc_hd__nand2_1
*I *1168:Y O *D sky130_fd_sc_hd__nand2_1
*CAP
1 *1170:B 0
2 *1177:A 9.6551e-05
3 *1169:B 0
4 *1168:Y 0.000107619
5 *383:14 0.000183682
6 *383:8 0.00019475
7 *383:8 *1171:B 5.71472e-05
8 *1169:A *383:14 9.80029e-05
9 *1170:A *383:8 5.75275e-05
10 *1175:A *1177:A 0.000219193
11 *286:10 *1177:A 1.02504e-05
12 *286:10 *383:14 0.000175526
*RES
1 *1168:Y *383:8 11.4964 
2 *383:8 *383:14 7.28571 
3 *383:14 *1169:B 13.8 
4 *383:14 *1177:A 16.6571 
5 *383:8 *1170:B 9.3 
*END

*D_NET *384 0.000503416
*CONN
*I *1171:A I *D sky130_fd_sc_hd__nand2_1
*I *1169:Y O *D sky130_fd_sc_hd__nand2_1
*CAP
1 *1171:A 0.000217201
2 *1169:Y 0.000217201
3 *1171:A *1173:A 5.57575e-05
4 *1171:A *1174:A 1.32552e-05
*RES
1 *1169:Y *1171:A 22.0286 
*END

*D_NET *385 0.000372838
*CONN
*I *1171:B I *D sky130_fd_sc_hd__nand2_1
*I *1170:Y O *D sky130_fd_sc_hd__nand2_1
*CAP
1 *1171:B 0.000133368
2 *1170:Y 0.000133368
3 *1175:A *1171:B 4.1331e-06
4 *286:10 *1171:B 4.48206e-05
5 *383:8 *1171:B 5.71472e-05
*RES
1 *1170:Y *1171:B 29.7786 
*END

*D_NET *386 0.00066208
*CONN
*I *1174:A I *D sky130_fd_sc_hd__nand2_1
*I *1173:A I *D sky130_fd_sc_hd__nand2_1
*I *1171:Y O *D sky130_fd_sc_hd__nand2_1
*CAP
1 *1174:A 0.000235292
2 *1173:A 6.12419e-05
3 *1171:Y 0.000296534
4 *1174:A *387:10 0
5 *1171:A *1173:A 5.57575e-05
6 *1171:A *1174:A 1.32552e-05
7 *382:12 *1174:A 0
*RES
1 *1171:Y *1173:A 19.975 
2 *1171:Y *1174:A 30.9036 
*END

*D_NET *387 0.000690138
*CONN
*I *1177:B I *D sky130_fd_sc_hd__nand2_1
*I *1174:B I *D sky130_fd_sc_hd__nand2_1
*I *1175:B I *D sky130_fd_sc_hd__nand2_1
*I *1173:Y O *D sky130_fd_sc_hd__nand2_1
*CAP
1 *1177:B 0
2 *1174:B 1.46425e-05
3 *1175:B 0
4 *1173:Y 9.58888e-05
5 *387:16 0.000108459
6 *387:10 0.000189706
7 *1174:B *1176:B 5.71472e-05
8 *387:16 *1176:A 0
9 *387:16 *1176:B 2.44318e-05
10 *1174:A *387:10 0
11 *1175:A *387:10 0.000154762
12 *1175:A *387:16 4.51007e-05
*RES
1 *1173:Y *387:10 20.2464 
2 *387:10 *387:16 2.21429 
3 *387:16 *1175:B 9.3 
4 *387:16 *1174:B 9.83571 
5 *387:10 *1177:B 9.3 
*END

*D_NET *388 0.000290736
*CONN
*I *1176:A I *D sky130_fd_sc_hd__nand2_1
*I *1174:Y O *D sky130_fd_sc_hd__nand2_1
*CAP
1 *1176:A 0.000116604
2 *1174:Y 0.000116604
3 *1176:A *1176:B 5.75275e-05
4 *387:16 *1176:A 0
*RES
1 *1174:Y *1176:A 20.7964 
*END

*D_NET *389 0.000401986
*CONN
*I *1176:B I *D sky130_fd_sc_hd__nand2_1
*I *1175:Y O *D sky130_fd_sc_hd__nand2_1
*CAP
1 *1176:B 0.00013144
2 *1175:Y 0.00013144
3 *1174:B *1176:B 5.71472e-05
4 *1175:A *1176:B 0
5 *1176:A *1176:B 5.75275e-05
6 *387:16 *1176:B 2.44318e-05
*RES
1 *1175:Y *1176:B 21.2071 
*END

*D_NET *390 0.000540961
*CONN
*I *1259:B I *D sky130_fd_sc_hd__xor2_1
*I *1258:B I *D sky130_fd_sc_hd__and2_1
*I *1176:Y O *D sky130_fd_sc_hd__nand2_1
*CAP
1 *1259:B 6.87383e-05
2 *1258:B 0
3 *1176:Y 9.86807e-05
4 *390:10 0.000167419
5 *1259:B *472:10 0.000105163
6 *390:10 *1262:B 0
7 *1258:A *1259:B 0.00010096
8 *382:12 *390:10 0
*RES
1 *1176:Y *390:10 19.9429 
2 *390:10 *1258:B 9.3 
3 *390:10 *1259:B 11.4964 
*END

*D_NET *391 0.00115427
*CONN
*I *862:A I *D sky130_fd_sc_hd__nand2_1
*I *859:B I *D sky130_fd_sc_hd__nand2_1
*I *1016:Y O *D sky130_fd_sc_hd__inv_1
*CAP
1 *862:A 7.62007e-05
2 *859:B 0.000106385
3 *1016:Y 5.66427e-05
4 *391:6 0.000239229
5 *859:A *859:B 0.000191403
6 *862:B *862:A 5.33005e-05
7 *863:A *862:A 6.71755e-05
8 *863:A *391:6 6.05161e-06
9 *3:15 *859:B 3.25078e-05
10 *14:58 *859:B 5.33005e-05
11 *16:43 *862:A 8.70594e-05
12 *16:43 *391:6 6.10013e-05
13 *79:28 *859:B 0.00012401
*RES
1 *1016:Y *391:6 10.4518 
2 *391:6 *859:B 21.3893 
3 *391:6 *862:A 11.4964 
*END

*D_NET *392 0.000783512
*CONN
*I *1262:A I *D sky130_fd_sc_hd__xor2_1
*I *1261:A I *D sky130_fd_sc_hd__and2_1
*I *1177:Y O *D sky130_fd_sc_hd__nand2_1
*CAP
1 *1262:A 0.000172366
2 *1261:A 0
3 *1177:Y 0.000108091
4 *392:8 0.000280457
5 *1262:A *1262:B 0.00020455
6 *1262:A *474:8 7.79781e-06
7 *392:8 *1262:B 1.02504e-05
*RES
1 *1177:Y *392:8 15.4429 
2 *392:8 *1261:A 13.8 
3 *392:8 *1262:A 17.6036 
*END

*D_NET *393 0.00431533
*CONN
*I *1187:A I *D sky130_fd_sc_hd__nand2_1
*I *1180:B I *D sky130_fd_sc_hd__nand2_1
*I *1179:B I *D sky130_fd_sc_hd__nand2_1
*I *1178:Y O *D sky130_fd_sc_hd__nand2_1
*CAP
1 *1187:A 0.000909218
2 *1180:B 9.81462e-05
3 *1179:B 8.64095e-05
4 *1178:Y 3.74297e-05
5 *393:23 0.00112489
6 *393:8 0.00024137
7 *1179:B *1181:A 1.62025e-05
8 *1179:B *1181:B 1.24368e-05
9 *1180:B *1181:A 3.49456e-06
10 *1180:B *1181:B 3.2018e-05
11 *1187:A *936:A 4.94362e-05
12 *1187:A *1184:A 1.27784e-05
13 *1187:A *1185:B 5.52238e-05
14 *1187:A *1186:B 2.89016e-05
15 *1187:A *396:8 0.00047512
16 *1187:A *397:10 6.42242e-05
17 *393:23 *396:8 1.16107e-05
18 *942:A *1187:A 5.59013e-05
19 *1074:A *1187:A 0.000120655
20 *1080:A *1187:A 0
21 *1081:B *1187:A 0
22 *1179:A *1179:B 0.000117206
23 *1179:A *393:8 9.96487e-05
24 *1179:A *393:23 3.14003e-05
25 *1180:A *393:8 0.000101178
26 *1180:A *393:23 4.66056e-05
27 *1185:A *1187:A 0
28 *1437:B *1187:A 0
29 *5:64 *1179:B 0.000226272
30 *5:64 *1180:B 1.16543e-05
31 *8:64 *1187:A 8.16036e-05
32 *154:8 *1187:A 0
33 *154:17 *1187:A 0
34 *157:10 *1187:A 9.91086e-05
35 *163:10 *1187:A 6.5185e-05
36 *291:10 *1187:A 0
*RES
1 *1178:Y *393:8 15.1393 
2 *393:8 *1179:B 16.7107 
3 *393:8 *393:23 2.02679 
4 *393:23 *1180:B 15.8804 
5 *393:23 *1187:A 35.2554 
*END

*D_NET *394 0.000188582
*CONN
*I *1181:A I *D sky130_fd_sc_hd__nand2_1
*I *1179:Y O *D sky130_fd_sc_hd__nand2_1
*CAP
1 *1181:A 6.10409e-05
2 *1179:Y 6.10409e-05
3 *1181:A *1181:B 5.46383e-06
4 *1179:A *1181:A 4.13389e-05
5 *1179:B *1181:A 1.62025e-05
6 *1180:B *1181:A 3.49456e-06
*RES
1 *1179:Y *1181:A 19.975 
*END

*D_NET *395 0.000211613
*CONN
*I *1181:B I *D sky130_fd_sc_hd__nand2_1
*I *1180:Y O *D sky130_fd_sc_hd__nand2_1
*CAP
1 *1181:B 5.54257e-05
2 *1180:Y 5.54257e-05
3 *1179:A *1181:B 8.48678e-06
4 *1179:B *1181:B 1.24368e-05
5 *1180:B *1181:B 3.2018e-05
6 *1181:A *1181:B 5.46383e-06
7 *5:64 *1181:B 4.23557e-05
*RES
1 *1180:Y *1181:B 19.975 
*END

*D_NET *396 0.00284854
*CONN
*I *1184:A I *D sky130_fd_sc_hd__nand2_1
*I *1182:A I *D sky130_fd_sc_hd__nand2_1
*I *1181:Y O *D sky130_fd_sc_hd__nand2_1
*CAP
1 *1184:A 0.000114731
2 *1182:A 0
3 *1181:Y 0.000788763
4 *396:8 0.000903494
5 *1184:A *1185:B 1.97695e-05
6 *1184:A *1186:B 3.76337e-05
7 *1184:A *397:10 0.000104974
8 *945:B *396:8 0.000129868
9 *1169:A *396:8 0
10 *1187:A *1184:A 1.27784e-05
11 *1187:A *396:8 0.00047512
12 *1451:A *396:8 9.67416e-05
13 *1453:B *396:8 0
14 *8:64 *396:8 0.000153054
15 *12:60 *396:8 0
16 *13:51 *396:8 0
17 *143:14 *396:8 0
18 *393:23 *396:8 1.16107e-05
*RES
1 *1181:Y *396:8 32.7464 
2 *396:8 *1182:A 13.8 
3 *396:8 *1184:A 16.7107 
*END

*D_NET *397 0.000666707
*CONN
*I *1184:B I *D sky130_fd_sc_hd__nand2_1
*I *1187:B I *D sky130_fd_sc_hd__nand2_1
*I *1185:B I *D sky130_fd_sc_hd__nand2_1
*I *1182:Y O *D sky130_fd_sc_hd__nand2_1
*CAP
1 *1184:B 0
2 *1187:B 0
3 *1185:B 9.1717e-05
4 *1182:Y 6.75093e-05
5 *397:12 0.000115433
6 *397:10 9.12252e-05
7 *1185:B *1186:B 2.77289e-05
8 *397:12 *1186:B 2.89016e-05
9 *1184:A *1185:B 1.97695e-05
10 *1184:A *397:10 0.000104974
11 *1187:A *1185:B 5.52238e-05
12 *1187:A *397:10 6.42242e-05
*RES
1 *1182:Y *397:10 19.9429 
2 *397:10 *397:12 0.535714 
3 *397:12 *1185:B 11.5143 
4 *397:12 *1187:B 9.3 
5 *397:10 *1184:B 9.3 
*END

*D_NET *398 0.000484407
*CONN
*I *1186:A I *D sky130_fd_sc_hd__nand2_1
*I *1184:Y O *D sky130_fd_sc_hd__nand2_1
*CAP
1 *1186:A 0.000166192
2 *1184:Y 0.000166192
3 *1186:A *1186:B 0.000134733
4 *1186:A *400:8 1.72894e-05
*RES
1 *1184:Y *1186:A 21.4036 
*END

*D_NET *399 0.00063211
*CONN
*I *1186:B I *D sky130_fd_sc_hd__nand2_1
*I *1185:Y O *D sky130_fd_sc_hd__nand2_1
*CAP
1 *1186:B 0.000187106
2 *1185:Y 0.000187106
3 *1184:A *1186:B 3.76337e-05
4 *1185:B *1186:B 2.77289e-05
5 *1186:A *1186:B 0.000134733
6 *1187:A *1186:B 2.89016e-05
7 *397:12 *1186:B 2.89016e-05
*RES
1 *1185:Y *1186:B 22.7429 
*END

*D_NET *400 0.00103865
*CONN
*I *1261:B I *D sky130_fd_sc_hd__and2_1
*I *1262:B I *D sky130_fd_sc_hd__xor2_1
*I *1186:Y O *D sky130_fd_sc_hd__nand2_1
*CAP
1 *1261:B 0
2 *1262:B 7.15242e-05
3 *1186:Y 0.000296856
4 *400:8 0.00036838
5 *1262:B *474:8 6.97972e-05
6 *1186:A *400:8 1.72894e-05
7 *1262:A *1262:B 0.00020455
8 *390:10 *1262:B 0
9 *392:8 *1262:B 1.02504e-05
*RES
1 *1186:Y *400:8 13.9607 
2 *400:8 *1262:B 20.8536 
3 *400:8 *1261:B 9.3 
*END

*D_NET *401 0.000921064
*CONN
*I *1264:A I *D sky130_fd_sc_hd__xor2_1
*I *1263:A I *D sky130_fd_sc_hd__and2_1
*I *1187:Y O *D sky130_fd_sc_hd__nand2_1
*CAP
1 *1264:A 7.92635e-05
2 *1263:A 8.92304e-05
3 *1187:Y 0.000214645
4 *401:10 0.000383138
5 *1263:A *1263:B 1.04232e-05
6 *1263:A *1264:B 4.58976e-05
7 *1263:A *410:6 3.18676e-05
8 *1264:A *1263:B 0
9 *1264:A *1264:B 5.33433e-05
10 *1264:A *476:10 1.32552e-05
11 *401:10 *1191:B 0
12 *401:10 *1196:A 0
*RES
1 *1187:Y *401:10 22.0679 
2 *401:10 *1263:A 11.0857 
3 *401:10 *1264:A 11.0857 
*END

*D_NET *402 0.000376495
*CONN
*I *1038:A I *D sky130_fd_sc_hd__inv_1
*I *1027:Y O *D sky130_fd_sc_hd__nand2_1
*CAP
1 *1038:A 0.000130138
2 *1027:Y 0.000130138
3 *872:A *1038:A 6.38461e-05
4 *872:B *1038:A 5.23735e-05
*RES
1 *1027:Y *1038:A 21.4884 
*END

*D_NET *403 0.00135288
*CONN
*I *1189:B I *D sky130_fd_sc_hd__nand2_1
*I *1197:A I *D sky130_fd_sc_hd__nand2_1
*I *1190:B I *D sky130_fd_sc_hd__nand2_1
*I *1188:Y O *D sky130_fd_sc_hd__nand2_1
*CAP
1 *1189:B 7.646e-05
2 *1197:A 0.000296656
3 *1190:B 5.81199e-06
4 *1188:Y 7.35545e-05
5 *403:8 0.000318771
6 *403:6 0.000166317
7 *1197:A *1191:A 0
8 *1197:A *1191:B 0
9 *1197:A *1196:B 6.5185e-05
10 *1197:A *1197:B 0.000129868
11 *1188:B *1197:A 5.80706e-06
12 *1189:A *1189:B 7.45235e-05
13 *1189:A *1190:B 5.52238e-05
14 *1189:A *403:6 4.13595e-05
15 *1189:A *403:8 0
16 *1190:A *1197:A 9.25014e-06
17 *1195:A *1197:A 2.21972e-05
18 *306:12 *1197:A 1.18927e-05
19 *306:14 *1197:A 0
*RES
1 *1188:Y *403:6 10.6571 
2 *403:6 *403:8 0.428571 
3 *403:8 *1190:B 9.83571 
4 *403:8 *1197:A 23.8179 
5 *403:6 *1189:B 11.0857 
*END

*D_NET *404 0.0004003
*CONN
*I *1191:A I *D sky130_fd_sc_hd__nand2_1
*I *1189:Y O *D sky130_fd_sc_hd__nand2_1
*CAP
1 *1191:A 0.000132408
2 *1189:Y 0.000132408
3 *1191:A *1191:B 0.000135484
4 *1197:A *1191:A 0
*RES
1 *1189:Y *1191:A 30.0821 
*END

*D_NET *405 0.000852907
*CONN
*I *1191:B I *D sky130_fd_sc_hd__nand2_1
*I *1190:Y O *D sky130_fd_sc_hd__nand2_1
*CAP
1 *1191:B 0.000243471
2 *1190:Y 0.000243471
3 *1189:A *1191:B 0.000230482
4 *1191:A *1191:B 0.000135484
5 *1197:A *1191:B 0
6 *401:10 *1191:B 0
*RES
1 *1190:Y *1191:B 32.85 
*END

*D_NET *406 0.000586118
*CONN
*I *1193:A I *D sky130_fd_sc_hd__nand2_1
*I *1192:A I *D sky130_fd_sc_hd__nand2_1
*I *1191:Y O *D sky130_fd_sc_hd__nand2_1
*CAP
1 *1193:A 1.2683e-05
2 *1192:A 0.00014765
3 *1191:Y 4.60101e-05
4 *406:6 0.000206344
5 *1192:A *1193:B 5.71472e-05
6 *1192:A *1196:A 5.30637e-06
7 *1192:A *407:6 3.18676e-05
8 *1192:A *407:23 4.02346e-05
9 *1193:A *407:23 3.99614e-06
10 *406:6 *1196:A 3.4879e-05
*RES
1 *1191:Y *406:6 10.2464 
2 *406:6 *1192:A 12.3179 
3 *406:6 *1193:A 9.72857 
*END

*D_NET *407 0.000748765
*CONN
*I *1193:B I *D sky130_fd_sc_hd__nand2_1
*I *1195:B I *D sky130_fd_sc_hd__nand2_1
*I *1197:B I *D sky130_fd_sc_hd__nand2_1
*I *1192:Y O *D sky130_fd_sc_hd__nand2_1
*CAP
1 *1193:B 7.34995e-06
2 *1195:B 0
3 *1197:B 8.86298e-05
4 *1192:Y 5.38305e-05
5 *407:23 6.05342e-05
6 *407:6 0.000195645
7 *1193:B *1196:B 2.44318e-05
8 *407:23 *1196:B 5.52302e-05
9 *1192:A *1193:B 5.71472e-05
10 *1192:A *407:6 3.18676e-05
11 *1192:A *407:23 4.02346e-05
12 *1193:A *407:23 3.99614e-06
13 *1197:A *1197:B 0.000129868
*RES
1 *1192:Y *407:6 10.2464 
2 *407:6 *1197:B 20.3714 
3 *407:6 *407:23 1.375 
4 *407:23 *1195:B 9.3 
5 *407:23 *1193:B 9.83571 
*END

*D_NET *408 0.000467362
*CONN
*I *1196:A I *D sky130_fd_sc_hd__nand2_1
*I *1193:Y O *D sky130_fd_sc_hd__nand2_1
*CAP
1 *1196:A 0.000213588
2 *1193:Y 0.000213588
3 *1196:A *1196:B 0
4 *1192:A *1196:A 5.30637e-06
5 *401:10 *1196:A 0
6 *406:6 *1196:A 3.4879e-05
*RES
1 *1193:Y *1196:A 30.6 
*END

*D_NET *409 0.000611573
*CONN
*I *1196:B I *D sky130_fd_sc_hd__nand2_1
*I *1195:Y O *D sky130_fd_sc_hd__nand2_1
*CAP
1 *1196:B 0.000233363
2 *1195:Y 0.000233363
3 *1193:B *1196:B 2.44318e-05
4 *1196:A *1196:B 0
5 *1197:A *1196:B 6.5185e-05
6 *407:23 *1196:B 5.52302e-05
*RES
1 *1195:Y *1196:B 31.5464 
*END

*D_NET *410 0.000792966
*CONN
*I *1264:B I *D sky130_fd_sc_hd__xor2_1
*I *1263:B I *D sky130_fd_sc_hd__and2_1
*I *1196:Y O *D sky130_fd_sc_hd__nand2_1
*CAP
1 *1264:B 5.62397e-05
2 *1263:B 1.99857e-05
3 *1196:Y 0.000221342
4 *410:6 0.000297567
5 *1264:B *476:10 5.62995e-05
6 *1263:A *1263:B 1.04232e-05
7 *1263:A *1264:B 4.58976e-05
8 *1263:A *410:6 3.18676e-05
9 *1264:A *1263:B 0
10 *1264:A *1264:B 5.33433e-05
*RES
1 *1196:Y *410:6 13.1214 
2 *410:6 *1263:B 9.72857 
3 *410:6 *1264:B 11.0679 
*END

*D_NET *411 0.000792753
*CONN
*I *1266:A I *D sky130_fd_sc_hd__xor2_1
*I *1265:A I *D sky130_fd_sc_hd__and2_1
*I *1197:Y O *D sky130_fd_sc_hd__nand2_1
*CAP
1 *1266:A 0.000136787
2 *1265:A 0
3 *1197:Y 6.70433e-05
4 *411:10 0.00020383
5 *1266:A *1266:B 0.000157896
6 *1266:A *420:14 9.90431e-05
7 *411:10 *420:14 0.000128154
*RES
1 *1197:Y *411:10 19.9429 
2 *411:10 *1265:A 9.3 
3 *411:10 *1266:A 12.7286 
*END

*D_NET *412 0.00167434
*CONN
*I *1199:B I *D sky130_fd_sc_hd__nand2_1
*I *1207:A I *D sky130_fd_sc_hd__nand2_1
*I *1200:B I *D sky130_fd_sc_hd__nand2_1
*I *1198:Y O *D sky130_fd_sc_hd__nand2_1
*CAP
1 *1199:B 4.35335e-05
2 *1207:A 0.000141063
3 *1200:B 0
4 *1198:Y 0.000105375
5 *412:16 0.000375352
6 *412:10 0.000383197
7 *1207:A *1201:B 7.43578e-06
8 *1207:A *1202:A 9.7049e-06
9 *1207:A *1203:A 7.80714e-06
10 *1207:A *1207:B 2.84494e-05
11 *1207:A *417:8 3.92757e-05
12 *412:16 *1201:A 5.52302e-05
13 *412:16 *1201:B 0.000226513
14 *412:16 *1202:A 3.99614e-06
15 *412:16 *416:6 1.74352e-05
16 *1198:A *412:10 2.28598e-05
17 *1199:A *1199:B 2.82057e-05
18 *1199:A *412:10 7.98646e-05
19 *316:10 *1199:B 0
20 *316:10 *412:10 9.90431e-05
*RES
1 *1198:Y *412:10 16.3893 
2 *412:10 *412:16 9.05357 
3 *412:16 *1200:B 9.3 
4 *412:16 *1207:A 21.2107 
5 *412:10 *1199:B 14.5321 
*END

*D_NET *413 0.000609365
*CONN
*I *865:B I *D sky130_fd_sc_hd__nand2_1
*I *867:A I *D sky130_fd_sc_hd__nand2_1
*I *1038:Y O *D sky130_fd_sc_hd__inv_1
*CAP
1 *865:B 1.81419e-05
2 *867:A 0.000145535
3 *1038:Y 1.4102e-05
4 *413:6 0.000177779
5 *865:A *867:A 2.47837e-05
6 *872:A *865:B 4.34677e-05
7 *872:A *413:6 3.49632e-05
8 *84:10 *865:B 4.93118e-06
9 *84:10 *867:A 0.000145662
*RES
1 *1038:Y *413:6 9.63036 
2 *413:6 *867:A 21.1571 
3 *413:6 *865:B 9.83571 
*END

*D_NET *414 0.000207766
*CONN
*I *1201:A I *D sky130_fd_sc_hd__nand2_1
*I *1199:Y O *D sky130_fd_sc_hd__nand2_1
*CAP
1 *1201:A 6.6383e-05
2 *1199:Y 6.6383e-05
3 *1201:A *1201:B 1.97695e-05
4 *412:16 *1201:A 5.52302e-05
*RES
1 *1199:Y *1201:A 19.975 
*END

*D_NET *415 0.000487264
*CONN
*I *1201:B I *D sky130_fd_sc_hd__nand2_1
*I *1200:Y O *D sky130_fd_sc_hd__nand2_1
*CAP
1 *1201:B 7.66782e-05
2 *1200:Y 7.66782e-05
3 *1201:B *1202:A 2.8428e-05
4 *1201:B *416:6 5.17614e-05
5 *1201:A *1201:B 1.97695e-05
6 *1207:A *1201:B 7.43578e-06
7 *412:16 *1201:B 0.000226513
*RES
1 *1200:Y *1201:B 21.2071 
*END

*D_NET *416 0.000742041
*CONN
*I *1202:A I *D sky130_fd_sc_hd__nand2_1
*I *1203:A I *D sky130_fd_sc_hd__nand2_1
*I *1201:Y O *D sky130_fd_sc_hd__nand2_1
*CAP
1 *1202:A 4.06843e-05
2 *1203:A 5.87586e-05
3 *1201:Y 7.54081e-05
4 *416:6 0.000174851
5 *1203:A *1207:B 4.66511e-05
6 *1203:A *417:8 7.83587e-05
7 *1201:B *1202:A 2.8428e-05
8 *1201:B *416:6 5.17614e-05
9 *1204:A *1203:A 0.000148196
10 *1207:A *1202:A 9.7049e-06
11 *1207:A *1203:A 7.80714e-06
12 *412:16 *1202:A 3.99614e-06
13 *412:16 *416:6 1.74352e-05
*RES
1 *1201:Y *416:6 10.6571 
2 *416:6 *1203:A 20.2464 
3 *416:6 *1202:A 10.2643 
*END

*D_NET *417 0.00078951
*CONN
*I *1207:B I *D sky130_fd_sc_hd__nand2_1
*I *1203:B I *D sky130_fd_sc_hd__nand2_1
*I *1204:B I *D sky130_fd_sc_hd__nand2_1
*I *1202:Y O *D sky130_fd_sc_hd__nand2_1
*CAP
1 *1207:B 2.05209e-05
2 *1203:B 0
3 *1204:B 1.60925e-05
4 *1202:Y 3.39848e-05
5 *417:14 0.000161087
6 *417:8 0.0001995
7 *1204:B *1206:B 5.71472e-05
8 *417:14 *1206:A 9.41642e-05
9 *417:14 *1206:B 1.02821e-05
10 *1203:A *1207:B 4.66511e-05
11 *1203:A *417:8 7.83587e-05
12 *1204:A *417:14 3.99614e-06
13 *1207:A *1207:B 2.84494e-05
14 *1207:A *417:8 3.92757e-05
*RES
1 *1202:Y *417:8 14.8357 
2 *417:8 *417:14 6.58929 
3 *417:14 *1204:B 9.83571 
4 *417:14 *1203:B 9.3 
5 *417:8 *1207:B 14.5321 
*END

*D_NET *418 0.000573245
*CONN
*I *1206:A I *D sky130_fd_sc_hd__nand2_1
*I *1203:Y O *D sky130_fd_sc_hd__nand2_1
*CAP
1 *1206:A 0.00017151
2 *1203:Y 0.00017151
3 *1206:A *1206:B 0.000118771
4 *1206:A *420:14 1.72894e-05
5 *417:14 *1206:A 9.41642e-05
*RES
1 *1203:Y *1206:A 22.0286 
*END

*D_NET *419 0.00064127
*CONN
*I *1206:B I *D sky130_fd_sc_hd__nand2_1
*I *1204:Y O *D sky130_fd_sc_hd__nand2_1
*CAP
1 *1206:B 0.00015611
2 *1204:Y 0.00015611
3 *1204:A *1206:B 0.00014285
4 *1204:B *1206:B 5.71472e-05
5 *1206:A *1206:B 0.000118771
6 *417:14 *1206:B 1.02821e-05
*RES
1 *1204:Y *1206:B 22.4393 
*END

*D_NET *420 0.00184202
*CONN
*I *1266:B I *D sky130_fd_sc_hd__xor2_1
*I *1265:B I *D sky130_fd_sc_hd__and2_1
*I *1206:Y O *D sky130_fd_sc_hd__nand2_1
*CAP
1 *1266:B 0.000114494
2 *1265:B 0
3 *1206:Y 0.000511032
4 *420:14 0.000625526
5 *1266:B *479:10 0.000188586
6 *1206:A *420:14 1.72894e-05
7 *1266:A *1266:B 0.000157896
8 *1266:A *420:14 9.90431e-05
9 *411:10 *420:14 0.000128154
*RES
1 *1206:Y *420:14 25.8357 
2 *420:14 *1265:B 9.3 
3 *420:14 *1266:B 13.05 
*END

*D_NET *421 0.00147405
*CONN
*I *1268:A I *D sky130_fd_sc_hd__xor2_1
*I *1267:A I *D sky130_fd_sc_hd__and2_1
*I *1207:Y O *D sky130_fd_sc_hd__nand2_1
*CAP
1 *1268:A 0.000108001
2 *1267:A 0
3 *1207:Y 0.000426638
4 *421:12 0.000534639
5 *1268:A *1268:B 0.000237962
6 *1268:A *1311:A2 0
7 *1268:A *440:10 5.23142e-05
8 *1268:A *481:6 7.77751e-05
9 *421:12 *1217:B 0
10 *421:12 *1267:B 0
11 *421:12 *430:10 0
12 *421:12 *431:10 0
13 *421:12 *440:10 3.67257e-05
*RES
1 *1207:Y *421:12 25.7464 
2 *421:12 *1267:A 9.3 
3 *421:12 *1268:A 12.7286 
*END

*D_NET *422 0.00124064
*CONN
*I *1217:A I *D sky130_fd_sc_hd__nand2_1
*I *1210:B I *D sky130_fd_sc_hd__nand2_1
*I *1209:B I *D sky130_fd_sc_hd__nand2_1
*I *1208:Y O *D sky130_fd_sc_hd__nand2_1
*CAP
1 *1217:A 0.000201631
2 *1210:B 7.94091e-05
3 *1209:B 0
4 *1208:Y 0.000179942
5 *422:15 0.000292233
6 *422:8 0.000191135
7 *1217:A *431:10 1.33343e-05
8 *1208:A *1210:B 3.93247e-05
9 *1208:A *422:8 0.000206432
10 *1210:A *1210:B 1.97695e-05
11 *1210:A *422:8 1.74352e-05
*RES
1 *1208:Y *422:8 13.0321 
2 *422:8 *1209:B 9.3 
3 *422:8 *422:15 0.428571 
4 *422:15 *1210:B 11.0857 
5 *422:15 *1217:A 12.7286 
*END

*D_NET *423 0.000274854
*CONN
*I *1211:A I *D sky130_fd_sc_hd__nand2_1
*I *1209:Y O *D sky130_fd_sc_hd__nand2_1
*CAP
1 *1211:A 3.75945e-05
2 *1209:Y 3.75945e-05
3 *1211:A *1211:B 6.97972e-05
4 *317:12 *1211:A 0.000129868
*RES
1 *1209:Y *1211:A 29.2429 
*END

*D_NET *424 0.00126664
*CONN
*I *1061:A I *D sky130_fd_sc_hd__inv_1
*I *1050:Y O *D sky130_fd_sc_hd__nand2_1
*CAP
1 *1061:A 0.000633318
2 *1050:Y 0.000633318
*RES
1 *1050:Y *1061:A 28.8813 
*END

*D_NET *425 0.000206275
*CONN
*I *1211:B I *D sky130_fd_sc_hd__nand2_1
*I *1210:Y O *D sky130_fd_sc_hd__nand2_1
*CAP
1 *1211:B 6.82389e-05
2 *1210:Y 6.82389e-05
3 *1211:A *1211:B 6.97972e-05
*RES
1 *1210:Y *1211:B 29.2429 
*END

*D_NET *426 0.000862296
*CONN
*I *1213:A I *D sky130_fd_sc_hd__nand2_1
*I *1212:A I *D sky130_fd_sc_hd__nand2_1
*I *1211:Y O *D sky130_fd_sc_hd__nand2_1
*CAP
1 *1213:A 0.000103888
2 *1212:A 1.79444e-05
3 *1211:Y 9.31653e-05
4 *426:6 0.000214997
5 *1213:A *1213:B 3.18676e-05
6 *1213:A *1215:A 2.27416e-05
7 *1213:A *1215:B 0.000249636
8 *1213:A *427:6 9.22103e-06
9 *1213:A *427:10 3.18676e-05
10 *1214:A *1212:A 1.61893e-05
11 *1214:A *1213:A 1.74352e-05
12 *1214:A *426:6 5.33433e-05
*RES
1 *1211:Y *426:6 11.0679 
2 *426:6 *1212:A 9.72857 
3 *426:6 *1213:A 13.05 
*END

*D_NET *427 0.000713364
*CONN
*I *1217:B I *D sky130_fd_sc_hd__nand2_1
*I *1213:B I *D sky130_fd_sc_hd__nand2_1
*I *1214:B I *D sky130_fd_sc_hd__nand2_1
*I *1212:Y O *D sky130_fd_sc_hd__nand2_1
*CAP
1 *1217:B 0.00016808
2 *1213:B 7.51511e-06
3 *1214:B 0
4 *1212:Y 6.36295e-05
5 *427:10 4.2053e-05
6 *427:6 0.000266247
7 *427:10 *1215:A 0
8 *1213:A *1213:B 3.18676e-05
9 *1213:A *427:6 9.22103e-06
10 *1213:A *427:10 3.18676e-05
11 *1214:A *427:6 5.71472e-05
12 *1214:A *427:10 3.57366e-05
13 *317:12 *1217:B 0
14 *421:12 *1217:B 0
*RES
1 *1212:Y *427:6 10.2464 
2 *427:6 *427:10 1.26786 
3 *427:10 *1214:B 9.3 
4 *427:10 *1213:B 9.83571 
5 *427:6 *1217:B 20.8893 
*END

*D_NET *428 0.000283423
*CONN
*I *1215:A I *D sky130_fd_sc_hd__nand2_1
*I *1213:Y O *D sky130_fd_sc_hd__nand2_1
*CAP
1 *1215:A 0.000112186
2 *1213:Y 0.000112186
3 *1215:A *1215:B 1.90213e-05
4 *1215:A *430:10 1.72894e-05
5 *1213:A *1215:A 2.27416e-05
6 *427:10 *1215:A 0
*RES
1 *1213:Y *1215:A 20.7964 
*END

*D_NET *429 0.000633166
*CONN
*I *1215:B I *D sky130_fd_sc_hd__nand2_1
*I *1214:Y O *D sky130_fd_sc_hd__nand2_1
*CAP
1 *1215:B 0.000182254
2 *1214:Y 0.000182254
3 *1213:A *1215:B 0.000249636
4 *1215:A *1215:B 1.90213e-05
*RES
1 *1214:Y *1215:B 21.8143 
*END

*D_NET *430 0.00142848
*CONN
*I *1267:B I *D sky130_fd_sc_hd__and2_1
*I *1268:B I *D sky130_fd_sc_hd__xor2_1
*I *1215:Y O *D sky130_fd_sc_hd__nand2_1
*CAP
1 *1267:B 3.09874e-05
2 *1268:B 0.000148278
3 *1215:Y 0.000358865
4 *430:10 0.00053813
5 *1267:B *431:10 2.84494e-05
6 *1268:B *481:6 1.74352e-05
7 *1268:B *482:12 0
8 *430:10 *431:10 5.10822e-05
9 *1215:A *430:10 1.72894e-05
10 *1268:A *1268:B 0.000237962
11 *421:12 *1267:B 0
12 *421:12 *430:10 0
*RES
1 *1215:Y *430:10 18.55 
2 *430:10 *1268:B 16.8179 
3 *430:10 *1267:B 14.5321 
*END

*D_NET *431 0.00218864
*CONN
*I *1269:A I *D sky130_fd_sc_hd__and2_1
*I *1270:A I *D sky130_fd_sc_hd__xor2_1
*I *1217:Y O *D sky130_fd_sc_hd__nand2_1
*CAP
1 *1269:A 0.000111524
2 *1270:A 0
3 *1217:Y 0.00077087
4 *431:10 0.000882394
5 *1269:A *1269:B 0.000177941
6 *1269:A *440:10 2.48938e-05
7 *1269:A *481:12 0
8 *1269:A *483:10 0
9 *431:10 *440:10 0.000128154
10 *431:10 *481:12 0
11 *1217:A *431:10 1.33343e-05
12 *1267:B *431:10 2.84494e-05
13 *18:129 *1269:A 0
14 *421:12 *431:10 0
15 *430:10 *431:10 5.10822e-05
*RES
1 *1217:Y *431:10 25.3536 
2 *431:10 *1270:A 13.8 
3 *431:10 *1269:A 16.6571 
*END

*D_NET *432 0.00205149
*CONN
*I *1226:A I *D sky130_fd_sc_hd__nand2_1
*I *1219:B I *D sky130_fd_sc_hd__nand2_1
*I *1220:B I *D sky130_fd_sc_hd__nand2_1
*I *1218:Y O *D sky130_fd_sc_hd__nand2_1
*CAP
1 *1226:A 0.000415093
2 *1219:B 0
3 *1220:B 0.000188073
4 *1218:Y 0
5 *432:10 0.000246277
6 *432:4 0.000473297
7 *1220:B *1221:B 3.08664e-05
8 *1220:B *1222:A 0
9 *1220:B *436:8 0
10 *1226:A *1221:A 0.00027698
11 *1226:A *1221:B 2.55806e-05
12 *432:10 *1226:B 9.7049e-06
13 *1219:A *432:10 4.21248e-05
14 *1220:A *1220:B 5.68713e-05
15 *1466:A *1226:A 7.30238e-05
16 *10:86 *1226:A 0
17 *242:12 *1220:B 0.000202128
18 *335:8 *432:10 1.14749e-05
*RES
1 *1218:Y *432:4 9.3 
2 *432:4 *432:10 1.39286 
3 *432:10 *1220:B 22.6393 
4 *432:10 *1219:B 9.3 
5 *432:4 *1226:A 24.3 
*END

*D_NET *433 0.000778165
*CONN
*I *1221:A I *D sky130_fd_sc_hd__nand2_1
*I *1219:Y O *D sky130_fd_sc_hd__nand2_1
*CAP
1 *1221:A 0.000189456
2 *1219:Y 0.000189456
3 *1221:A *1221:B 5.61463e-05
4 *1219:A *1221:A 2.07878e-05
5 *1226:A *1221:A 0.00027698
6 *1466:A *1221:A 4.53378e-05
7 *10:86 *1221:A 0
*RES
1 *1219:Y *1221:A 32.0821 
*END

*D_NET *434 0.00173648
*CONN
*I *1221:B I *D sky130_fd_sc_hd__nand2_1
*I *1220:Y O *D sky130_fd_sc_hd__nand2_1
*CAP
1 *1221:B 0.000467053
2 *1220:Y 0.000467053
3 *1221:B *1222:A 0.000162811
4 *1221:B *1226:B 0.000125724
5 *1221:B *436:8 1.65199e-05
6 *1221:B *437:16 5.52302e-05
7 *1220:B *1221:B 3.08664e-05
8 *1221:A *1221:B 5.61463e-05
9 *1224:A *1221:B 0.000146474
10 *1226:A *1221:B 2.55806e-05
11 *1466:A *1221:B 0.000183023
12 *18:116 *1221:B 0
*RES
1 *1220:Y *1221:B 36.7607 
*END

*D_NET *435 0.00109972
*CONN
*I *880:A I *D sky130_fd_sc_hd__nand2_1
*I *881:A I *D sky130_fd_sc_hd__nand2_1
*I *1061:Y O *D sky130_fd_sc_hd__inv_1
*CAP
1 *880:A 0.000128572
2 *881:A 0
3 *1061:Y 0.000189803
4 *435:12 0.000318375
5 *881:B *880:A 5.65955e-05
6 *884:A *880:A 1.34548e-05
7 *884:B *435:12 0.000147363
8 *7:44 *435:12 0
9 *99:8 *880:A 7.40543e-05
10 *107:12 *880:A 9.56151e-05
11 *107:12 *435:12 7.58841e-05
*RES
1 *1061:Y *435:12 21.3982 
2 *435:12 *881:A 9.3 
3 *435:12 *880:A 12.7464 
*END

*D_NET *436 0.00121259
*CONN
*I *1222:A I *D sky130_fd_sc_hd__nand2_1
*I *1223:A I *D sky130_fd_sc_hd__nand2_1
*I *1221:Y O *D sky130_fd_sc_hd__nand2_1
*CAP
1 *1222:A 0.000263438
2 *1223:A 0
3 *1221:Y 0.000201676
4 *436:8 0.000465115
5 *1222:A *437:16 6.05161e-06
6 *436:8 *1226:B 5.64029e-05
7 *1220:B *1222:A 0
8 *1220:B *436:8 0
9 *1221:B *1222:A 0.000162811
10 *1221:B *436:8 1.65199e-05
11 *1224:A *1222:A 3.13225e-05
12 *242:12 *1222:A 0
13 *327:10 *1222:A 9.25014e-06
*RES
1 *1221:Y *436:8 16.9607 
2 *436:8 *1223:A 13.8 
3 *436:8 *1222:A 18.1393 
*END

*D_NET *437 0.00195014
*CONN
*I *1224:B I *D sky130_fd_sc_hd__nand2_1
*I *1226:B I *D sky130_fd_sc_hd__nand2_1
*I *1223:B I *D sky130_fd_sc_hd__nand2_1
*I *1222:Y O *D sky130_fd_sc_hd__nand2_1
*CAP
1 *1224:B 1.59093e-05
2 *1226:B 0.000217993
3 *1223:B 0
4 *1222:Y 0.000295579
5 *437:20 0.000287314
6 *437:16 0.00038081
7 *1224:B *1225:B 0
8 *1226:B *1225:A 0.000141133
9 *437:16 *1225:A 9.76435e-06
10 *437:16 *1225:B 0.000135028
11 *437:20 *1225:A 5.45307e-05
12 *1219:A *437:20 3.50166e-05
13 *1221:B *1226:B 0.000125724
14 *1221:B *437:16 5.52302e-05
15 *1222:A *437:16 6.05161e-06
16 *1224:A *437:16 0.000123946
17 *432:10 *1226:B 9.7049e-06
18 *436:8 *1226:B 5.64029e-05
*RES
1 *1222:Y *437:16 23.4964 
2 *437:16 *437:20 1.78571 
3 *437:20 *1223:B 9.3 
4 *437:20 *1226:B 22.4429 
5 *437:16 *1224:B 9.72857 
*END

*D_NET *438 0.000666968
*CONN
*I *1225:A I *D sky130_fd_sc_hd__nand2_1
*I *1223:Y O *D sky130_fd_sc_hd__nand2_1
*CAP
1 *1225:A 0.000173703
2 *1223:Y 0.000173703
3 *1225:A *1225:B 4.76276e-05
4 *1225:A *440:10 1.32056e-05
5 *1224:A *1225:A 5.33005e-05
6 *1226:B *1225:A 0.000141133
7 *437:16 *1225:A 9.76435e-06
8 *437:20 *1225:A 5.45307e-05
*RES
1 *1223:Y *1225:A 22.4393 
*END

*D_NET *439 0.000376781
*CONN
*I *1225:B I *D sky130_fd_sc_hd__nand2_1
*I *1224:Y O *D sky130_fd_sc_hd__nand2_1
*CAP
1 *1225:B 7.04124e-05
2 *1224:Y 7.04124e-05
3 *1224:A *1225:B 5.33005e-05
4 *1224:B *1225:B 0
5 *1225:A *1225:B 4.76276e-05
6 *437:16 *1225:B 0.000135028
*RES
1 *1224:Y *1225:B 20.3857 
*END

*D_NET *440 0.0030371
*CONN
*I *1269:B I *D sky130_fd_sc_hd__and2_1
*I *1270:B I *D sky130_fd_sc_hd__xor2_1
*I *1225:Y O *D sky130_fd_sc_hd__nand2_1
*CAP
1 *1269:B 0.000181968
2 *1270:B 0
3 *1225:Y 0.00111996
4 *440:10 0.00130193
5 *857:A *1269:B 0
6 *1225:A *440:10 1.32056e-05
7 *1268:A *440:10 5.23142e-05
8 *1269:A *1269:B 0.000177941
9 *1269:A *440:10 2.48938e-05
10 *18:129 *1269:B 0
11 *18:129 *440:10 0
12 *421:12 *440:10 3.67257e-05
13 *431:10 *440:10 0.000128154
*RES
1 *1225:Y *440:10 28.1929 
2 *440:10 *1270:B 13.8 
3 *440:10 *1269:B 17.425 
*END

*D_NET *441 0.00187234
*CONN
*I *1274:A I *D sky130_fd_sc_hd__xor2_1
*I *1273:A I *D sky130_fd_sc_hd__and2_1
*I *1226:Y O *D sky130_fd_sc_hd__nand2_1
*CAP
1 *1274:A 9.54e-05
2 *1273:A 0
3 *1226:Y 0.000553114
4 *441:10 0.000648514
5 *1274:A *1273:B 0.00017136
6 *441:10 *1273:B 1.00332e-05
7 *1466:A *441:10 0.000273821
8 *18:116 *441:10 4.55821e-05
9 *341:10 *441:10 7.45188e-05
*RES
1 *1226:Y *441:10 23.1929 
2 *441:10 *1273:A 13.8 
3 *441:10 *1274:A 16.05 
*END

*D_NET *442 0.00142074
*CONN
*I *1236:A I *D sky130_fd_sc_hd__nand2_1
*I *1230:B I *D sky130_fd_sc_hd__nand2_1
*I *1229:B I *D sky130_fd_sc_hd__nand2_1
*I *1228:Y O *D sky130_fd_sc_hd__nand2_1
*CAP
1 *1236:A 0.0002867
2 *1230:B 0
3 *1229:B 2.21677e-05
4 *1228:Y 0
5 *442:10 0.000167444
6 *442:4 0.000431977
7 *1236:A *1235:A 5.49248e-05
8 *1236:A *1236:B 5.37741e-06
9 *1236:A *450:8 0.000185118
10 *442:10 *1235:A 1.24368e-05
11 *1130:B *1236:A 1.00332e-05
12 *1228:A *1229:B 1.74352e-05
13 *1228:A *442:10 0.000177815
14 *1230:A *442:10 4.93113e-05
*RES
1 *1228:Y *442:4 9.3 
2 *442:4 *442:10 3.33929 
3 *442:10 *1229:B 9.83571 
4 *442:10 *1230:B 9.3 
5 *442:4 *1236:A 22.3357 
*END

*D_NET *443 0.000670581
*CONN
*I *1231:A I *D sky130_fd_sc_hd__nand2_1
*I *1229:Y O *D sky130_fd_sc_hd__nand2_1
*CAP
1 *1231:A 0.000200158
2 *1229:Y 0.000200158
3 *1234:A *1231:A 9.09401e-05
4 *252:10 *1231:A 7.83659e-05
5 *337:18 *1231:A 0.00010096
*RES
1 *1229:Y *1231:A 31.5464 
*END

*D_NET *444 0.000601655
*CONN
*I *1231:B I *D sky130_fd_sc_hd__nand2_1
*I *1230:Y O *D sky130_fd_sc_hd__nand2_1
*CAP
1 *1231:B 0.000180818
2 *1230:Y 0.000180818
3 *1231:B *1232:A 5.7616e-05
4 *1231:B *1233:A 7.83587e-05
5 *1231:B *1236:B 9.87983e-06
6 *1130:B *1231:B 0
7 *1230:A *1231:B 9.41642e-05
*RES
1 *1230:Y *1231:B 30.725 
*END

*D_NET *445 0.00110831
*CONN
*I *1233:A I *D sky130_fd_sc_hd__nand2_1
*I *1232:A I *D sky130_fd_sc_hd__nand2_1
*I *1231:Y O *D sky130_fd_sc_hd__nand2_1
*CAP
1 *1233:A 0.000169381
2 *1232:A 6.17768e-05
3 *1231:Y 0
4 *445:6 0.000231158
5 *1232:A *447:12 1.02504e-05
6 *1233:A *1235:A 3.48235e-05
7 *1233:A *1236:B 3.65544e-05
8 *1233:A *447:12 0.000324957
9 *1228:A *1233:A 8.07879e-05
10 *1231:B *1232:A 5.7616e-05
11 *1231:B *1233:A 7.83587e-05
12 *1234:A *1232:A 2.26424e-05
*RES
1 *1231:Y *445:6 13.8 
2 *445:6 *1232:A 15.0679 
3 *445:6 *1233:A 18.7107 
*END

*D_NET *446 0.000557296
*CONN
*I *1083:A I *D sky130_fd_sc_hd__inv_1
*I *1072:Y O *D sky130_fd_sc_hd__nand2_1
*CAP
1 *1083:A 0.000213676
2 *1072:Y 0.000213676
3 *939:B *1083:A 0.000126272
4 *1141:A *1083:A 3.67279e-06
*RES
1 *1072:Y *1083:A 31.5777 
*END

*D_NET *447 0.00233834
*CONN
*I *1233:B I *D sky130_fd_sc_hd__nand2_1
*I *1236:B I *D sky130_fd_sc_hd__nand2_1
*I *1234:B I *D sky130_fd_sc_hd__nand2_1
*I *1232:Y O *D sky130_fd_sc_hd__nand2_1
*CAP
1 *1233:B 0
2 *1236:B 0.000350774
3 *1234:B 0
4 *1232:Y 0.000146264
5 *447:23 0.000454877
6 *447:12 0.000250366
7 *1236:B *1235:A 0.000123295
8 *1236:B *1235:B 0.000176574
9 *447:12 *1235:B 2.59355e-05
10 *447:23 *1235:B 4.70078e-05
11 *1130:B *1236:B 1.79236e-05
12 *1228:A *1236:B 1.41029e-05
13 *1231:B *1236:B 9.87983e-06
14 *1232:A *447:12 1.02504e-05
15 *1233:A *1236:B 3.65544e-05
16 *1233:A *447:12 0.000324957
17 *1234:A *447:12 0.000344203
18 *1236:A *1236:B 5.37741e-06
*RES
1 *1232:Y *447:12 23.2107 
2 *447:12 *1234:B 9.3 
3 *447:12 *447:23 2.21429 
4 *447:23 *1236:B 24.5679 
5 *447:23 *1233:B 9.3 
*END

*D_NET *448 0.000699386
*CONN
*I *1235:A I *D sky130_fd_sc_hd__nand2_1
*I *1233:Y O *D sky130_fd_sc_hd__nand2_1
*CAP
1 *1235:A 0.00014101
2 *1233:Y 0.00014101
3 *1235:A *450:8 5.65955e-05
4 *1228:A *1235:A 5.58941e-05
5 *1228:B *1235:A 3.99614e-06
6 *1230:A *1235:A 2.89016e-05
7 *1233:A *1235:A 3.48235e-05
8 *1236:A *1235:A 5.49248e-05
9 *1236:B *1235:A 0.000123295
10 *345:12 *1235:A 4.64978e-05
11 *442:10 *1235:A 1.24368e-05
*RES
1 *1233:Y *1235:A 31.4393 
*END

*D_NET *449 0.00073547
*CONN
*I *1235:B I *D sky130_fd_sc_hd__nand2_1
*I *1234:Y O *D sky130_fd_sc_hd__nand2_1
*CAP
1 *1235:B 0.000242976
2 *1234:Y 0.000242976
3 *1236:B *1235:B 0.000176574
4 *447:12 *1235:B 2.59355e-05
5 *447:23 *1235:B 4.70078e-05
*RES
1 *1234:Y *1235:B 32.0286 
*END

*D_NET *450 0.00135209
*CONN
*I *1273:B I *D sky130_fd_sc_hd__and2_1
*I *1274:B I *D sky130_fd_sc_hd__xor2_1
*I *1235:Y O *D sky130_fd_sc_hd__nand2_1
*CAP
1 *1273:B 0.000165587
2 *1274:B 0
3 *1235:Y 0.000227222
4 *450:8 0.000392809
5 *1273:B *451:10 2.99907e-05
6 *450:8 *451:10 4.73327e-05
7 *1131:A *1273:B 0
8 *1235:A *450:8 5.65955e-05
9 *1236:A *450:8 0.000185118
10 *1274:A *1273:B 0.00017136
11 *345:12 *450:8 6.60383e-05
12 *441:10 *1273:B 1.00332e-05
*RES
1 *1235:Y *450:8 14.3714 
2 *450:8 *1274:B 9.3 
3 *450:8 *1273:B 21.8 
*END

*D_NET *451 0.00359329
*CONN
*I *1276:A I *D sky130_fd_sc_hd__xor2_1
*I *1275:A I *D sky130_fd_sc_hd__and2_1
*I *1236:Y O *D sky130_fd_sc_hd__nand2_1
*CAP
1 *1276:A 0.000152445
2 *1275:A 4.26491e-05
3 *1236:Y 0.00103954
4 *451:10 0.00123463
5 *1275:A *1242:A 1.21955e-05
6 *1275:A *485:22 0
7 *1276:A *1242:A 7.79781e-06
8 *1276:A *1276:B 0.000197092
9 *1276:A *455:16 3.83074e-05
10 *1276:A *460:12 4.53834e-05
11 *1276:A *487:8 0.000144773
12 *451:10 *1242:A 7.47029e-06
13 *451:10 *1245:B 0.000149911
14 *451:10 *1246:A 0
15 *451:10 *1246:B 0.00014285
16 *451:10 *455:16 0
17 *451:10 *456:26 2.88018e-06
18 *451:10 *460:12 0.000113285
19 *451:10 *485:22 9.25014e-06
20 *1244:A *451:10 7.77652e-05
21 *1273:B *451:10 2.99907e-05
22 *345:12 *451:10 9.77423e-05
23 *346:12 *451:10 0
24 *450:8 *451:10 4.73327e-05
*RES
1 *1236:Y *451:10 28.0232 
2 *451:10 *1275:A 14.6125 
3 *451:10 *1276:A 17.7018 
*END

*D_NET *452 0.00143055
*CONN
*I *1246:A I *D sky130_fd_sc_hd__nand2_1
*I *1240:B I *D sky130_fd_sc_hd__nand2_1
*I *1239:B I *D sky130_fd_sc_hd__nand2_1
*I *1237:Y O *D sky130_fd_sc_hd__nand2_1
*CAP
1 *1246:A 0.000129611
2 *1240:B 8.21501e-05
3 *1239:B 0
4 *1237:Y 0
5 *452:14 0.000291813
6 *452:4 0.000339274
7 *1240:B *1241:B 5.52302e-05
8 *1240:B *485:22 3.30237e-05
9 *1246:A *455:16 4.94362e-05
10 *1246:A *485:22 1.99881e-05
11 *452:14 *1241:A 2.28598e-05
12 *452:14 *485:22 5.59013e-05
13 *1237:B *1246:A 5.59013e-05
14 *1237:B *452:14 1.59782e-05
15 *1239:A *1240:B 1.97695e-05
16 *1240:A *1240:B 4.21248e-05
17 *1240:A *452:14 0.000140933
18 *62:12 *1246:A 5.7616e-05
19 *76:10 *1246:A 9.25014e-06
20 *76:10 *452:14 9.69119e-06
21 *78:10 *1246:A 0
22 *451:10 *1246:A 0
*RES
1 *1237:Y *452:4 9.3 
2 *452:4 *452:14 12.2321 
3 *452:14 *1239:B 9.3 
4 *452:14 *1240:B 11.5143 
5 *452:4 *1246:A 21.1571 
*END

*D_NET *453 0.000437128
*CONN
*I *1241:A I *D sky130_fd_sc_hd__nand2_1
*I *1239:Y O *D sky130_fd_sc_hd__nand2_1
*CAP
1 *1241:A 9.86686e-05
2 *1239:Y 9.86686e-05
3 *1241:A *1241:B 3.88013e-05
4 *1239:A *1241:A 7.90925e-05
5 *1240:A *1241:A 9.90367e-05
6 *452:14 *1241:A 2.28598e-05
*RES
1 *1239:Y *1241:A 21.2071 
*END

*D_NET *454 0.000904584
*CONN
*I *1241:B I *D sky130_fd_sc_hd__nand2_1
*I *1240:Y O *D sky130_fd_sc_hd__nand2_1
*CAP
1 *1241:B 0.000325762
2 *1240:Y 0.000325762
3 *1239:A *1241:B 0.000151535
4 *1240:A *1241:B 7.49387e-06
5 *1240:B *1241:B 5.52302e-05
6 *1241:A *1241:B 3.88013e-05
*RES
1 *1240:Y *1241:B 23.1536 
*END

*D_NET *455 0.00203963
*CONN
*I *1243:A I *D sky130_fd_sc_hd__nand2_1
*I *1242:A I *D sky130_fd_sc_hd__nand2_1
*I *1241:Y O *D sky130_fd_sc_hd__nand2_1
*CAP
1 *1243:A 0
2 *1242:A 0.000147445
3 *1241:Y 0.000406036
4 *455:16 0.000553481
5 *1242:A *1245:A 8.77165e-05
6 *1242:A *1245:B 5.61563e-05
7 *1242:A *1246:B 5.71472e-05
8 *1242:A *456:26 0.000154217
9 *455:16 *1245:B 3.4855e-05
10 *455:16 *1276:B 0.000102207
11 *455:16 *460:12 0
12 *455:16 *487:8 9.99644e-06
13 *1244:A *1242:A 0
14 *1246:A *455:16 4.94362e-05
15 *1275:A *1242:A 1.21955e-05
16 *1276:A *1242:A 7.79781e-06
17 *1276:A *455:16 3.83074e-05
18 *78:10 *455:16 0.000315165
19 *451:10 *1242:A 7.47029e-06
20 *451:10 *455:16 0
*RES
1 *1241:Y *455:16 27.05 
2 *455:16 *1242:A 22.3536 
3 *455:16 *1243:A 9.3 
*END

*D_NET *456 0.000990801
*CONN
*I *1243:B I *D sky130_fd_sc_hd__nand2_1
*I *1244:B I *D sky130_fd_sc_hd__nand2_1
*I *1246:B I *D sky130_fd_sc_hd__nand2_1
*I *1242:Y O *D sky130_fd_sc_hd__nand2_1
*CAP
1 *1243:B 0
2 *1244:B 2.76557e-05
3 *1246:B 7.96772e-05
4 *1242:Y 0.000180573
5 *456:26 0.000128552
6 *1244:B *1245:B 2.89016e-05
7 *1246:B *1245:A 7.14056e-05
8 *1246:B *485:22 5.52302e-05
9 *1242:A *1246:B 5.71472e-05
10 *1242:A *456:26 0.000154217
11 *1244:A *456:26 6.17122e-05
12 *451:10 *1246:B 0.00014285
13 *451:10 *456:26 2.88018e-06
*RES
1 *1242:Y *1246:B 21.2071 
2 *1242:Y *456:26 20.7821 
3 *456:26 *1244:B 9.83571 
4 *456:26 *1243:B 9.3 
*END

*D_NET *457 0.000923935
*CONN
*I *1250:A I *D sky130_fd_sc_hd__and2_1
*I *1251:A I *D sky130_fd_sc_hd__xor2_1
*I *1083:Y O *D sky130_fd_sc_hd__inv_1
*CAP
1 *1250:A 0
2 *1251:A 9.86287e-05
3 *1083:Y 0.000153176
4 *457:6 0.000251805
5 *1251:A *463:10 0.000153047
6 *1251:B *1251:A 3.9699e-05
7 *11:113 *1251:A 0.000227579
*RES
1 *1083:Y *457:6 11.2732 
2 *457:6 *1251:A 21.6929 
3 *457:6 *1250:A 9.3 
*END

*D_NET *458 0.000726024
*CONN
*I *1245:A I *D sky130_fd_sc_hd__nand2_1
*I *1243:Y O *D sky130_fd_sc_hd__nand2_1
*CAP
1 *1245:A 0.000204023
2 *1243:Y 0.000204023
3 *1245:A *1245:B 0.000129944
4 *1245:A *460:12 2.89114e-05
5 *1242:A *1245:A 8.77165e-05
6 *1246:B *1245:A 7.14056e-05
*RES
1 *1243:Y *1245:A 31.8143 
*END

*D_NET *459 0.000867687
*CONN
*I *1245:B I *D sky130_fd_sc_hd__nand2_1
*I *1244:Y O *D sky130_fd_sc_hd__nand2_1
*CAP
1 *1245:B 0.000232546
2 *1244:Y 0.000232546
3 *1242:A *1245:B 5.61563e-05
4 *1244:A *1245:B 0
5 *1244:B *1245:B 2.89016e-05
6 *1245:A *1245:B 0.000129944
7 *346:12 *1245:B 2.8266e-06
8 *451:10 *1245:B 0.000149911
9 *455:16 *1245:B 3.4855e-05
*RES
1 *1244:Y *1245:B 32.1536 
*END

*D_NET *460 0.00086077
*CONN
*I *1276:B I *D sky130_fd_sc_hd__xor2_1
*I *1275:B I *D sky130_fd_sc_hd__and2_1
*I *1245:Y O *D sky130_fd_sc_hd__nand2_1
*CAP
1 *1276:B 5.27145e-05
2 *1275:B 0
3 *1245:Y 0.000134231
4 *460:12 0.000186946
5 *1245:A *460:12 2.89114e-05
6 *1276:A *1276:B 0.000197092
7 *1276:A *460:12 4.53834e-05
8 *78:10 *460:12 0
9 *451:10 *460:12 0.000113285
10 *455:16 *1276:B 0.000102207
11 *455:16 *460:12 0
*RES
1 *1245:Y *460:12 20.7821 
2 *460:12 *1275:B 9.3 
3 *460:12 *1276:B 11.4964 
*END

*D_NET *461 0.00141088
*CONN
*I *1278:B I *D sky130_fd_sc_hd__xor2_1
*I *1277:B I *D sky130_fd_sc_hd__and2_1
*I *1246:Y O *D sky130_fd_sc_hd__nand2_1
*CAP
1 *1278:B 9.69906e-05
2 *1277:B 0
3 *1246:Y 0.000439909
4 *461:10 0.000536899
5 *1278:B *1321:A2 0
6 *1278:B *487:21 0
7 *1278:B *491:14 0
8 *461:10 *1318:B1 0
9 *461:10 *485:22 5.77224e-05
10 *461:10 *487:21 0
11 *1278:A *1278:B 0.000106299
12 *1278:A *461:10 5.80706e-06
13 *78:10 *461:10 0.000167256
*RES
1 *1246:Y *461:10 20.8714 
2 *461:10 *1277:B 13.8 
3 *461:10 *1278:B 16.3536 
*END

*D_NET *462 0.00847793
*CONN
*I *1324:B I *D sky130_fd_sc_hd__and2_1
*I *1420:B I *D sky130_fd_sc_hd__xor2_1
*I *1400:B I *D sky130_fd_sc_hd__and2_1
*I *1366:A2 I *D sky130_fd_sc_hd__a21o_1
*I *1401:A2 I *D sky130_fd_sc_hd__a21o_1
*I *1365:B I *D sky130_fd_sc_hd__and2_1
*I *1325:A2 I *D sky130_fd_sc_hd__a21o_1
*I *1281:A2 I *D sky130_fd_sc_hd__a21o_1
*I *1280:B I *D sky130_fd_sc_hd__and2_1
*I *1247:X O *D sky130_fd_sc_hd__and2_1
*CAP
1 *1324:B 0.000145582
2 *1420:B 0
3 *1400:B 2.00869e-05
4 *1366:A2 0
5 *1401:A2 0.000232154
6 *1365:B 0
7 *1325:A2 0.000228537
8 *1281:A2 0
9 *1280:B 3.98048e-05
10 *1247:X 0.000149915
11 *462:72 0.000466482
12 *462:66 0.000339261
13 *462:55 0.000272619
14 *462:38 0.000745887
15 *462:34 0.000329577
16 *462:32 0.000373365
17 *462:23 0.000383579
18 *462:10 0.000345517
19 *1324:B *1282:A 0.000206348
20 *1324:B *464:51 2.41865e-05
21 *1325:A2 *1325:A1 5.71472e-05
22 *1325:A2 *1331:A 0
23 *1325:A2 *1332:A2 9.90367e-05
24 *1325:A2 *1333:A 0
25 *1325:A2 *469:36 1.73501e-05
26 *1325:A2 *497:25 9.25014e-06
27 *1325:A2 *498:22 0
28 *1325:A2 *502:8 0
29 *1325:A2 *538:16 2.44318e-05
30 *1400:B *593:26 5.52302e-05
31 *1401:A2 *1378:A 5.52238e-05
32 *1401:A2 *1378:B 3.05066e-05
33 *1401:A2 *471:40 8.59056e-05
34 *1401:A2 *539:10 0.000269428
35 *1401:A2 *546:10 0
36 *462:10 *464:14 0.000344917
37 *462:10 *464:23 3.51442e-05
38 *462:23 *464:23 0.000207024
39 *462:23 *464:38 4.46186e-06
40 *462:23 *466:10 0.000153047
41 *462:32 *464:38 0.000520697
42 *462:32 *464:51 0.000222878
43 *462:32 *466:10 1.02504e-05
44 *462:32 *466:23 0.000140375
45 *462:38 *1333:B 0.000184745
46 *462:55 *1326:B 7.86249e-05
47 *462:55 *471:40 0
48 *462:55 *498:35 0
49 *462:55 *546:10 0.000317594
50 *462:66 *1326:B 4.1331e-06
51 *462:66 *502:8 0
52 *462:72 *471:40 8.2395e-05
53 *462:72 *593:26 0.000359997
54 *1247:B *462:10 3.17148e-05
55 *1248:B *462:10 0.000141375
56 *19:20 *462:10 0
57 *26:8 *462:10 0
58 *26:12 *1324:B 9.34004e-05
59 *26:12 *462:10 3.35542e-05
60 *26:12 *462:23 0.000131247
61 *26:12 *462:32 0.000320642
62 *281:8 *462:10 5.33005e-05
*RES
1 *1247:X *462:10 19.0143 
2 *462:10 *1280:B 14.3357 
3 *462:10 *462:23 5.51786 
4 *462:23 *1281:A2 13.8 
5 *462:23 *462:32 9.53571 
6 *462:32 *462:34 4.5 
7 *462:34 *462:38 9.96429 
8 *462:38 *1325:A2 17.9607 
9 *462:38 *462:55 5.28571 
10 *462:55 *1365:B 13.8 
11 *462:55 *462:66 6.75 
12 *462:66 *462:72 10.1607 
13 *462:72 *1401:A2 19.3714 
14 *462:72 *1366:A2 13.8 
15 *462:66 *1400:B 9.83571 
16 *462:34 *1420:B 9.3 
17 *462:32 *1324:B 17.425 
*END

*D_NET *463 0.00483581
*CONN
*I *1285:A2 I *D sky130_fd_sc_hd__a21o_1
*I *1284:B I *D sky130_fd_sc_hd__and2_1
*I *1281:B1 I *D sky130_fd_sc_hd__a21o_1
*I *1250:X O *D sky130_fd_sc_hd__and2_1
*CAP
1 *1285:A2 0.000164447
2 *1284:B 0.000214811
3 *1281:B1 0
4 *1250:X 0.000763323
5 *463:12 0.000214811
6 *463:10 0.00092777
7 *1284:B *1281:A1 5.52302e-05
8 *1284:B *494:10 5.33005e-05
9 *1285:A2 *464:23 1.02504e-05
10 *1285:A2 *464:38 2.37388e-05
11 *1285:A2 *466:27 0.00014285
12 *1285:A2 *466:33 0
13 *1285:A2 *469:12 0
14 *1285:A2 *469:23 0
15 *1285:A2 *494:10 0.00012401
16 *463:10 *464:14 0.000959568
17 *463:10 *464:23 0.000411063
18 *463:10 *465:10 0
19 *463:10 *469:12 0
20 *905:A *463:10 0.000153047
21 *1040:A *463:10 0
22 *1250:B *463:10 1.47872e-05
23 *1251:A *463:10 0.000153047
24 *1251:B *463:10 0.000128154
25 *11:113 *463:10 0.000292696
26 *256:12 *463:10 0
27 *351:8 *463:10 2.89114e-05
*RES
1 *1250:X *463:10 36.1214 
2 *463:10 *463:12 4.5 
3 *463:12 *1281:B1 9.3 
4 *463:12 *1284:B 12.7464 
5 *463:10 *1285:A2 17.4071 
*END

*D_NET *464 0.00648803
*CONN
*I *1282:A I *D sky130_fd_sc_hd__and2_1
*I *1420:A I *D sky130_fd_sc_hd__xor2_1
*I *1286:B I *D sky130_fd_sc_hd__and2_1
*I *1281:A1 I *D sky130_fd_sc_hd__a21o_1
*I *1280:A I *D sky130_fd_sc_hd__and2_1
*I *1251:X O *D sky130_fd_sc_hd__xor2_1
*CAP
1 *1282:A 0.000101515
2 *1420:A 0
3 *1286:B 7.09253e-05
4 *1281:A1 2.3671e-05
5 *1280:A 0
6 *1251:X 0.000538253
7 *464:51 0.000179762
8 *464:38 0.00035247
9 *464:23 0.000339653
10 *464:14 0.000650937
11 *1282:A *494:23 0.000166983
12 *1286:B *1286:A 9.60875e-05
13 *1286:B *1289:B 0
14 *464:38 *494:10 0.000150625
15 *464:38 *494:23 0.000343233
16 *464:51 *494:23 0.000236814
17 *1049:A *464:14 0.000127446
18 *1247:B *464:14 1.3142e-05
19 *1251:B *464:14 1.02504e-05
20 *1284:B *1281:A1 5.52302e-05
21 *1285:A2 *464:23 1.02504e-05
22 *1285:A2 *464:38 2.37388e-05
23 *1324:B *1282:A 0.000206348
24 *1324:B *464:51 2.41865e-05
25 *26:12 *1282:A 6.8646e-06
26 *127:10 *464:14 5.38886e-05
27 *462:10 *464:14 0.000344917
28 *462:10 *464:23 3.51442e-05
29 *462:23 *464:23 0.000207024
30 *462:23 *464:38 4.46186e-06
31 *462:32 *464:38 0.000520697
32 *462:32 *464:51 0.000222878
33 *463:10 *464:14 0.000959568
34 *463:10 *464:23 0.000411063
*RES
1 *1251:X *464:14 30.1036 
2 *464:14 *1280:A 13.8 
3 *464:14 *464:23 5.28571 
4 *464:23 *1281:A1 14.3357 
5 *464:23 *464:38 7.46429 
6 *464:38 *1286:B 15.175 
7 *464:38 *464:51 3.16071 
8 *464:51 *1420:A 13.8 
9 *464:51 *1282:A 16.9964 
*END

*D_NET *465 0.00123072
*CONN
*I *1285:B1 I *D sky130_fd_sc_hd__a21o_1
*I *1288:A2 I *D sky130_fd_sc_hd__a21o_1
*I *1287:B I *D sky130_fd_sc_hd__and2_1
*I *1252:X O *D sky130_fd_sc_hd__and2_1
*CAP
1 *1285:B1 8.26192e-05
2 *1288:A2 5.44778e-05
3 *1287:B 0
4 *1252:X 0.000234525
5 *465:21 0.000236263
6 *465:10 0.000333691
7 *1285:B1 *1288:A1 4.43256e-05
8 *1285:B1 *497:10 3.32631e-05
9 *1288:A2 *1288:A1 7.77652e-05
10 *1288:A2 *497:10 3.69047e-06
11 *465:10 *469:12 5.80706e-06
12 *465:21 *469:12 6.74815e-05
13 *465:21 *469:23 2.49484e-05
14 *465:21 *471:29 0
15 *1253:B *465:10 3.18676e-05
16 *463:10 *465:10 0
*RES
1 *1252:X *465:10 17.1036 
2 *465:10 *1287:B 13.8 
3 *465:10 *465:21 6.75 
4 *465:21 *1288:A2 10.6571 
5 *465:21 *1285:B1 11.0679 
*END

*D_NET *466 0.00323351
*CONN
*I *1421:A I *D sky130_fd_sc_hd__xor2_1
*I *1285:A1 I *D sky130_fd_sc_hd__a21o_1
*I *1286:A I *D sky130_fd_sc_hd__and2_1
*I *1289:B I *D sky130_fd_sc_hd__and2_1
*I *1284:A I *D sky130_fd_sc_hd__and2_1
*I *1253:X O *D sky130_fd_sc_hd__xor2_1
*CAP
1 *1421:A 1.11927e-05
2 *1285:A1 0
3 *1286:A 0.000110591
4 *1289:B 3.68337e-05
5 *1284:A 0
6 *1253:X 0.000285768
7 *466:33 0.000436322
8 *466:27 0.000472179
9 *466:23 0.000314113
10 *466:10 0.000405407
11 *1286:A *1325:A1 4.72917e-05
12 *1286:A *498:22 5.33433e-05
13 *1289:B *1289:A 5.7661e-06
14 *1289:B *1325:A1 2.89016e-05
15 *1289:B *1332:A2 0
16 *1289:B *498:22 2.89016e-05
17 *466:33 *1422:B 0.000150618
18 *466:33 *469:23 0
19 *466:33 *469:36 0
20 *466:33 *494:10 0
21 *466:33 *494:23 0
22 p[4] *466:33 0
23 *1285:A2 *466:27 0.00014285
24 *1285:A2 *466:33 0
25 *1286:B *1286:A 9.60875e-05
26 *1286:B *1289:B 0
27 *26:12 *466:10 0.000153047
28 *26:12 *466:23 0.000150625
29 *462:23 *466:10 0.000153047
30 *462:32 *466:10 1.02504e-05
31 *462:32 *466:23 0.000140375
*RES
1 *1253:X *466:10 18.3357 
2 *466:10 *1284:A 13.8 
3 *466:10 *466:23 7.39286 
4 *466:23 *466:27 3.01786 
5 *466:27 *466:33 14.2857 
6 *466:33 *1289:B 10.2643 
7 *466:33 *1286:A 11.8893 
8 *466:27 *1285:A1 9.3 
9 *466:23 *1421:A 9.72857 
*END

*D_NET *467 0.000241333
*CONN
*I *1105:A I *D sky130_fd_sc_hd__inv_1
*I *1094:Y O *D sky130_fd_sc_hd__nand2_1
*CAP
1 *1105:A 0.000118527
2 *1094:Y 0.000118527
3 *1141:B *1105:A 4.27842e-06
*RES
1 *1094:Y *1105:A 29.4795 
*END

*D_NET *468 0.00104765
*CONN
*I *1288:B1 I *D sky130_fd_sc_hd__a21o_1
*I *1290:B I *D sky130_fd_sc_hd__and2_1
*I *1291:A2 I *D sky130_fd_sc_hd__a21o_1
*I *1254:X O *D sky130_fd_sc_hd__and2_1
*CAP
1 *1288:B1 0.000126935
2 *1290:B 0
3 *1291:A2 0
4 *1254:X 0.000206763
5 *468:19 0.000161427
6 *468:12 0.000241255
7 *1288:B1 *471:25 3.4855e-05
8 *1288:B1 *501:14 7.61932e-05
9 *468:12 *470:21 0
10 *468:12 *471:12 2.34204e-05
11 *468:19 *1291:A1 6.87574e-05
12 *468:19 *471:25 1.33343e-05
13 *468:19 *501:14 4.88546e-05
14 *1254:B *468:12 3.18676e-05
15 *266:14 *468:12 1.39841e-05
*RES
1 *1254:X *468:12 21.3 
2 *468:12 *1291:A2 9.3 
3 *468:12 *468:19 1.35714 
4 *468:19 *1290:B 9.3 
5 *468:19 *1288:B1 12.3357 
*END

*D_NET *469 0.00345168
*CONN
*I *1287:A I *D sky130_fd_sc_hd__and2_1
*I *1289:A I *D sky130_fd_sc_hd__and2_1
*I *1292:B I *D sky130_fd_sc_hd__and2_1
*I *1422:A I *D sky130_fd_sc_hd__xor2_1
*I *1288:A1 I *D sky130_fd_sc_hd__a21o_1
*I *1255:X O *D sky130_fd_sc_hd__xor2_1
*CAP
1 *1287:A 0
2 *1289:A 4.92496e-05
3 *1292:B 0.000201748
4 *1422:A 8.69948e-05
5 *1288:A1 0.000196164
6 *1255:X 0.000233622
7 *469:36 0.000379434
8 *469:23 0.000383346
9 *469:12 0.000443927
10 *469:8 0.000313471
11 *1289:A *1325:A1 1.56e-05
12 *1289:A *1332:A2 2.91054e-06
13 *1292:B *1325:A1 2.95726e-05
14 *1292:B *1331:A 1.87955e-05
15 *1292:B *1332:A2 0.000356035
16 *1292:B *471:29 5.80706e-06
17 *1292:B *471:40 3.07555e-05
18 *1292:B *505:6 9.90431e-05
19 *1292:B *505:30 4.18895e-05
20 *469:23 *1422:B 1.19309e-05
21 *469:23 *497:10 6.19181e-05
22 *469:23 *497:25 1.76135e-05
23 *469:36 *1422:B 4.35048e-05
24 *469:36 *494:23 0
25 *469:36 *497:25 8.5662e-05
26 p[8] *1422:A 9.92409e-05
27 *1285:A2 *469:12 0
28 *1285:A2 *469:23 0
29 *1285:B1 *1288:A1 4.43256e-05
30 *1288:A2 *1288:A1 7.77652e-05
31 *1289:B *1289:A 5.7661e-06
32 *1325:A2 *469:36 1.73501e-05
33 *463:10 *469:12 0
34 *465:10 *469:12 5.80706e-06
35 *465:21 *469:12 6.74815e-05
36 *465:21 *469:23 2.49484e-05
37 *466:33 *469:23 0
38 *466:33 *469:36 0
*RES
1 *1255:X *469:8 13.1393 
2 *469:8 *469:12 6.14286 
3 *469:12 *1288:A1 16.3893 
4 *469:12 *469:23 3.46429 
5 *469:23 *1422:A 15.5679 
6 *469:23 *469:36 7.35714 
7 *469:36 *1292:B 23.2643 
8 *469:36 *1289:A 10.2643 
9 *469:8 *1287:A 9.3 
*END

*D_NET *470 0.00142532
*CONN
*I *1291:B1 I *D sky130_fd_sc_hd__a21o_1
*I *1295:A2 I *D sky130_fd_sc_hd__a21o_1
*I *1293:B I *D sky130_fd_sc_hd__and2_1
*I *1256:X O *D sky130_fd_sc_hd__and2_1
*CAP
1 *1291:B1 0.000144873
2 *1295:A2 8.61686e-05
3 *1293:B 0
4 *1256:X 0.000268489
5 *470:21 0.000356275
6 *470:10 0.000393723
7 *1291:B1 *501:14 2.27416e-05
8 *470:10 *473:10 0
9 *470:10 *473:21 0
10 *470:21 *473:21 0
11 *470:21 *473:36 0
12 *1257:B *470:10 0.000153047
13 *266:14 *470:10 0
14 *382:12 *470:10 0
15 *468:12 *470:21 0
*RES
1 *1256:X *470:10 18.7107 
2 *470:10 *1293:B 13.8 
3 *470:10 *470:21 6.75 
4 *470:21 *1295:A2 10.6571 
5 *470:21 *1291:B1 11.8893 
*END

*D_NET *471 0.00480087
*CONN
*I *1290:A I *D sky130_fd_sc_hd__and2_1
*I *1423:A I *D sky130_fd_sc_hd__xor2_1
*I *1296:B I *D sky130_fd_sc_hd__and2_1
*I *1292:A I *D sky130_fd_sc_hd__and2_1
*I *1291:A1 I *D sky130_fd_sc_hd__a21o_1
*I *1257:X O *D sky130_fd_sc_hd__xor2_1
*CAP
1 *1290:A 0
2 *1423:A 0.000168705
3 *1296:B 0.0002014
4 *1292:A 0
5 *1291:A1 0.000136424
6 *1257:X 0.000441667
7 *471:40 0.00108168
8 *471:29 0.00103125
9 *471:25 0.000378441
10 *471:12 0.00063686
11 *1291:A1 *501:14 4.45768e-06
12 *1296:B *508:10 3.18676e-05
13 *1423:A *494:36 0.000144773
14 *471:29 *1331:A 0
15 *471:29 *497:10 0
16 *471:29 *497:25 0
17 *471:29 *501:14 0
18 *471:40 *1331:A 0
19 *471:40 *1333:A 0
20 *471:40 *1378:A 9.87983e-06
21 *471:40 *1380:B 6.42242e-05
22 *471:40 *1401:A1 0
23 *471:40 *1423:B 0
24 *471:40 *501:14 0
25 *471:40 *545:8 0
26 *471:40 *545:23 0
27 *471:40 *546:10 0
28 *1288:B1 *471:25 3.4855e-05
29 *1292:B *471:29 5.80706e-06
30 *1292:B *471:40 3.07555e-05
31 *1401:A2 *471:40 8.59056e-05
32 *371:10 *471:12 0.00012401
33 *462:55 *471:40 0
34 *462:72 *471:40 8.2395e-05
35 *465:21 *471:29 0
36 *468:12 *471:12 2.34204e-05
37 *468:19 *1291:A1 6.87574e-05
38 *468:19 *471:25 1.33343e-05
*RES
1 *1257:X *471:12 24.3536 
2 *471:12 *1291:A1 11.0679 
3 *471:12 *471:25 1.39286 
4 *471:25 *471:29 9.48214 
5 *471:29 *1292:A 13.8 
6 *471:29 *471:40 17.0714 
7 *471:40 *1296:B 12.7107 
8 *471:40 *1423:A 12.7107 
9 *471:25 *1290:A 9.3 
*END

*D_NET *472 0.00165229
*CONN
*I *1295:B1 I *D sky130_fd_sc_hd__a21o_1
*I *1298:A2 I *D sky130_fd_sc_hd__a21o_1
*I *1297:B I *D sky130_fd_sc_hd__and2_1
*I *1258:X O *D sky130_fd_sc_hd__and2_1
*CAP
1 *1295:B1 0.000150991
2 *1298:A2 7.10119e-05
3 *1297:B 0
4 *1258:X 0.000319916
5 *472:21 0.000355955
6 *472:10 0.000453868
7 *1295:B1 *1298:A1 9.31893e-05
8 *1298:A2 *1298:A1 0.000102197
9 *472:10 *473:10 0
10 *472:10 *473:21 0
11 *472:10 *475:19 0
12 *472:21 *475:19 0
13 *472:21 *475:30 0
14 *1259:B *472:10 0.000105163
*RES
1 *1258:X *472:10 18.3357 
2 *472:10 *1297:B 13.8 
3 *472:10 *472:21 6.75 
4 *472:21 *1298:A2 11.0679 
5 *472:21 *1295:B1 12.3 
*END

*D_NET *473 0.00522964
*CONN
*I *1296:A I *D sky130_fd_sc_hd__and2_1
*I *1424:A I *D sky130_fd_sc_hd__xor2_1
*I *1299:B I *D sky130_fd_sc_hd__and2_1
*I *1295:A1 I *D sky130_fd_sc_hd__a21o_1
*I *1293:A I *D sky130_fd_sc_hd__and2_1
*I *1259:X O *D sky130_fd_sc_hd__xor2_1
*CAP
1 *1296:A 0.000171739
2 *1424:A 2.25053e-05
3 *1299:B 5.27095e-05
4 *1295:A1 0
5 *1293:A 0.000167748
6 *1259:X 0.000254902
7 *473:55 0.00065595
8 *473:36 0.00072588
9 *473:21 0.00032865
10 *473:10 0.000539835
11 *1296:A *1429:B 0
12 *1296:A *501:14 0.000387425
13 *1296:A *559:35 4.71964e-05
14 *1299:B *1337:A 5.71472e-05
15 *1299:B *1339:A2 7.03295e-05
16 *1424:A *1379:A2 5.33005e-05
17 *1424:A *1401:B1 1.58163e-05
18 *473:21 *475:19 0
19 *473:36 *475:30 0
20 *473:36 *504:8 0
21 *473:36 *507:10 0
22 *473:55 *1332:B1 0.00016384
23 *473:55 *1339:A2 2.14757e-05
24 *473:55 *1374:B 0.000177941
25 *473:55 *1429:B 0
26 *473:55 *501:14 0.000584631
27 *473:55 *504:8 3.17148e-05
28 *473:55 *504:12 0.000230475
29 *473:55 *538:22 0
30 *473:55 *552:22 0
31 p[10] *1296:A 1.99099e-05
32 p[8] *1299:B 0.000186662
33 p[8] *473:55 0.000261858
34 *470:10 *473:10 0
35 *470:10 *473:21 0
36 *470:21 *473:21 0
37 *470:21 *473:36 0
38 *472:10 *473:10 0
39 *472:10 *473:21 0
*RES
1 *1259:X *473:10 17.2107 
2 *473:10 *1293:A 16.3893 
3 *473:10 *473:21 1.94643 
4 *473:21 *1295:A1 13.8 
5 *473:21 *473:36 8.32143 
6 *473:36 *1299:B 11.4964 
7 *473:36 *473:55 17.8929 
8 *473:55 *1424:A 14.3357 
9 *473:55 *1296:A 18.7821 
*END

*D_NET *474 0.00130343
*CONN
*I *1301:A2 I *D sky130_fd_sc_hd__a21o_1
*I *1298:B1 I *D sky130_fd_sc_hd__a21o_1
*I *1300:B I *D sky130_fd_sc_hd__and2_1
*I *1261:X O *D sky130_fd_sc_hd__and2_1
*CAP
1 *1301:A2 0.000156737
2 *1298:B1 0.000113884
3 *1300:B 0
4 *1261:X 0.000203232
5 *474:10 0.000113884
6 *474:8 0.000359969
7 *1298:B1 *477:6 9.90431e-05
8 *1301:A2 *477:12 0.000179084
9 *1262:A *474:8 7.79781e-06
10 *1262:B *474:8 6.97972e-05
*RES
1 *1261:X *474:8 17.8714 
2 *474:8 *474:10 4.5 
3 *474:10 *1300:B 9.3 
4 *474:10 *1298:B1 11.4786 
5 *474:8 *1301:A2 17.3179 
*END

*D_NET *475 0.00701924
*CONN
*I *1302:B I *D sky130_fd_sc_hd__and2_1
*I *1425:A I *D sky130_fd_sc_hd__xor2_1
*I *1299:A I *D sky130_fd_sc_hd__and2_1
*I *1298:A1 I *D sky130_fd_sc_hd__a21o_1
*I *1297:A I *D sky130_fd_sc_hd__and2_1
*I *1262:X O *D sky130_fd_sc_hd__xor2_1
*CAP
1 *1302:B 0
2 *1425:A 0.00058199
3 *1299:A 0
4 *1298:A1 0.000279526
5 *1297:A 0
6 *1262:X 0.000304178
7 *475:43 0.00113601
8 *475:30 0.000722355
9 *475:19 0.000609538
10 *475:8 0.000465854
11 *1425:A *1302:A 1.02504e-05
12 *1425:A *1347:A 0
13 *1425:A *1350:A 0
14 *1425:A *1411:A2 5.63007e-05
15 *1425:A *1418:B1 0.000150618
16 *1425:A *1430:B 0.000126639
17 *1425:A *507:10 0
18 *1425:A *515:12 3.79467e-05
19 *1425:A *515:29 0
20 *1425:A *521:34 0
21 *1425:A *541:12 5.16852e-05
22 *1425:A *554:23 0
23 *1425:A *561:12 0
24 *1425:A *561:18 0
25 *1425:A *609:12 0
26 *475:30 *1426:B 3.34366e-05
27 *475:30 *507:10 0.00015234
28 *475:43 *1302:A 0
29 *475:43 *1339:A2 2.49484e-05
30 *475:43 *1346:B 7.57713e-05
31 *475:43 *1408:A2 0.000388139
32 *475:43 *1426:B 0.000114759
33 *475:43 *1429:A 0.000274288
34 *475:43 *507:10 0.00114279
35 *475:43 *515:12 3.18676e-05
36 p[15] *1425:A 5.26184e-05
37 p[7] *1425:A 0
38 *1295:B1 *1298:A1 9.31893e-05
39 *1298:A2 *1298:A1 0.000102197
40 *472:10 *475:19 0
41 *472:21 *475:19 0
42 *472:21 *475:30 0
43 *473:21 *475:19 0
44 *473:36 *475:30 0
*RES
1 *1262:X *475:8 14.3714 
2 *475:8 *1297:A 9.3 
3 *475:8 *475:19 7.08929 
4 *475:19 *1298:A1 17.6214 
5 *475:19 *475:30 3.46429 
6 *475:30 *1299:A 13.8 
7 *475:30 *475:43 21.7857 
8 *475:43 *1425:A 30.3179 
9 *475:43 *1302:B 9.3 
*END

*D_NET *476 0.00184797
*CONN
*I *1304:A2 I *D sky130_fd_sc_hd__a21o_1
*I *1301:B1 I *D sky130_fd_sc_hd__a21o_1
*I *1303:B I *D sky130_fd_sc_hd__and2_1
*I *1263:X O *D sky130_fd_sc_hd__and2_1
*CAP
1 *1304:A2 0.000160447
2 *1301:B1 0.000172562
3 *1303:B 0
4 *1263:X 0.000288661
5 *476:12 0.000172562
6 *476:10 0.000449108
7 *1301:B1 *1306:B 9.31893e-05
8 *1301:B1 *480:6 9.90431e-05
9 *1301:B1 *480:17 0.000230475
10 *1301:B1 *514:10 5.71472e-05
11 *1304:A2 *1304:A1 5.52238e-05
12 *1304:A2 *1306:B 0
13 *1304:A2 *480:17 0
14 *1264:A *476:10 1.32552e-05
15 *1264:B *476:10 5.62995e-05
*RES
1 *1263:X *476:10 17.925 
2 *476:10 *476:12 4.5 
3 *476:12 *1303:B 9.3 
4 *476:12 *1301:B1 13.9429 
5 *476:10 *1304:A2 16.5857 
*END

*D_NET *477 0.00509651
*CONN
*I *1300:A I *D sky130_fd_sc_hd__and2_1
*I *1426:A I *D sky130_fd_sc_hd__xor2_1
*I *1302:A I *D sky130_fd_sc_hd__and2_1
*I *1301:A1 I *D sky130_fd_sc_hd__a21o_1
*I *1306:B I *D sky130_fd_sc_hd__and2_1
*I *1264:X O *D sky130_fd_sc_hd__xor2_1
*CAP
1 *1300:A 0
2 *1426:A 5.47065e-05
3 *1302:A 0.000736301
4 *1301:A1 0
5 *1306:B 0.000298422
6 *1264:X 0.000314816
7 *477:40 0.00106599
8 *477:14 0.000385678
9 *477:12 0.000449066
10 *477:6 0.000401638
11 *1302:A *1339:A2 0
12 *1302:A *1345:A2 0
13 *1302:A *1408:A1 0.000149911
14 *1302:A *1408:A2 0
15 *1302:A *1431:B 0.000106507
16 *1302:A *510:10 0
17 *1302:A *512:22 0
18 *1302:A *551:12 0.000365682
19 *1302:A *559:12 0
20 *1306:B *480:17 0.000128154
21 *1306:B *514:10 5.52302e-05
22 *477:12 *480:17 0
23 *477:12 *510:10 0.000202835
24 *1298:B1 *477:6 9.90431e-05
25 *1301:A2 *477:12 0.000179084
26 *1301:B1 *1306:B 9.31893e-05
27 *1304:A2 *1306:B 0
28 *1425:A *1302:A 1.02504e-05
29 *475:43 *1302:A 0
*RES
1 *1264:X *477:6 14.7643 
2 *477:6 *477:12 12.1607 
3 *477:12 *477:14 0.946429 
4 *477:14 *1306:B 22.9429 
5 *477:14 *1301:A1 9.3 
6 *477:12 *477:40 3.98214 
7 *477:40 *1302:A 32.9964 
8 *477:40 *1426:A 10.2464 
9 *477:6 *1300:A 9.3 
*END

*D_NET *478 0.000748867
*CONN
*I *1139:A I *D sky130_fd_sc_hd__nand2_1
*I *1137:A I *D sky130_fd_sc_hd__nand2_1
*I *1105:Y O *D sky130_fd_sc_hd__inv_1
*CAP
1 *1139:A 1.65674e-05
2 *1137:A 0
3 *1105:Y 0.000193507
4 *478:14 0.000210074
5 *1139:B *1139:A 5.52238e-05
6 *1139:B *478:14 5.52302e-05
7 *1140:B *478:14 0
8 *1141:A *1139:A 1.21258e-05
9 *1141:A *478:14 8.20563e-05
10 *1141:B *478:14 7.6644e-05
11 *1249:B *478:14 0
12 *266:14 *478:14 0
13 *356:10 *478:14 4.74383e-05
*RES
1 *1105:Y *478:14 21.9339 
2 *478:14 *1137:A 9.3 
3 *478:14 *1139:A 9.83571 
*END

*D_NET *479 0.00219189
*CONN
*I *1308:A2 I *D sky130_fd_sc_hd__a21o_1
*I *1307:B I *D sky130_fd_sc_hd__and2_1
*I *1304:B1 I *D sky130_fd_sc_hd__a21o_1
*I *1265:X O *D sky130_fd_sc_hd__and2_1
*CAP
1 *1308:A2 0.000158832
2 *1307:B 0
3 *1304:B1 0.000191604
4 *1265:X 0.000289211
5 *479:21 0.000345394
6 *479:10 0.000667376
7 *1304:B1 *517:10 4.01768e-05
8 *1308:A2 *1308:A1 2.89114e-05
9 *1308:A2 *1308:B1 9.80173e-05
10 *1308:A2 *484:25 8.33655e-05
11 *1308:A2 *484:47 4.46186e-06
12 *1308:A2 *524:12 7.83366e-05
13 *479:21 *1308:A1 0
14 *479:21 *484:25 1.76135e-05
15 *1266:B *479:10 0.000188586
*RES
1 *1265:X *479:10 18.0321 
2 *479:10 *1304:B1 17.2107 
3 *479:10 *479:21 2.85714 
4 *479:21 *1307:B 13.8 
5 *479:21 *1308:A2 17.5321 
*END

*D_NET *480 0.0056864
*CONN
*I *1428:A I *D sky130_fd_sc_hd__xor2_1
*I *1309:B I *D sky130_fd_sc_hd__and2_1
*I *1306:A I *D sky130_fd_sc_hd__and2_1
*I *1304:A1 I *D sky130_fd_sc_hd__a21o_1
*I *1303:A I *D sky130_fd_sc_hd__and2_1
*I *1266:X O *D sky130_fd_sc_hd__xor2_1
*CAP
1 *1428:A 0.000233088
2 *1309:B 1.99379e-05
3 *1306:A 0
4 *1304:A1 0.00015645
5 *1303:A 0
6 *1266:X 0.00031229
7 *480:37 0.000765539
8 *480:21 0.000243542
9 *480:17 0.000784981
10 *480:6 0.000497666
11 *1304:A1 *517:10 3.18676e-05
12 *1309:B *1429:A 9.90367e-05
13 *1309:B *521:12 5.33334e-05
14 *1428:A *1348:A2 0.000236814
15 *1428:A *1390:A1 0
16 *1428:A *1390:B1 0.000151333
17 *1428:A *1428:B 6.74911e-05
18 *1428:A *1433:B 6.75909e-05
19 *1428:A *514:10 0.000150625
20 *1428:A *521:12 9.65075e-05
21 *1428:A *561:12 0
22 *1428:A *575:12 1.92905e-05
23 *480:17 *514:10 0.000175512
24 *480:37 *1433:B 5.16852e-05
25 *480:37 *482:53 0
26 *480:37 *514:10 0.000958919
27 *480:37 *517:10 0
28 *1301:B1 *480:6 9.90431e-05
29 *1301:B1 *480:17 0.000230475
30 *1304:A2 *1304:A1 5.52238e-05
31 *1304:A2 *480:17 0
32 *1306:B *480:17 0.000128154
33 *477:12 *480:17 0
*RES
1 *1266:X *480:6 14.7643 
2 *480:6 *1303:A 9.3 
3 *480:6 *480:17 9.53571 
4 *480:17 *480:21 5.85714 
5 *480:21 *1304:A1 12.3179 
6 *480:21 *1306:A 9.3 
7 *480:17 *480:37 12.2679 
8 *480:37 *1309:B 14.7464 
9 *480:37 *1428:A 21.4429 
*END

*D_NET *481 0.00184848
*CONN
*I *1311:A2 I *D sky130_fd_sc_hd__a21o_1
*I *1308:B1 I *D sky130_fd_sc_hd__a21o_1
*I *1310:B I *D sky130_fd_sc_hd__and2_1
*I *1267:X O *D sky130_fd_sc_hd__and2_1
*CAP
1 *1311:A2 8.44462e-05
2 *1308:B1 0.000249844
3 *1310:B 0
4 *1267:X 0.000168938
5 *481:12 0.000374261
6 *481:6 0.000377802
7 *1308:B1 *1308:A1 1.39726e-05
8 *1308:B1 *1353:A 0
9 *1308:B1 *484:10 6.53746e-05
10 *1308:B1 *484:21 0.000229456
11 *1311:A2 *1311:A1 1.04232e-05
12 *1311:A2 *482:12 7.32955e-05
13 *481:6 *482:12 7.43578e-06
14 *481:12 *1311:B1 0
15 *1268:A *1311:A2 0
16 *1268:A *481:6 7.77751e-05
17 *1268:B *481:6 1.74352e-05
18 *1269:A *481:12 0
19 *1308:A2 *1308:B1 9.80173e-05
20 *431:10 *481:12 0
*RES
1 *1267:X *481:6 12.3 
2 *481:6 *481:12 10.9464 
3 *481:12 *1310:B 9.3 
4 *481:12 *1308:B1 14.8 
5 *481:6 *1311:A2 11.0857 
*END

*D_NET *482 0.00668736
*CONN
*I *1429:A I *D sky130_fd_sc_hd__xor2_1
*I *1309:A I *D sky130_fd_sc_hd__and2_1
*I *1312:B I *D sky130_fd_sc_hd__and2_1
*I *1308:A1 I *D sky130_fd_sc_hd__a21o_1
*I *1307:A I *D sky130_fd_sc_hd__and2_1
*I *1268:X O *D sky130_fd_sc_hd__xor2_1
*CAP
1 *1429:A 0.000568784
2 *1309:A 0
3 *1312:B 0
4 *1308:A1 0.000334034
5 *1307:A 0
6 *1268:X 0.000289129
7 *482:53 0.00119198
8 *482:36 0.000663171
9 *482:19 0.000410238
10 *482:12 0.000325355
11 *1308:A1 *1352:A2 0
12 *1308:A1 *1352:B1 0
13 *1308:A1 *517:10 0
14 *1308:A1 *520:10 5.39629e-06
15 *1308:A1 *524:12 5.10822e-05
16 *1308:A1 *525:20 2.56601e-05
17 *1429:A *1431:B 0.000701659
18 *1429:A *521:34 0.000184643
19 *482:12 *1311:A1 0.000242822
20 *482:12 *1312:A 0.000155915
21 *482:19 *1312:A 5.71472e-05
22 *482:19 *1352:B1 2.14658e-05
23 *482:36 *1312:A 0
24 *482:36 *1352:B1 2.14757e-05
25 *482:53 *1345:B1 0.000186669
26 *482:53 *1351:A 0.000140806
27 *482:53 *1352:A2 0
28 *482:53 *1352:B1 0.000144773
29 *482:53 *1393:A1 0
30 *482:53 *1393:A2 0
31 *482:53 *1433:B 0.000125724
32 *482:53 *558:10 0.000342495
33 *1268:B *482:12 0
34 *1308:A2 *1308:A1 2.89114e-05
35 *1308:B1 *1308:A1 1.39726e-05
36 *1309:B *1429:A 9.90367e-05
37 *1311:A2 *482:12 7.32955e-05
38 *475:43 *1429:A 0.000274288
39 *479:21 *1308:A1 0
40 *480:37 *482:53 0
41 *481:6 *482:12 7.43578e-06
*RES
1 *1268:X *482:12 15.7464 
2 *482:12 *1307:A 9.3 
3 *482:12 *482:19 0.946429 
4 *482:19 *1308:A1 22.8357 
5 *482:19 *482:36 0.964286 
6 *482:36 *1312:B 9.3 
7 *482:36 *482:53 23.0179 
8 *482:53 *1309:A 9.3 
9 *482:53 *1429:A 23.4071 
*END

*D_NET *483 0.00264211
*CONN
*I *1311:B1 I *D sky130_fd_sc_hd__a21o_1
*I *1314:A2 I *D sky130_fd_sc_hd__a21o_1
*I *1313:B I *D sky130_fd_sc_hd__and2_1
*I *1269:X O *D sky130_fd_sc_hd__and2_1
*CAP
1 *1311:B1 0.000383076
2 *1314:A2 0.000122609
3 *1313:B 0
4 *1269:X 0.000189077
5 *483:10 0.000389181
6 *483:6 0.000838725
7 *1311:B1 *484:25 6.58195e-05
8 *1311:B1 *484:47 4.75428e-05
9 *1314:A2 *1314:B1 0.000142856
10 *1314:A2 *1318:A1 2.61337e-05
11 *1314:A2 *1358:B1 0.000129868
12 *1314:A2 *486:22 0
13 *1314:A2 *488:36 7.77751e-05
14 *483:10 *1358:B1 0.000229443
15 *483:10 *484:47 0
16 *1269:A *483:10 0
17 *78:10 *1314:A2 0
18 *78:10 *483:10 0
19 *481:12 *1311:B1 0
*RES
1 *1269:X *483:6 11.4786 
2 *483:6 *483:10 10.3929 
3 *483:10 *1313:B 13.8 
4 *483:10 *1314:A2 17.4071 
5 *483:6 *1311:B1 24.55 
*END

*D_NET *484 0.00575379
*CONN
*I *1430:A I *D sky130_fd_sc_hd__xor2_1
*I *1315:B I *D sky130_fd_sc_hd__and2_1
*I *1312:A I *D sky130_fd_sc_hd__and2_1
*I *1311:A1 I *D sky130_fd_sc_hd__a21o_1
*I *1310:A I *D sky130_fd_sc_hd__and2_1
*I *1270:X O *D sky130_fd_sc_hd__xor2_1
*CAP
1 *1430:A 0.000366144
2 *1315:B 8.61186e-05
3 *1312:A 6.29631e-05
4 *1311:A1 8.46108e-05
5 *1310:A 0
6 *1270:X 0.000177005
7 *484:47 0.00100428
8 *484:25 0.000234563
9 *484:21 0.000792233
10 *484:10 0.000330233
11 *1311:A1 *524:6 2.89016e-05
12 *1312:A *1352:B1 4.38128e-05
13 *1312:A *524:6 0.000122948
14 *1315:B *1315:A 6.05161e-06
15 *1315:B *1355:B1 2.89114e-05
16 *1430:A *1362:A2 2.59355e-05
17 *1430:A *1397:B1 1.4966e-05
18 *1430:A *1430:B 3.57366e-05
19 *1430:A *1432:A 5.33433e-05
20 *1430:A *1432:B 9.9322e-05
21 *1430:A *488:49 7.57869e-05
22 *1430:A *527:23 0.000313465
23 *1430:A *535:10 0.000128161
24 *484:47 *1319:A 0.000117388
25 *484:47 *1358:B1 0
26 *484:47 *1359:A 5.80217e-05
27 *484:47 *488:49 0.000106552
28 *484:47 *520:10 0
29 *484:47 *524:12 0
30 *484:47 *527:10 0.000126439
31 *484:47 *527:23 4.73656e-05
32 *484:47 *531:10 6.07626e-05
33 p[13] *1430:A 0.00014183
34 *1308:A2 *484:25 8.33655e-05
35 *1308:A2 *484:47 4.46186e-06
36 *1308:B1 *484:10 6.53746e-05
37 *1308:B1 *484:21 0.000229456
38 *1311:A2 *1311:A1 1.04232e-05
39 *1311:B1 *484:25 6.58195e-05
40 *1311:B1 *484:47 4.75428e-05
41 *479:21 *484:25 1.76135e-05
42 *482:12 *1311:A1 0.000242822
43 *482:12 *1312:A 0.000155915
44 *482:19 *1312:A 5.71472e-05
45 *482:36 *1312:A 0
46 *483:10 *484:47 0
*RES
1 *1270:X *484:10 12.6393 
2 *484:10 *1310:A 9.3 
3 *484:10 *484:21 7.625 
4 *484:21 *484:25 7.05357 
5 *484:25 *1311:A1 11.9071 
6 *484:25 *1312:A 12.0321 
7 *484:21 *484:47 12.875 
8 *484:47 *1315:B 15.175 
9 *484:47 *1430:A 23.2464 
*END

*D_NET *485 0.00330176
*CONN
*I *1317:B I *D sky130_fd_sc_hd__and2_1
*I *1314:B1 I *D sky130_fd_sc_hd__a21o_1
*I *1318:A2 I *D sky130_fd_sc_hd__a21o_1
*I *1273:X O *D sky130_fd_sc_hd__and2_1
*CAP
1 *1317:B 0
2 *1314:B1 0.000230258
3 *1318:A2 1.11927e-05
4 *1273:X 0.00093426
5 *485:26 0.000323163
6 *485:22 0.00101597
7 *1314:B1 *1317:A 1.74352e-05
8 *1314:B1 *1318:A1 5.52238e-05
9 *1314:B1 *1318:B1 9.80173e-05
10 *1314:B1 *488:36 5.38273e-05
11 *485:26 *1317:A 2.27416e-05
12 *1131:B *485:22 4.01768e-05
13 *1240:A *485:22 1.24368e-05
14 *1240:B *485:22 3.30237e-05
15 *1246:A *485:22 1.99881e-05
16 *1246:B *485:22 5.52302e-05
17 *1275:A *485:22 0
18 *1314:A2 *1314:B1 0.000142856
19 *346:12 *485:22 0.000113087
20 *451:10 *485:22 9.25014e-06
21 *452:14 *485:22 5.59013e-05
22 *461:10 *485:22 5.77224e-05
*RES
1 *1273:X *485:22 32.9964 
2 *485:22 *485:26 1.78571 
3 *485:26 *1318:A2 9.72857 
4 *485:26 *1314:B1 13.9607 
5 *485:22 *1317:B 9.3 
*END

*D_NET *486 0.00504056
*CONN
*I *1315:A I *D sky130_fd_sc_hd__and2_1
*I *1314:A1 I *D sky130_fd_sc_hd__a21o_1
*I *1431:A I *D sky130_fd_sc_hd__xor2_1
*I *1319:B I *D sky130_fd_sc_hd__and2_1
*I *1313:A I *D sky130_fd_sc_hd__and2_1
*I *1274:X O *D sky130_fd_sc_hd__xor2_1
*CAP
1 *1315:A 0.000122226
2 *1314:A1 0
3 *1431:A 0.000184365
4 *1319:B 0
5 *1313:A 8.59454e-05
6 *1274:X 0.00157401
7 *486:35 0.000313985
8 *486:22 0.000289128
9 *486:18 0.000187173
10 *486:16 0.00180985
11 *1431:A *531:10 1.92789e-05
12 *486:16 *1318:B1 0
13 *486:16 *1321:B1 1.03968e-05
14 *486:16 *488:49 7.92879e-05
15 *486:16 *491:14 5.23142e-05
16 *486:16 *491:21 8.37135e-05
17 *486:18 *1318:A1 0
18 *486:18 *1318:B1 0
19 *486:18 *1319:A 3.17067e-05
20 *486:18 *488:10 0
21 *486:18 *488:49 7.48356e-05
22 *486:22 *1319:A 7.83462e-05
23 *486:22 *1358:B1 3.79467e-05
24 *1244:A *486:16 0
25 *1314:A2 *486:22 0
26 *1315:B *1315:A 6.05161e-06
*RES
1 *1274:X *486:16 43.5321 
2 *486:16 *486:18 2.55357 
3 *486:18 *486:22 6.44643 
4 *486:22 *1313:A 10.675 
5 *486:22 *486:35 2.19643 
6 *486:35 *1319:B 9.3 
7 *486:35 *1431:A 12.3 
8 *486:18 *1314:A1 13.8 
9 *486:16 *1315:A 15.5679 
*END

*D_NET *487 0.0024323
*CONN
*I *1321:A2 I *D sky130_fd_sc_hd__a21o_1
*I *1320:B I *D sky130_fd_sc_hd__and2_1
*I *1318:B1 I *D sky130_fd_sc_hd__a21o_1
*I *1275:X O *D sky130_fd_sc_hd__and2_1
*CAP
1 *1321:A2 0.000154118
2 *1320:B 0
3 *1318:B1 0.000207869
4 *1275:X 0.000412423
5 *487:21 0.000257036
6 *487:8 0.000723211
7 *1318:B1 *1317:A 2.59355e-05
8 *1318:B1 *1318:A1 5.66157e-05
9 *1318:B1 *488:10 9.22948e-05
10 *1318:B1 *488:36 2.28598e-05
11 *1321:A2 *1321:B1 7.83366e-05
12 *1321:A2 *488:49 0
13 *1321:A2 *491:14 0.00012401
14 *1321:A2 *535:10 0
15 *487:8 *488:10 2.48011e-05
16 *487:21 *488:49 0
17 *1276:A *487:8 0.000144773
18 *1278:A *1321:A2 0
19 *1278:B *1321:A2 0
20 *1278:B *487:21 0
21 *1314:B1 *1318:B1 9.80173e-05
22 *78:10 *1318:B1 0
23 *455:16 *487:8 9.99644e-06
24 *461:10 *1318:B1 0
25 *461:10 *487:21 0
26 *486:16 *1318:B1 0
27 *486:18 *1318:B1 0
*RES
1 *1275:X *487:8 18.8536 
2 *487:8 *1318:B1 18.2107 
3 *487:8 *487:21 1.64286 
4 *487:21 *1320:B 13.8 
5 *487:21 *1321:A2 17.1929 
*END

*D_NET *488 0.00388641
*CONN
*I *1432:A I *D sky130_fd_sc_hd__xor2_1
*I *1322:B I *D sky130_fd_sc_hd__and2_1
*I *1319:A I *D sky130_fd_sc_hd__and2_1
*I *1317:A I *D sky130_fd_sc_hd__and2_1
*I *1318:A1 I *D sky130_fd_sc_hd__a21o_1
*I *1276:X O *D sky130_fd_sc_hd__xor2_1
*CAP
1 *1432:A 0.000242558
2 *1322:B 0
3 *1319:A 0.000108456
4 *1317:A 0.000101588
5 *1318:A1 0.000102034
6 *1276:X 0.000286896
7 *488:49 0.000380285
8 *488:36 0.000433595
9 *488:23 0.000289001
10 *488:10 0.00038893
11 *1319:A *1358:B1 0
12 *1432:A *1361:B 9.25014e-06
13 *1432:A *1397:B1 5.33433e-05
14 *1432:A *1433:A 0.000178847
15 *1432:A *527:23 0.000218741
16 p[12] *1432:A 0
17 p[14] *1432:A 0
18 *1314:A2 *1318:A1 2.61337e-05
19 *1314:A2 *488:36 7.77751e-05
20 *1314:B1 *1317:A 1.74352e-05
21 *1314:B1 *1318:A1 5.52238e-05
22 *1314:B1 *488:36 5.38273e-05
23 *1318:B1 *1317:A 2.59355e-05
24 *1318:B1 *1318:A1 5.66157e-05
25 *1318:B1 *488:10 9.22948e-05
26 *1318:B1 *488:36 2.28598e-05
27 *1321:A2 *488:49 0
28 *1430:A *1432:A 5.33433e-05
29 *1430:A *488:49 7.57869e-05
30 *78:10 *1318:A1 0
31 *484:47 *1319:A 0.000117388
32 *484:47 *488:49 0.000106552
33 *485:26 *1317:A 2.27416e-05
34 *486:16 *488:49 7.92879e-05
35 *486:18 *1318:A1 0
36 *486:18 *1319:A 3.17067e-05
37 *486:18 *488:10 0
38 *486:18 *488:49 7.48356e-05
39 *486:22 *1319:A 7.83462e-05
40 *487:8 *488:10 2.48011e-05
41 *487:21 *488:49 0
*RES
1 *1276:X *488:10 17.7286 
2 *488:10 *1318:A1 15.675 
3 *488:10 *488:23 4.5 
4 *488:23 *1317:A 11.0857 
5 *488:23 *488:36 7.91071 
6 *488:36 *1319:A 16.6571 
7 *488:36 *488:49 8.875 
8 *488:49 *1322:B 9.3 
9 *488:49 *1432:A 23.8714 
*END

*D_NET *489 0.000193757
*CONN
*I *1127:A I *D sky130_fd_sc_hd__inv_1
*I *1116:Y O *D sky130_fd_sc_hd__nand2_1
*CAP
1 *1127:A 7.91114e-05
2 *1116:Y 7.91114e-05
3 *1127:A *500:10 3.55345e-05
*RES
1 *1116:Y *1127:A 20.2563 
*END

*D_NET *490 0.000693068
*CONN
*I *1321:B1 I *D sky130_fd_sc_hd__a21o_1
*I *1277:X O *D sky130_fd_sc_hd__and2_1
*CAP
1 *1321:B1 0.000261836
2 *1277:X 0.000261836
3 *1321:B1 *491:14 7.32272e-05
4 *1321:B1 *491:21 7.43578e-06
5 *1321:B1 *535:10 0
6 *1321:A2 *1321:B1 7.83366e-05
7 *486:16 *1321:B1 1.03968e-05
*RES
1 *1277:X *1321:B1 31.725 
*END

*D_NET *491 0.00163701
*CONN
*I *1321:A1 I *D sky130_fd_sc_hd__a21o_1
*I *1433:A I *D sky130_fd_sc_hd__xor2_1
*I *1322:A I *D sky130_fd_sc_hd__and2_1
*I *1320:A I *D sky130_fd_sc_hd__and2_1
*I *1278:X O *D sky130_fd_sc_hd__xor2_1
*CAP
1 *1321:A1 7.62339e-05
2 *1433:A 0.000133559
3 *1322:A 0
4 *1320:A 0
5 *1278:X 0.000226259
6 *491:21 0.000224734
7 *491:14 0.0002412
8 *1433:A *1363:A 0.000124521
9 *1433:A *1433:B 3.57366e-05
10 *1433:A *535:10 5.52238e-05
11 *1278:B *491:14 0
12 *1321:A2 *491:14 0.00012401
13 *1321:B1 *491:14 7.32272e-05
14 *1321:B1 *491:21 7.43578e-06
15 *1432:A *1433:A 0.000178847
16 *486:16 *491:14 5.23142e-05
17 *486:16 *491:21 8.37135e-05
*RES
1 *1278:X *491:14 21.8357 
2 *491:14 *1320:A 9.3 
3 *491:14 *491:21 2.17857 
4 *491:21 *1322:A 9.3 
5 *491:21 *1433:A 12.7286 
6 *1278:X *1321:A1 19.975 
*END

*D_NET *492 0.00129781
*CONN
*I *1367:B I *D sky130_fd_sc_hd__and2_1
*I *1326:B I *D sky130_fd_sc_hd__and2_1
*I *1402:B I *D sky130_fd_sc_hd__and2_1
*I *1279:X O *D sky130_fd_sc_hd__and2_1
*CAP
1 *1367:B 0
2 *1326:B 0.000210759
3 *1402:B 0
4 *1279:X 5.63314e-05
5 *492:17 0.000363902
6 *492:6 0.000209475
7 *1326:B *1367:A 0.000142856
8 *1326:B *1415:B 5.52302e-05
9 *1326:B *498:35 9.25014e-06
10 *1326:B *502:8 0
11 *492:17 *1367:A 4.43256e-05
12 p[6] *492:6 7.77751e-05
13 p[6] *492:17 4.51526e-05
14 *462:55 *1326:B 7.86249e-05
15 *462:66 *1326:B 4.1331e-06
*RES
1 *1279:X *492:6 10.6571 
2 *492:6 *1402:B 9.3 
3 *492:6 *492:17 3.03571 
4 *492:17 *1326:B 23.05 
5 *492:17 *1367:B 9.3 
*END

*D_NET *494 0.00710942
*CONN
*I *1368:B I *D sky130_fd_sc_hd__and2_1
*I *1403:B I *D sky130_fd_sc_hd__and2_1
*I *1369:A2 I *D sky130_fd_sc_hd__a21o_1
*I *1404:A2 I *D sky130_fd_sc_hd__a21o_1
*I *1329:A2 I *D sky130_fd_sc_hd__a21o_1
*I *1328:B I *D sky130_fd_sc_hd__and2_1
*I *1421:B I *D sky130_fd_sc_hd__xor2_1
*I *1281:X O *D sky130_fd_sc_hd__a21o_1
*CAP
1 *1368:B 0
2 *1403:B 0
3 *1369:A2 0
4 *1404:A2 0.000117496
5 *1329:A2 0
6 *1328:B 0
7 *1421:B 0
8 *1281:X 0.00017011
9 *494:55 0.000137534
10 *494:53 7.265e-05
11 *494:51 0.000572345
12 *494:36 0.000958721
13 *494:23 0.00130594
14 *494:10 0.00103706
15 *1404:A2 *1369:A1 5.71472e-05
16 *1404:A2 *1404:A1 0.000239863
17 *1404:A2 *582:6 5.52238e-05
18 *494:23 *1402:A 9.24395e-05
19 *494:23 *502:8 0
20 *494:23 *502:17 0
21 *494:36 *1423:B 2.89016e-05
22 *494:36 *508:10 0
23 *494:51 *1368:A 1.04232e-05
24 *494:51 *1370:A 2.14658e-05
25 *494:51 *1370:B 8.05006e-05
26 *494:51 *1410:B 0
27 *494:51 *1423:B 0
28 *494:51 *508:32 0
29 *494:51 *541:47 0
30 *494:51 *549:10 0
31 *494:51 *549:21 0
32 *494:51 *549:30 2.44318e-05
33 *494:51 *596:24 0
34 *494:53 *1369:A1 5.52238e-05
35 *494:53 *1404:A1 8.46829e-05
36 *494:53 *549:30 0.000174232
37 *494:53 *596:24 5.52238e-05
38 *494:55 *1369:A1 0.000188586
39 *494:55 *1404:A1 0.000175251
40 p[4] *494:23 4.5534e-05
41 p[5] *494:23 5.41494e-05
42 p[5] *494:36 7.45454e-05
43 *1279:A *494:23 0
44 *1282:A *494:23 0.000166983
45 *1284:B *494:10 5.33005e-05
46 *1285:A2 *494:10 0.00012401
47 *1423:A *494:36 0.000144773
48 *19:20 *494:23 0
49 *19:32 *494:23 0
50 *464:38 *494:10 0.000150625
51 *464:38 *494:23 0.000343233
52 *464:51 *494:23 0.000236814
53 *466:33 *494:10 0
54 *466:33 *494:23 0
55 *469:36 *494:23 0
*RES
1 *1281:X *494:10 17.1036 
2 *494:10 *1421:B 13.8 
3 *494:10 *494:23 22.9821 
4 *494:23 *1328:B 9.3 
5 *494:23 *494:36 12.3393 
6 *494:36 *1329:A2 13.8 
7 *494:36 *494:51 13.2857 
8 *494:51 *494:53 2.17857 
9 *494:53 *494:55 1.76786 
10 *494:55 *1404:A2 12.9964 
11 *494:55 *1369:A2 9.3 
12 *494:53 *1403:B 9.3 
13 *494:51 *1368:B 9.3 
*END

*D_NET *495 0.00298917
*CONN
*I *1323:A I *D sky130_fd_sc_hd__and2_1
*I *1330:B I *D sky130_fd_sc_hd__and2_1
*I *1282:X O *D sky130_fd_sc_hd__and2_1
*CAP
1 *1323:A 0.000344267
2 *1330:B 0.000402876
3 *1282:X 0.000544545
4 *495:10 0.00129169
5 *1330:B *1329:A1 0
6 *1330:B *1399:A 0.000109795
7 p[5] *495:10 0.000113647
8 p[6] *495:10 4.53834e-05
9 *1323:B *1323:A 0
10 *1399:B *1330:B 0
11 *19:20 *495:10 7.50601e-05
12 *19:32 *1330:B 2.89016e-05
13 *19:32 *495:10 4.09488e-06
14 *19:38 *1323:A 0
15 *19:38 *1330:B 2.89114e-05
16 *19:38 *495:10 0
*RES
1 *1282:X *495:10 24.175 
2 *495:10 *1330:B 19.0679 
3 *495:10 *1323:A 19.6393 
*END

*D_NET *497 0.00234731
*CONN
*I *1332:A2 I *D sky130_fd_sc_hd__a21o_1
*I *1325:B1 I *D sky130_fd_sc_hd__a21o_1
*I *1331:B I *D sky130_fd_sc_hd__and2_1
*I *1285:X O *D sky130_fd_sc_hd__a21o_1
*CAP
1 *1332:A2 0.000148529
2 *1325:B1 0
3 *1331:B 0.000129524
4 *1285:X 0.000164441
5 *497:25 0.000259318
6 *497:10 0.000404754
7 *1332:A2 *1325:A1 2.14658e-05
8 *1332:A2 *1332:A1 3.57366e-05
9 *1332:A2 *505:6 6.71755e-05
10 *1332:A2 *538:16 0.000128886
11 *497:25 *1331:A 0
12 p[8] *1331:B 0.000318101
13 *1285:B1 *497:10 3.32631e-05
14 *1288:A2 *497:10 3.69047e-06
15 *1289:A *1332:A2 2.91054e-06
16 *1289:B *1332:A2 0
17 *1292:B *1332:A2 0.000356035
18 *1325:A2 *1332:A2 9.90367e-05
19 *1325:A2 *497:25 9.25014e-06
20 *469:23 *497:10 6.19181e-05
21 *469:23 *497:25 1.76135e-05
22 *469:36 *497:25 8.5662e-05
23 *471:29 *497:10 0
24 *471:29 *497:25 0
*RES
1 *1285:X *497:10 16.3893 
2 *497:10 *1331:B 17.2286 
3 *497:10 *497:25 7.05357 
4 *497:25 *1325:B1 9.3 
5 *497:25 *1332:A2 14.8 
*END

*D_NET *498 0.00244939
*CONN
*I *1324:A I *D sky130_fd_sc_hd__and2_1
*I *1326:A I *D sky130_fd_sc_hd__and2_1
*I *1333:B I *D sky130_fd_sc_hd__and2_1
*I *1325:A1 I *D sky130_fd_sc_hd__a21o_1
*I *1286:X O *D sky130_fd_sc_hd__and2_1
*CAP
1 *1324:A 0.000143308
2 *1326:A 0
3 *1333:B 0.000152676
4 *1325:A1 0.000143503
5 *1286:X 0.000375425
6 *498:35 0.00023918
7 *498:22 0.00048047
8 *1325:A1 *1422:B 0.000140933
9 *1325:A1 *538:16 0.00018372
10 *498:22 *502:8 5.03694e-05
11 *498:35 *502:8 6.35892e-05
12 *1286:A *1325:A1 4.72917e-05
13 *1286:A *498:22 5.33433e-05
14 *1289:A *1325:A1 1.56e-05
15 *1289:B *1325:A1 2.89016e-05
16 *1289:B *498:22 2.89016e-05
17 *1292:B *1325:A1 2.95726e-05
18 *1325:A2 *1325:A1 5.71472e-05
19 *1325:A2 *498:22 0
20 *1326:B *498:35 9.25014e-06
21 *1332:A2 *1325:A1 2.14658e-05
22 *462:38 *1333:B 0.000184745
23 *462:55 *498:35 0
*RES
1 *1286:X *1325:A1 22.8321 
2 *1286:X *498:22 17.5143 
3 *498:22 *1333:B 16.8 
4 *498:22 *498:35 6.75 
5 *498:35 *1326:A 9.3 
6 *498:35 *1324:A 11.4786 
*END

*D_NET *500 0.00115702
*CONN
*I *1043:A I *D sky130_fd_sc_hd__nand2_1
*I *1042:A I *D sky130_fd_sc_hd__nand2_1
*I *1127:Y O *D sky130_fd_sc_hd__inv_1
*CAP
1 *1043:A 0.000126958
2 *1042:A 0
3 *1127:Y 0.000155118
4 *500:10 0.000282076
5 *500:10 *632:12 4.60115e-05
6 *1116:A *1043:A 0.000170651
7 *1116:A *500:10 0.00014852
8 *1127:A *500:10 3.55345e-05
9 *13:57 *1043:A 7.62237e-05
10 *258:23 *1043:A 0.000115924
*RES
1 *1127:Y *500:10 16.8982 
2 *500:10 *1042:A 13.8 
3 *500:10 *1043:A 17.4071 
*END

*D_NET *501 0.00470969
*CONN
*I *1329:B1 I *D sky130_fd_sc_hd__a21o_1
*I *1334:B I *D sky130_fd_sc_hd__and2_1
*I *1335:A2 I *D sky130_fd_sc_hd__a21o_1
*I *1288:X O *D sky130_fd_sc_hd__a21o_1
*CAP
1 *1329:B1 8.31211e-05
2 *1334:B 0
3 *1335:A2 0
4 *1288:X 0.00102389
5 *501:21 0.000159839
6 *501:14 0.00110061
7 *1329:B1 *541:12 8.07313e-05
8 *1329:B1 *541:34 4.88637e-05
9 *501:14 *1332:B1 0.000171368
10 *501:14 *1401:B1 0.000148903
11 *501:14 *504:8 0.000150625
12 *501:14 *508:10 4.79842e-05
13 *501:14 *545:8 0.00014789
14 *501:14 *545:23 4.28852e-05
15 *501:14 *579:16 0.000170654
16 *501:21 *1335:A1 9.90367e-05
17 *501:21 *541:12 4.72917e-05
18 p[10] *501:14 6.16864e-05
19 *1288:B1 *501:14 7.61932e-05
20 *1291:A1 *501:14 4.45768e-06
21 *1291:B1 *501:14 2.27416e-05
22 *1296:A *501:14 0.000387425
23 *468:19 *501:14 4.88546e-05
24 *471:29 *501:14 0
25 *471:40 *501:14 0
26 *473:55 *501:14 0.000584631
*RES
1 *1288:X *501:14 41.7107 
2 *501:14 *1335:A2 9.3 
3 *501:14 *501:21 1.76786 
4 *501:21 *1334:B 9.3 
5 *501:21 *1329:B1 11.4786 
*END

*D_NET *502 0.00406824
*CONN
*I *1336:B I *D sky130_fd_sc_hd__and2_1
*I *1330:A I *D sky130_fd_sc_hd__and2_1
*I *1329:A1 I *D sky130_fd_sc_hd__a21o_1
*I *1328:A I *D sky130_fd_sc_hd__and2_1
*I *1289:X O *D sky130_fd_sc_hd__and2_1
*CAP
1 *1336:B 0.000555711
2 *1330:A 0
3 *1329:A1 0.000350001
4 *1328:A 0
5 *1289:X 0.000629991
6 *502:19 0.000350001
7 *502:17 0.000689117
8 *502:8 0.000763398
9 *1329:A1 *541:34 0.000101157
10 *1336:B *1377:A 0.000203327
11 *1336:B *1377:B 0
12 *1336:B *1399:A 3.79467e-05
13 *1336:B *1423:B 0
14 *1336:B *541:47 0
15 *1336:B *542:10 0
16 *1336:B *556:26 0.000181192
17 *502:8 *1402:A 9.24395e-05
18 *502:8 *1423:B 0
19 *502:17 *1423:B 0
20 *1325:A2 *502:8 0
21 *1326:B *502:8 0
22 *1330:B *1329:A1 0
23 *19:32 *1336:B 0
24 *19:32 *502:17 0
25 *462:66 *502:8 0
26 *494:23 *502:8 0
27 *494:23 *502:17 0
28 *498:22 *502:8 5.03694e-05
29 *498:35 *502:8 6.35892e-05
*RES
1 *1289:X *502:8 25.7643 
2 *502:8 *1328:A 13.8 
3 *502:8 *502:17 2.25 
4 *502:17 *502:19 4.5 
5 *502:19 *1329:A1 15.3179 
6 *502:19 *1330:A 9.3 
7 *502:17 *1336:B 24.7464 
*END

*D_NET *504 0.0027999
*CONN
*I *1332:B1 I *D sky130_fd_sc_hd__a21o_1
*I *1339:A2 I *D sky130_fd_sc_hd__a21o_1
*I *1337:B I *D sky130_fd_sc_hd__and2_1
*I *1291:X O *D sky130_fd_sc_hd__a21o_1
*CAP
1 *1332:B1 0.000120836
2 *1339:A2 0.000216748
3 *1337:B 0
4 *1291:X 7.76523e-05
5 *504:12 0.000324205
6 *504:8 0.000305946
7 *1332:B1 *1340:B 0.000115094
8 *1332:B1 *538:16 0.000128476
9 *1339:A2 *1337:A 5.71472e-05
10 *1339:A2 *1346:B 1.02504e-05
11 *1339:A2 *1426:B 0.000129732
12 *1339:A2 *512:22 0.000391178
13 p[8] *1339:A2 3.6392e-05
14 p[8] *504:12 2.14658e-05
15 *1299:B *1339:A2 7.03295e-05
16 *1302:A *1339:A2 0
17 *473:36 *504:8 0
18 *473:55 *1332:B1 0.00016384
19 *473:55 *1339:A2 2.14757e-05
20 *473:55 *504:8 3.17148e-05
21 *473:55 *504:12 0.000230475
22 *475:43 *1339:A2 2.49484e-05
23 *501:14 *1332:B1 0.000171368
24 *501:14 *504:8 0.000150625
*RES
1 *1291:X *504:8 15.7464 
2 *504:8 *504:12 7.08929 
3 *504:12 *1337:B 9.3 
4 *504:12 *1339:A2 24.4964 
5 *504:8 *1332:B1 18.2286 
*END

*D_NET *505 0.00220374
*CONN
*I *1333:A I *D sky130_fd_sc_hd__and2_1
*I *1331:A I *D sky130_fd_sc_hd__and2_1
*I *1332:A1 I *D sky130_fd_sc_hd__a21o_1
*I *1340:B I *D sky130_fd_sc_hd__and2_1
*I *1292:X O *D sky130_fd_sc_hd__and2_1
*CAP
1 *1333:A 9.34165e-05
2 *1331:A 0.000183544
3 *1332:A1 3.46779e-05
4 *1340:B 0.000276917
5 *1292:X 0
6 *505:30 0.000315462
7 *505:6 0.00049961
8 *505:4 0.000226517
9 *1340:B *538:16 9.1283e-05
10 *1340:B *552:22 0.00010096
11 *505:6 *538:16 3.61629e-06
12 *1292:B *1331:A 1.87955e-05
13 *1292:B *505:6 9.90431e-05
14 *1292:B *505:30 4.18895e-05
15 *1325:A2 *1331:A 0
16 *1325:A2 *1333:A 0
17 *1332:A2 *1332:A1 3.57366e-05
18 *1332:A2 *505:6 6.71755e-05
19 *1332:B1 *1340:B 0.000115094
20 *471:29 *1331:A 0
21 *471:40 *1331:A 0
22 *471:40 *1333:A 0
23 *497:25 *1331:A 0
*RES
1 *1292:X *505:4 9.3 
2 *505:4 *505:6 2.58929 
3 *505:6 *1340:B 14.8179 
4 *505:6 *1332:A1 10.3357 
5 *505:4 *505:30 5.03571 
6 *505:30 *1331:A 16.9607 
7 *505:30 *1333:A 15.4429 
*END

*D_NET *507 0.00437389
*CONN
*I *1335:B1 I *D sky130_fd_sc_hd__a21o_1
*I *1341:B I *D sky130_fd_sc_hd__and2_1
*I *1342:A2 I *D sky130_fd_sc_hd__a21o_1
*I *1295:X O *D sky130_fd_sc_hd__a21o_1
*CAP
1 *1335:B1 0.000188955
2 *1341:B 0
3 *1342:A2 4.3636e-05
4 *1295:X 0.000766558
5 *507:19 0.000200692
6 *507:10 0.00082193
7 *1335:B1 *515:23 6.5053e-05
8 *1335:B1 *541:12 0.000308315
9 *1342:A2 *1342:A1 5.52238e-05
10 *1342:A2 *515:23 0.000184745
11 *1342:A2 *541:12 0.000126629
12 *507:10 *1407:A 0.000177234
13 *507:10 *1429:B 0
14 *507:10 *515:12 0
15 *507:10 *515:29 2.8266e-06
16 *507:10 *538:22 7.26935e-05
17 *507:10 *552:22 0
18 *507:19 *515:23 4.27935e-05
19 *507:19 *541:12 2.14757e-05
20 p[10] *507:10 0
21 *1425:A *507:10 0
22 *473:36 *507:10 0
23 *475:30 *507:10 0.00015234
24 *475:43 *507:10 0.00114279
*RES
1 *1295:X *507:10 36.9429 
2 *507:10 *1342:A2 11.4786 
3 *507:10 *507:19 0.535714 
4 *507:19 *1341:B 9.3 
5 *507:19 *1335:B1 14.6393 
*END

*D_NET *508 0.00189612
*CONN
*I *1336:A I *D sky130_fd_sc_hd__and2_1
*I *1343:B I *D sky130_fd_sc_hd__and2_1
*I *1334:A I *D sky130_fd_sc_hd__and2_1
*I *1335:A1 I *D sky130_fd_sc_hd__a21o_1
*I *1296:X O *D sky130_fd_sc_hd__and2_1
*CAP
1 *1336:A 4.66429e-05
2 *1343:B 0.000138025
3 *1334:A 0
4 *1335:A1 6.84885e-05
5 *1296:X 0.00013336
6 *508:32 0.000335902
7 *508:12 6.84885e-05
8 *508:10 0.000284595
9 *1335:A1 *541:12 0.00014285
10 *1336:A *556:26 0.000142856
11 *1343:B *556:6 9.90367e-05
12 *1343:B *556:26 0.000256992
13 *508:32 *548:10 0
14 p[10] *508:10 0
15 p[10] *508:32 0
16 *1296:B *508:10 3.18676e-05
17 *494:36 *508:10 0
18 *494:51 *508:32 0
19 *501:14 *508:10 4.79842e-05
20 *501:21 *1335:A1 9.90367e-05
*RES
1 *1296:X *508:10 16.2821 
2 *508:10 *508:12 4.5 
3 *508:12 *1335:A1 11.2107 
4 *508:12 *1334:A 9.3 
5 *508:10 *508:32 7.05357 
6 *508:32 *1343:B 12.7107 
7 *508:32 *1336:A 10.6571 
*END

*D_NET *510 0.00212126
*CONN
*I *1339:B1 I *D sky130_fd_sc_hd__a21o_1
*I *1344:B I *D sky130_fd_sc_hd__and2_1
*I *1345:A2 I *D sky130_fd_sc_hd__a21o_1
*I *1298:X O *D sky130_fd_sc_hd__a21o_1
*CAP
1 *1339:B1 0.000190363
2 *1344:B 0
3 *1345:A2 0.000262679
4 *1298:X 0.000194818
5 *510:12 0.000355015
6 *510:10 0.000477517
7 *1339:B1 *1373:B1 4.38128e-05
8 *1339:B1 *551:6 5.52302e-05
9 *1345:A2 *1345:A1 4.58194e-05
10 *1345:A2 *1346:A 0.000140933
11 *1345:A2 *514:10 0
12 *1345:A2 *518:22 4.35048e-05
13 *1345:A2 *518:33 9.69119e-06
14 *510:10 *514:10 0
15 *510:12 *1344:A 9.90431e-05
16 *1302:A *1345:A2 0
17 *1302:A *510:10 0
18 *477:12 *510:10 0.000202835
*RES
1 *1298:X *510:10 22.3714 
2 *510:10 *510:12 1.76786 
3 *510:12 *1345:A2 23.3357 
4 *510:12 *1344:B 9.3 
5 *510:10 *1339:B1 12.7107 
*END

*D_NET *511 0.000716703
*CONN
*I *1149:A I *D sky130_fd_sc_hd__inv_1
*I *1138:Y O *D sky130_fd_sc_hd__nand2_1
*CAP
1 *1149:A 0.000238049
2 *1138:Y 0.000238049
3 *1138:A *1149:A 1.32293e-05
4 *3:70 *1149:A 5.92441e-05
5 *6:55 *1149:A 4.17973e-05
6 *12:51 *1149:A 0.000114878
7 *136:10 *1149:A 1.14548e-05
*RES
1 *1138:Y *1149:A 31.658 
*END

*D_NET *512 0.00291131
*CONN
*I *1346:B I *D sky130_fd_sc_hd__and2_1
*I *1339:A1 I *D sky130_fd_sc_hd__a21o_1
*I *1340:A I *D sky130_fd_sc_hd__and2_1
*I *1337:A I *D sky130_fd_sc_hd__and2_1
*I *1299:X O *D sky130_fd_sc_hd__and2_1
*CAP
1 *1346:B 0.00029394
2 *1339:A1 0
3 *1340:A 0.0002392
4 *1337:A 6.29488e-06
5 *1299:X 0.000319133
6 *512:24 0.0002392
7 *512:22 0.000606779
8 *1340:A *1373:A1 0.000232399
9 *1340:A *1373:B1 9.0145e-05
10 *1340:A *538:16 0.0001409
11 *1346:B *1408:A2 4.46186e-06
12 *1346:B *551:12 7.36267e-05
13 *1346:B *559:12 5.62995e-05
14 *512:22 *1426:B 1.74352e-05
15 *1299:B *1337:A 5.71472e-05
16 *1302:A *512:22 0
17 *1339:A2 *1337:A 5.71472e-05
18 *1339:A2 *1346:B 1.02504e-05
19 *1339:A2 *512:22 0.000391178
20 *475:43 *1346:B 7.57713e-05
*RES
1 *1299:X *1337:A 19.1357 
2 *1299:X *512:22 18.4429 
3 *512:22 *512:24 4.5 
4 *512:24 *1340:A 14.8 
5 *512:24 *1339:A1 9.3 
6 *512:22 *1346:B 20.0679 
*END

*D_NET *514 0.00462539
*CONN
*I *1348:A2 I *D sky130_fd_sc_hd__a21o_1
*I *1342:B1 I *D sky130_fd_sc_hd__a21o_1
*I *1347:B I *D sky130_fd_sc_hd__and2_1
*I *1301:X O *D sky130_fd_sc_hd__a21o_1
*CAP
1 *1348:A2 0.00015822
2 *1342:B1 0.000123378
3 *1347:B 2.15948e-05
4 *1301:X 0.000607787
5 *514:14 0.000328343
6 *514:10 0.000949377
7 *1342:B1 *1390:A2 2.89016e-05
8 *1342:B1 *541:12 3.48705e-05
9 *1342:B1 *554:6 4.72917e-05
10 *1347:B *1390:A2 3.99614e-06
11 *1348:A2 *1348:A1 5.52302e-05
12 *1348:A2 *1390:A1 0
13 *1348:A2 *569:6 5.52302e-05
14 *514:10 *1353:B 0.000118903
15 *514:10 *1408:B1 0
16 *514:10 *518:22 0.000128154
17 *514:10 *518:33 7.05447e-05
18 *514:10 *521:34 0
19 *514:10 *559:12 0
20 *514:10 *606:31 0
21 *514:14 *1390:A2 8.07313e-05
22 *514:14 *1390:B1 0.000142856
23 *514:14 *1411:B1 3.57315e-05
24 *1301:B1 *514:10 5.71472e-05
25 *1306:B *514:10 5.52302e-05
26 *1345:A2 *514:10 0
27 *1428:A *1348:A2 0.000236814
28 *1428:A *514:10 0.000150625
29 *480:17 *514:10 0.000175512
30 *480:37 *514:10 0.000958919
31 *510:10 *514:10 0
*RES
1 *1301:X *514:10 30.55 
2 *514:10 *514:14 8.32143 
3 *514:14 *1347:B 9.72857 
4 *514:14 *1342:B1 11.9071 
5 *514:10 *1348:A2 17.4964 
*END

*D_NET *515 0.00169405
*CONN
*I *1341:A I *D sky130_fd_sc_hd__and2_1
*I *1343:A I *D sky130_fd_sc_hd__and2_1
*I *1350:B I *D sky130_fd_sc_hd__and2_1
*I *1342:A1 I *D sky130_fd_sc_hd__a21o_1
*I *1302:X O *D sky130_fd_sc_hd__and2_1
*CAP
1 *1341:A 0
2 *1343:A 5.14873e-05
3 *1350:B 0
4 *1342:A1 4.8419e-05
5 *1302:X 0.000103916
6 *515:29 0.000245506
7 *515:23 0.00035283
8 *515:12 0.000311147
9 *1342:A1 *541:12 1.74352e-05
10 *1343:A *556:6 0.000142856
11 p[10] *515:29 0
12 *1335:B1 *515:23 6.5053e-05
13 *1342:A2 *1342:A1 5.52238e-05
14 *1342:A2 *515:23 0.000184745
15 *1425:A *515:12 3.79467e-05
16 *1425:A *515:29 0
17 *475:43 *515:12 3.18676e-05
18 *507:10 *515:12 0
19 *507:10 *515:29 2.8266e-06
20 *507:19 *515:23 4.27935e-05
*RES
1 *1302:X *515:12 20.175 
2 *515:12 *1342:A1 10.2464 
3 *515:12 *515:23 3.42857 
4 *515:23 *515:29 11.8571 
5 *515:29 *1350:B 9.3 
6 *515:29 *1343:A 10.6571 
7 *515:23 *1341:A 9.3 
*END

*D_NET *517 0.00185286
*CONN
*I *1352:A2 I *D sky130_fd_sc_hd__a21o_1
*I *1345:B1 I *D sky130_fd_sc_hd__a21o_1
*I *1351:B I *D sky130_fd_sc_hd__and2_1
*I *1304:X O *D sky130_fd_sc_hd__a21o_1
*CAP
1 *1352:A2 0.000255475
2 *1345:B1 6.86887e-05
3 *1351:B 0
4 *1304:X 0.000286112
5 *517:12 6.86887e-05
6 *517:10 0.000541587
7 *1345:B1 *1351:A 9.90431e-05
8 *1352:A2 *1352:A1 5.52238e-05
9 *1352:A2 *1352:B1 4.35141e-05
10 *1352:A2 *1353:A 0.000140111
11 *1352:A2 *558:10 3.5707e-05
12 *1304:A1 *517:10 3.18676e-05
13 *1304:B1 *517:10 4.01768e-05
14 *1308:A1 *1352:A2 0
15 *1308:A1 *517:10 0
16 *480:37 *517:10 0
17 *482:53 *1345:B1 0.000186669
18 *482:53 *1352:A2 0
*RES
1 *1304:X *517:10 17.925 
2 *517:10 *517:12 4.5 
3 *517:12 *1351:B 9.3 
4 *517:12 *1345:B1 11.4786 
5 *517:10 *1352:A2 18.7643 
*END

*D_NET *518 0.00186795
*CONN
*I *1353:B I *D sky130_fd_sc_hd__and2_1
*I *1345:A1 I *D sky130_fd_sc_hd__a21o_1
*I *1346:A I *D sky130_fd_sc_hd__and2_1
*I *1344:A I *D sky130_fd_sc_hd__and2_1
*I *1306:X O *D sky130_fd_sc_hd__and2_1
*CAP
1 *1353:B 6.5032e-05
2 *1345:A1 0.000120848
3 *1346:A 0.00016174
4 *1344:A 0.000130912
5 *1306:X 0.000218728
6 *518:33 0.000225211
7 *518:22 0.000288887
8 *1353:B *559:12 0
9 *1345:A2 *1345:A1 4.58194e-05
10 *1345:A2 *1346:A 0.000140933
11 *1345:A2 *518:22 4.35048e-05
12 *1345:A2 *518:33 9.69119e-06
13 *510:12 *1344:A 9.90431e-05
14 *514:10 *1353:B 0.000118903
15 *514:10 *518:22 0.000128154
16 *514:10 *518:33 7.05447e-05
*RES
1 *1306:X *1344:A 21.1893 
2 *1306:X *518:22 15.9786 
3 *518:22 *1346:A 16.8 
4 *518:22 *518:33 1.03571 
5 *518:33 *1345:A1 15.1571 
6 *518:33 *1353:B 15.4429 
*END

*D_NET *520 0.00364744
*CONN
*I *1355:A2 I *D sky130_fd_sc_hd__a21o_1
*I *1348:B1 I *D sky130_fd_sc_hd__a21o_1
*I *1354:B I *D sky130_fd_sc_hd__and2_1
*I *1308:X O *D sky130_fd_sc_hd__a21o_1
*CAP
1 *1355:A2 4.58493e-05
2 *1348:B1 0.000286382
3 *1354:B 3.58421e-05
4 *1308:X 0.000615201
5 *520:14 0.000452978
6 *520:10 0.000791804
7 *1348:B1 *1348:A1 0.000224978
8 *1348:B1 *1356:A 8.07313e-05
9 *1348:B1 *1376:B1 0
10 *1348:B1 *1390:B1 0.000298868
11 *1348:B1 *528:30 1.74352e-05
12 *1348:B1 *569:6 2.65105e-05
13 *1354:B *1348:A1 0
14 *1354:B *1355:B1 0
15 *1354:B *528:30 1.04232e-05
16 *1355:A2 *527:10 0
17 *1355:A2 *527:23 0
18 *520:10 *1359:B 0
19 *520:10 *1393:A2 0
20 *520:10 *524:12 0.000315887
21 *520:10 *527:10 0
22 *520:10 *531:10 7.15591e-05
23 *520:14 *1355:B1 0.000142856
24 *520:14 *1390:B1 0.000142856
25 *520:14 *528:13 4.70078e-05
26 *520:14 *528:30 3.48705e-05
27 p[12] *1355:A2 0
28 p[12] *520:10 0
29 *1308:A1 *520:10 5.39629e-06
30 *484:47 *520:10 0
*RES
1 *1308:X *520:10 25.3893 
2 *520:10 *520:14 7.91071 
3 *520:14 *1354:B 10.0321 
4 *520:14 *1348:B1 16.3536 
5 *520:10 *1355:A2 14.5321 
*END

*D_NET *521 0.00410572
*CONN
*I *1347:A I *D sky130_fd_sc_hd__and2_1
*I *1350:A I *D sky130_fd_sc_hd__and2_1
*I *1356:B I *D sky130_fd_sc_hd__and2_1
*I *1348:A1 I *D sky130_fd_sc_hd__a21o_1
*I *1309:X O *D sky130_fd_sc_hd__and2_1
*CAP
1 *1347:A 7.4253e-06
2 *1350:A 0.0004614
3 *1356:B 0
4 *1348:A1 9.70997e-05
5 *1309:X 0
6 *521:34 0.000905498
7 *521:12 0.000282375
8 *521:4 0.000621947
9 *1348:A1 *528:30 0
10 *1348:A1 *569:6 4.43157e-05
11 *1350:A *1376:A1 2.24763e-05
12 *1350:A *1376:B1 1.98839e-05
13 *1350:A *1389:B 0.000225616
14 *1350:A *1390:A1 0
15 *1350:A *1391:A 5.62995e-05
16 *1350:A *1411:B1 5.33882e-05
17 *1350:A *554:23 0.000128154
18 *1350:A *556:6 5.76121e-05
19 *1350:A *569:21 1.02936e-05
20 *521:12 *1390:B1 0.00015304
21 *521:12 *1433:B 0.000344203
22 *1309:B *521:12 5.33334e-05
23 *1348:A2 *1348:A1 5.52302e-05
24 *1348:B1 *1348:A1 0.000224978
25 *1354:B *1348:A1 0
26 *1425:A *1347:A 0
27 *1425:A *1350:A 0
28 *1425:A *521:34 0
29 *1428:A *521:12 9.65075e-05
30 *1429:A *521:34 0.000184643
31 *514:10 *521:34 0
*RES
1 *1309:X *521:4 9.3 
2 *521:4 *521:12 14.3214 
3 *521:12 *1348:A1 12.3357 
4 *521:12 *1356:B 9.3 
5 *521:4 *521:34 10.6339 
6 *521:34 *1350:A 23.0411 
7 *521:34 *1347:A 14.0768 
*END

*D_NET *522 0.000988688
*CONN
*I *918:A I *D sky130_fd_sc_hd__nand2_1
*I *915:B I *D sky130_fd_sc_hd__nand2_1
*I *1149:Y O *D sky130_fd_sc_hd__inv_1
*CAP
1 *918:A 2.41887e-05
2 *915:B 0.000124528
3 *1149:Y 3.08123e-05
4 *522:8 0.000179529
5 *919:A *522:8 1.12713e-05
6 *919:B *522:8 5.50052e-05
7 *3:70 *522:8 0.000207142
8 *6:55 *918:A 1.6815e-05
9 *6:55 *522:8 0.000121899
10 *14:83 *915:B 0.000170893
11 *14:83 *918:A 4.66056e-05
*RES
1 *1149:Y *522:8 15.7732 
2 *522:8 *915:B 16.05 
3 *522:8 *918:A 14.5321 
*END

*D_NET *524 0.00273566
*CONN
*I *1352:B1 I *D sky130_fd_sc_hd__a21o_1
*I *1357:B I *D sky130_fd_sc_hd__and2_1
*I *1358:A2 I *D sky130_fd_sc_hd__a21o_1
*I *1311:X O *D sky130_fd_sc_hd__a21o_1
*CAP
1 *1352:B1 0.000210968
2 *1357:B 1.49752e-05
3 *1358:A2 2.65992e-05
4 *1311:X 0.000123479
5 *524:12 0.000288881
6 *524:6 0.000581754
7 *1352:B1 *1359:B 9.25014e-06
8 *1352:B1 *525:20 0.000125724
9 *1352:B1 *558:10 0
10 *1357:B *1357:A 4.08637e-05
11 *1357:B *1393:B1 5.33005e-05
12 *1358:A2 *1357:A 5.33005e-05
13 *1358:A2 *1358:A1 5.52238e-05
14 *1358:A2 *1393:B1 9.60875e-05
15 *524:12 *1359:A 0.00015134
16 *524:12 *1359:B 0
17 *524:12 *525:20 0
18 *524:12 *531:10 3.17148e-05
19 *1308:A1 *1352:B1 0
20 *1308:A1 *524:12 5.10822e-05
21 *1308:A2 *524:12 7.83366e-05
22 *1311:A1 *524:6 2.89016e-05
23 *1312:A *1352:B1 4.38128e-05
24 *1312:A *524:6 0.000122948
25 *1352:A2 *1352:B1 4.35141e-05
26 *482:19 *1352:B1 2.14658e-05
27 *482:36 *1352:B1 2.14757e-05
28 *482:53 *1352:B1 0.000144773
29 *484:47 *524:12 0
30 *520:10 *524:12 0.000315887
*RES
1 *1311:X *524:6 11.4786 
2 *524:6 *524:12 15.8036 
3 *524:12 *1358:A2 10.2464 
4 *524:12 *1357:B 9.83571 
5 *524:6 *1352:B1 22.8357 
*END

*D_NET *525 0.0022853
*CONN
*I *1359:B I *D sky130_fd_sc_hd__and2_1
*I *1353:A I *D sky130_fd_sc_hd__and2_1
*I *1352:A1 I *D sky130_fd_sc_hd__a21o_1
*I *1351:A I *D sky130_fd_sc_hd__and2_1
*I *1312:X O *D sky130_fd_sc_hd__and2_1
*CAP
1 *1359:B 0.000206924
2 *1353:A 0.000238093
3 *1352:A1 1.98341e-05
4 *1351:A 0.000107117
5 *1312:X 0.000178558
6 *525:22 0.000257927
7 *525:20 0.000278365
8 *1353:A *1387:B1 0.000399835
9 *1359:B *1393:A2 2.8266e-06
10 *1359:B *558:10 0
11 *1308:A1 *525:20 2.56601e-05
12 *1308:B1 *1353:A 0
13 *1345:B1 *1351:A 9.90431e-05
14 *1352:A2 *1352:A1 5.52238e-05
15 *1352:A2 *1353:A 0.000140111
16 *1352:B1 *1359:B 9.25014e-06
17 *1352:B1 *525:20 0.000125724
18 *482:53 *1351:A 0.000140806
19 *520:10 *1359:B 0
20 *524:12 *1359:B 0
21 *524:12 *525:20 0
*RES
1 *1312:X *1351:A 21.1893 
2 *1312:X *525:20 15.4429 
3 *525:20 *525:22 4.5 
4 *525:22 *1352:A1 9.83571 
5 *525:22 *1353:A 15.3357 
6 *525:20 *1359:B 17.1929 
*END

*D_NET *527 0.0022779
*CONN
*I *1361:B I *D sky130_fd_sc_hd__and2_1
*I *1362:A2 I *D sky130_fd_sc_hd__a21o_1
*I *1355:B1 I *D sky130_fd_sc_hd__a21o_1
*I *1314:X O *D sky130_fd_sc_hd__a21o_1
*CAP
1 *1361:B 0.000106157
2 *1362:A2 2.02108e-05
3 *1355:B1 0.000137005
4 *1314:X 0.000123767
5 *527:23 0.000303665
6 *527:10 0.000438069
7 *1355:B1 *528:6 5.17614e-05
8 *1355:B1 *528:13 4.88637e-05
9 *1361:B *1361:A 7.252e-05
10 *1362:A2 *1397:B1 2.89016e-05
11 *527:23 *1361:A 5.80706e-06
12 *527:23 *535:10 2.82057e-05
13 p[12] *527:23 0
14 p[14] *1361:B 0
15 *1315:B *1355:B1 2.89114e-05
16 *1354:B *1355:B1 0
17 *1355:A2 *527:10 0
18 *1355:A2 *527:23 0
19 *1430:A *1362:A2 2.59355e-05
20 *1430:A *527:23 0.000313465
21 *1432:A *1361:B 9.25014e-06
22 *1432:A *527:23 0.000218741
23 *484:47 *527:10 0.000126439
24 *484:47 *527:23 4.73656e-05
25 *520:10 *527:10 0
26 *520:14 *1355:B1 0.000142856
*RES
1 *1314:X *527:10 15.9786 
2 *527:10 *1355:B1 17.2286 
3 *527:10 *527:23 5.28571 
4 *527:23 *1362:A2 14.3357 
5 *527:23 *1361:B 16.05 
*END

*D_NET *528 0.00133092
*CONN
*I *1356:A I *D sky130_fd_sc_hd__and2_1
*I *1354:A I *D sky130_fd_sc_hd__and2_1
*I *1363:B I *D sky130_fd_sc_hd__and2_1
*I *1355:A1 I *D sky130_fd_sc_hd__a21o_1
*I *1315:X O *D sky130_fd_sc_hd__and2_1
*CAP
1 *1356:A 5.10293e-05
2 *1354:A 0
3 *1363:B 0.000116232
4 *1355:A1 0
5 *1315:X 4.98266e-05
6 *528:30 0.000137753
7 *528:13 0.000317951
8 *528:6 0.000164822
9 *1363:B *1433:B 5.33005e-05
10 p[12] *1363:B 0.000148911
11 *1348:A1 *528:30 0
12 *1348:B1 *1356:A 8.07313e-05
13 *1348:B1 *528:30 1.74352e-05
14 *1354:B *528:30 1.04232e-05
15 *1355:B1 *528:6 5.17614e-05
16 *1355:B1 *528:13 4.88637e-05
17 *520:14 *528:13 4.70078e-05
18 *520:14 *528:30 3.48705e-05
*RES
1 *1315:X *528:6 10.2464 
2 *528:6 *1355:A1 9.3 
3 *528:6 *528:13 2.17857 
4 *528:13 *1363:B 20.7821 
5 *528:13 *528:30 1.78571 
6 *528:30 *1354:A 9.3 
7 *528:30 *1356:A 10.6571 
*END

*D_NET *530 0.00108943
*CONN
*I *1358:B1 I *D sky130_fd_sc_hd__a21o_1
*I *1318:X O *D sky130_fd_sc_hd__a21o_1
*CAP
1 *1358:B1 0.000295604
2 *1318:X 0.000295604
3 *1358:B1 *1393:B1 0.00010096
4 *1314:A2 *1358:B1 0.000129868
5 *1319:A *1358:B1 0
6 *483:10 *1358:B1 0.000229443
7 *484:47 *1358:B1 0
8 *486:22 *1358:B1 3.79467e-05
*RES
1 *1318:X *1358:B1 34.5643 
*END

*D_NET *531 0.00151013
*CONN
*I *1357:A I *D sky130_fd_sc_hd__and2_1
*I *1358:A1 I *D sky130_fd_sc_hd__a21o_1
*I *1359:A I *D sky130_fd_sc_hd__and2_1
*I *1319:X O *D sky130_fd_sc_hd__and2_1
*CAP
1 *1357:A 9.7903e-05
2 *1358:A1 4.76597e-05
3 *1359:A 0.000199083
4 *1319:X 0.00011574
5 *531:23 0.000145563
6 *531:10 0.000314823
7 *1357:A *1393:B1 2.28598e-05
8 *1358:A1 *1393:B1 2.44318e-05
9 *1357:B *1357:A 4.08637e-05
10 *1358:A2 *1357:A 5.33005e-05
11 *1358:A2 *1358:A1 5.52238e-05
12 *1431:A *531:10 1.92789e-05
13 *484:47 *1359:A 5.80217e-05
14 *484:47 *531:10 6.07626e-05
15 *520:10 *531:10 7.15591e-05
16 *524:12 *1359:A 0.00015134
17 *524:12 *531:10 3.17148e-05
*RES
1 *1319:X *531:10 16.5857 
2 *531:10 *1359:A 17.925 
3 *531:10 *531:23 4.5 
4 *531:23 *1358:A1 10.2464 
5 *531:23 *1357:A 11.0857 
*END

*D_NET *533 0.000178355
*CONN
*I *1172:A I *D sky130_fd_sc_hd__inv_1
*I *1161:Y O *D sky130_fd_sc_hd__nand2_1
*CAP
1 *1172:A 8.91775e-05
2 *1161:Y 8.91775e-05
*RES
1 *1161:Y *1172:A 20.2563 
*END

*D_NET *534 0.000223021
*CONN
*I *1362:B1 I *D sky130_fd_sc_hd__a21o_1
*I *1321:X O *D sky130_fd_sc_hd__a21o_1
*CAP
1 *1362:B1 8.33606e-05
2 *1321:X 8.33606e-05
3 *1362:B1 *1397:B1 5.62995e-05
*RES
1 *1321:X *1362:B1 20.3679 
*END

*D_NET *535 0.00158048
*CONN
*I *1363:A I *D sky130_fd_sc_hd__and2_1
*I *1361:A I *D sky130_fd_sc_hd__and2_1
*I *1362:A1 I *D sky130_fd_sc_hd__a21o_1
*I *1322:X O *D sky130_fd_sc_hd__and2_1
*CAP
1 *1363:A 0.000187036
2 *1361:A 0.000211305
3 *1362:A1 0
4 *1322:X 0
5 *535:10 0.000329887
6 *535:4 0.000305618
7 *1363:A *1433:B 7.50473e-05
8 p[14] *1363:A 5.71472e-05
9 *1321:A2 *535:10 0
10 *1321:B1 *535:10 0
11 *1361:B *1361:A 7.252e-05
12 *1430:A *535:10 0.000128161
13 *1433:A *1363:A 0.000124521
14 *1433:A *535:10 5.52238e-05
15 *527:23 *1361:A 5.80706e-06
16 *527:23 *535:10 2.82057e-05
*RES
1 *1322:X *535:4 9.3 
2 *535:4 *535:10 7.28571 
3 *535:10 *1362:A1 13.8 
4 *535:10 *1361:A 17.5321 
5 *535:4 *1363:A 13.1393 
*END

*D_NET *536 0.00147801
*CONN
*I *1370:B I *D sky130_fd_sc_hd__and2_1
*I *1406:B I *D sky130_fd_sc_hd__and2_1
*I *1323:X O *D sky130_fd_sc_hd__and2_1
*CAP
1 *1370:B 0.000141555
2 *1406:B 8.71039e-05
3 *1323:X 0.000308318
4 *536:6 0.000536977
5 *1370:B *1410:B 1.76135e-05
6 *1406:B *603:23 0.000110546
7 *536:6 *1412:A 9.77274e-05
8 *536:6 *603:23 9.76689e-05
9 *494:51 *1370:B 8.05006e-05
*RES
1 *1323:X *536:6 14.7643 
2 *536:6 *1406:B 11.0857 
3 *536:6 *1370:B 21.4607 
*END

*D_NET *538 0.00523057
*CONN
*I *1422:B I *D sky130_fd_sc_hd__xor2_1
*I *1373:A2 I *D sky130_fd_sc_hd__a21o_1
*I *1372:B I *D sky130_fd_sc_hd__and2_1
*I *1407:B I *D sky130_fd_sc_hd__and2_1
*I *1408:A2 I *D sky130_fd_sc_hd__a21o_1
*I *1325:X O *D sky130_fd_sc_hd__a21o_1
*CAP
1 *1422:B 0.000150861
2 *1373:A2 0
3 *1372:B 9.22247e-05
4 *1407:B 0
5 *1408:A2 0.000273784
6 *1325:X 0
7 *538:26 0.00041661
8 *538:22 0.000360633
9 *538:16 0.000961694
10 *538:4 0.000986972
11 *1408:A2 *1408:A1 0
12 *1408:A2 *1415:A 0.000102197
13 *1408:A2 *551:12 0
14 *1408:A2 *559:27 0.000186662
15 *538:16 *1373:A1 0.000154978
16 *538:16 *1373:B1 1.3701e-05
17 *538:16 *552:22 1.66568e-05
18 *538:22 *552:22 0
19 *1302:A *1408:A2 0
20 *1325:A1 *1422:B 0.000140933
21 *1325:A1 *538:16 0.00018372
22 *1325:A2 *538:16 2.44318e-05
23 *1332:A2 *538:16 0.000128886
24 *1332:B1 *538:16 0.000128476
25 *1340:A *538:16 0.0001409
26 *1340:B *538:16 9.1283e-05
27 *1346:B *1408:A2 4.46186e-06
28 *466:33 *1422:B 0.000150618
29 *469:23 *1422:B 1.19309e-05
30 *469:36 *1422:B 4.35048e-05
31 *473:55 *538:22 0
32 *475:43 *1408:A2 0.000388139
33 *505:6 *538:16 3.61629e-06
34 *507:10 *538:22 7.26935e-05
*RES
1 *1325:X *538:4 9.3 
2 *538:4 *538:16 14.2857 
3 *538:16 *538:22 11.5536 
4 *538:22 *538:26 2.19643 
5 *538:26 *1408:A2 25.5857 
6 *538:26 *1407:B 9.3 
7 *538:22 *1372:B 11.0857 
8 *538:16 *1373:A2 9.3 
9 *538:4 *1422:B 21.6036 
*END

*D_NET *539 0.00228499
*CONN
*I *1374:B I *D sky130_fd_sc_hd__and2_1
*I *1409:B I *D sky130_fd_sc_hd__and2_1
*I *1326:X O *D sky130_fd_sc_hd__and2_1
*CAP
1 *1374:B 7.00801e-05
2 *1409:B 4.63547e-05
3 *1326:X 0.000743413
4 *539:10 0.000859848
5 *1374:B *1388:B 5.35516e-05
6 *1374:B *552:22 2.8266e-06
7 *1409:B *1429:B 3.67142e-05
8 *539:10 *1378:B 9.01258e-06
9 *539:10 *1429:B 1.58163e-05
10 *1401:A2 *539:10 0.000269428
11 *473:55 *1374:B 0.000177941
*RES
1 *1326:X *539:10 18.8 
2 *539:10 *1409:B 10.2464 
3 *539:10 *1374:B 20.55 
*END

*D_NET *541 0.0045601
*CONN
*I *1410:B I *D sky130_fd_sc_hd__and2_1
*I *1375:B I *D sky130_fd_sc_hd__and2_1
*I *1423:B I *D sky130_fd_sc_hd__xor2_1
*I *1411:A2 I *D sky130_fd_sc_hd__a21o_1
*I *1376:A2 I *D sky130_fd_sc_hd__a21o_1
*I *1329:X O *D sky130_fd_sc_hd__a21o_1
*CAP
1 *1410:B 0.000131736
2 *1375:B 0
3 *1423:B 0.000217646
4 *1411:A2 0.000136168
5 *1376:A2 0
6 *1329:X 0
7 *541:47 0.00026466
8 *541:34 0.000580733
9 *541:12 0.00085961
10 *541:4 0.000953605
11 *1410:B *1412:B 0
12 *1411:A2 *1384:B1 4.58976e-05
13 *1411:A2 *1411:A1 5.33334e-05
14 *1411:A2 *1411:B1 0
15 *1411:A2 *561:12 7.43578e-06
16 *541:12 *1411:B1 0
17 *541:12 *548:10 0.00014183
18 *541:12 *554:6 1.33343e-05
19 *541:12 *554:23 6.99903e-05
20 *1329:A1 *541:34 0.000101157
21 *1329:B1 *541:12 8.07313e-05
22 *1329:B1 *541:34 4.88637e-05
23 *1335:A1 *541:12 0.00014285
24 *1335:B1 *541:12 0.000308315
25 *1336:B *1423:B 0
26 *1336:B *541:47 0
27 *1342:A1 *541:12 1.74352e-05
28 *1342:A2 *541:12 0.000126629
29 *1342:B1 *541:12 3.48705e-05
30 *1370:B *1410:B 1.76135e-05
31 *1425:A *1411:A2 5.63007e-05
32 *1425:A *541:12 5.16852e-05
33 *471:40 *1423:B 0
34 *494:36 *1423:B 2.89016e-05
35 *494:51 *1410:B 0
36 *494:51 *1423:B 0
37 *494:51 *541:47 0
38 *501:21 *541:12 4.72917e-05
39 *502:8 *1423:B 0
40 *502:17 *1423:B 0
41 *507:19 *541:12 2.14757e-05
*RES
1 *1329:X *541:4 9.3 
2 *541:4 *541:12 19.7321 
3 *541:12 *1376:A2 13.8 
4 *541:12 *1411:A2 16.9964 
5 *541:4 *541:34 8.73214 
6 *541:34 *1423:B 17.4964 
7 *541:34 *541:47 2.25 
8 *541:47 *1375:B 13.8 
9 *541:47 *1410:B 16.05 
*END

*D_NET *542 0.000814757
*CONN
*I *1364:A I *D sky130_fd_sc_hd__and2_1
*I *1377:B I *D sky130_fd_sc_hd__and2_1
*I *1330:X O *D sky130_fd_sc_hd__and2_1
*CAP
1 *1364:A 0.000112178
2 *1377:B 8.97858e-05
3 *1330:X 8.14977e-05
4 *542:10 0.000283462
5 *1364:A *1412:B 3.69047e-06
6 *1377:B *1412:B 5.41494e-05
7 *1377:B *556:26 0
8 *542:10 *1399:A 0.000100831
9 *1336:B *1377:B 0
10 *1336:B *542:10 0
11 *19:38 *542:10 8.9163e-05
*RES
1 *1330:X *542:10 20.55 
2 *542:10 *1377:B 11.0857 
3 *542:10 *1364:A 11.0679 
*END

*D_NET *544 0.000754284
*CONN
*I *928:A I *D sky130_fd_sc_hd__nand2_1
*I *926:A I *D sky130_fd_sc_hd__nand2_1
*I *1172:Y O *D sky130_fd_sc_hd__inv_1
*CAP
1 *928:A 0
2 *926:A 0.000196354
3 *1172:Y 4.94904e-05
4 *544:6 0.000245844
5 *926:A *1327:A 0.00015234
6 *1316:B *926:A 6.11848e-05
7 *6:26 *926:A 3.57366e-05
8 *144:10 *926:A 1.33343e-05
*RES
1 *1172:Y *544:6 10.0411 
2 *544:6 *926:A 22.6393 
3 *544:6 *928:A 9.3 
*END

*D_NET *545 0.00254957
*CONN
*I *1366:B1 I *D sky130_fd_sc_hd__a21o_1
*I *1379:A2 I *D sky130_fd_sc_hd__a21o_1
*I *1378:B I *D sky130_fd_sc_hd__and2_1
*I *1332:X O *D sky130_fd_sc_hd__a21o_1
*CAP
1 *1366:B1 5.02353e-05
2 *1379:A2 9.34336e-05
3 *1378:B 0.000202847
4 *1332:X 0.000149015
5 *545:23 0.00023042
6 *545:8 0.000438613
7 *1366:B1 *1415:A 0.000197552
8 *1366:B1 *579:6 0.000136958
9 *1378:B *1378:A 2.27416e-05
10 *1379:A2 *1379:B1 3.99614e-06
11 *1379:A2 *1401:B1 3.05174e-05
12 *1379:A2 *1415:A 0.000233981
13 *1379:A2 *559:27 0
14 *1379:A2 *579:6 1.98839e-05
15 *545:23 *1401:A1 0.00022287
16 *545:23 *1401:B1 0.000150611
17 *545:23 *579:16 3.34366e-05
18 p[6] *1366:B1 4.88637e-05
19 *1401:A2 *1378:B 3.05066e-05
20 *1424:A *1379:A2 5.33005e-05
21 *471:40 *545:8 0
22 *471:40 *545:23 0
23 *501:14 *545:8 0.00014789
24 *501:14 *545:23 4.28852e-05
25 *539:10 *1378:B 9.01258e-06
*RES
1 *1332:X *545:8 17.2643 
2 *545:8 *1378:B 16.7107 
3 *545:8 *545:23 7.96429 
4 *545:23 *1379:A2 12.3357 
5 *545:23 *1366:B1 11.4786 
*END

*D_NET *546 0.00279665
*CONN
*I *1367:A I *D sky130_fd_sc_hd__and2_1
*I *1365:A I *D sky130_fd_sc_hd__and2_1
*I *1366:A1 I *D sky130_fd_sc_hd__a21o_1
*I *1380:B I *D sky130_fd_sc_hd__and2_1
*I *1333:X O *D sky130_fd_sc_hd__and2_1
*CAP
1 *1367:A 5.13433e-05
2 *1365:A 0
3 *1366:A1 0
4 *1380:B 0.000155116
5 *1333:X 0.000169382
6 *546:38 8.49547e-05
7 *546:18 0.000311079
8 *546:10 0.000358957
9 *1367:A *1415:B 2.28499e-05
10 *1380:B *1378:A 6.42242e-05
11 *1380:B *1415:A 0.00010933
12 *546:18 *1415:A 6.21846e-05
13 *546:18 *1415:B 0.000137934
14 *546:38 *1415:B 7.32272e-05
15 p[6] *1367:A 0.000256992
16 p[6] *546:18 0.000242604
17 p[6] *546:38 0.00012747
18 *1326:B *1367:A 0.000142856
19 *1401:A2 *546:10 0
20 *462:55 *546:10 0.000317594
21 *471:40 *1380:B 6.42242e-05
22 *471:40 *546:10 0
23 *492:17 *1367:A 4.43256e-05
*RES
1 *1333:X *546:10 22.3714 
2 *546:10 *546:18 4.69643 
3 *546:18 *1380:B 21.3 
4 *546:18 *1366:A1 9.3 
5 *546:10 *546:38 1.35714 
6 *546:38 *1365:A 9.3 
7 *546:38 *1367:A 11.8893 
*END

*D_NET *548 0.00149253
*CONN
*I *1369:B1 I *D sky130_fd_sc_hd__a21o_1
*I *1381:B I *D sky130_fd_sc_hd__and2_1
*I *1384:A2 I *D sky130_fd_sc_hd__a21o_1
*I *1335:X O *D sky130_fd_sc_hd__a21o_1
*CAP
1 *1369:B1 0.000119298
2 *1381:B 5.14873e-05
3 *1384:A2 0
4 *1335:X 0.000295358
5 *548:12 5.14873e-05
6 *548:10 0.000414656
7 *1369:B1 *549:21 0
8 *1381:B *562:21 0.000142856
9 *548:10 *549:10 0
10 p[10] *1369:B1 0.000114829
11 p[10] *548:10 0.000160732
12 *508:32 *548:10 0
13 *541:12 *548:10 0.00014183
*RES
1 *1335:X *548:10 19.2286 
2 *548:10 *548:12 4.5 
3 *548:12 *1384:A2 9.3 
4 *548:12 *1381:B 10.6571 
5 *548:10 *1369:B1 16.6571 
*END

*D_NET *549 0.00224394
*CONN
*I *1370:A I *D sky130_fd_sc_hd__and2_1
*I *1368:A I *D sky130_fd_sc_hd__and2_1
*I *1369:A1 I *D sky130_fd_sc_hd__a21o_1
*I *1385:B I *D sky130_fd_sc_hd__and2_1
*I *1336:X O *D sky130_fd_sc_hd__and2_1
*CAP
1 *1370:A 0.000151664
2 *1368:A 1.99857e-05
3 *1369:A1 0.000120462
4 *1385:B 0
5 *1336:X 0.000201892
6 *549:30 0.000271606
7 *549:21 0.00037654
8 *549:10 0.000358014
9 *549:10 *556:26 0.000144773
10 *549:21 *596:24 6.74911e-05
11 *1369:B1 *549:21 0
12 *1404:A2 *1369:A1 5.71472e-05
13 *494:51 *1368:A 1.04232e-05
14 *494:51 *1370:A 2.14658e-05
15 *494:51 *549:10 0
16 *494:51 *549:21 0
17 *494:51 *549:30 2.44318e-05
18 *494:53 *1369:A1 5.52238e-05
19 *494:53 *549:30 0.000174232
20 *494:55 *1369:A1 0.000188586
21 *548:10 *549:10 0
*RES
1 *1336:X *549:10 16.8 
2 *549:10 *1385:B 13.8 
3 *549:10 *549:21 7.66071 
4 *549:21 *1369:A1 11.8893 
5 *549:21 *549:30 2.17857 
6 *549:30 *1368:A 9.72857 
7 *549:30 *1370:A 11.9071 
*END

*D_NET *551 0.00164983
*CONN
*I *1373:B1 I *D sky130_fd_sc_hd__a21o_1
*I *1386:B I *D sky130_fd_sc_hd__and2_1
*I *1387:A2 I *D sky130_fd_sc_hd__a21o_1
*I *1339:X O *D sky130_fd_sc_hd__a21o_1
*CAP
1 *1373:B1 0.000180852
2 *1386:B 1.35825e-05
3 *1387:A2 4.45344e-05
4 *1339:X 2.774e-05
5 *551:12 0.000214292
6 *551:6 0.000364767
7 *1386:B *1408:A1 1.92905e-05
8 *1386:B *565:15 4.27935e-05
9 *1387:A2 *1408:A1 3.69047e-06
10 *1387:A2 *565:15 9.60875e-05
11 *1302:A *551:12 0.000365682
12 *1339:B1 *1373:B1 4.38128e-05
13 *1339:B1 *551:6 5.52302e-05
14 *1340:A *1373:B1 9.0145e-05
15 *1346:B *551:12 7.36267e-05
16 *1408:A2 *551:12 0
17 *538:16 *1373:B1 1.3701e-05
*RES
1 *1339:X *551:6 9.83571 
2 *551:6 *551:12 13.6786 
3 *551:12 *1387:A2 10.2464 
4 *551:12 *1386:B 9.83571 
5 *551:6 *1373:B1 12.7286 
*END

*D_NET *552 0.00250621
*CONN
*I *1388:B I *D sky130_fd_sc_hd__and2_1
*I *1374:A I *D sky130_fd_sc_hd__and2_1
*I *1372:A I *D sky130_fd_sc_hd__and2_1
*I *1373:A1 I *D sky130_fd_sc_hd__a21o_1
*I *1340:X O *D sky130_fd_sc_hd__and2_1
*CAP
1 *1388:B 0.000318297
2 *1374:A 3.72704e-05
3 *1372:A 0
4 *1373:A1 0.000254358
5 *1340:X 0.000466448
6 *552:24 3.72704e-05
7 *552:22 0.000530387
8 *1388:B *1407:A 0
9 *1388:B *1408:A1 1.65169e-05
10 *1388:B *1409:A 0.000274294
11 *1388:B *1429:B 9.99644e-06
12 *1388:B *565:15 0
13 *552:22 *1407:A 0
14 *1340:A *1373:A1 0.000232399
15 *1340:B *552:22 0.00010096
16 *1374:B *1388:B 5.35516e-05
17 *1374:B *552:22 2.8266e-06
18 *473:55 *552:22 0
19 *507:10 *552:22 0
20 *538:16 *1373:A1 0.000154978
21 *538:16 *552:22 1.66568e-05
22 *538:22 *552:22 0
*RES
1 *1340:X *1373:A1 22.4214 
2 *1340:X *552:22 17.1036 
3 *552:22 *552:24 4.5 
4 *552:24 *1372:A 9.3 
5 *552:24 *1374:A 9.83571 
6 *552:22 *1388:B 19.9964 
*END

*D_NET *554 0.00144402
*CONN
*I *1389:B I *D sky130_fd_sc_hd__and2_1
*I *1376:B1 I *D sky130_fd_sc_hd__a21o_1
*I *1390:A2 I *D sky130_fd_sc_hd__a21o_1
*I *1342:X O *D sky130_fd_sc_hd__a21o_1
*CAP
1 *1389:B 6.07059e-05
2 *1376:B1 3.56957e-05
3 *1390:A2 8.75394e-05
4 *1342:X 3.55329e-05
5 *554:23 0.000178712
6 *554:6 0.000205382
7 *1376:B1 *569:21 5.71472e-05
8 *1389:B *569:21 0.000123506
9 *1390:A2 *1411:B1 3.18676e-05
10 *554:23 *1411:B1 1.00375e-05
11 *1342:B1 *1390:A2 2.89016e-05
12 *1342:B1 *554:6 4.72917e-05
13 *1347:B *1390:A2 3.99614e-06
14 *1348:B1 *1376:B1 0
15 *1350:A *1376:B1 1.98839e-05
16 *1350:A *1389:B 0.000225616
17 *1350:A *554:23 0.000128154
18 *1425:A *554:23 0
19 *514:14 *1390:A2 8.07313e-05
20 *541:12 *554:6 1.33343e-05
21 *541:12 *554:23 6.99903e-05
*RES
1 *1342:X *554:6 10.2464 
2 *554:6 *1390:A2 11.4964 
3 *554:6 *554:23 11.375 
4 *554:23 *1376:B1 10.2643 
5 *554:23 *1389:B 11.9071 
*END

*D_NET *555 0.000245045
*CONN
*I *1194:A I *D sky130_fd_sc_hd__inv_1
*I *1183:Y O *D sky130_fd_sc_hd__nand2_1
*CAP
1 *1194:A 6.53976e-05
2 *1183:Y 6.53976e-05
3 *870:A *1194:A 5.10307e-05
4 *5:49 *1194:A 3.46874e-05
5 *5:64 *1194:A 2.85321e-05
*RES
1 *1183:Y *1194:A 20.2563 
*END

*D_NET *556 0.00373424
*CONN
*I *1377:A I *D sky130_fd_sc_hd__and2_1
*I *1375:A I *D sky130_fd_sc_hd__and2_1
*I *1376:A1 I *D sky130_fd_sc_hd__a21o_1
*I *1391:B I *D sky130_fd_sc_hd__and2_1
*I *1343:X O *D sky130_fd_sc_hd__and2_1
*CAP
1 *1377:A 7.98417e-05
2 *1375:A 0
3 *1376:A1 0.000286751
4 *1391:B 2.23854e-05
5 *1343:X 0
6 *556:26 0.00053202
7 *556:6 0.00057185
8 *556:4 0.000714892
9 *1376:A1 *1391:A 4.88637e-05
10 *1376:A1 *569:21 0.000226513
11 *1391:B *569:21 0
12 *1336:A *556:26 0.000142856
13 *1336:B *1377:A 0.000203327
14 *1336:B *556:26 0.000181192
15 *1343:A *556:6 0.000142856
16 *1343:B *556:6 9.90367e-05
17 *1343:B *556:26 0.000256992
18 *1350:A *1376:A1 2.24763e-05
19 *1350:A *556:6 5.76121e-05
20 *1377:B *556:26 0
21 *549:10 *556:26 0.000144773
*RES
1 *1343:X *556:4 9.3 
2 *556:4 *556:6 5.05357 
3 *556:6 *1391:B 9.72857 
4 *556:6 *1376:A1 13.55 
5 *556:4 *556:26 9.58929 
6 *556:26 *1375:A 9.3 
7 *556:26 *1377:A 11.4786 
*END

*D_NET *558 0.00423568
*CONN
*I *1392:B I *D sky130_fd_sc_hd__and2_1
*I *1379:B1 I *D sky130_fd_sc_hd__a21o_1
*I *1393:A2 I *D sky130_fd_sc_hd__a21o_1
*I *1345:X O *D sky130_fd_sc_hd__a21o_1
*CAP
1 *1392:B 0
2 *1379:B1 0.000731896
3 *1393:A2 0.000194063
4 *1345:X 0.000158054
5 *558:25 0.000783549
6 *558:10 0.000403769
7 *1379:B1 *1395:A 9.60771e-05
8 *1379:B1 *1395:B 0.000271345
9 *1379:B1 *1401:B1 9.90367e-05
10 *1379:B1 *559:27 0.000707719
11 *1379:B1 *572:12 2.2552e-05
12 *1393:A2 *1393:A1 7.83659e-05
13 *1393:A2 *572:6 2.14757e-05
14 *1393:A2 *572:12 0.00014285
15 *558:25 *572:12 0.000139907
16 *1352:A2 *558:10 3.5707e-05
17 *1352:B1 *558:10 0
18 *1359:B *1393:A2 2.8266e-06
19 *1359:B *558:10 0
20 *1379:A2 *1379:B1 3.99614e-06
21 *482:53 *1393:A2 0
22 *482:53 *558:10 0.000342495
23 *520:10 *1393:A2 0
*RES
1 *1345:X *558:10 22.675 
2 *558:10 *1393:A2 22.3179 
3 *558:10 *558:25 1.35714 
4 *558:25 *1379:B1 24.0321 
5 *558:25 *1392:B 9.3 
*END

*D_NET *559 0.00531271
*CONN
*I *1379:A1 I *D sky130_fd_sc_hd__a21o_1
*I *1380:A I *D sky130_fd_sc_hd__and2_1
*I *1378:A I *D sky130_fd_sc_hd__and2_1
*I *1395:B I *D sky130_fd_sc_hd__and2_1
*I *1346:X O *D sky130_fd_sc_hd__and2_1
*CAP
1 *1379:A1 0
2 *1380:A 2.33083e-05
3 *1378:A 0.000322576
4 *1395:B 8.71311e-05
5 *1346:X 0.000315247
6 *559:35 0.000597432
7 *559:27 0.000484515
8 *559:12 0.000635345
9 *1378:A *1401:A1 0.000302872
10 *1378:A *579:16 7.79781e-06
11 *1380:A *1401:A1 2.28598e-05
12 *1395:B *1408:B1 9.71197e-05
13 *1395:B *1415:A 4.72818e-05
14 *1395:B *572:12 0
15 *559:12 *1408:B1 6.42242e-05
16 *559:27 *1401:B1 2.47833e-05
17 *559:27 *1408:B1 0.000142856
18 *559:27 *1415:A 0.000392404
19 *559:35 *1401:A1 2.59355e-05
20 *559:35 *1429:B 7.50697e-05
21 *559:35 *579:16 0.00022266
22 *1296:A *559:35 4.71964e-05
23 *1302:A *559:12 0
24 *1346:B *559:12 5.62995e-05
25 *1353:B *559:12 0
26 *1378:B *1378:A 2.27416e-05
27 *1379:A2 *559:27 0
28 *1379:B1 *1395:B 0.000271345
29 *1379:B1 *559:27 0.000707719
30 *1380:B *1378:A 6.42242e-05
31 *1401:A2 *1378:A 5.52238e-05
32 *1408:A2 *559:27 0.000186662
33 *471:40 *1378:A 9.87983e-06
34 *514:10 *559:12 0
*RES
1 *1346:X *559:12 23.3179 
2 *559:12 *1395:B 12.3179 
3 *559:12 *559:27 9.60714 
4 *559:27 *559:35 14.3571 
5 *559:35 *1378:A 24.5857 
6 *559:35 *1380:A 9.83571 
7 *559:27 *1379:A1 9.3 
*END

*D_NET *561 0.00335158
*CONN
*I *1384:B1 I *D sky130_fd_sc_hd__a21o_1
*I *1397:A2 I *D sky130_fd_sc_hd__a21o_1
*I *1396:B I *D sky130_fd_sc_hd__and2_1
*I *1348:X O *D sky130_fd_sc_hd__a21o_1
*CAP
1 *1384:B1 0.000445957
2 *1397:A2 0
3 *1396:B 6.73953e-05
4 *1348:X 0.000235275
5 *561:18 0.00018185
6 *561:12 0.000795687
7 *1384:B1 *1404:B1 5.71472e-05
8 *1384:B1 *1411:A1 6.87841e-05
9 *1384:B1 *1417:A 0.000137983
10 *1384:B1 *1418:A1 0.000274288
11 *1384:B1 *562:12 6.79057e-05
12 *1384:B1 *562:21 0
13 *1396:B *1397:A1 5.33005e-05
14 *1396:B *1397:B1 0.000113073
15 *1396:B *1432:B 9.90367e-05
16 *1396:B *575:19 0.000271345
17 *561:12 *1390:A1 3.34295e-05
18 *561:12 *1411:A1 1.32552e-05
19 *561:12 *1411:B1 0.000174797
20 *561:12 *1428:B 0
21 *561:18 *1398:A 3.17148e-05
22 *561:18 *1432:B 0
23 p[15] *1384:B1 0.00010096
24 p[15] *561:18 7.50601e-05
25 *1411:A2 *1384:B1 4.58976e-05
26 *1411:A2 *561:12 7.43578e-06
27 *1425:A *561:12 0
28 *1425:A *561:18 0
29 *1428:A *561:12 0
*RES
1 *1348:X *561:12 22.925 
2 *561:12 *561:18 11.25 
3 *561:18 *1396:B 12.3 
4 *561:18 *1397:A2 9.3 
5 *561:12 *1384:B1 18.7821 
*END

*D_NET *562 0.00269452
*CONN
*I *1398:B I *D sky130_fd_sc_hd__and2_1
*I *1385:A I *D sky130_fd_sc_hd__and2_1
*I *1381:A I *D sky130_fd_sc_hd__and2_1
*I *1384:A1 I *D sky130_fd_sc_hd__a21o_1
*I *1350:X O *D sky130_fd_sc_hd__and2_1
*CAP
1 *1398:B 0.000412398
2 *1385:A 3.34249e-05
3 *1381:A 0
4 *1384:A1 0
5 *1350:X 8.9411e-05
6 *562:21 0.000103496
7 *562:12 0.000140567
8 *562:8 0.000572304
9 *1385:A *603:23 4.88637e-05
10 *1398:B *1404:B1 0.000154762
11 *1398:B *1419:A 0.000128496
12 *1398:B *582:21 0.000125918
13 *1398:B *609:6 0.000139907
14 *1398:B *609:12 4.06875e-05
15 *562:8 *603:10 0
16 *562:12 *1417:A 6.05161e-06
17 *562:12 *603:23 0.000271352
18 *562:21 *603:23 0.000216121
19 p[10] *1398:B 0
20 p[10] *562:8 0
21 *1381:B *562:21 0.000142856
22 *1384:B1 *562:12 6.79057e-05
23 *1384:B1 *562:21 0
*RES
1 *1350:X *562:8 15.1393 
2 *562:8 *562:12 7.08929 
3 *562:12 *1384:A1 9.3 
4 *562:12 *562:21 2.60714 
5 *562:21 *1381:A 9.3 
6 *562:21 *1385:A 10.2464 
7 *562:8 *1398:B 22.6214 
*END

*D_NET *564 0.00141216
*CONN
*I *1387:B1 I *D sky130_fd_sc_hd__a21o_1
*I *1352:X O *D sky130_fd_sc_hd__a21o_1
*CAP
1 *1387:B1 0.000418415
2 *1352:X 0.000418415
3 *1387:B1 *565:6 0.000175493
4 *1387:B1 *565:15 0
5 *1353:A *1387:B1 0.000399835
*RES
1 *1352:X *1387:B1 27.3679 
*END

*D_NET *565 0.00111653
*CONN
*I *1388:A I *D sky130_fd_sc_hd__and2_1
*I *1386:A I *D sky130_fd_sc_hd__and2_1
*I *1387:A1 I *D sky130_fd_sc_hd__a21o_1
*I *1353:X O *D sky130_fd_sc_hd__and2_1
*CAP
1 *1388:A 3.56315e-05
2 *1386:A 0
3 *1387:A1 0
4 *1353:X 0.000201903
5 *565:15 0.000174477
6 *565:6 0.000340749
7 *1388:A *1408:A1 4.01768e-05
8 *565:15 *1408:A1 9.22103e-06
9 *1386:B *565:15 4.27935e-05
10 *1387:A2 *565:15 9.60875e-05
11 *1387:B1 *565:6 0.000175493
12 *1387:B1 *565:15 0
13 *1388:B *565:15 0
*RES
1 *1353:X *565:6 13.1214 
2 *565:6 *1387:A1 9.3 
3 *565:6 *565:15 2.60714 
4 *565:15 *1386:A 9.3 
5 *565:15 *1388:A 10.2464 
*END

*D_NET *566 0.000694799
*CONN
*I *869:B I *D sky130_fd_sc_hd__nand2_1
*I *871:A I *D sky130_fd_sc_hd__nand2_1
*I *1194:Y O *D sky130_fd_sc_hd__inv_1
*CAP
1 *869:B 0
2 *871:A 0.000161821
3 *1194:Y 1.53308e-05
4 *566:6 0.000177152
5 *870:A *566:6 7.6739e-05
6 *873:B *871:A 9.84673e-05
7 *5:49 *566:6 2.92349e-05
8 *13:30 *871:A 9.84673e-05
9 *88:10 *871:A 3.75868e-05
*RES
1 *1194:Y *566:6 10.0411 
2 *566:6 *871:A 21.4964 
3 *566:6 *869:B 9.3 
*END

*D_NET *568 0.00180385
*CONN
*I *1390:B1 I *D sky130_fd_sc_hd__a21o_1
*I *1355:X O *D sky130_fd_sc_hd__a21o_1
*CAP
1 *1390:B1 0.000437362
2 *1355:X 0.000437362
3 *1390:B1 *1411:B1 4.01768e-05
4 *1348:B1 *1390:B1 0.000298868
5 *1428:A *1390:B1 0.000151333
6 *514:14 *1390:B1 0.000142856
7 *520:14 *1390:B1 0.000142856
8 *521:12 *1390:B1 0.00015304
*RES
1 *1355:X *1390:B1 35.9571 
*END

*D_NET *569 0.00201754
*CONN
*I *1391:A I *D sky130_fd_sc_hd__and2_1
*I *1389:A I *D sky130_fd_sc_hd__and2_1
*I *1390:A1 I *D sky130_fd_sc_hd__a21o_1
*I *1356:X O *D sky130_fd_sc_hd__and2_1
*CAP
1 *1391:A 1.56623e-05
2 *1389:A 0
3 *1390:A1 0.000184342
4 *1356:X 8.88539e-05
5 *569:21 0.000216212
6 *569:6 0.000473745
7 *1390:A1 *1411:B1 7.57869e-05
8 *569:6 *1428:B 0.000186662
9 *569:21 *1428:B 9.41642e-05
10 *1348:A1 *569:6 4.43157e-05
11 *1348:A2 *1390:A1 0
12 *1348:A2 *569:6 5.52302e-05
13 *1348:B1 *569:6 2.65105e-05
14 *1350:A *1390:A1 0
15 *1350:A *1391:A 5.62995e-05
16 *1350:A *569:21 1.02936e-05
17 *1376:A1 *1391:A 4.88637e-05
18 *1376:A1 *569:21 0.000226513
19 *1376:B1 *569:21 5.71472e-05
20 *1389:B *569:21 0.000123506
21 *1391:B *569:21 0
22 *1428:A *1390:A1 0
23 *561:12 *1390:A1 3.34295e-05
*RES
1 *1356:X *569:6 11.8893 
2 *569:6 *1390:A1 21.4607 
3 *569:6 *569:21 5.07143 
4 *569:21 *1389:A 9.3 
5 *569:21 *1391:A 10.2464 
*END

*D_NET *571 0.0011824
*CONN
*I *1393:B1 I *D sky130_fd_sc_hd__a21o_1
*I *1358:X O *D sky130_fd_sc_hd__a21o_1
*CAP
1 *1393:B1 0.000442381
2 *1358:X 0.000442381
3 *1393:B1 *1414:A1 0
4 *1357:A *1393:B1 2.28598e-05
5 *1357:B *1393:B1 5.33005e-05
6 *1358:A1 *1393:B1 2.44318e-05
7 *1358:A2 *1393:B1 9.60875e-05
8 *1358:B1 *1393:B1 0.00010096
*RES
1 *1358:X *1393:B1 26.5464 
*END

*D_NET *572 0.00122963
*CONN
*I *1393:A1 I *D sky130_fd_sc_hd__a21o_1
*I *1395:A I *D sky130_fd_sc_hd__and2_1
*I *1392:A I *D sky130_fd_sc_hd__and2_1
*I *1359:X O *D sky130_fd_sc_hd__and2_1
*CAP
1 *1393:A1 5.3971e-05
2 *1395:A 8.65799e-05
3 *1392:A 0
4 *1359:X 4.23037e-05
5 *572:12 0.000267927
6 *572:6 0.000277622
7 *1379:B1 *1395:A 9.60771e-05
8 *1379:B1 *572:12 2.2552e-05
9 *1393:A2 *1393:A1 7.83659e-05
10 *1393:A2 *572:6 2.14757e-05
11 *1393:A2 *572:12 0.00014285
12 *1395:B *572:12 0
13 *482:53 *1393:A1 0
14 *558:25 *572:12 0.000139907
*RES
1 *1359:X *572:6 9.83571 
2 *572:6 *572:12 3.85714 
3 *572:12 *1392:A 9.3 
4 *572:12 *1395:A 11.0679 
5 *572:6 *1393:A1 19.3357 
*END

*D_NET *574 0.0037572
*CONN
*I *1397:B1 I *D sky130_fd_sc_hd__a21o_1
*I *1362:X O *D sky130_fd_sc_hd__a21o_1
*CAP
1 *1397:B1 0.00124358
2 *1362:X 0.00124358
3 *1397:B1 *1397:A1 2.13661e-05
4 *1397:B1 *1430:B 2.15245e-05
5 *1397:B1 *1432:B 0.00096058
6 *1362:A2 *1397:B1 2.89016e-05
7 *1362:B1 *1397:B1 5.62995e-05
8 *1396:B *1397:B1 0.000113073
9 *1430:A *1397:B1 1.4966e-05
10 *1432:A *1397:B1 5.33433e-05
*RES
1 *1362:X *1397:B1 35.8857 
*END

*D_NET *575 0.00294549
*CONN
*I *1397:A1 I *D sky130_fd_sc_hd__a21o_1
*I *1398:A I *D sky130_fd_sc_hd__and2_1
*I *1396:A I *D sky130_fd_sc_hd__and2_1
*I *1363:X O *D sky130_fd_sc_hd__and2_1
*CAP
1 *1397:A1 4.42073e-05
2 *1398:A 0.000343336
3 *1396:A 0
4 *1363:X 0.000445542
5 *575:19 0.000456705
6 *575:12 0.000514704
7 *1397:A1 *1430:B 8.46829e-05
8 *575:12 *1433:B 8.03068e-05
9 *575:19 *1430:B 0.000356028
10 *575:19 *1432:B 4.13595e-05
11 p[15] *1398:A 5.75896e-05
12 p[9] *1398:A 0
13 p[9] *575:12 0.00012401
14 *1396:B *1397:A1 5.33005e-05
15 *1396:B *575:19 0.000271345
16 *1397:B1 *1397:A1 2.13661e-05
17 *1428:A *575:12 1.92905e-05
18 *561:18 *1398:A 3.17148e-05
*RES
1 *1363:X *575:12 24.5857 
2 *575:12 *1396:A 9.3 
3 *575:12 *575:19 3.41071 
4 *575:19 *1398:A 24.2643 
5 *575:19 *1397:A1 10.675 
*END

*D_NET *576 0.000468858
*CONN
*I *1412:B I *D sky130_fd_sc_hd__and2_1
*I *1364:X O *D sky130_fd_sc_hd__and2_1
*CAP
1 *1412:B 0.000205509
2 *1364:X 0.000205509
3 *1323:B *1412:B 0
4 *1364:A *1412:B 3.69047e-06
5 *1377:B *1412:B 5.41494e-05
6 *1410:B *1412:B 0
*RES
1 *1364:X *1412:B 30.6 
*END

*D_NET *577 0.000619205
*CONN
*I *1216:A I *D sky130_fd_sc_hd__inv_1
*I *1205:Y O *D sky130_fd_sc_hd__nand2_1
*CAP
1 *1216:A 0.000172161
2 *1205:Y 0.000172161
3 *6:101 *1216:A 6.97972e-05
4 *16:23 *1216:A 6.5185e-05
5 *17:23 *1216:A 0.0001399
*RES
1 *1205:Y *1216:A 30.8813 
*END

*D_NET *579 0.00311304
*CONN
*I *1424:B I *D sky130_fd_sc_hd__xor2_1
*I *1413:B I *D sky130_fd_sc_hd__and2_1
*I *1414:A2 I *D sky130_fd_sc_hd__a21o_1
*I *1366:X O *D sky130_fd_sc_hd__a21o_1
*CAP
1 *1424:B 0
2 *1413:B 0
3 *1414:A2 6.21666e-05
4 *1366:X 8.19059e-05
5 *579:16 0.0010031
6 *579:6 0.00102284
7 *1414:A2 *1414:A1 0.000188586
8 *579:6 *1401:B1 6.05161e-06
9 *579:16 *1401:A1 5.74562e-05
10 *579:16 *1413:A 2.28598e-05
11 *579:16 *1414:A1 2.14658e-05
12 p[6] *579:6 5.52302e-05
13 *1366:B1 *579:6 0.000136958
14 *1378:A *579:16 7.79781e-06
15 *1379:A2 *579:6 1.98839e-05
16 *501:14 *579:16 0.000170654
17 *545:23 *579:16 3.34366e-05
18 *559:35 *579:16 0.00022266
*RES
1 *1366:X *579:6 11.0679 
2 *579:6 *579:16 24.5357 
3 *579:16 *1414:A2 11.0679 
4 *579:16 *1413:B 9.3 
5 *579:6 *1424:B 9.3 
*END

*D_NET *580 0.000717824
*CONN
*I *1415:B I *D sky130_fd_sc_hd__and2_1
*I *1367:X O *D sky130_fd_sc_hd__and2_1
*CAP
1 *1415:B 0.000214291
2 *1367:X 0.000214291
3 *1326:B *1415:B 5.52302e-05
4 *1367:A *1415:B 2.28499e-05
5 *546:18 *1415:B 0.000137934
6 *546:38 *1415:B 7.32272e-05
*RES
1 *1367:X *1415:B 22.85 
*END

*D_NET *582 0.00190508
*CONN
*I *1417:B I *D sky130_fd_sc_hd__and2_1
*I *1418:A2 I *D sky130_fd_sc_hd__a21o_1
*I *1425:B I *D sky130_fd_sc_hd__xor2_1
*I *1369:X O *D sky130_fd_sc_hd__a21o_1
*CAP
1 *1417:B 0
2 *1418:A2 4.82268e-05
3 *1425:B 0.00014525
4 *1369:X 0.000188088
5 *582:21 0.00014436
6 *582:6 0.000429472
7 *1418:A2 *1411:A1 7.77652e-05
8 *1418:A2 *1417:A 4.18895e-05
9 *1418:A2 *1418:A1 0.000232399
10 *1418:A2 *603:23 7.77751e-05
11 *1425:B *1430:B 2.9561e-05
12 *582:6 *1404:A1 2.44318e-05
13 *582:6 *1430:B 1.56e-05
14 *582:21 *1418:B1 0
15 *582:21 *609:12 0.000218741
16 p[7] *1425:B 5.03772e-05
17 *1398:B *582:21 0.000125918
18 *1404:A2 *582:6 5.52238e-05
*RES
1 *1369:X *582:6 12.3 
2 *582:6 *1425:B 11.8 
3 *582:6 *582:21 12.1607 
4 *582:21 *1418:A2 11.8893 
5 *582:21 *1417:B 9.3 
*END

*D_NET *583 0.00041682
*CONN
*I *1419:B I *D sky130_fd_sc_hd__and2_1
*I *1370:X O *D sky130_fd_sc_hd__and2_1
*CAP
1 *1419:B 0.00020841
2 *1370:X 0.00020841
*RES
1 *1370:X *1419:B 31.0107 
*END

*D_NET *585 0.000567372
*CONN
*I *1426:B I *D sky130_fd_sc_hd__xor2_1
*I *1373:X O *D sky130_fd_sc_hd__a21o_1
*CAP
1 *1426:B 0.000129337
2 *1373:X 0.000129337
3 p[8] *1426:B 1.33343e-05
4 *1339:A2 *1426:B 0.000129732
5 *475:30 *1426:B 3.34366e-05
6 *475:43 *1426:B 0.000114759
7 *512:22 *1426:B 1.74352e-05
*RES
1 *1373:X *1426:B 30.9036 
*END

*D_NET *588 0.000904065
*CONN
*I *880:B I *D sky130_fd_sc_hd__nand2_1
*I *882:A I *D sky130_fd_sc_hd__nand2_1
*I *1216:Y O *D sky130_fd_sc_hd__inv_1
*CAP
1 *880:B 0
2 *882:A 0.000138063
3 *1216:Y 0.000145162
4 *588:6 0.000283226
5 *882:B *882:A 0.000109489
6 *884:B *882:A 0
7 *889:B *882:A 2.8266e-06
8 *13:5 *882:A 0.000225298
*RES
1 *1216:Y *588:6 11.2732 
2 *588:6 *882:A 21.6929 
3 *588:6 *880:B 9.3 
*END

*D_NET *589 0.000899475
*CONN
*I *1428:B I *D sky130_fd_sc_hd__xor2_1
*I *1376:X O *D sky130_fd_sc_hd__a21o_1
*CAP
1 *1428:B 0.000275579
2 *1376:X 0.000275579
3 *1428:A *1428:B 6.74911e-05
4 *561:12 *1428:B 0
5 *569:6 *1428:B 0.000186662
6 *569:21 *1428:B 9.41642e-05
*RES
1 *1376:X *1428:B 32.1357 
*END

*D_NET *590 0.000451746
*CONN
*I *1399:A I *D sky130_fd_sc_hd__and2_1
*I *1377:X O *D sky130_fd_sc_hd__and2_1
*CAP
1 *1399:A 9.8704e-05
2 *1377:X 9.8704e-05
3 *1330:B *1399:A 0.000109795
4 *1336:B *1399:A 3.79467e-05
5 *1399:B *1399:A 5.7661e-06
6 *542:10 *1399:A 0.000100831
*RES
1 *1377:X *1399:A 30.3143 
*END

*D_NET *592 0.00117402
*CONN
*I *1401:B1 I *D sky130_fd_sc_hd__a21o_1
*I *1379:X O *D sky130_fd_sc_hd__a21o_1
*CAP
1 *1401:B1 0.00034734
2 *1379:X 0.00034734
3 *1401:B1 *1415:A 3.61629e-06
4 *1379:A2 *1401:B1 3.05174e-05
5 *1379:B1 *1401:B1 9.90367e-05
6 *1424:A *1401:B1 1.58163e-05
7 *501:14 *1401:B1 0.000148903
8 *545:23 *1401:B1 0.000150611
9 *559:27 *1401:B1 2.47833e-05
10 *579:6 *1401:B1 6.05161e-06
*RES
1 *1379:X *1401:B1 33.3679 
*END

*D_NET *593 0.00291985
*CONN
*I *1402:A I *D sky130_fd_sc_hd__and2_1
*I *1400:A I *D sky130_fd_sc_hd__and2_1
*I *1401:A1 I *D sky130_fd_sc_hd__a21o_1
*I *1380:X O *D sky130_fd_sc_hd__and2_1
*CAP
1 *1402:A 0.000232011
2 *1400:A 0
3 *1401:A1 0.000339888
4 *1380:X 0.000611865
5 *593:26 0.000503988
6 *1378:A *1401:A1 0.000302872
7 *1380:A *1401:A1 2.28598e-05
8 *1400:B *593:26 5.52302e-05
9 *462:72 *593:26 0.000359997
10 *471:40 *1401:A1 0
11 *494:23 *1402:A 9.24395e-05
12 *502:8 *1402:A 9.24395e-05
13 *545:23 *1401:A1 0.00022287
14 *559:35 *1401:A1 2.59355e-05
15 *579:16 *1401:A1 5.74562e-05
*RES
1 *1380:X *1401:A1 34.1536 
2 *1380:X *593:26 15.1929 
3 *593:26 *1400:A 9.3 
4 *593:26 *1402:A 23.1393 
*END

*D_NET *595 0.000433306
*CONN
*I *1404:B1 I *D sky130_fd_sc_hd__a21o_1
*I *1384:X O *D sky130_fd_sc_hd__a21o_1
*CAP
1 *1404:B1 0.000110698
2 *1384:X 0.000110698
3 p[10] *1404:B1 0
4 *1384:B1 *1404:B1 5.71472e-05
5 *1398:B *1404:B1 0.000154762
*RES
1 *1384:X *1404:B1 30.0821 
*END

*D_NET *596 0.00146202
*CONN
*I *1403:A I *D sky130_fd_sc_hd__and2_1
*I *1404:A1 I *D sky130_fd_sc_hd__a21o_1
*I *1406:A I *D sky130_fd_sc_hd__and2_1
*I *1385:X O *D sky130_fd_sc_hd__and2_1
*CAP
1 *1403:A 0
2 *1404:A1 0.000253226
3 *1406:A 3.95713e-05
4 *1385:X 0.000134224
5 *596:24 0.000347879
6 *1406:A *603:23 4.01768e-05
7 *1404:A2 *1404:A1 0.000239863
8 *494:51 *596:24 0
9 *494:53 *1404:A1 8.46829e-05
10 *494:53 *596:24 5.52238e-05
11 *494:55 *1404:A1 0.000175251
12 *549:21 *596:24 6.74911e-05
13 *582:6 *1404:A1 2.44318e-05
*RES
1 *1385:X *1406:A 19.5464 
2 *1385:X *596:24 20.4786 
3 *596:24 *1404:A1 15.1929 
4 *596:24 *1403:A 9.3 
*END

*D_NET *598 0.00080602
*CONN
*I *1408:B1 I *D sky130_fd_sc_hd__a21o_1
*I *1387:X O *D sky130_fd_sc_hd__a21o_1
*CAP
1 *1408:B1 0.000135669
2 *1387:X 0.000135669
3 *1408:B1 *1415:A 0.000230482
4 *1395:B *1408:B1 9.71197e-05
5 *514:10 *1408:B1 0
6 *559:12 *1408:B1 6.42242e-05
7 *559:27 *1408:B1 0.000142856
*RES
1 *1387:X *1408:B1 31.725 
*END

*D_NET *599 0.000219475
*CONN
*I *1238:A I *D sky130_fd_sc_hd__inv_1
*I *1227:Y O *D sky130_fd_sc_hd__nand2_1
*CAP
1 *1238:A 5.78666e-05
2 *1227:Y 5.78666e-05
3 *16:23 *1238:A 4.87371e-05
4 *18:36 *1238:A 5.50052e-05
*RES
1 *1227:Y *1238:A 20.2563 
*END

*D_NET *600 0.00179913
*CONN
*I *1408:A1 I *D sky130_fd_sc_hd__a21o_1
*I *1409:A I *D sky130_fd_sc_hd__and2_1
*I *1407:A I *D sky130_fd_sc_hd__and2_1
*I *1388:X O *D sky130_fd_sc_hd__and2_1
*CAP
1 *1408:A1 0.000374296
2 *1409:A 8.77921e-05
3 *1407:A 8.96572e-05
4 *1388:X 0.000374296
5 *600:4 0.000177449
6 *1409:A *1429:B 5.30637e-06
7 *1302:A *1408:A1 0.000149911
8 *1386:B *1408:A1 1.92905e-05
9 *1387:A2 *1408:A1 3.69047e-06
10 *1388:A *1408:A1 4.01768e-05
11 *1388:B *1407:A 0
12 *1388:B *1408:A1 1.65169e-05
13 *1388:B *1409:A 0.000274294
14 *1408:A2 *1408:A1 0
15 *507:10 *1407:A 0.000177234
16 *552:22 *1407:A 0
17 *565:15 *1408:A1 9.22103e-06
*RES
1 *1388:X *600:4 9.3 
2 *600:4 *1407:A 20.55 
3 *600:4 *1409:A 11.8893 
4 *1388:X *1408:A1 32.9571 
*END

*D_NET *602 0.00108972
*CONN
*I *1411:B1 I *D sky130_fd_sc_hd__a21o_1
*I *1390:X O *D sky130_fd_sc_hd__a21o_1
*CAP
1 *1411:B1 0.000333968
2 *1390:X 0.000333968
3 *1350:A *1411:B1 5.33882e-05
4 *1390:A1 *1411:B1 7.57869e-05
5 *1390:A2 *1411:B1 3.18676e-05
6 *1390:B1 *1411:B1 4.01768e-05
7 *1411:A2 *1411:B1 0
8 *514:14 *1411:B1 3.57315e-05
9 *541:12 *1411:B1 0
10 *554:23 *1411:B1 1.00375e-05
11 *561:12 *1411:B1 0.000174797
*RES
1 *1390:X *1411:B1 34.2607 
*END

*D_NET *603 0.00423703
*CONN
*I *1412:A I *D sky130_fd_sc_hd__and2_1
*I *1410:A I *D sky130_fd_sc_hd__and2_1
*I *1411:A1 I *D sky130_fd_sc_hd__a21o_1
*I *1391:X O *D sky130_fd_sc_hd__and2_1
*CAP
1 *1412:A 6.95923e-05
2 *1410:A 0
3 *1411:A1 0.000403478
4 *1391:X 7.03879e-05
5 *603:23 0.00103539
6 *603:10 0.00143966
7 *1411:A1 *1418:A1 1.74352e-05
8 *603:23 *1417:A 2.77173e-05
9 *1384:B1 *1411:A1 6.87841e-05
10 *1385:A *603:23 4.88637e-05
11 *1406:A *603:23 4.01768e-05
12 *1406:B *603:23 0.000110546
13 *1411:A2 *1411:A1 5.33334e-05
14 *1418:A2 *1411:A1 7.77652e-05
15 *1418:A2 *603:23 7.77751e-05
16 *536:6 *1412:A 9.77274e-05
17 *536:6 *603:23 9.76689e-05
18 *561:12 *1411:A1 1.32552e-05
19 *562:8 *603:10 0
20 *562:12 *603:23 0.000271352
21 *562:21 *603:23 0.000216121
*RES
1 *1391:X *603:10 19.3357 
2 *603:10 *1411:A1 14.7643 
3 *603:10 *603:23 14.8393 
4 *603:23 *1410:A 9.3 
5 *603:23 *1412:A 11.0679 
*END

*D_NET *605 0.000172301
*CONN
*I *1414:B1 I *D sky130_fd_sc_hd__a21o_1
*I *1393:X O *D sky130_fd_sc_hd__a21o_1
*CAP
1 *1414:B1 8.61506e-05
2 *1393:X 8.61506e-05
*RES
1 *1393:X *1414:B1 19.9571 
*END

*D_NET *606 0.00457044
*CONN
*I *1413:A I *D sky130_fd_sc_hd__and2_1
*I *1414:A1 I *D sky130_fd_sc_hd__a21o_1
*I *1415:A I *D sky130_fd_sc_hd__and2_1
*I *1395:X O *D sky130_fd_sc_hd__and2_1
*CAP
1 *1413:A 2.48428e-05
2 *1414:A1 0.000140984
3 *1415:A 0.0011041
4 *1395:X 0
5 *606:31 0.00030005
6 *606:4 0.00123832
7 *606:31 *1431:B 0
8 p[6] *1415:A 0.000150195
9 *1366:B1 *1415:A 0.000197552
10 *1379:A2 *1415:A 0.000233981
11 *1380:B *1415:A 0.00010933
12 *1393:B1 *1414:A1 0
13 *1395:B *1415:A 4.72818e-05
14 *1401:B1 *1415:A 3.61629e-06
15 *1408:A2 *1415:A 0.000102197
16 *1408:B1 *1415:A 0.000230482
17 *1414:A2 *1414:A1 0.000188586
18 *514:10 *606:31 0
19 *546:18 *1415:A 6.21846e-05
20 *559:27 *1415:A 0.000392404
21 *579:16 *1413:A 2.28598e-05
22 *579:16 *1414:A1 2.14658e-05
*RES
1 *1395:X *606:4 9.3 
2 *606:4 *1415:A 28.2464 
3 *606:4 *606:31 10.9464 
4 *606:31 *1414:A1 12.3179 
5 *606:31 *1413:A 9.83571 
*END

*D_NET *608 0.000456279
*CONN
*I *1418:B1 I *D sky130_fd_sc_hd__a21o_1
*I *1397:X O *D sky130_fd_sc_hd__a21o_1
*CAP
1 *1418:B1 0.00012618
2 *1397:X 0.00012618
3 *1418:B1 *1430:B 5.33005e-05
4 *1418:B1 *609:12 0
5 *1425:A *1418:B1 0.000150618
6 *582:21 *1418:B1 0
*RES
1 *1397:X *1418:B1 30.0821 
*END

*D_NET *609 0.00294989
*CONN
*I *1419:A I *D sky130_fd_sc_hd__and2_1
*I *1417:A I *D sky130_fd_sc_hd__and2_1
*I *1418:A1 I *D sky130_fd_sc_hd__a21o_1
*I *1398:X O *D sky130_fd_sc_hd__and2_1
*CAP
1 *1419:A 0.000452832
2 *1417:A 3.46878e-05
3 *1418:A1 5.72896e-05
4 *1398:X 5.9995e-05
5 *609:12 0.000278829
6 *609:6 0.000699679
7 p[7] *609:12 0.000100979
8 *1384:B1 *1417:A 0.000137983
9 *1384:B1 *1418:A1 0.000274288
10 *1398:B *1419:A 0.000128496
11 *1398:B *609:6 0.000139907
12 *1398:B *609:12 4.06875e-05
13 *1411:A1 *1418:A1 1.74352e-05
14 *1418:A2 *1417:A 4.18895e-05
15 *1418:A2 *1418:A1 0.000232399
16 *1418:B1 *609:12 0
17 *1425:A *609:12 0
18 *562:12 *1417:A 6.05161e-06
19 *582:21 *609:12 0.000218741
20 *603:23 *1417:A 2.77173e-05
*RES
1 *1398:X *609:6 10.6571 
2 *609:6 *609:12 13.6786 
3 *609:12 *1418:A1 12.3179 
4 *609:12 *1417:A 10.6571 
5 *609:6 *1419:A 17.2286 
*END

*D_NET *610 0.000474174
*CONN
*I *896:A I *D sky130_fd_sc_hd__nand2_1
*I *897:A I *D sky130_fd_sc_hd__nand2_1
*I *1238:Y O *D sky130_fd_sc_hd__inv_1
*CAP
1 *896:A 9.4674e-05
2 *897:A 3.27275e-05
3 *1238:Y 1.57977e-05
4 *610:6 0.000143199
5 *896:A *898:A 2.4741e-05
6 *1227:B *896:A 2.53112e-06
7 *16:23 *897:A 2.59355e-05
8 *16:23 *610:6 1.05554e-05
9 *113:8 *896:A 0.000124012
*RES
1 *1238:Y *610:6 9.63036 
2 *610:6 *897:A 9.83571 
3 *610:6 *896:A 20.55 
*END

*D_NET *613 0.00128714
*CONN
*I *1429:B I *D sky130_fd_sc_hd__xor2_1
*I *1401:X O *D sky130_fd_sc_hd__a21o_1
*CAP
1 *1429:B 0.00057005
2 *1401:X 0.00057005
3 p[10] *1429:B 4.1331e-06
4 *1296:A *1429:B 0
5 *1388:B *1429:B 9.99644e-06
6 *1409:A *1429:B 5.30637e-06
7 *1409:B *1429:B 3.67142e-05
8 *473:55 *1429:B 0
9 *507:10 *1429:B 0
10 *539:10 *1429:B 1.58163e-05
11 *559:35 *1429:B 7.50697e-05
*RES
1 *1401:X *1429:B 36.2786 
*END

*D_NET *616 0.00261899
*CONN
*I *1430:B I *D sky130_fd_sc_hd__xor2_1
*I *1404:X O *D sky130_fd_sc_hd__a21o_1
*CAP
1 *1430:B 0.000781773
2 *1404:X 0.000781773
3 *1430:B *1432:B 0.000163748
4 p[11] *1430:B 5.71472e-05
5 p[13] *1430:B 1.24368e-05
6 p[7] *1430:B 9.90367e-05
7 *1397:A1 *1430:B 8.46829e-05
8 *1397:B1 *1430:B 2.15245e-05
9 *1418:B1 *1430:B 5.33005e-05
10 *1425:A *1430:B 0.000126639
11 *1425:B *1430:B 2.9561e-05
12 *1430:A *1430:B 3.57366e-05
13 *575:19 *1430:B 0.000356028
14 *582:6 *1430:B 1.56e-05
*RES
1 *1404:X *1430:B 33.9393 
*END

*D_NET *619 0.00237869
*CONN
*I *1431:B I *D sky130_fd_sc_hd__xor2_1
*I *1408:X O *D sky130_fd_sc_hd__a21o_1
*CAP
1 *1431:B 0.00075669
2 *1408:X 0.00075669
3 p[12] *1431:B 5.71472e-05
4 *1302:A *1431:B 0.000106507
5 *1429:A *1431:B 0.000701659
6 *606:31 *1431:B 0
*RES
1 *1408:X *1431:B 42.1893 
*END

*D_NET *621 0.00028131
*CONN
*I *1260:A I *D sky130_fd_sc_hd__inv_1
*I *1249:Y O *D sky130_fd_sc_hd__nand2_1
*CAP
1 *1260:A 0.000119283
2 *1249:Y 0.000119283
3 *1260:A *630:8 0
4 *1249:B *1260:A 4.27438e-05
*RES
1 *1249:Y *1260:A 20.667 
*END

*D_NET *623 0.00217939
*CONN
*I *1432:B I *D sky130_fd_sc_hd__xor2_1
*I *1411:X O *D sky130_fd_sc_hd__a21o_1
*CAP
1 *1432:B 0.000360855
2 *1411:X 0.000360855
3 p[11] *1432:B 2.89114e-05
4 p[13] *1432:B 7.48301e-06
5 p[9] *1432:B 5.72433e-05
6 *1396:B *1432:B 9.90367e-05
7 *1397:B1 *1432:B 0.00096058
8 *1430:A *1432:B 9.9322e-05
9 *1430:B *1432:B 0.000163748
10 *561:18 *1432:B 0
11 *575:19 *1432:B 4.13595e-05
*RES
1 *1411:X *1432:B 39.7429 
*END

*D_NET *626 0.002225
*CONN
*I *1433:B I *D sky130_fd_sc_hd__xor2_1
*I *1414:X O *D sky130_fd_sc_hd__a21o_1
*CAP
1 *1433:B 0.000695704
2 *1414:X 0.000695704
3 p[12] *1433:B 0
4 *1363:A *1433:B 7.50473e-05
5 *1363:B *1433:B 5.33005e-05
6 *1428:A *1433:B 6.75909e-05
7 *1433:A *1433:B 3.57366e-05
8 *480:37 *1433:B 5.16852e-05
9 *482:53 *1433:B 0.000125724
10 *521:12 *1433:B 0.000344203
11 *575:12 *1433:B 8.03068e-05
*RES
1 *1414:X *1433:B 42.8321 
*END

*D_NET *630 0.000413877
*CONN
*I *1137:B I *D sky130_fd_sc_hd__nand2_1
*I *1140:A I *D sky130_fd_sc_hd__nand2_1
*I *1260:Y O *D sky130_fd_sc_hd__inv_1
*CAP
1 *1137:B 1.39739e-05
2 *1140:A 0
3 *1260:Y 0.000112077
4 *630:8 0.000126051
5 *1139:B *630:8 5.7661e-06
6 *1141:B *1137:B 1.92789e-05
7 *1141:B *630:8 1.32552e-05
8 *1260:A *630:8 0
9 *353:8 *1137:B 2.44318e-05
10 *353:8 *630:8 9.90431e-05
*RES
1 *1260:Y *630:8 11.7018 
2 *630:8 *1140:A 9.3 
3 *630:8 *1137:B 9.83571 
*END

*D_NET *631 0.000501813
*CONN
*I *1283:A I *D sky130_fd_sc_hd__inv_1
*I *1272:Y O *D sky130_fd_sc_hd__nand2_1
*CAP
1 *1283:A 0.000250906
2 *1272:Y 0.000250906
3 *1045:A *1283:A 0
4 *4:32 *1283:A 0
*RES
1 *1272:Y *1283:A 31.8813 
*END

*D_NET *632 0.00122849
*CONN
*I *1044:A I *D sky130_fd_sc_hd__nand2_1
*I *1042:B I *D sky130_fd_sc_hd__nand2_1
*I *1283:Y O *D sky130_fd_sc_hd__inv_1
*CAP
1 *1044:A 0
2 *1042:B 0.000146168
3 *1283:Y 0.000229558
4 *632:12 0.000375726
5 *1044:B *1042:B 6.36198e-05
6 *1045:A *632:12 8.94087e-05
7 *1045:B *1042:B 2.85321e-05
8 *1045:B *632:12 0.000125371
9 *1047:A *1042:B 3.50746e-05
10 *1116:A *632:12 6.92148e-06
11 *258:6 *1042:B 4.29633e-05
12 *262:16 *1042:B 1.02301e-05
13 *262:16 *632:12 2.89016e-05
14 *500:10 *632:12 4.60115e-05
*RES
1 *1283:Y *632:12 22.8268 
2 *632:12 *1042:B 12.3357 
3 *632:12 *1044:A 9.3 
*END

*D_NET *633 0.000737952
*CONN
*I *1305:A I *D sky130_fd_sc_hd__inv_1
*I *1294:Y O *D sky130_fd_sc_hd__nand2_1
*CAP
1 *1305:A 0.000318046
2 *1294:Y 0.000318046
3 *1294:A *1305:A 6.05161e-06
4 *1427:A *1305:A 9.58083e-05
*RES
1 *1294:Y *1305:A 32.1134 
*END

*D_NET *634 0.000761325
*CONN
*I *921:A I *D sky130_fd_sc_hd__nand2_1
*I *922:A I *D sky130_fd_sc_hd__nand2_1
*I *1305:Y O *D sky130_fd_sc_hd__inv_1
*CAP
1 *921:A 0
2 *922:A 0.000148872
3 *1305:Y 3.90186e-05
4 *634:6 0.000187891
5 *924:B *922:A 0.000155556
6 *11:53 *922:A 0
7 *139:10 *922:A 7.25873e-06
8 *286:10 *922:A 0.000222728
*RES
1 *1305:Y *634:6 10.0411 
2 *634:6 *922:A 22.2286 
3 *634:6 *921:A 9.3 
*END

*D_NET *635 0.000684334
*CONN
*I *1327:A I *D sky130_fd_sc_hd__inv_1
*I *1316:Y O *D sky130_fd_sc_hd__nand2_1
*CAP
1 *1327:A 0.000179259
2 *1316:Y 0.000179259
3 *926:A *1327:A 0.00015234
4 *1161:A *1327:A 0
5 *4:17 *1327:A 1.37644e-05
6 *6:41 *1327:A 5.44167e-05
7 *14:83 *1327:A 2.80789e-05
8 *144:10 *1327:A 5.10822e-05
9 *144:25 *1327:A 2.61337e-05
*RES
1 *1316:Y *1327:A 31.9527 
*END

*D_NET *636 0.00118865
*CONN
*I *929:A I *D sky130_fd_sc_hd__nand2_1
*I *926:B I *D sky130_fd_sc_hd__nand2_1
*I *1327:Y O *D sky130_fd_sc_hd__inv_1
*CAP
1 *929:A 0
2 *926:B 6.48829e-05
3 *1327:Y 0.000127674
4 *636:10 0.000192556
5 *1316:A *926:B 3.51442e-05
6 *1316:B *926:B 0.00022217
7 *1316:B *636:10 0.000115474
8 *6:41 *926:B 0.000187026
9 *6:41 *636:10 0.000125724
10 *14:83 *636:10 0.000118
*RES
1 *1327:Y *636:10 16.5946 
2 *636:10 *926:B 16.6571 
3 *636:10 *929:A 13.8 
*END

*D_NET *637 0.00084798
*CONN
*I *1349:A I *D sky130_fd_sc_hd__inv_1
*I *1338:Y O *D sky130_fd_sc_hd__nand2_1
*CAP
1 *1349:A 0.000168387
2 *1338:Y 0.000168387
3 *1349:A *875:A 0.000118652
4 *1349:A *875:B 8.3558e-05
5 *1349:A *876:A 0.000144705
6 *1349:A *638:12 1.4558e-05
7 *1440:A *1349:A 6.66207e-05
8 *7:50 *1349:A 8.31117e-05
9 *14:21 *1349:A 0
*RES
1 *1338:Y *1349:A 37.3299 
*END

*D_NET *638 0.00214579
*CONN
*I *875:A I *D sky130_fd_sc_hd__nand2_1
*I *876:A I *D sky130_fd_sc_hd__nand2_1
*I *1349:Y O *D sky130_fd_sc_hd__inv_1
*CAP
1 *875:A 0.0002457
2 *876:A 0.000438698
3 *1349:Y 4.61341e-05
4 *638:12 0.000730533
5 *875:A *875:B 1.3142e-05
6 *876:A *652:10 1.94879e-05
7 *877:B *876:A 2.79421e-05
8 *878:A *876:A 6.47652e-06
9 *878:B *876:A 6.01232e-05
10 *1349:A *875:A 0.000118652
11 *1349:A *876:A 0.000144705
12 *1349:A *638:12 1.4558e-05
13 *7:50 *876:A 3.92992e-05
14 *7:50 *638:12 8.6229e-06
15 *15:88 *875:A 0.000108511
16 *93:10 *875:A 6.35819e-05
17 *93:18 *875:A 5.96243e-05
*RES
1 *1349:Y *638:12 17.8171 
2 *638:12 *876:A 20.4199 
3 *638:12 *875:A 19.484 
*END

*D_NET *639 0.00065615
*CONN
*I *1371:A I *D sky130_fd_sc_hd__inv_1
*I *1360:Y O *D sky130_fd_sc_hd__nand2_1
*CAP
1 *1371:A 0.00015894
2 *1360:Y 0.00015894
3 *1371:A *885:B 8.20822e-05
4 *1371:A *640:8 1.59935e-05
5 *1360:A *1371:A 2.27416e-05
6 *6:101 *1371:A 0.000153047
7 *17:23 *1371:A 6.44047e-05
*RES
1 *1360:Y *1371:A 31.1402 
*END

*D_NET *640 0.00124204
*CONN
*I *885:B I *D sky130_fd_sc_hd__nand2_1
*I *887:A I *D sky130_fd_sc_hd__nand2_1
*I *1371:Y O *D sky130_fd_sc_hd__inv_1
*CAP
1 *885:B 0.000267741
2 *887:A 0
3 *1371:Y 7.71207e-05
4 *640:8 0.000344862
5 *887:B *640:8 1.97695e-05
6 *888:B *885:B 3.69047e-06
7 *1371:A *885:B 8.20822e-05
8 *1371:A *640:8 1.59935e-05
9 *6:101 *885:B 2.00751e-05
10 *16:23 *885:B 0.000196269
11 *16:35 *885:B 0.000120018
12 *17:23 *885:B 5.52238e-05
13 *17:23 *640:8 1.02936e-05
14 *103:10 *885:B 2.89016e-05
*RES
1 *1371:Y *640:8 10.7732 
2 *640:8 *887:A 9.3 
3 *640:8 *885:B 24.4071 
*END

*D_NET *641 0.000236454
*CONN
*I *1394:A I *D sky130_fd_sc_hd__inv_1
*I *1383:Y O *D sky130_fd_sc_hd__nand2_1
*CAP
1 *1394:A 7.07497e-05
2 *1383:Y 7.07497e-05
3 *1383:A *1394:A 1.02301e-05
4 *1405:A *1394:A 3.11088e-05
5 *6:101 *1394:A 5.36161e-05
*RES
1 *1383:Y *1394:A 20.2563 
*END

*D_NET *642 0.000926806
*CONN
*I *896:B I *D sky130_fd_sc_hd__nand2_1
*I *898:A I *D sky130_fd_sc_hd__nand2_1
*I *1394:Y O *D sky130_fd_sc_hd__inv_1
*CAP
1 *896:B 0
2 *898:A 0.000149902
3 *1394:Y 3.00878e-05
4 *642:6 0.000179989
5 *896:A *898:A 2.4741e-05
6 *898:B *898:A 3.29376e-05
7 *899:A *898:A 5.23735e-05
8 *899:B *898:A 4.13389e-05
9 *1444:A *898:A 8.48678e-06
10 *6:101 *642:6 7.84309e-05
11 *16:23 *898:A 0.00022887
12 *113:8 *898:A 9.96487e-05
*RES
1 *1394:Y *642:6 10.0411 
2 *642:6 *898:A 22.8536 
3 *642:6 *896:B 9.3 
*END

*D_NET *643 0.00102662
*CONN
*I *1416:A I *D sky130_fd_sc_hd__inv_1
*I *1405:Y O *D sky130_fd_sc_hd__nand2_1
*CAP
1 *1416:A 0.000223255
2 *1405:Y 0.000223255
3 *1444:A *1416:A 3.06406e-05
4 *7:23 *1416:A 0.000227729
5 *18:9 *1416:A 0.000321738
*RES
1 *1405:Y *1416:A 33.5955 
*END

*D_NET *644 0.000761451
*CONN
*I *1008:A I *D sky130_fd_sc_hd__nand2_1
*I *1007:A I *D sky130_fd_sc_hd__nand2_1
*I *1416:Y O *D sky130_fd_sc_hd__inv_1
*CAP
1 *1008:A 0.000144416
2 *1007:A 3.43861e-05
3 *1416:Y 0.000125393
4 *644:10 0.000304195
5 *1008:A *1009:A 4.25809e-05
6 *1459:B *1008:A 6.92148e-06
7 *1459:B *644:10 5.35423e-05
8 *7:13 *1008:A 0
9 *7:13 *644:10 0
10 *7:23 *644:10 0
11 *223:10 *1007:A 7.43578e-06
12 *223:10 *1008:A 4.25809e-05
*RES
1 *1416:Y *644:10 16.0768 
2 *644:10 *1007:A 14.3357 
3 *644:10 *1008:A 16.7107 
*END

*D_NET *645 0.00115711
*CONN
*I *1434:A I *D sky130_fd_sc_hd__inv_1
*I *1427:Y O *D sky130_fd_sc_hd__nand2_1
*CAP
1 *1434:A 0.000413942
2 *1427:Y 0.000413942
3 *1159:B *1434:A 3.2033e-05
4 *3:76 *1434:A 0.000144732
5 *5:100 *1434:A 7.36252e-05
6 *12:51 *1434:A 2.9766e-05
7 *13:57 *1434:A 1.36161e-05
8 *373:10 *1434:A 3.54498e-05
*RES
1 *1427:Y *1434:A 33.6491 
*END

*D_NET *646 0.00170768
*CONN
*I *1048:A I *D sky130_fd_sc_hd__nand2_1
*I *1046:B I *D sky130_fd_sc_hd__nand2_1
*I *1434:Y O *D sky130_fd_sc_hd__inv_1
*CAP
1 *1048:A 0
2 *1046:B 0.000106508
3 *1434:Y 0.000195937
4 *646:8 0.000302446
5 *1048:B *1046:B 4.98711e-05
6 *1048:B *646:8 5.50052e-05
7 *1051:A *1046:B 1.20718e-05
8 *1051:B *646:8 3.85967e-05
9 *1052:A *1046:B 0.000125542
10 *12:51 *646:8 0.000191568
11 *13:57 *646:8 0.000630137
*RES
1 *1434:Y *646:8 15.8089 
2 *646:8 *1046:B 20.55 
3 *646:8 *1048:A 9.3 
*END

*D_NET *647 0.000184714
*CONN
*I *1436:A I *D sky130_fd_sc_hd__inv_1
*I *1435:Y O *D sky130_fd_sc_hd__nand2_1
*CAP
1 *1436:A 9.23569e-05
2 *1435:Y 9.23569e-05
*RES
1 *1435:Y *1436:A 20.2563 
*END

*D_NET *648 0.000392375
*CONN
*I *921:B I *D sky130_fd_sc_hd__nand2_1
*I *923:A I *D sky130_fd_sc_hd__nand2_1
*I *1436:Y O *D sky130_fd_sc_hd__inv_1
*CAP
1 *921:B 2.05821e-05
2 *923:A 0
3 *1436:Y 9.94344e-05
4 *648:8 0.000120017
5 *923:B *648:8 5.49995e-05
6 *924:B *921:B 1.58163e-05
7 *924:B *648:8 5.74499e-06
8 *139:10 *921:B 2.24804e-05
9 *139:10 *648:8 5.33005e-05
*RES
1 *1436:Y *648:8 11.2911 
2 *648:8 *923:A 9.3 
3 *648:8 *921:B 9.83571 
*END

*D_NET *649 0.000399939
*CONN
*I *1438:A I *D sky130_fd_sc_hd__inv_1
*I *1437:Y O *D sky130_fd_sc_hd__nand2_1
*CAP
1 *1438:A 0.000144168
2 *1437:Y 0.000144168
3 *935:A *1438:A 4.14094e-05
4 *935:B *1438:A 1.51018e-05
5 *7:67 *1438:A 9.22103e-06
6 *153:8 *1438:A 4.58707e-05
*RES
1 *1437:Y *1438:A 21.4616 
*END

*D_NET *650 0.000987403
*CONN
*I *931:B I *D sky130_fd_sc_hd__nand2_1
*I *933:A I *D sky130_fd_sc_hd__nand2_1
*I *1438:Y O *D sky130_fd_sc_hd__inv_1
*CAP
1 *931:B 0
2 *933:A 0.000359307
3 *1438:Y 2.0975e-05
4 *650:6 0.000380282
5 *932:A *933:A 0.000127428
6 *932:A *650:6 2.89016e-05
7 *935:A *650:6 4.40835e-05
8 *7:67 *933:A 0
9 *148:14 *933:A 2.06178e-05
10 *148:29 *933:A 5.80706e-06
11 *181:14 *933:A 0
*RES
1 *1438:Y *650:6 10.0411 
2 *650:6 *933:A 23.3536 
3 *650:6 *931:B 9.3 
*END

*D_NET *651 0.000746867
*CONN
*I *1441:A I *D sky130_fd_sc_hd__inv_1
*I *1440:Y O *D sky130_fd_sc_hd__nand2_1
*CAP
1 *1441:A 0.000216771
2 *1440:Y 0.000216771
3 *1440:A *1441:A 9.94887e-05
4 *7:44 *1441:A 5.31234e-05
5 *7:50 *1441:A 4.13122e-06
6 *16:35 *1441:A 0.000156581
*RES
1 *1440:Y *1441:A 31.7027 
*END

*D_NET *652 0.00101571
*CONN
*I *877:A I *D sky130_fd_sc_hd__nand2_1
*I *875:B I *D sky130_fd_sc_hd__nand2_1
*I *1441:Y O *D sky130_fd_sc_hd__inv_1
*CAP
1 *877:A 0
2 *875:B 0.000182058
3 *1441:Y 8.92497e-05
4 *652:10 0.000271308
5 *875:A *875:B 1.3142e-05
6 *876:A *652:10 1.94879e-05
7 *877:B *875:B 5.46696e-05
8 *877:B *652:10 1.39112e-05
9 *878:B *652:10 2.04825e-05
10 *1349:A *875:B 8.3558e-05
11 *7:44 *652:10 3.92854e-05
12 *7:50 *875:B 1.51225e-05
13 *7:50 *652:10 1.3575e-05
14 *15:88 *875:B 0.000115709
15 *15:88 *652:10 3.88819e-05
16 *16:35 *652:10 3.33238e-05
17 *93:18 *652:10 1.19468e-05
*RES
1 *1441:Y *652:10 15.8179 
2 *652:10 *875:B 17.2732 
3 *652:10 *877:A 13.8 
*END

*D_NET *653 0.000489438
*CONN
*I *1443:A I *D sky130_fd_sc_hd__inv_1
*I *1442:Y O *D sky130_fd_sc_hd__nand2_1
*CAP
1 *1443:A 0.000102502
2 *1442:Y 0.000102502
3 *1443:A *890:A 9.25014e-06
4 *1443:A *654:8 1.59935e-05
5 *7:44 *1443:A 0.000153054
6 *38:6 *1443:A 6.63345e-05
7 *222:22 *1443:A 3.98018e-05
*RES
1 *1442:Y *1443:A 30.1938 
*END

*D_NET *654 0.000743778
*CONN
*I *891:A I *D sky130_fd_sc_hd__nand2_1
*I *890:A I *D sky130_fd_sc_hd__nand2_1
*I *1443:Y O *D sky130_fd_sc_hd__inv_1
*CAP
1 *891:A 0
2 *890:A 8.75966e-05
3 *1443:Y 7.93024e-05
4 *654:8 0.000166899
5 *890:B *890:A 0.000144038
6 *892:B *654:8 1.97695e-05
7 *1443:A *890:A 9.25014e-06
8 *1443:A *654:8 1.59935e-05
9 *7:44 *890:A 8.14342e-05
10 *9:52 *890:A 5.52238e-05
11 *10:53 *890:A 5.71472e-05
12 *38:6 *654:8 1.39726e-05
13 *108:34 *890:A 1.31516e-05
*RES
1 *1443:Y *654:8 10.7732 
2 *654:8 *890:A 21.0857 
3 *654:8 *891:A 9.3 
*END

*D_NET *655 0.00041503
*CONN
*I *1445:A I *D sky130_fd_sc_hd__inv_1
*I *1444:Y O *D sky130_fd_sc_hd__nand2_1
*CAP
1 *1445:A 0.000106328
2 *1444:Y 0.000106328
3 *1405:A *1445:A 0.000150773
4 *17:15 *1445:A 5.1601e-05
*RES
1 *1444:Y *1445:A 30.2384 
*END

*D_NET *656 0.000874801
*CONN
*I *902:A I *D sky130_fd_sc_hd__nand2_1
*I *900:B I *D sky130_fd_sc_hd__nand2_1
*I *1445:Y O *D sky130_fd_sc_hd__inv_1
*CAP
1 *902:A 0
2 *900:B 0.000307451
3 *1445:Y 5.45595e-05
4 *656:6 0.000362011
5 *1444:A *900:B 0.00015078
*RES
1 *1445:Y *656:6 10.0411 
2 *656:6 *900:B 23.675 
3 *656:6 *902:A 9.3 
*END

*D_NET *657 0.000209928
*CONN
*I *1447:A I *D sky130_fd_sc_hd__inv_1
*I *1446:Y O *D sky130_fd_sc_hd__nand2_1
*CAP
1 *1447:A 9.46009e-05
2 *1446:Y 9.46009e-05
3 *1447:A *1007:B 3.99614e-06
4 *1447:A *1009:A 1.67305e-05
*RES
1 *1446:Y *1447:A 20.2563 
*END

*D_NET *658 0.0006249
*CONN
*I *1007:B I *D sky130_fd_sc_hd__nand2_1
*I *1009:A I *D sky130_fd_sc_hd__nand2_1
*I *1447:Y O *D sky130_fd_sc_hd__inv_1
*CAP
1 *1007:B 0.000102998
2 *1009:A 0.000114076
3 *1447:Y 0
4 *658:4 0.000217073
5 *1008:A *1009:A 4.25809e-05
6 *1447:A *1007:B 3.99614e-06
7 *1447:A *1009:A 1.67305e-05
8 *7:13 *1009:A 0.000127446
*RES
1 *1447:Y *658:4 9.3 
2 *658:4 *1009:A 20.6839 
3 *658:4 *1007:B 10.7732 
*END

*D_NET *659 0.000376274
*CONN
*I *1449:A I *D sky130_fd_sc_hd__inv_1
*I *1448:Y O *D sky130_fd_sc_hd__nand2_1
*CAP
1 *1449:A 9.72921e-05
2 *1448:Y 9.72921e-05
3 *1464:B *1449:A 2.79827e-05
4 *1466:A *1449:A 2.79827e-05
5 *8:109 *1449:A 0
6 *17:82 *1449:A 8.00806e-05
7 *17:101 *1449:A 4.56437e-05
*RES
1 *1448:Y *1449:A 29.5241 
*END

*D_NET *660 0.00132438
*CONN
*I *1026:A I *D sky130_fd_sc_hd__nand2_1
*I *1028:A I *D sky130_fd_sc_hd__nand2_1
*I *1449:Y O *D sky130_fd_sc_hd__inv_1
*CAP
1 *1026:A 0.000256342
2 *1028:A 0
3 *1449:Y 0.000127915
4 *660:10 0.000384256
5 *835:A *660:10 5.59013e-05
6 *836:A *1026:A 7.6644e-05
7 *853:B *660:10 7.56621e-05
8 *1029:A *1026:A 3.22765e-05
9 *1030:A *1026:A 5.84171e-05
10 *1033:A *1026:A 2.89114e-05
11 *1034:B *1026:A 2.16514e-05
12 *9:98 *660:10 9.91086e-05
13 *18:116 *1026:A 2.39779e-05
14 *18:116 *660:10 7.17932e-05
15 *58:6 *1026:A 1.15238e-05
*RES
1 *1449:Y *660:10 16.4875 
2 *660:10 *1028:A 13.8 
3 *660:10 *1026:A 18.3536 
*END

*D_NET *661 0.000796903
*CONN
*I *1452:A I *D sky130_fd_sc_hd__inv_1
*I *1451:Y O *D sky130_fd_sc_hd__nand2_1
*CAP
1 *1452:A 0.000255219
2 *1451:Y 0.000255219
3 *1452:A *1053:A 0
4 *945:A *1452:A 0
5 *945:B *1452:A 0.000154737
6 *15:102 *1452:A 0.000131727
*RES
1 *1451:Y *1452:A 33.0598 
*END

*D_NET *662 0.000709006
*CONN
*I *1053:A I *D sky130_fd_sc_hd__nand2_1
*I *1054:A I *D sky130_fd_sc_hd__nand2_1
*I *1452:Y O *D sky130_fd_sc_hd__inv_1
*CAP
1 *1053:A 8.46572e-05
2 *1054:A 0
3 *1452:Y 3.88522e-05
4 *662:6 0.000123509
5 *1053:B *1053:A 1.97695e-05
6 *1054:B *1053:A 5.71472e-05
7 *1452:A *1053:A 0
8 *15:102 *1053:A 0.000276211
9 *15:102 *662:6 3.21097e-05
10 *268:8 *1053:A 7.67497e-05
*RES
1 *1452:Y *662:6 10.0411 
2 *662:6 *1054:A 9.3 
3 *662:6 *1053:A 12.7464 
*END

*D_NET *663 0.000863722
*CONN
*I *1454:A I *D sky130_fd_sc_hd__inv_1
*I *1453:Y O *D sky130_fd_sc_hd__nand2_1
*CAP
1 *1454:A 0.000189524
2 *1453:Y 0.000189524
3 *1454:A *937:A 3.99614e-06
4 *1454:A *664:6 5.76487e-05
5 *940:B *1454:A 0.000103835
6 *941:A *1454:A 0.000185643
7 *941:B *1454:A 2.3104e-05
8 *1451:A *1454:A 5.52238e-05
9 *157:10 *1454:A 5.52238e-05
*RES
1 *1453:Y *1454:A 23.4616 
*END

*D_NET *664 0.000729758
*CONN
*I *937:A I *D sky130_fd_sc_hd__nand2_1
*I *936:A I *D sky130_fd_sc_hd__nand2_1
*I *1454:Y O *D sky130_fd_sc_hd__inv_1
*CAP
1 *937:A 2.44413e-05
2 *936:A 8.45252e-05
3 *1454:Y 3.4217e-05
4 *664:6 0.000143183
5 *936:B *936:A 0
6 *941:A *937:A 2.89114e-05
7 *941:A *664:6 6.05161e-06
8 *941:B *937:A 7.85301e-05
9 *941:B *664:6 0.000117994
10 *1187:A *936:A 4.94362e-05
11 *1454:A *937:A 3.99614e-06
12 *1454:A *664:6 5.76487e-05
13 *154:8 *936:A 0.000100823
*RES
1 *1454:Y *664:6 10.4518 
2 *664:6 *936:A 20.2464 
3 *664:6 *937:A 10.2643 
*END
